<?xml version="1.0"?>
<VTKFile type="UnstructuredGrid" version="0.1" byte_order="LittleEndian">
<UnstructuredGrid>
<Piece NumberOfPoints="31898" NumberOfCells="11152">
<Points>
<DataArray type="Float64" NumberOfComponents="3" format="ascii">
-0.5 -0.5 0 -0.47620991077874902 -0.44978878706170539 0 -0.49999999999999473 -0.42132396840504388 0 -0.5 -0.5 0 -0.47160970827802529 -0.4793630013852106 0 -0.47620991077874902 -0.44978878706170539 0 -0.5 -0.5 0 -0.47160970827802529 -0.4793630013852106 0 -0.44860394795025399 -0.5 0 -0.47160970827802529 -0.4793630013852106 0 -0.44860394795025399 -0.5 0 -0.4490820238307246 -0.45820516232899983 0 -0.44860394795025399 -0.5 0 -0.4490820238307246 -0.45820516232899983 0 -0.42881687682924802 -0.47781464288736519 0 -0.4490820238307246 -0.45820516232899983 0 -0.45555437223955858 -0.42914059360647611 0 -0.4490820238307246 -0.45820516232899983 0 -0.45555437223955858 -0.42914059360647611 0 -0.43867285131603428 -0.4271457417558665 0 -0.4490820238307246 -0.45820516232899983 0 -0.43867285131603428 -0.4271457417558665 0 -0.4263356171060747 -0.44269880333887462 0 -0.47160970827802529 -0.4793630013852106 0 -0.4490820238307246 -0.45820516232899983 0 -0.47620991077874902 -0.44978878706170539 0 -0.4490820238307246 -0.45820516232899983 0 -0.47620991077874902 -0.44978878706170539 0 -0.45555437223955858 -0.42914059360647611 0 -0.47620991077874902 -0.44978878706170539 0 -0.48101336032419229 -0.41069999664450008 0 -0.45555437223955858 -0.42914059360647611 0 -0.47620991077874902 -0.44978878706170539 0 -0.49999999999999473 -0.42132396840504388 0 -0.48101336032419229 -0.41069999664450008 0 -0.49999999999999473 -0.42132396840504388 0 -0.48101336032419229 -0.41069999664450008 0 -0.5 -0.393886241813306 0 -0.49999999999999473 -0.42132396840504388 0 -0.48101336032419229 -0.41069999664450008 0 -0.5 -0.393886241813306 0 -0.47854472220918332 -0.38978458738689759 0 -0.48422759779560409 -0.37130120630367158 0 -0.5 -0.393886241813306 0 -0.5 -0.36644851522156802 0 -0.48422759779560409 -0.37130120630367158 0 -0.48101336032419229 -0.41069999664450008 0 -0.5 -0.393886241813306 0 -0.47854472220918332 -0.38978458738689759 0 -0.48101336032419229 -0.41069999664450008 0 -0.47854472220918332 -0.38978458738689759 0 -0.46202672064839212 -0.40007602488395211 0 -0.48101336032419229 -0.41069999664450008 0 -0.46202672064839212 -0.40007602488395211 0 -0.47854472220918332 -0.38978458738689759 0 -0.46725442735267431 -0.37660061361585562 0 -0.46202672064839212 -0.40007602488395211 0 -0.47854472220918332 -0.38978458738689759 0 -0.46725442735267431 -0.37660061361585562 0 -0.48422759779560409 -0.37130120630367158 0 -0.46725442735267431 -0.37660061361585562 0 -0.46202672064839212 -0.40007602488395211 0 -0.46725442735267431 -0.37660061361585562 0 -0.45645674801697989 -0.38644133236760531 0 -0.46202672064839212 -0.40007602488395211 0 -0.46725442735267431 -0.37660061361585562 0 -0.45645674801697989 -0.38644133236760531 0 -0.4540003998136638 -0.37455519391687309 0 -0.45645674801697989 -0.38644133236760531 0 -0.46202672064839212 -0.40007602488395211 0 -0.44257020456291563 -0.38918913383950271 0 -0.46202672064839212 -0.40007602488395211 0 -0.44257020456291563 -0.38918913383950271 0 -0.44727608925983742 -0.41095911152778891 0 -0.46202672064839212 -0.40007602488395211 0 -0.44257020456291563 -0.38918913383950271 0 -0.44257020456291563 -0.38918913383950271 0 -0.44727608925983742 -0.41095911152778891 0 -0.43479358559901082 -0.4041454901736512 0 -0.44257020456291563 -0.38918913383950271 0 -0.4540003998136638 -0.37455519391687309 0 -0.44172858264042247 -0.37082207246888088 0 -0.45645674801697989 -0.38644133236760531 0 -0.44257020456291563 -0.38918913383950271 0 -0.4540003998136638 -0.37455519391687309 0 -0.46202672064839212 -0.40007602488395211 0 -0.45555437223955858 -0.42914059360647611 0 -0.44727608925983742 -0.41095911152778891 0 -0.46202672064839212 -0.40007602488395211 0 -0.45555437223955858 -0.42914059360647611 0 -0.48101336032419229 -0.41069999664450008 0 -0.46202672064839212 -0.40007602488395211 0 -0.45555437223955858 -0.42914059360647611 0 -0.44727608925983742 -0.41095911152778891 0 -0.43867285131603428 -0.4271457417558665 0 -0.43676601469929588 -0.41441201227470881 0 -0.44727608925983742 -0.41095911152778891 0 -0.43676601469929588 -0.41441201227470881 0 -0.43479358559901082 -0.4041454901736512 0 -0.45555437223955858 -0.42914059360647611 0 -0.44727608925983742 -0.41095911152778891 0 -0.43867285131603428 -0.4271457417558665 0 -0.43867285131603428 -0.4271457417558665 0 -0.42681803064840879 -0.42717069814352421 0 -0.4263356171060747 -0.44269880333887462 0 -0.42681803064840879 -0.42717069814352421 0 -0.41531815884496182 -0.42985383783075998 0 -0.4263356171060747 -0.44269880333887462 0 -0.42681803064840879 -0.42717069814352421 0 -0.42624289495594048 -0.42089725947505818 0 -0.42083332353326591 -0.42146747131641099 0 -0.42681803064840879 -0.42717069814352421 0 -0.43096994786351572 -0.41951492446283251 0 -0.42624289495594048 -0.42089725947505818 0 -0.43867285131603428 -0.4271457417558665 0 -0.42681803064840879 -0.42717069814352421 0 -0.43096994786351572 -0.41951492446283251 0 -0.43867285131603428 -0.4271457417558665 0 -0.43676601469929588 -0.41441201227470881 0 -0.43096994786351572 -0.41951492446283251 0 -0.43676601469929588 -0.41441201227470881 0 -0.43096994786351572 -0.41951492446283251 0 -0.42907264086257813 -0.41311715872526122 0 -0.43676601469929588 -0.41441201227470881 0 -0.42907264086257813 -0.41311715872526122 0 -0.43479358559901082 -0.4041454901736512 0 -0.42907264086257813 -0.41311715872526122 0 -0.43479358559901082 -0.4041454901736512 0 -0.42460885511582858 -0.40417321677700252 0 -0.42907264086257813 -0.41311715872526122 0 -0.41997834854398469 -0.41180534796019508 0 -0.42907264086257813 -0.41311715872526122 0 -0.42635027777857132 -0.41543594397746519 0 -0.41997834854398469 -0.41180534796019508 0 -0.42907264086257813 -0.41311715872526122 0 -0.41997834854398469 -0.41180534796019508 0 -0.42460885511582858 -0.40417321677700252 0 -0.42635027777857132 -0.41543594397746519 0 -0.41997834854398469 -0.41180534796019508 0 -0.42635027777857132 -0.41543594397746519 0 -0.42083332353326591 -0.42146747131641099 0 -0.41997834854398469 -0.41180534796019508 0 -0.43096994786351572 -0.41951492446283251 0 -0.42624289495594048 -0.42089725947505818 0 -0.42635027777857132 -0.41543594397746519 0 -0.43096994786351572 -0.41951492446283251 0 -0.42907264086257813 -0.41311715872526122 0 -0.42635027777857132 -0.41543594397746519 0 -0.42624289495594048 -0.42089725947505818 0 -0.42635027777857132 -0.41543594397746519 0 -0.42083332353326591 -0.42146747131641099 0 -0.42083332353326591 -0.42146747131641099 0 -0.41997834854398469 -0.41180534796019508 0 -0.40992282953163789 -0.42011435591993562 0 -0.41997834854398469 -0.41180534796019508 0 -0.39756877647335259 -0.40857286797681719 0 -0.41997834854398469 -0.41180534796019508 0 -0.40992282953163789 -0.42011435591993562 0 -0.39756877647335259 -0.40857286797681719 0 -0.40992282953163789 -0.42011435591993562 0 -0.41531815884496182 -0.42985383783075998 0 -0.39591554026262499 -0.42887225451549271 0 -0.41531815884496182 -0.42985383783075998 0 -0.39591554026262499 -0.42887225451549271 0 -0.41160927495564159 -0.44339431233754628 0 -0.42083332353326591 -0.42146747131641099 0 -0.40992282953163789 -0.42011435591993562 0 -0.41531815884496182 -0.42985383783075998 0 -0.42681803064840879 -0.42717069814352421 0 -0.42083332353326591 -0.42146747131641099 0 -0.41531815884496182 -0.42985383783075998 0 -0.44257020456291563 -0.38918913383950271 0 -0.42311368847744002 -0.37830224279505142 0 -0.42594061475171041 -0.39368797999533162 0 -0.44257020456291563 -0.38918913383950271 0 -0.42311368847744002 -0.37830224279505142 0 -0.44172858264042247 -0.37082207246888088 0 -0.44257020456291563 -0.38918913383950271 0 -0.42311368847744002 -0.37830224279505142 0 -0.42311368847744002 -0.37830224279505142 0 -0.42594061475171041 -0.39368797999533162 0 -0.416587075656149 -0.38785930376960043 0 -0.44257020456291563 -0.38918913383950271 0 -0.42594061475171041 -0.39368797999533162 0 -0.43479358559901082 -0.4041454901736512 0 -0.42594061475171041 -0.39368797999533162 0 -0.43479358559901082 -0.4041454901736512 0 -0.42460885511582858 -0.40417321677700252 0 -0.41997834854398469 -0.41180534796019508 0 -0.41325908582185972 -0.39811010703057192 0 -0.39770572831670092 -0.39911486077581648 0 -0.41997834854398469 -0.41180534796019508 0 -0.39770572831670092 -0.39911486077581648 0 -0.42594061475171041 -0.39368797999533162 0 -0.42460885511582858 -0.40417321677700252 0 -0.41325908582185972 -0.39811010703057192 0 -0.41997834854398469 -0.41180534796019508 0 -0.42460885511582858 -0.40417321677700252 0 -0.41325908582185972 -0.39811010703057192 0 -0.42594061475171041 -0.39368797999533162 0 -0.41325908582185972 -0.39811010703057192 0 -0.416587075656149 -0.38785930376960043 0 -0.41325908582185972 -0.39811010703057192 0 -0.416587075656149 -0.38785930376960043 0 -0.40403491357358612 -0.38133688525744702 0 -0.42311368847744002 -0.37830224279505142 0 -0.40403491357358612 -0.38133688525744702 0 -0.40365717239196519 -0.36741535175059892 0 -0.42311368847744002 -0.37830224279505142 0 -0.416587075656149 -0.38785930376960043 0 -0.40403491357358612 -0.38133688525744702 0 -0.40403491357358612 -0.38133688525744702 0 -0.39190790742475001 -0.38540387676521748 0 -0.39770572831670092 -0.39911486077581648 0 -0.40403491357358612 -0.38133688525744702 0 -0.39190790742475001 -0.38540387676521748 0 -0.3904578797192948 -0.37473938743617019 0 -0.41325908582185972 -0.39811010703057192 0 -0.40403491357358612 -0.38133688525744702 0 -0.39770572831670092 -0.39911486077581648 0 -0.39770572831670092 -0.39911486077581648 0 -0.37543310808941849 -0.38642437359143528 0 -0.39770572831670092 -0.39911486077581648 0 -0.37515920440272033 -0.40534038799344108 0 -0.37543310808941849 -0.38642437359143528 0 -0.39770572831670092 -0.39911486077581648 0 -0.37515920440272033 -0.40534038799344108 0 -0.39756877647335259 -0.40857286797681719 0 -0.37515920440272033 -0.40534038799344108 0 -0.37543310808941849 -0.38642437359143528 0 -0.37543310808941849 -0.38642437359143528 0 -0.3904578797192948 -0.37473938743617019 0 -0.37568304780698558 -0.36916333065311507 0 -0.39190790742475001 -0.38540387676521748 0 -0.37543310808941849 -0.38642437359143528 0 -0.3904578797192948 -0.37473938743617019 0 -0.37543310808941849 -0.38642437359143528 0 -0.37568304780698558 -0.36916333065311507 0 -0.39190790742475001 -0.38540387676521748 0 -0.39770572831670092 -0.39911486077581648 0 -0.37543310808941849 -0.38642437359143528 0 -0.41997834854398469 -0.41180534796019508 0 -0.39770572831670092 -0.39911486077581648 0 -0.39756877647335259 -0.40857286797681719 0 -0.40992282953163789 -0.42011435591993562 0 -0.39591554026262499 -0.42887225451549271 0 -0.39756877647335259 -0.40857286797681719 0 -0.37515920440272033 -0.40534038799344108 0 -0.39591554026262499 -0.42887225451549271 0 -0.39756877647335259 -0.40857286797681719 0 -0.37515920440272033 -0.40534038799344108 0 -0.39756877647335259 -0.40857286797681719 0 -0.37515920440272033 -0.40534038799344108 0 -0.39591554026262499 -0.42887225451549271 0 -0.37472313619600889 -0.43545561783144832 0 -0.39591554026262499 -0.42887225451549271 0 -0.39301703415267508 -0.44654444244683272 0 -0.37472313619600889 -0.43545561783144832 0 -0.39301703415267508 -0.44654444244683272 0 -0.37428706798929601 -0.46557084766945539 0 -0.37472313619600889 -0.43545561783144832 0 -0.39591554026262499 -0.42887225451549271 0 -0.39301703415267508 -0.44654444244683272 0 -0.41160927495564159 -0.44339431233754628 0 -0.39301703415267508 -0.44654444244683272 0 -0.40396056051613372 -0.45751466911048011 0 -0.41160927495564159 -0.44339431233754628 0 -0.40396056051613372 -0.45751466911048011 0 -0.39245383412573559 -0.47875733455523922 0 -0.41207507163844148 -0.46917161410542801 0 -0.40396056051613372 -0.45751466911048011 0 -0.38912381425271458 -0.46154275838996711 0 -0.39245383412573559 -0.47875733455523922 0 -0.40396056051613372 -0.45751466911048011 0 -0.39245383412573559 -0.47875733455523922 0 -0.40396056051613372 -0.45751466911048011 0 -0.40649676728151513 -0.45682610390212369 0 -0.40396056051613372 -0.45751466911048011 0 -0.38912381425271458 -0.46154275838996711 0 -0.39301703415267508 -0.44654444244683272 0 -0.40396056051613372 -0.45751466911048011 0 -0.38912381425271458 -0.46154275838996711 0 -0.39301703415267508 -0.44654444244683272 0 -0.38912381425271458 -0.46154275838996711 0 -0.37428706798929601 -0.46557084766945539 0 -0.38912381425271458 -0.46154275838996711 0 -0.37428706798929601 -0.46557084766945539 0 -0.38912381425271458 -0.46154275838996711 0 -0.38378714202547332 -0.47159002408209011 0 -0.37428706798929601 -0.46557084766945539 0 -0.38378714202547332 -0.47159002408209011 0 -0.39245383412573559 -0.47875733455523922 0 -0.37411677223754131 -0.47733161267270968 0 -0.39245383412573559 -0.47875733455523922 0 -0.37240076261097882 -0.48974555046165519 0 -0.37411677223754131 -0.47733161267270968 0 -0.38378714202547332 -0.47159002408209011 0 -0.37411677223754131 -0.47733161267270968 0 -0.37428706798929601 -0.46557084766945539 0 -0.38912381425271458 -0.46154275838996711 0 -0.38378714202547332 -0.47159002408209011 0 -0.39245383412573559 -0.47875733455523922 0 -0.38094710773533791 -0.49999999999999839 0 -0.39245383412573559 -0.47875733455523922 0 -0.38094710773533791 -0.49999999999999839 0 -0.39245383412573559 -0.47875733455523922 0 -0.37240076261097882 -0.48974555046165519 0 -0.38094710773533791 -0.49999999999999839 0 -0.39245383412573559 -0.47875733455523922 0 -0.40997732063196057 -0.5 0 -0.39245383412573559 -0.47875733455523922 0 -0.41207507163844148 -0.46917161410542801 0 -0.40997732063196057 -0.5 0 -0.41207507163844148 -0.46917161410542801 0 -0.40997732063196057 -0.5 0 -0.42881687682924802 -0.47781464288736519 0 -0.44860394795025399 -0.5 0 -0.40997732063196057 -0.5 0 -0.42881687682924802 -0.47781464288736519 0 -0.41207507163844148 -0.46917161410542801 0 -0.42881687682924802 -0.47781464288736519 0 -0.42627766738448791 -0.46032764904509182 0 -0.4490820238307246 -0.45820516232899983 0 -0.42881687682924802 -0.47781464288736519 0 -0.42627766738448791 -0.46032764904509182 0 -0.4490820238307246 -0.45820516232899983 0 -0.42627766738448791 -0.46032764904509182 0 -0.4263356171060747 -0.44269880333887462 0 -0.42627766738448791 -0.46032764904509182 0 -0.4263356171060747 -0.44269880333887462 0 -0.41655419253802572 -0.45404861160063659 0 -0.4263356171060747 -0.44269880333887462 0 -0.41160927495564159 -0.44339431233754628 0 -0.41655419253802572 -0.45404861160063659 0 -0.41531815884496182 -0.42985383783075998 0 -0.4263356171060747 -0.44269880333887462 0 -0.41160927495564159 -0.44339431233754628 0 -0.40396056051613372 -0.45751466911048011 0 -0.41160927495564159 -0.44339431233754628 0 -0.40649676728151513 -0.45682610390212369 0 -0.41160927495564159 -0.44339431233754628 0 -0.40649676728151513 -0.45682610390212369 0 -0.41655419253802572 -0.45404861160063659 0 -0.40396056051613372 -0.45751466911048011 0 -0.41160927495564159 -0.44339431233754628 0 -0.41207507163844148 -0.46917161410542801 0 -0.40649676728151513 -0.45682610390212369 0 -0.41655419253802572 -0.45404861160063659 0 -0.40396056051613372 -0.45751466911048011 0 -0.41207507163844148 -0.46917161410542801 0 -0.40649676728151513 -0.45682610390212369 0 -0.41207507163844148 -0.46917161410542801 0 -0.42627766738448791 -0.46032764904509182 0 -0.41655419253802572 -0.45404861160063659 0 -0.45662330498375908 -0.25656877445722759 0 -0.43445882011373449 -0.25478651907497341 0 -0.45662330498375908 -0.25656877445722759 0 -0.43445882011373449 -0.25478651907497341 0 -0.45034617445999431 -0.24335722649563979 0 -0.44999384684511368 -0.2755750489792308 0 -0.45662330498375908 -0.25656877445722759 0 -0.43445882011373449 -0.25478651907497341 0 -0.44999384684511368 -0.2755750489792308 0 -0.43077531442077321 -0.27459050524281542 0 -0.43445882011373449 -0.25478651907497341 0 -0.44999384684511368 -0.2755750489792308 0 -0.441361257405879 -0.29303276451920029 0 -0.43077531442077321 -0.27459050524281542 0 -0.44999384684511368 -0.2755750489792308 0 -0.4670541169931961 -0.26846056693166809 0 -0.46910519348062618 -0.28320526693770848 0 -0.44999384684511368 -0.2755750489792308 0 -0.4670541169931961 -0.26846056693166809 0 -0.45662330498375908 -0.25656877445722759 0 -0.45662330498375908 -0.25656877445722759 0 -0.47878778985378329 -0.25835102983948688 0 -0.4670541169931961 -0.26846056693166809 0 -0.45662330498375908 -0.25656877445722759 0 -0.47878778985378329 -0.25835102983948688 0 -0.45662330498375908 -0.25656877445722759 0 -0.47878778985378329 -0.25835102983948688 0 -0.47142395938804471 -0.23802335247430181 0 -0.47878778985378329 -0.25835102983948688 0 -0.5 -0.25669760885461612 0 -0.48361763707807442 -0.27426406281091331 0 -0.47878778985378329 -0.25835102983948688 0 -0.5 -0.25669760885461612 0 -0.4875835208682564 -0.24248539692068891 0 -0.5 -0.25669760885461612 0 -0.48361763707807442 -0.27426406281091331 0 -0.5 -0.28413533544635422 0 -0.4670541169931961 -0.26846056693166809 0 -0.47878778985378329 -0.25835102983948688 0 -0.48361763707807442 -0.27426406281091331 0 -0.4670541169931961 -0.26846056693166809 0 -0.48361763707807442 -0.27426406281091331 0 -0.46910519348062618 -0.28320526693770848 0 -0.46910519348062618 -0.28320526693770848 0 -0.48580896399913942 -0.29193665231809679 0 -0.47164434439118558 -0.29859902487093259 0 -0.48361763707807442 -0.27426406281091331 0 -0.46910519348062618 -0.28320526693770848 0 -0.48580896399913942 -0.29193665231809679 0 -0.5 -0.28413533544635422 0 -0.48580896399913942 -0.29193665231809679 0 -0.5 -0.3115730620380921 0 -0.48361763707807442 -0.27426406281091331 0 -0.5 -0.28413533544635422 0 -0.48580896399913942 -0.29193665231809679 0 -0.48580896399913942 -0.29193665231809679 0 -0.5 -0.3115730620380921 0 -0.48293754746551898 -0.30617437981156609 0 -0.48293754746551898 -0.30617437981156609 0 -0.47164434439118558 -0.29859902487093259 0 -0.47203566342767839 -0.31514771464943409 0 -0.48580896399913942 -0.29193665231809679 0 -0.48293754746551898 -0.30617437981156609 0 -0.47164434439118558 -0.29859902487093259 0 -0.47164434439118558 -0.29859902487093259 0 -0.46096111539772322 -0.3069557537098867 0 -0.47203566342767839 -0.31514771464943409 0 -0.46096111539772322 -0.3069557537098867 0 -0.44739706002137658 -0.30395698434733032 0 -0.45229582611609759 -0.31444164243390338 0 -0.46096111539772322 -0.3069557537098867 0 -0.45682111422556548 -0.29317658806621089 0 -0.44739706002137658 -0.30395698434733032 0 -0.47164434439118558 -0.29859902487093259 0 -0.46096111539772322 -0.3069557537098867 0 -0.45682111422556548 -0.29317658806621089 0 -0.44999384684511368 -0.2755750489792308 0 -0.46910519348062618 -0.28320526693770848 0 -0.45682111422556548 -0.29317658806621089 0 -0.46910519348062618 -0.28320526693770848 0 -0.47164434439118558 -0.29859902487093259 0 -0.45682111422556548 -0.29317658806621089 0 -0.44999384684511368 -0.2755750489792308 0 -0.45682111422556548 -0.29317658806621089 0 -0.441361257405879 -0.29303276451920029 0 -0.45682111422556548 -0.29317658806621089 0 -0.441361257405879 -0.29303276451920029 0 -0.44739706002137658 -0.30395698434733032 0 -0.441361257405879 -0.29303276451920029 0 -0.44739706002137658 -0.30395698434733032 0 -0.43527018611072049 -0.30465000121327751 0 -0.44739706002137658 -0.30395698434733032 0 -0.44024276041750632 -0.31887045497680111 0 -0.43527018611072049 -0.30465000121327751 0 -0.44739706002137658 -0.30395698434733032 0 -0.45229582611609759 -0.31444164243390338 0 -0.44024276041750632 -0.31887045497680111 0 -0.44024276041750632 -0.31887045497680111 0 -0.45653421084860168 -0.32646185290925811 0 -0.44024276041750632 -0.31887045497680111 0 -0.43930980958642257 -0.33554338078202212 0 -0.45653421084860168 -0.32646185290925811 0 -0.45229582611609759 -0.31444164243390338 0 -0.44024276041750632 -0.31887045497680111 0 -0.45653421084860168 -0.32646185290925811 0 -0.43930980958642257 -0.33554338078202212 0 -0.44966367396753332 -0.33841986907325933 0 -0.46855294336124231 -0.32873531729210143 0 -0.43930980958642257 -0.33554338078202212 0 -0.4507851133594416 -0.34910720111649318 0 -0.43930980958642257 -0.33554338078202212 0 -0.44966367396753332 -0.33841986907325933 0 -0.4507851133594416 -0.34910720111649318 0 -0.44966367396753332 -0.33841986907325933 0 -0.46855294336124231 -0.32873531729210143 0 -0.46386644800117471 -0.33586508895417932 0 -0.43930980958642257 -0.33554338078202212 0 -0.46855294336124231 -0.32873531729210143 0 -0.43930980958642257 -0.33554338078202212 0 -0.46855294336124231 -0.32873531729210143 0 -0.45653421084860168 -0.32646185290925811 0 -0.44966367396753332 -0.33841986907325933 0 -0.4586808436472537 -0.3401528003513713 0 -0.45711636988675219 -0.34547487934353349 0 -0.44966367396753332 -0.33841986907325933 0 -0.4586808436472537 -0.3401528003513713 0 -0.46386644800117471 -0.33586508895417932 0 -0.4586808436472537 -0.3401528003513713 0 -0.46472493826860672 -0.34236766697450172 0 -0.45711636988675219 -0.34547487934353349 0 -0.4586808436472537 -0.3401528003513713 0 -0.46472493826860672 -0.34236766697450172 0 -0.46386644800117471 -0.33586508895417932 0 -0.46855294336124231 -0.32873531729210143 0 -0.46207595183026873 -0.31834845619891672 0 -0.47203566342767839 -0.31514771464943409 0 -0.46855294336124231 -0.32873531729210143 0 -0.45653421084860168 -0.32646185290925811 0 -0.46207595183026873 -0.31834845619891672 0 -0.46096111539772322 -0.3069557537098867 0 -0.45229582611609759 -0.31444164243390338 0 -0.46207595183026873 -0.31834845619891672 0 -0.45229582611609759 -0.31444164243390338 0 -0.45653421084860168 -0.32646185290925811 0 -0.46207595183026873 -0.31834845619891672 0 -0.46096111539772322 -0.3069557537098867 0 -0.46207595183026873 -0.31834845619891672 0 -0.47203566342767839 -0.31514771464943409 0 -0.48293754746551898 -0.30617437981156609 0 -0.47203566342767839 -0.31514771464943409 0 -0.47770984076123751 -0.32964979107966252 0 -0.48293754746551898 -0.30617437981156609 0 -0.47770984076123751 -0.32964979107966252 0 -0.48293754746551898 -0.30617437981156609 0 -0.48763303240419292 -0.31981883507337211 0 -0.47770984076123751 -0.32964979107966252 0 -0.46855294336124231 -0.32873531729210143 0 -0.47203566342767839 -0.31514771464943409 0 -0.47770984076123751 -0.32964979107966252 0 -0.5 -0.3115730620380921 0 -0.5 -0.33901078862982997 0 -0.49048543526404831 -0.32960291085151988 0 -0.5 -0.3115730620380921 0 -0.48763303240419292 -0.31981883507337211 0 -0.49048543526404831 -0.32960291085151988 0 -0.5 -0.3115730620380921 0 -0.48293754746551898 -0.30617437981156609 0 -0.48763303240419292 -0.31981883507337211 0 -0.48763303240419292 -0.31981883507337211 0 -0.49048543526404831 -0.32960291085151988 0 -0.47770984076123751 -0.32964979107966252 0 -0.49048543526404831 -0.32960291085151988 0 -0.47770984076123751 -0.32964979107966252 0 -0.48708430315481122 -0.3479620774366432 0 -0.5 -0.33901078862982997 0 -0.49048543526404831 -0.32960291085151988 0 -0.48708430315481122 -0.3479620774366432 0 -0.47770984076123751 -0.32964979107966252 0 -0.47248213405695583 -0.35312520234775913 0 -0.47770984076123751 -0.32964979107966252 0 -0.47248213405695583 -0.35312520234775913 0 -0.48708430315481122 -0.3479620774366432 0 -0.46472493826860672 -0.34236766697450172 0 -0.47770984076123751 -0.32964979107966252 0 -0.47248213405695583 -0.35312520234775913 0 -0.46855294336124231 -0.32873531729210143 0 -0.46386644800117471 -0.33586508895417932 0 -0.47770984076123751 -0.32964979107966252 0 -0.46472493826860672 -0.34236766697450172 0 -0.46386644800117471 -0.33586508895417932 0 -0.47770984076123751 -0.32964979107966252 0 -0.47248213405695583 -0.35312520234775913 0 -0.48708430315481122 -0.3479620774366432 0 -0.48422759779560409 -0.37130120630367158 0 -0.5 -0.33901078862982997 0 -0.48708430315481122 -0.3479620774366432 0 -0.5 -0.36644851522156802 0 -0.48708430315481122 -0.3479620774366432 0 -0.5 -0.36644851522156802 0 -0.48422759779560409 -0.37130120630367158 0 -0.46725442735267431 -0.37660061361585562 0 -0.47248213405695583 -0.35312520234775913 0 -0.48422759779560409 -0.37130120630367158 0 -0.46725442735267431 -0.37660061361585562 0 -0.47248213405695583 -0.35312520234775913 0 -0.46725442735267431 -0.37660061361585562 0 -0.4540003998136638 -0.37455519391687309 0 -0.46226041713245919 -0.36267102145096558 0 -0.46725442735267431 -0.37660061361585562 0 -0.47248213405695583 -0.35312520234775913 0 -0.46226041713245919 -0.36267102145096558 0 -0.4540003998136638 -0.37455519391687309 0 -0.46226041713245919 -0.36267102145096558 0 -0.45167034254705118 -0.36337553476545958 0 -0.47248213405695583 -0.35312520234775913 0 -0.46226041713245919 -0.36267102145096558 0 -0.46130034509645268 -0.35111989715704561 0 -0.46472493826860672 -0.34236766697450172 0 -0.47248213405695583 -0.35312520234775913 0 -0.46130034509645268 -0.35111989715704561 0 -0.46472493826860672 -0.34236766697450172 0 -0.46130034509645268 -0.35111989715704561 0 -0.45711636988675219 -0.34547487934353349 0 -0.46130034509645268 -0.35111989715704561 0 -0.45711636988675219 -0.34547487934353349 0 -0.4507851133594416 -0.34910720111649318 0 -0.46226041713245919 -0.36267102145096558 0 -0.4507851133594416 -0.34910720111649318 0 -0.45167034254705118 -0.36337553476545958 0 -0.46226041713245919 -0.36267102145096558 0 -0.46130034509645268 -0.35111989715704561 0 -0.4507851133594416 -0.34910720111649318 0 -0.46226041713245919 -0.36267102145096558 0 -0.4507851133594416 -0.34910720111649318 0 -0.4507851133594416 -0.34910720111649318 0 -0.44504098357239391 -0.35771747353496869 0 -0.45167034254705118 -0.36337553476545958 0 -0.44966367396753332 -0.33841986907325933 0 -0.45711636988675219 -0.34547487934353349 0 -0.4507851133594416 -0.34910720111649318 0 -0.4507851133594416 -0.34910720111649318 0 -0.44408457896710762 -0.34741130507322732 0 -0.44504098357239391 -0.35771747353496869 0 -0.43930980958642257 -0.33554338078202212 0 -0.4507851133594416 -0.34910720111649318 0 -0.44408457896710762 -0.34741130507322732 0 -0.44408457896710762 -0.34741130507322732 0 -0.43834809566141358 -0.35386966642967582 0 -0.4310745521241639 -0.35060051531725012 0 -0.44408457896710762 -0.34741130507322732 0 -0.43834809566141358 -0.35386966642967582 0 -0.44504098357239391 -0.35771747353496869 0 -0.43834809566141358 -0.35386966642967582 0 -0.44504098357239391 -0.35771747353496869 0 -0.43256408976529492 -0.36260533289695268 0 -0.44504098357239391 -0.35771747353496869 0 -0.44172858264042247 -0.37082207246888088 0 -0.43256408976529492 -0.36260533289695268 0 -0.4540003998136638 -0.37455519391687309 0 -0.44172858264042247 -0.37082207246888088 0 -0.45167034254705118 -0.36337553476545958 0 -0.44504098357239391 -0.35771747353496869 0 -0.44172858264042247 -0.37082207246888088 0 -0.45167034254705118 -0.36337553476545958 0 -0.42311368847744002 -0.37830224279505142 0 -0.44172858264042247 -0.37082207246888088 0 -0.43256408976529492 -0.36260533289695268 0 -0.42311368847744002 -0.37830224279505142 0 -0.43256408976529492 -0.36260533289695268 0 -0.41867380740831611 -0.36398836527224071 0 -0.43256408976529492 -0.36260533289695268 0 -0.42210656065146929 -0.35476551363046099 0 -0.41867380740831611 -0.36398836527224071 0 -0.44408457896710762 -0.34741130507322732 0 -0.4310745521241639 -0.35060051531725012 0 -0.42443636388738298 -0.3390060521705498 0 -0.43834809566141358 -0.35386966642967582 0 -0.43256408976529492 -0.36260533289695268 0 -0.4310745521241639 -0.35060051531725012 0 -0.4310745521241639 -0.35060051531725012 0 -0.42266042161335821 -0.34652378860874011 0 -0.42210656065146929 -0.35476551363046099 0 -0.4310745521241639 -0.35060051531725012 0 -0.42266042161335821 -0.34652378860874011 0 -0.42443636388738298 -0.3390060521705498 0 -0.43256408976529492 -0.36260533289695268 0 -0.4310745521241639 -0.35060051531725012 0 -0.42210656065146929 -0.35476551363046099 0 -0.42210656065146929 -0.35476551363046099 0 -0.41243440171204931 -0.35621682403100541 0 -0.41867380740831611 -0.36398836527224071 0 -0.41243440171204931 -0.35621682403100541 0 -0.40365717239196519 -0.36741535175059892 0 -0.40302160193259851 -0.3439916005776541 0 -0.42210656065146929 -0.35476551363046099 0 -0.41714587076776338 -0.34786779488983011 0 -0.41243440171204931 -0.35621682403100541 0 -0.42266042161335821 -0.34652378860874011 0 -0.42210656065146929 -0.35476551363046099 0 -0.41714587076776338 -0.34786779488983011 0 -0.42266042161335821 -0.34652378860874011 0 -0.41714587076776338 -0.34786779488983011 0 -0.41853876063601031 -0.34037906703560689 0 -0.41714587076776338 -0.34786779488983011 0 -0.41853876063601031 -0.34037906703560689 0 -0.41714587076776338 -0.34786779488983011 0 -0.41243440171204931 -0.35621682403100541 0 -0.40302160193259851 -0.3439916005776541 0 -0.41714587076776338 -0.34786779488983011 0 -0.40302160193259851 -0.3439916005776541 0 -0.41853876063601031 -0.34037906703560689 0 -0.42311368847744002 -0.37830224279505142 0 -0.41867380740831611 -0.36398836527224071 0 -0.40365717239196519 -0.36741535175059892 0 -0.42311368847744002 -0.37830224279505142 0 -0.40365717239196519 -0.36741535175059892 0 -0.41243440171204931 -0.35621682403100541 0 -0.41867380740831611 -0.36398836527224071 0 -0.40365717239196519 -0.36741535175059892 0 -0.40403491357358612 -0.38133688525744702 0 -0.40365717239196519 -0.36741535175059892 0 -0.40403491357358612 -0.38133688525744702 0 -0.40365717239196519 -0.36741535175059892 0 -0.3904578797192948 -0.37473938743617019 0 -0.40365717239196519 -0.36741535175059892 0 -0.38979507995825918 -0.35965881973269581 0 -0.40365717239196519 -0.36741535175059892 0 -0.3904578797192948 -0.37473938743617019 0 -0.38979507995825918 -0.35965881973269581 0 -0.3904578797192948 -0.37473938743617019 0 -0.38979507995825918 -0.35965881973269581 0 -0.37568304780698558 -0.36916333065311507 0 -0.37568304780698558 -0.36916333065311507 0 -0.37593298752455201 -0.35190228771479481 0 -0.38979507995825918 -0.35965881973269581 0 -0.37568304780698558 -0.36916333065311507 0 -0.37593298752455201 -0.35190228771479481 0 -0.38979507995825918 -0.35965881973269581 0 -0.37595629511297179 -0.35029264644438168 0 -0.40302160193259851 -0.3439916005776541 0 -0.37595629511297179 -0.35029264644438168 0 -0.40302160193259851 -0.3439916005776541 0 -0.38842354837557669 -0.33756560667471242 0 -0.37595629511297179 -0.35029264644438168 0 -0.40302160193259851 -0.3439916005776541 0 -0.37595629511297179 -0.35029264644438168 0 -0.37607676276689278 -0.3419730509543204 0 -0.37390838074359528 -0.35076941925389299 0 -0.37595629511297179 -0.35029264644438168 0 -0.37607676276689278 -0.3419730509543204 0 -0.37595629511297179 -0.35029264644438168 0 -0.37593298752455201 -0.35190228771479481 0 -0.37390838074359528 -0.35076941925389299 0 -0.37595629511297179 -0.35029264644438168 0 -0.37593298752455201 -0.35190228771479481 0 -0.38979507995825918 -0.35965881973269581 0 -0.37595629511297179 -0.35029264644438168 0 -0.37593298752455201 -0.35190228771479481 0 -0.38979507995825918 -0.35965881973269581 0 -0.37593298752455201 -0.35190228771479481 0 -0.40365717239196519 -0.36741535175059892 0 -0.40302160193259851 -0.3439916005776541 0 -0.40365717239196519 -0.36741535175059892 0 -0.38979507995825918 -0.35965881973269581 0 -0.40302160193259851 -0.3439916005776541 0 -0.40302160193259851 -0.3439916005776541 0 -0.40263324863316441 -0.32967896077653092 0 -0.40263324863316441 -0.32967896077653092 0 -0.38842354837557669 -0.33756560667471242 0 -0.38442983343225828 -0.32189177462067481 0 -0.40302160193259851 -0.3439916005776541 0 -0.40263324863316441 -0.32967896077653092 0 -0.38842354837557669 -0.33756560667471242 0 -0.37607676276689278 -0.3419730509543204 0 -0.37641717267996733 -0.3184640617331177 0 -0.38842354837557669 -0.33756560667471242 0 -0.37607676276689278 -0.3419730509543204 0 -0.38442983343225828 -0.32189177462067481 0 -0.37607676276689278 -0.3419730509543204 0 -0.38442983343225828 -0.32189177462067481 0 -0.37595629511297179 -0.35029264644438168 0 -0.38842354837557669 -0.33756560667471242 0 -0.37607676276689278 -0.3419730509543204 0 -0.37607676276689278 -0.3419730509543204 0 -0.37641717267996733 -0.3184640617331177 0 -0.38442983343225828 -0.32189177462067481 0 -0.37641717267996733 -0.3184640617331177 0 -0.38442983343225828 -0.32189177462067481 0 -0.3841914044669909 -0.30132118344037401 0 -0.37641717267996733 -0.3184640617331177 0 -0.38442983343225828 -0.32189177462067481 0 -0.40263324863316441 -0.32967896077653092 0 -0.38442983343225828 -0.32189177462067481 0 -0.40185461233875269 -0.30098256284660307 0 -0.40263324863316441 -0.32967896077653092 0 -0.38442983343225828 -0.32189177462067481 0 -0.40263324863316441 -0.32967896077653092 0 -0.40185461233875269 -0.30098256284660307 0 -0.40263324863316441 -0.32967896077653092 0 -0.41242695344044827 -0.31820451366256841 0 -0.40185461233875269 -0.30098256284660307 0 -0.41242695344044827 -0.31820451366256841 0 -0.41920998916455232 -0.33677027649670849 0 -0.42301959421646518 -0.31628833020920039 0 -0.41920998916455232 -0.33677027649670849 0 -0.42301959421646518 -0.31628833020920039 0 -0.41242695344044827 -0.31820451366256841 0 -0.42301959421646518 -0.31628833020920039 0 -0.41541732284930832 -0.30730243798379953 0 -0.40302160193259851 -0.3439916005776541 0 -0.41920998916455232 -0.33677027649670849 0 -0.41853876063601031 -0.34037906703560689 0 -0.40302160193259851 -0.3439916005776541 0 -0.40263324863316441 -0.32967896077653092 0 -0.41920998916455232 -0.33677027649670849 0 -0.40263324863316441 -0.32967896077653092 0 -0.41920998916455232 -0.33677027649670849 0 -0.40263324863316441 -0.32967896077653092 0 -0.41242695344044827 -0.31820451366256841 0 -0.41920998916455232 -0.33677027649670849 0 -0.40302160193259851 -0.3439916005776541 0 -0.41853876063601031 -0.34037906703560689 0 -0.41853876063601031 -0.34037906703560689 0 -0.42443636388738298 -0.3390060521705498 0 -0.41920998916455232 -0.33677027649670849 0 -0.42443636388738298 -0.3390060521705498 0 -0.41920998916455232 -0.33677027649670849 0 -0.41853876063601031 -0.34037906703560689 0 -0.42443636388738298 -0.3390060521705498 0 -0.41920998916455232 -0.33677027649670849 0 -0.41853876063601031 -0.34037906703560689 0 -0.43930980958642257 -0.33554338078202212 0 -0.44408457896710762 -0.34741130507322732 0 -0.42443636388738298 -0.3390060521705498 0 -0.43930980958642257 -0.33554338078202212 0 -0.42443636388738298 -0.3390060521705498 0 -0.42301959421646518 -0.31628833020920039 0 -0.41920998916455232 -0.33677027649670849 0 -0.42443636388738298 -0.3390060521705498 0 -0.42301959421646518 -0.31628833020920039 0 -0.44408457896710762 -0.34741130507322732 0 -0.42443636388738298 -0.3390060521705498 0 -0.42266042161335821 -0.34652378860874011 0 -0.41853876063601031 -0.34037906703560689 0 -0.42443636388738298 -0.3390060521705498 0 -0.43930980958642257 -0.33554338078202212 0 -0.42443636388738298 -0.3390060521705498 0 -0.43930980958642257 -0.33554338078202212 0 -0.42301959421646518 -0.31628833020920039 0 -0.44024276041750632 -0.31887045497680111 0 -0.42395130998641067 -0.31127905704434472 0 -0.44024276041750632 -0.31887045497680111 0 -0.43930980958642257 -0.33554338078202212 0 -0.42301959421646518 -0.31628833020920039 0 -0.44024276041750632 -0.31887045497680111 0 -0.42301959421646518 -0.31628833020920039 0 -0.42395130998641067 -0.31127905704434472 0 -0.42301959421646518 -0.31628833020920039 0 -0.42395130998641067 -0.31127905704434472 0 -0.42395130998641067 -0.31127905704434472 0 -0.42709180872781188 -0.29439449141065738 0 -0.44024276041750632 -0.31887045497680111 0 -0.42395130998641067 -0.31127905704434472 0 -0.43527018611072049 -0.30465000121327751 0 -0.42395130998641067 -0.31127905704434472 0 -0.42709180872781188 -0.29439449141065738 0 -0.41541732284930832 -0.30730243798379953 0 -0.42395130998641067 -0.31127905704434472 0 -0.43527018611072049 -0.30465000121327751 0 -0.42709180872781188 -0.29439449141065738 0 -0.441361257405879 -0.29303276451920029 0 -0.43527018611072049 -0.30465000121327751 0 -0.42709180872781188 -0.29439449141065738 0 -0.42709180872781188 -0.29439449141065738 0 -0.43077531442077321 -0.27459050524281542 0 -0.42709180872781188 -0.29439449141065738 0 -0.41684225135067149 -0.28376244362903152 0 -0.43077531442077321 -0.27459050524281542 0 -0.441361257405879 -0.29303276451920029 0 -0.42709180872781188 -0.29439449141065738 0 -0.441361257405879 -0.29303276451920029 0 -0.42709180872781188 -0.29439449141065738 0 -0.43077531442077321 -0.27459050524281542 0 -0.42709180872781188 -0.29439449141065738 0 -0.41684225135067149 -0.28376244362903152 0 -0.40618483967714292 -0.29638963380315841 0 -0.42709180872781188 -0.29439449141065738 0 -0.40618483967714292 -0.29638963380315841 0 -0.41684225135067149 -0.28376244362903152 0 -0.40690107601488551 -0.28490397733270861 0 -0.40618483967714292 -0.29638963380315841 0 -0.41541732284930832 -0.30730243798379953 0 -0.40185461233875269 -0.30098256284660307 0 -0.40618483967714292 -0.29638963380315841 0 -0.42709180872781188 -0.29439449141065738 0 -0.41541732284930832 -0.30730243798379953 0 -0.40618483967714292 -0.29638963380315841 0 -0.41541732284930832 -0.30730243798379953 0 -0.40618483967714292 -0.29638963380315841 0 -0.41242695344044827 -0.31820451366256841 0 -0.41541732284930832 -0.30730243798379953 0 -0.40185461233875269 -0.30098256284660307 0 -0.41541732284930832 -0.30730243798379953 0 -0.40185461233875269 -0.30098256284660307 0 -0.42301959421646518 -0.31628833020920039 0 -0.41541732284930832 -0.30730243798379953 0 -0.42395130998641067 -0.31127905704434472 0 -0.41541732284930832 -0.30730243798379953 0 -0.42301959421646518 -0.31628833020920039 0 -0.42395130998641067 -0.31127905704434472 0 -0.41541732284930832 -0.30730243798379953 0 -0.38442983343225828 -0.32189177462067481 0 -0.40185461233875269 -0.30098256284660307 0 -0.39448508010510541 -0.297525044214214 0 -0.40185461233875269 -0.30098256284660307 0 -0.40174149504185092 -0.29681366012781812 0 -0.40618483967714292 -0.29638963380315841 0 -0.40185461233875269 -0.30098256284660307 0 -0.40174149504185092 -0.29681366012781812 0 -0.40185461233875269 -0.30098256284660307 0 -0.39448508010510541 -0.297525044214214 0 -0.40174149504185092 -0.29681366012781812 0 -0.40185461233875269 -0.30098256284660307 0 -0.39448508010510541 -0.297525044214214 0 -0.39448508010510541 -0.297525044214214 0 -0.40174149504185092 -0.29681366012781812 0 -0.37641717267996733 -0.3184640617331177 0 -0.37669606201677502 -0.29920373422444158 0 -0.38442983343225828 -0.32189177462067481 0 -0.39448508010510541 -0.297525044214214 0 -0.38442983343225828 -0.32189177462067481 0 -0.39448508010510541 -0.297525044214214 0 -0.3841914044669909 -0.30132118344037401 0 -0.37641717267996733 -0.3184640617331177 0 -0.3841914044669909 -0.30132118344037401 0 -0.37669606201677502 -0.29920373422444158 0 -0.39448508010510541 -0.297525044214214 0 -0.3841914044669909 -0.30132118344037401 0 -0.37928718982873688 -0.29895646409505849 0 -0.39448508010510541 -0.297525044214214 0 -0.37928718982873688 -0.29895646409505849 0 -0.3841914044669909 -0.30132118344037401 0 -0.37928718982873688 -0.29895646409505849 0 -0.3841914044669909 -0.30132118344037401 0 -0.37928718982873688 -0.29895646409505849 0 -0.37669606201677502 -0.29920373422444158 0 -0.37928718982873688 -0.29895646409505849 0 -0.37669606201677502 -0.29920373422444158 0 -0.37671758341694961 -0.29771744858697219 0 -0.37928718982873688 -0.29895646409505849 0 -0.37671758341694961 -0.29771744858697219 0 -0.37928718982873688 -0.29895646409505849 0 -0.37669606201677502 -0.29920373422444158 0 -0.37669606201677502 -0.29920373422444158 0 -0.37671758341694961 -0.29771744858697219 0 -0.37671758341694961 -0.29771744858697219 0 -0.38607699004493318 -0.28757386461908069 0 -0.38483052758877101 -0.28123782127595193 0 -0.37671758341694961 -0.29771744858697219 0 -0.3770412393053626 -0.27536550612006683 0 -0.37671758341694961 -0.29771744858697219 0 -0.38483052758877101 -0.28123782127595193 0 -0.3770412393053626 -0.27536550612006683 0 -0.37928718982873688 -0.29895646409505849 0 -0.37671758341694961 -0.29771744858697219 0 -0.38467000758835601 -0.29297497791584359 0 -0.37671758341694961 -0.29771744858697219 0 -0.38467000758835601 -0.29297497791584359 0 -0.38607699004493318 -0.28757386461908069 0 -0.39448508010510541 -0.297525044214214 0 -0.37928718982873688 -0.29895646409505849 0 -0.38467000758835601 -0.29297497791584359 0 -0.39448508010510541 -0.297525044214214 0 -0.38467000758835601 -0.29297497791584359 0 -0.39448508010510541 -0.297525044214214 0 -0.38467000758835601 -0.29297497791584359 0 -0.39217701296355612 -0.28987936211692023 0 -0.38467000758835601 -0.29297497791584359 0 -0.38607699004493318 -0.28757386461908069 0 -0.39217701296355612 -0.28987936211692023 0 -0.38607699004493318 -0.28757386461908069 0 -0.39049541959166939 -0.28414526237041138 0 -0.39217701296355612 -0.28987936211692023 0 -0.39049541959166939 -0.28414526237041138 0 -0.39420405367365152 -0.27853706101481662 0 -0.38483052758877101 -0.28123782127595193 0 -0.38607699004493318 -0.28757386461908069 0 -0.39049541959166939 -0.28414526237041138 0 -0.38483052758877101 -0.28123782127595193 0 -0.39597078832761667 -0.28551153658085893 0 -0.40174149504185092 -0.29681366012781812 0 -0.40123596036735593 -0.27818233727432817 0 -0.39049541959166939 -0.28414526237041138 0 -0.39597078832761667 -0.28551153658085893 0 -0.39420405367365152 -0.27853706101481662 0 -0.40174149504185092 -0.29681366012781812 0 -0.40123596036735593 -0.27818233727432817 0 -0.40174149504185092 -0.29681366012781812 0 -0.40322207619149192 -0.29288764445213411 0 -0.40123596036735593 -0.27818233727432817 0 -0.39049541959166939 -0.28414526237041138 0 -0.39597078832761667 -0.28551153658085893 0 -0.39217701296355612 -0.28987936211692023 0 -0.39597078832761667 -0.28551153658085893 0 -0.39217701296355612 -0.28987936211692023 0 -0.40174149504185092 -0.29681366012781812 0 -0.39448508010510541 -0.297525044214214 0 -0.39217701296355612 -0.28987936211692023 0 -0.40174149504185092 -0.29681366012781812 0 -0.40690107601488551 -0.28490397733270861 0 -0.40322207619149192 -0.29288764445213411 0 -0.40618483967714292 -0.29638963380315841 0 -0.40174149504185092 -0.29681366012781812 0 -0.40322207619149192 -0.29288764445213411 0 -0.40618483967714292 -0.29638963380315841 0 -0.40174149504185092 -0.29681366012781812 0 -0.40618483967714292 -0.29638963380315841 0 -0.40322207619149192 -0.29288764445213411 0 -0.40618483967714292 -0.29638963380315841 0 -0.40690107601488551 -0.28490397733270861 0 -0.40322207619149192 -0.29288764445213411 0 -0.40123596036735593 -0.27818233727432817 0 -0.39420405367365152 -0.27853706101481662 0 -0.37710287173325818 -0.2711091198417086 0 -0.40073042569286338 -0.25955101442083811 0 -0.40123596036735593 -0.27818233727432817 0 -0.39420405367365152 -0.27853706101481662 0 -0.40073042569286338 -0.25955101442083811 0 -0.40123596036735593 -0.27818233727432817 0 -0.40073042569286338 -0.25955101442083811 0 -0.40123596036735593 -0.27818233727432817 0 -0.40073042569286338 -0.25955101442083811 0 -0.41341650638623911 -0.27076301679274262 0 -0.39597078832761667 -0.28551153658085893 0 -0.40123596036735593 -0.27818233727432817 0 -0.39420405367365152 -0.27853706101481662 0 -0.39420405367365152 -0.27853706101481662 0 -0.37710287173325818 -0.2711091198417086 0 -0.3770412393053626 -0.27536550612006683 0 -0.39420405367365152 -0.27853706101481662 0 -0.3770412393053626 -0.27536550612006683 0 -0.39420405367365152 -0.27853706101481662 0 -0.38483052758877101 -0.28123782127595193 0 -0.3770412393053626 -0.27536550612006683 0 -0.37710287173325818 -0.2711091198417086 0 -0.3770412393053626 -0.27536550612006683 0 -0.37710287173325818 -0.2711091198417086 0 -0.38543722149146659 -0.25821727905458303 0 -0.40073042569286338 -0.25955101442083811 0 -0.37710287173325818 -0.2711091198417086 0 -0.37747963509906429 -0.24508953120583671 0 -0.37710287173325818 -0.2711091198417086 0 -0.40073042569286338 -0.25955101442083811 0 -0.37710287173325818 -0.2711091198417086 0 -0.38543722149146659 -0.25821727905458303 0 -0.37747963509906429 -0.24508953120583671 0 -0.38543722149146659 -0.25821727905458303 0 -0.3938256931015453 -0.25037754026629511 0 -0.37747963509906429 -0.24508953120583671 0 -0.38543722149146659 -0.25821727905458303 0 -0.3938256931015453 -0.25037754026629511 0 -0.40073042569286338 -0.25955101442083811 0 -0.40073042569286338 -0.25955101442083811 0 -0.40282532782868952 -0.25224285689579767 0 -0.40022281387448849 -0.24084313907701979 0 -0.40073042569286338 -0.25955101442083811 0 -0.40022281387448849 -0.24084313907701979 0 -0.3938256931015453 -0.25037754026629511 0 -0.40073042569286338 -0.25955101442083811 0 -0.40022281387448849 -0.24084313907701979 0 -0.40073042569286338 -0.25955101442083811 0 -0.40282532782868952 -0.25224285689579767 0 -0.41385673751816382 -0.25312989710486528 0 -0.40073042569286338 -0.25955101442083811 0 -0.41385673751816382 -0.25312989710486528 0 -0.40073042569286338 -0.25955101442083811 0 -0.41385673751816382 -0.25312989710486528 0 -0.41341650638623911 -0.27076301679274262 0 -0.41385673751816382 -0.25312989710486528 0 -0.41341650638623911 -0.27076301679274262 0 -0.42312684460972783 -0.26331748455384929 0 -0.41385673751816382 -0.25312989710486528 0 -0.41679144862722167 -0.25169429778568547 0 -0.43445882011373449 -0.25478651907497341 0 -0.40282532782868952 -0.25224285689579767 0 -0.41385673751816382 -0.25312989710486528 0 -0.4086566941719203 -0.24778871483445111 0 -0.40282532782868952 -0.25224285689579767 0 -0.41385673751816382 -0.25312989710486528 0 -0.41385673751816382 -0.25312989710486528 0 -0.41679144862722167 -0.25169429778568547 0 -0.41627810448972868 -0.24641300060905449 0 -0.41385673751816382 -0.25312989710486528 0 -0.41679144862722167 -0.25169429778568547 0 -0.41684225135067149 -0.28376244362903152 0 -0.41341650638623911 -0.27076301679274262 0 -0.43077531442077321 -0.27459050524281542 0 -0.40690107601488551 -0.28490397733270861 0 -0.40123596036735593 -0.27818233727432817 0 -0.41341650638623911 -0.27076301679274262 0 -0.41684225135067149 -0.28376244362903152 0 -0.40690107601488551 -0.28490397733270861 0 -0.41341650638623911 -0.27076301679274262 0 -0.41341650638623911 -0.27076301679274262 0 -0.43077531442077321 -0.27459050524281542 0 -0.42312684460972783 -0.26331748455384929 0 -0.43077531442077321 -0.27459050524281542 0 -0.42312684460972783 -0.26331748455384929 0 -0.43445882011373449 -0.25478651907497341 0 -0.41385673751816382 -0.25312989710486528 0 -0.43445882011373449 -0.25478651907497341 0 -0.43077531442077321 -0.27459050524281542 0 -0.43445882011373449 -0.25478651907497341 0 -0.41385673751816382 -0.25312989710486528 0 -0.42312684460972783 -0.26331748455384929 0 -0.43445882011373449 -0.25478651907497341 0 -0.41679144862722167 -0.25169429778568547 0 -0.43445882011373449 -0.25478651907497341 0 -0.42335340856967768 -0.24893549408922019 0 -0.32580796388430833 -0.26195871891040218 0 -0.34139866608006603 -0.2687790352098644 0 -0.31202674084989918 -0.26335133138269068 0 -0.32580796388430833 -0.26195871891040218 0 -0.33345250408021371 -0.25331871279766999 0 -0.32023222063025569 -0.2489608815952247 0 -0.32580796388430833 -0.26195871891040218 0 -0.31664960680882542 -0.25714232151458272 0 -0.32023222063025569 -0.2489608815952247 0 -0.31664960680882542 -0.25714232151458272 0 -0.30853150187083839 -0.25429835417001312 0 -0.32023222063025569 -0.2489608815952247 0 -0.32580796388430833 -0.26195871891040218 0 -0.31664960680882542 -0.25714232151458272 0 -0.31202674084989918 -0.26335133138269068 0 -0.33223611708196649 -0.27626932861073827 0 -0.31972670239926188 -0.28454160199560091 0 -0.31187737399160442 -0.27618124236115132 0 -0.34139866608006603 -0.2687790352098644 0 -0.31202674084989918 -0.26335133138269068 0 -0.33223611708196649 -0.27626932861073827 0 -0.31202674084989918 -0.26335133138269068 0 -0.3062135479255173 -0.26372173898871692 0 -0.33223611708196649 -0.27626932861073827 0 -0.31187737399160442 -0.27618124236115132 0 -0.3062135479255173 -0.26372173898871692 0 -0.33260241140844943 -0.2743168067351805 0 -0.33223611708196649 -0.27626932861073827 0 -0.31202674084989918 -0.26335133138269068 0 -0.33223611708196649 -0.27626932861073827 0 -0.3062135479255173 -0.26372173898871692 0 -0.33260241140844943 -0.2743168067351805 0 -0.34139866608006603 -0.2687790352098644 0 -0.31202674084989918 -0.26335133138269068 0 -0.33223611708196649 -0.27626932861073827 0 -0.34139866608006603 -0.2687790352098644 0 -0.34951875912658742 -0.28460269103381453 0 -0.33223611708196649 -0.27626932861073827 0 -0.34951875912658742 -0.28460269103381453 0 -0.33260241140844943 -0.2743168067351805 0 -0.33223611708196649 -0.27626932861073827 0 -0.34139866608006603 -0.2687790352098644 0 -0.33260241140844943 -0.2743168067351805 0 -0.33223611708196649 -0.27626932861073827 0 -0.34139866608006603 -0.2687790352098644 0 -0.3363084638556994 -0.26041051377605268 0 -0.34457472137820933 -0.25758558818627408 0 -0.32580796388430833 -0.26195871891040218 0 -0.34139866608006603 -0.2687790352098644 0 -0.3363084638556994 -0.26041051377605268 0 -0.32580796388430833 -0.26195871891040218 0 -0.3363084638556994 -0.26041051377605268 0 -0.33345250408021371 -0.25331871279766999 0 -0.3363084638556994 -0.26041051377605268 0 -0.33345250408021371 -0.25331871279766999 0 -0.34457472137820933 -0.25758558818627408 0 -0.33345250408021371 -0.25331871279766999 0 -0.34457472137820933 -0.25758558818627408 0 -0.34395992200845399 -0.24382677409400949 0 -0.34139866608006603 -0.2687790352098644 0 -0.34457472137820933 -0.25758558818627408 0 -0.35733732661955131 -0.26288598862094092 0 -0.34457472137820933 -0.25758558818627408 0 -0.35872453044413888 -0.25078889886649508 0 -0.34395992200845399 -0.24382677409400949 0 -0.34457472137820933 -0.25758558818627408 0 -0.35733732661955131 -0.26288598862094092 0 -0.35872453044413888 -0.25078889886649508 0 -0.37710287173325818 -0.2711091198417086 0 -0.36828299104124951 -0.26081605551440462 0 -0.37747963509906429 -0.24508953120583671 0 -0.35872453044413888 -0.25078889886649508 0 -0.36828299104124951 -0.26081605551440462 0 -0.37747963509906429 -0.24508953120583671 0 -0.35733732661955131 -0.26288598862094092 0 -0.35872453044413888 -0.25078889886649508 0 -0.36828299104124951 -0.26081605551440462 0 -0.37077059131023282 -0.27420673903703829 0 -0.34951875912658742 -0.28460269103381453 0 -0.37710287173325818 -0.2711091198417086 0 -0.3770412393053626 -0.27536550612006683 0 -0.37077059131023282 -0.27420673903703829 0 -0.3770412393053626 -0.27536550612006683 0 -0.37077059131023282 -0.27420673903703829 0 -0.37710287173325818 -0.2711091198417086 0 -0.36828299104124951 -0.26081605551440462 0 -0.37077059131023282 -0.27420673903703829 0 -0.37710287173325818 -0.2711091198417086 0 -0.37077059131023282 -0.27420673903703829 0 -0.35733732661955131 -0.26288598862094092 0 -0.36828299104124951 -0.26081605551440462 0 -0.37077059131023282 -0.27420673903703829 0 -0.34139866608006603 -0.2687790352098644 0 -0.35733732661955131 -0.26288598862094092 0 -0.37077059131023282 -0.27420673903703829 0 -0.34139866608006603 -0.2687790352098644 0 -0.37077059131023282 -0.27420673903703829 0 -0.34951875912658742 -0.28460269103381453 0 -0.34139866608006603 -0.2687790352098644 0 -0.37077059131023282 -0.27420673903703829 0 -0.34951875912658742 -0.28460269103381453 0 -0.3581763596052473 -0.30097106086504849 0 -0.34010739644885768 -0.2892065328944351 0 -0.34951875912658742 -0.28460269103381453 0 -0.34010739644885768 -0.2892065328944351 0 -0.37671758341694961 -0.29771744858697219 0 -0.37077059131023282 -0.27420673903703829 0 -0.34951875912658742 -0.28460269103381453 0 -0.37671758341694961 -0.29771744858697219 0 -0.34951875912658742 -0.28460269103381453 0 -0.37671758341694961 -0.29771744858697219 0 -0.3770412393053626 -0.27536550612006683 0 -0.37077059131023282 -0.27420673903703829 0 -0.37671758341694961 -0.29771744858697219 0 -0.34951875912658742 -0.28460269103381453 0 -0.3581763596052473 -0.30097106086504849 0 -0.37669606201677502 -0.29920373422444158 0 -0.37671758341694961 -0.29771744858697219 0 -0.3581763596052473 -0.30097106086504849 0 -0.37641717267996733 -0.3184640617331177 0 -0.37669606201677502 -0.29920373422444158 0 -0.36799370156123501 -0.30592930732763762 0 -0.37641717267996733 -0.3184640617331177 0 -0.36799370156123501 -0.30592930732763762 0 -0.35803691493684492 -0.31060122461938489 0 -0.37669606201677502 -0.29920373422444158 0 -0.36799370156123501 -0.30592930732763762 0 -0.3581763596052473 -0.30097106086504849 0 -0.37669606201677502 -0.29920373422444158 0 -0.3581763596052473 -0.30097106086504849 0 -0.36799370156123501 -0.30592930732763762 0 -0.35803691493684492 -0.31060122461938489 0 -0.3581763596052473 -0.30097106086504849 0 -0.35803691493684492 -0.31060122461938489 0 -0.33965665719371979 -0.30273838750565862 0 -0.35803691493684492 -0.31060122461938489 0 -0.33965665719371979 -0.30273838750565862 0 -0.34514704515453298 -0.31300544250539297 0 -0.3581763596052473 -0.30097106086504849 0 -0.33965665719371979 -0.30273838750565862 0 -0.34010739644885768 -0.2892065328944351 0 -0.35803691493684492 -0.31060122461938489 0 -0.3581763596052473 -0.30097106086504849 0 -0.33965665719371979 -0.30273838750565862 0 -0.3581763596052473 -0.30097106086504849 0 -0.33965665719371979 -0.30273838750565862 0 -0.33676996251121621 -0.31158184422573892 0 -0.33965665719371979 -0.30273838750565862 0 -0.34514704515453298 -0.31300544250539297 0 -0.33676996251121621 -0.31158184422573892 0 -0.33965665719371979 -0.30273838750565862 0 -0.32704471803945162 -0.30394193902942662 0 -0.33676996251121621 -0.31158184422573892 0 -0.32594772137393307 -0.30978944971135602 0 -0.32704471803945162 -0.30394193902942662 0 -0.33965665719371979 -0.30273838750565862 0 -0.32704471803945162 -0.30394193902942662 0 -0.32819068517220462 -0.29783339261299951 0 -0.33965665719371979 -0.30273838750565862 0 -0.32704471803945162 -0.30394193902942662 0 -0.32819068517220462 -0.29783339261299951 0 -0.33965665719371979 -0.30273838750565862 0 -0.33223611708196649 -0.27626932861073827 0 -0.32819068517220462 -0.29783339261299951 0 -0.33223611708196649 -0.27626932861073827 0 -0.32819068517220462 -0.29783339261299951 0 -0.34010739644885768 -0.2892065328944351 0 -0.33223611708196649 -0.27626932861073827 0 -0.34951875912658742 -0.28460269103381453 0 -0.34010739644885768 -0.2892065328944351 0 -0.32819068517220462 -0.29783339261299951 0 -0.33965665719371979 -0.30273838750565862 0 -0.34010739644885768 -0.2892065328944351 0 -0.32819068517220462 -0.29783339261299951 0 -0.31972670239926188 -0.28454160199560091 0 -0.31332574866090718 -0.291474364566292 0 -0.32819068517220462 -0.29783339261299951 0 -0.31332574866090718 -0.291474364566292 0 -0.33223611708196649 -0.27626932861073827 0 -0.32819068517220462 -0.29783339261299951 0 -0.31972670239926188 -0.28454160199560091 0 -0.31972670239926188 -0.28454160199560091 0 -0.31332574866090718 -0.291474364566292 0 -0.30937392239009109 -0.28339120160471948 0 -0.31972670239926188 -0.28454160199560091 0 -0.30937392239009109 -0.28339120160471948 0 -0.31187737399160442 -0.27618124236115132 0 -0.31992409361072222 -0.30462145692723192 0 -0.32594772137393307 -0.30978944971135602 0 -0.31307430431717392 -0.31869978567557272 0 -0.31992409361072222 -0.30462145692723192 0 -0.32594772137393307 -0.30978944971135602 0 -0.32594772137393307 -0.30978944971135602 0 -0.32704471803945162 -0.30394193902942662 0 -0.31992409361072222 -0.30462145692723192 0 -0.32594772137393307 -0.30978944971135602 0 -0.32704471803945162 -0.30394193902942662 0 -0.32819068517220462 -0.29783339261299951 0 -0.31332574866090718 -0.291474364566292 0 -0.31992409361072222 -0.30462145692723192 0 -0.32819068517220462 -0.29783339261299951 0 -0.32704471803945162 -0.30394193902942662 0 -0.32819068517220462 -0.29783339261299951 0 -0.31992409361072222 -0.30462145692723192 0 -0.32704471803945162 -0.30394193902942662 0 -0.31992409361072222 -0.30462145692723192 0 -0.32704471803945162 -0.30394193902942662 0 -0.32594772137393307 -0.30978944971135602 0 -0.31307430431717392 -0.31869978567557272 0 -0.32184288384298337 -0.33167017375041419 0 -0.32594772137393307 -0.30978944971135602 0 -0.32184288384298337 -0.33167017375041419 0 -0.32184288384298337 -0.33167017375041419 0 -0.31773804631203251 -0.35355089778947202 0 -0.32184288384298337 -0.33167017375041419 0 -0.34475024534571441 -0.34586667392980902 0 -0.31773804631203251 -0.35355089778947202 0 -0.32184288384298337 -0.33167017375041419 0 -0.34612464597635118 -0.32710031367078812 0 -0.34475024534571441 -0.34586667392980902 0 -0.33676996251121621 -0.31158184422573892 0 -0.32594772137393307 -0.30978944971135602 0 -0.34612464597635118 -0.32710031367078812 0 -0.32594772137393307 -0.30978944971135602 0 -0.34612464597635118 -0.32710031367078812 0 -0.32594772137393307 -0.30978944971135602 0 -0.32184288384298337 -0.33167017375041419 0 -0.34612464597635118 -0.32710031367078812 0 -0.33676996251121621 -0.31158184422573892 0 -0.34514704515453298 -0.31300544250539297 0 -0.34612464597635118 -0.32710031367078812 0 -0.35803691493684492 -0.31060122461938489 0 -0.34514704515453298 -0.31300544250539297 0 -0.34612464597635118 -0.32710031367078812 0 -0.35803691493684492 -0.31060122461938489 0 -0.34612464597635118 -0.32710031367078812 0 -0.35600230731325749 -0.33324145173106873 0 -0.37641717267996733 -0.3184640617331177 0 -0.35803691493684492 -0.31060122461938489 0 -0.37641717267996733 -0.3184640617331177 0 -0.35803691493684492 -0.31060122461938489 0 -0.36719759625642318 -0.33008752154143739 0 -0.35803691493684492 -0.31060122461938489 0 -0.36719759625642318 -0.33008752154143739 0 -0.35600230731325749 -0.33324145173106873 0 -0.37607676276689278 -0.3419730509543204 0 -0.37641717267996733 -0.3184640617331177 0 -0.36719759625642318 -0.33008752154143739 0 -0.37607676276689278 -0.3419730509543204 0 -0.3688763256213185 -0.34309961767568647 0 -0.36719759625642318 -0.33008752154143739 0 -0.36719759625642318 -0.33008752154143739 0 -0.36118874601324108 -0.3436521492952741 0 -0.35600230731325749 -0.33324145173106873 0 -0.3688763256213185 -0.34309961767568647 0 -0.36719759625642318 -0.33008752154143739 0 -0.36118874601324108 -0.3436521492952741 0 -0.34612464597635118 -0.32710031367078812 0 -0.35600230731325749 -0.33324145173106873 0 -0.34475024534571441 -0.34586667392980902 0 -0.36118874601324108 -0.3436521492952741 0 -0.35600230731325749 -0.33324145173106873 0 -0.34475024534571441 -0.34586667392980902 0 -0.36118874601324108 -0.3436521492952741 0 -0.34475024534571441 -0.34586667392980902 0 -0.35925477447714671 -0.35134479444962452 0 -0.34475024534571441 -0.34586667392980902 0 -0.35480891830463612 -0.3592101017575729 0 -0.33937201587241012 -0.36587749477948078 0 -0.34475024534571441 -0.34586667392980902 0 -0.35480891830463612 -0.3592101017575729 0 -0.35925477447714671 -0.35134479444962452 0 -0.36118874601324108 -0.3436521492952741 0 -0.37225797237559449 -0.35115364910559932 0 -0.36118874601324108 -0.3436521492952741 0 -0.35925477447714671 -0.35134479444962452 0 -0.36985982957495511 -0.35171195823109852 0 -0.37568304780698558 -0.36916333065311507 0 -0.37593298752455201 -0.35190228771479481 0 -0.37225797237559449 -0.35115364910559932 0 -0.35480891830463612 -0.3592101017575729 0 -0.35925477447714671 -0.35134479444962452 0 -0.36985982957495511 -0.35171195823109852 0 -0.37607676276689278 -0.3419730509543204 0 -0.3688763256213185 -0.34309961767568647 0 -0.37225797237559449 -0.35115364910559932 0 -0.37607676276689278 -0.3419730509543204 0 -0.37225797237559449 -0.35115364910559932 0 -0.37607676276689278 -0.3419730509543204 0 -0.37390838074359528 -0.35076941925389299 0 -0.37225797237559449 -0.35115364910559932 0 -0.37593298752455201 -0.35190228771479481 0 -0.37390838074359528 -0.35076941925389299 0 -0.37225797237559449 -0.35115364910559932 0 -0.3688763256213185 -0.34309961767568647 0 -0.36118874601324108 -0.3436521492952741 0 -0.37225797237559449 -0.35115364910559932 0 -0.37593298752455201 -0.35190228771479481 0 -0.37390838074359528 -0.35076941925389299 0 -0.36118874601324108 -0.3436521492952741 0 -0.36985982957495511 -0.35171195823109852 0 -0.37225797237559449 -0.35115364910559932 0 -0.37595629511297179 -0.35029264644438168 0 -0.37390838074359528 -0.35076941925389299 0 -0.37390838074359528 -0.35076941925389299 0 -0.37225797237559449 -0.35115364910559932 0 -0.36985982957495511 -0.35171195823109852 0 -0.37225797237559449 -0.35115364910559932 0 -0.37568304780698558 -0.36916333065311507 0 -0.37225797237559449 -0.35115364910559932 0 -0.36100598543278789 -0.37820409176948921 0 -0.35480891830463612 -0.3592101017575729 0 -0.36985982957495511 -0.35171195823109852 0 -0.36100598543278789 -0.37820409176948921 0 -0.36985982957495511 -0.35171195823109852 0 -0.37225797237559449 -0.35115364910559932 0 -0.36100598543278789 -0.37820409176948921 0 -0.37225797237559449 -0.35115364910559932 0 -0.36100598543278789 -0.37820409176948921 0 -0.33937201587241012 -0.36587749477948078 0 -0.36100598543278789 -0.37820409176948921 0 -0.35480891830463612 -0.3592101017575729 0 -0.33937201587241012 -0.36587749477948078 0 -0.36100598543278789 -0.37820409176948921 0 -0.33937201587241012 -0.36587749477948078 0 -0.31773804631203251 -0.35355089778947202 0 -0.33937201587241012 -0.36587749477948078 0 -0.31773804631203251 -0.35355089778947202 0 -0.32803705280137402 -0.37447550275240871 0 -0.34475024534571441 -0.34586667392980902 0 -0.33937201587241012 -0.36587749477948078 0 -0.31773804631203251 -0.35355089778947202 0 -0.31773804631203251 -0.35355089778947202 0 -0.31381007312398762 -0.37448885129246268 0 -0.31773804631203251 -0.35355089778947202 0 -0.31381007312398762 -0.37448885129246268 0 -0.32803705280137402 -0.37447550275240871 0 -0.31381007312398762 -0.37448885129246268 0 -0.29871455833571747 -0.36148408621311728 0 -0.29196992941862432 -0.3825632544476108 0 -0.31773804631203251 -0.35355089778947202 0 -0.31381007312398762 -0.37448885129246268 0 -0.29871455833571747 -0.36148408621311728 0 -0.31773804631203251 -0.35355089778947202 0 -0.29871455833571747 -0.36148408621311728 0 -0.29282778547957722 -0.33935753649529382 0 -0.31773804631203251 -0.35355089778947202 0 -0.29282778547957722 -0.33935753649529382 0 -0.29871455833571747 -0.36148408621311728 0 -0.27675503022224163 -0.36681377825091099 0 -0.29282778547957722 -0.33935753649529382 0 -0.29871455833571747 -0.36148408621311728 0 -0.27675503022224163 -0.36681377825091099 0 -0.29196992941862432 -0.3825632544476108 0 -0.27675503022224163 -0.36681377825091099 0 -0.25757508569408222 -0.36424633604315798 0 -0.26546808025963542 -0.34847395767735678 0 -0.27675503022224163 -0.36681377825091099 0 -0.25757508569408222 -0.36424633604315798 0 -0.25812358553267323 -0.37605355791306738 0 -0.25757508569408222 -0.36424633604315798 0 -0.24839247009954951 -0.37292447016044328 0 -0.24532753696728959 -0.36501789644951049 0 -0.25757508569408222 -0.36424633604315798 0 -0.25812358553267323 -0.37605355791306738 0 -0.24839247009954951 -0.37292447016044328 0 -0.25757508569408222 -0.36424633604315798 0 -0.26546808025963542 -0.34847395767735678 0 -0.24650166737573331 -0.3569693529562265 0 -0.26546808025963542 -0.34847395767735678 0 -0.24650166737573331 -0.3569693529562265 0 -0.24881121389389799 -0.33838995723746451 0 -0.27675503022224163 -0.36681377825091099 0 -0.26546808025963542 -0.34847395767735678 0 -0.29282778547957722 -0.33935753649529382 0 -0.26791752464712137 -0.32516417520111718 0 -0.27544300416693679 -0.31995488319631832 0 -0.29282778547957722 -0.33935753649529382 0 -0.26546808025963542 -0.34847395767735678 0 -0.26791752464712137 -0.32516417520111718 0 -0.29282778547957722 -0.33935753649529382 0 -0.26791752464712137 -0.32516417520111718 0 -0.29282778547957722 -0.33935753649529382 0 -0.26791752464712137 -0.32516417520111718 0 -0.24881121389389799 -0.33838995723746451 0 -0.26546808025963542 -0.34847395767735678 0 -0.26791752464712137 -0.32516417520111718 0 -0.24881121389389799 -0.33838995723746451 0 -0.26791752464712137 -0.32516417520111718 0 -0.24881121389389799 -0.33838995723746451 0 -0.2441082332202735 -0.32380704628422963 0 -0.26791752464712137 -0.32516417520111718 0 -0.2444966906846206 -0.31181945912301329 0 -0.26791752464712137 -0.32516417520111718 0 -0.26963915832665503 -0.30942012505775762 0 -0.2444966906846206 -0.31181945912301329 0 -0.26791752464712137 -0.32516417520111718 0 -0.2441082332202735 -0.32380704628422963 0 -0.2444966906846206 -0.31181945912301329 0 -0.26791752464712137 -0.32516417520111718 0 -0.27544300416693679 -0.31995488319631832 0 -0.26963915832665503 -0.30942012505775762 0 -0.26791752464712137 -0.32516417520111718 0 -0.27544300416693679 -0.31995488319631832 0 -0.27544300416693679 -0.31995488319631832 0 -0.29403167998309421 -0.32125824908992018 0 -0.29478162596868879 -0.30702079099249591 0 -0.27544300416693679 -0.31995488319631832 0 -0.29403167998309421 -0.32125824908992018 0 -0.29282778547957722 -0.33935753649529382 0 -0.31307430431717392 -0.31869978567557272 0 -0.32184288384298337 -0.33167017375041419 0 -0.29282778547957722 -0.33935753649529382 0 -0.32184288384298337 -0.33167017375041419 0 -0.31773804631203251 -0.35355089778947202 0 -0.29282778547957722 -0.33935753649529382 0 -0.31307430431717392 -0.31869978567557272 0 -0.29403167998309421 -0.32125824908992018 0 -0.29282778547957722 -0.33935753649529382 0 -0.31307430431717392 -0.31869978567557272 0 -0.29403167998309421 -0.32125824908992018 0 -0.29478162596868879 -0.30702079099249591 0 -0.31992409361072222 -0.30462145692723192 0 -0.29478162596868879 -0.30702079099249591 0 -0.31992409361072222 -0.30462145692723192 0 -0.31307430431717392 -0.31869978567557272 0 -0.29478162596868879 -0.30702079099249591 0 -0.31992409361072222 -0.30462145692723192 0 -0.30687808727867438 -0.29770175581860719 0 -0.29478162596868879 -0.30702079099249591 0 -0.30687808727867438 -0.29770175581860719 0 -0.29813438661480679 -0.29530641477552327 0 -0.29478162596868879 -0.30702079099249591 0 -0.31992409361072222 -0.30462145692723192 0 -0.2984608121496099 -0.28511533651958437 0 -0.31992409361072222 -0.30462145692723192 0 -0.30687808727867438 -0.29770175581860719 0 -0.2984608121496099 -0.28511533651958437 0 -0.31332574866090718 -0.291474364566292 0 -0.31992409361072222 -0.30462145692723192 0 -0.2984608121496099 -0.28511533651958437 0 -0.31332574866090718 -0.291474364566292 0 -0.30937392239009109 -0.28339120160471948 0 -0.2984608121496099 -0.28511533651958437 0 -0.31332574866090718 -0.291474364566292 0 -0.2984608121496099 -0.28511533651958437 0 -0.30937392239009109 -0.28339120160471948 0 -0.2984608121496099 -0.28511533651958437 0 -0.30347897474907187 -0.279643462580969 0 -0.30687808727867438 -0.29770175581860719 0 -0.29951482580247829 -0.29240083595456018 0 -0.29813438661480679 -0.29530641477552327 0 -0.30687808727867438 -0.29770175581860719 0 -0.2984608121496099 -0.28511533651958437 0 -0.29951482580247829 -0.29240083595456018 0 -0.29951482580247829 -0.29240083595456018 0 -0.29813438661480679 -0.29530641477552327 0 -0.29499124589990039 -0.29073588210889412 0 -0.2984608121496099 -0.28511533651958437 0 -0.29951482580247829 -0.29240083595456018 0 -0.29499124589990039 -0.29073588210889412 0 -0.29499124589990039 -0.29073588210889412 0 -0.29148170063899659 -0.29460773718781319 0 -0.28586576089235322 -0.28577101837165192 0 -0.29813438661480679 -0.29530641477552327 0 -0.29499124589990039 -0.29073588210889412 0 -0.29148170063899659 -0.29460773718781319 0 -0.2984608121496099 -0.28511533651958437 0 -0.29499124589990039 -0.29073588210889412 0 -0.28586576089235322 -0.28577101837165192 0 -0.29148170063899659 -0.29460773718781319 0 -0.28586576089235322 -0.28577101837165192 0 -0.2798353156189245 -0.29508903771003908 0 -0.29148170063899659 -0.29460773718781319 0 -0.29478162596868879 -0.30702079099249591 0 -0.2798353156189245 -0.29508903771003908 0 -0.29478162596868879 -0.30702079099249591 0 -0.26963915832665503 -0.30942012505775762 0 -0.2798353156189245 -0.29508903771003908 0 -0.29478162596868879 -0.30702079099249591 0 -0.26963915832665503 -0.30942012505775762 0 -0.29813438661480679 -0.29530641477552327 0 -0.29148170063899659 -0.29460773718781319 0 -0.29478162596868879 -0.30702079099249591 0 -0.27544300416693679 -0.31995488319631832 0 -0.29478162596868879 -0.30702079099249591 0 -0.26963915832665503 -0.30942012505775762 0 -0.26963915832665503 -0.30942012505775762 0 -0.26057201890547982 -0.29344093798311832 0 -0.2798353156189245 -0.29508903771003908 0 -0.26963915832665503 -0.30942012505775762 0 -0.2444966906846206 -0.31181945912301329 0 -0.26963915832665503 -0.30942012505775762 0 -0.26057201890547982 -0.29344093798311832 0 -0.2444966906846206 -0.31181945912301329 0 -0.26057201890547982 -0.29344093798311832 0 -0.27108878797196961 -0.28331686931735522 0 -0.25298377122075039 -0.27518622721876451 0 -0.26057201890547982 -0.29344093798311832 0 -0.25298377122075039 -0.27518622721876451 0 -0.2435111179254994 -0.29490773243705071 0 -0.26057201890547982 -0.29344093798311832 0 -0.27108878797196961 -0.28331686931735522 0 -0.2798353156189245 -0.29508903771003908 0 -0.28586576089235322 -0.28577101837165192 0 -0.27108878797196961 -0.28331686931735522 0 -0.2798353156189245 -0.29508903771003908 0 -0.27108878797196961 -0.28331686931735522 0 -0.27618707322233982 -0.26709712530320262 0 -0.25298377122075039 -0.27518622721876451 0 -0.28586576089235322 -0.28577101837165192 0 -0.27108878797196961 -0.28331686931735522 0 -0.27618707322233982 -0.26709712530320262 0 -0.27618707322233982 -0.26709712530320262 0 -0.25431856302814809 -0.24833495949118861 0 -0.27618707322233982 -0.26709712530320262 0 -0.25298377122075039 -0.27518622721876451 0 -0.25431856302814809 -0.24833495949118861 0 -0.27618707322233982 -0.26709712530320262 0 -0.27309361240676189 -0.24179026653703889 0 -0.25431856302814809 -0.24833495949118861 0 -0.27618707322233982 -0.26709712530320262 0 -0.2907170577323625 -0.25177677077710309 0 -0.27309361240676189 -0.24179026653703889 0 -0.27618707322233982 -0.26709712530320262 0 -0.2907170577323625 -0.25177677077710309 0 -0.29477899871119112 -0.26293378760569941 0 -0.2984608121496099 -0.28511533651958437 0 -0.28586576089235322 -0.28577101837165192 0 -0.27618707322233982 -0.26709712530320262 0 -0.2984608121496099 -0.28511533651958437 0 -0.27618707322233982 -0.26709712530320262 0 -0.27618707322233982 -0.26709712530320262 0 -0.29477899871119112 -0.26293378760569941 0 -0.29948479845841441 -0.27338487519771032 0 -0.2984608121496099 -0.28511533651958437 0 -0.27618707322233982 -0.26709712530320262 0 -0.29948479845841441 -0.27338487519771032 0 -0.29477899871119112 -0.26293378760569941 0 -0.29948479845841441 -0.27338487519771032 0 -0.30156079933714469 -0.26765617134954151 0 -0.30156079933714469 -0.26765617134954151 0 -0.30403476516136241 -0.27459464834518948 0 -0.30588444940973558 -0.27063474712059482 0 -0.29948479845841441 -0.27338487519771032 0 -0.30156079933714469 -0.26765617134954151 0 -0.30403476516136241 -0.27459464834518948 0 -0.30156079933714469 -0.26765617134954151 0 -0.30588444940973558 -0.27063474712059482 0 -0.3062135479255173 -0.26372173898871692 0 -0.2984608121496099 -0.28511533651958437 0 -0.29948479845841441 -0.27338487519771032 0 -0.30347897474907187 -0.279643462580969 0 -0.29948479845841441 -0.27338487519771032 0 -0.30403476516136241 -0.27459464834518948 0 -0.30347897474907187 -0.279643462580969 0 -0.30937392239009109 -0.28339120160471948 0 -0.30347897474907187 -0.279643462580969 0 -0.31187737399160442 -0.27618124236115132 0 -0.30403476516136241 -0.27459464834518948 0 -0.30347897474907187 -0.279643462580969 0 -0.31187737399160442 -0.27618124236115132 0 -0.30403476516136241 -0.27459464834518948 0 -0.31187737399160442 -0.27618124236115132 0 -0.30588444940973558 -0.27063474712059482 0 -0.31187737399160442 -0.27618124236115132 0 -0.30588444940973558 -0.27063474712059482 0 -0.3062135479255173 -0.26372173898871692 0 -0.31664960680882542 -0.25714232151458272 0 -0.31202674084989918 -0.26335133138269068 0 -0.30853150187083839 -0.25429835417001312 0 -0.2907170577323625 -0.25177677077710309 0 -0.29477899871119112 -0.26293378760569941 0 -0.30853150187083839 -0.25429835417001312 0 -0.31202674084989918 -0.26335133138269068 0 -0.3062135479255173 -0.26372173898871692 0 -0.30853150187083839 -0.25429835417001312 0 -0.29477899871119112 -0.26293378760569941 0 -0.30156079933714469 -0.26765617134954151 0 -0.3062135479255173 -0.26372173898871692 0 -0.29477899871119112 -0.26293378760569941 0 -0.3062135479255173 -0.26372173898871692 0 -0.30853150187083839 -0.25429835417001312 0 -0.33709504481289931 -0.46474263175187808 0 -0.33075086723682939 -0.45093918684289991 0 -0.35302422329502631 -0.44785824460859458 0 -0.33709504481289931 -0.46474263175187808 0 -0.33075086723682939 -0.45093918684289991 0 -0.32054712240525829 -0.47546959342145068 0 -0.33075086723682939 -0.45093918684289991 0 -0.34095461206840061 -0.42640878026434909 0 -0.33075086723682939 -0.45093918684289991 0 -0.35302422329502631 -0.44785824460859458 0 -0.34095461206840061 -0.42640878026434909 0 -0.33075086723682939 -0.45093918684289991 0 -0.32054706720266329 -0.44859283512714471 0 -0.3206124180200437 -0.43193612962395289 0 -0.33075086723682939 -0.45093918684289991 0 -0.32054706720266329 -0.44859283512714471 0 -0.31571728338184601 -0.45752087103574601 0 -0.32054706720266329 -0.44859283512714471 0 -0.31571728338184601 -0.45752087103574601 0 -0.30706080135445341 -0.45057148265483188 0 -0.33075086723682939 -0.45093918684289991 0 -0.32054712240525829 -0.47546959342145068 0 -0.33075086723682939 -0.45093918684289991 0 -0.31571728338184601 -0.45752087103574601 0 -0.32054712240525829 -0.47546959342145068 0 -0.32054712240525829 -0.47546959342145068 0 -0.32750579650535672 -0.48798687004089669 0 -0.32933965142182292 -0.47777380670114528 0 -0.32054712240525829 -0.47546959342145068 0 -0.31034337757368669 -0.50000000000000133 0 -0.32750579650535672 -0.48798687004089669 0 -0.33387795429423722 -0.5 0 -0.31034337757368669 -0.50000000000000133 0 -0.32054712240525829 -0.47546959342145068 0 -0.32750579650535672 -0.48798687004089669 0 -0.31034337757368669 -0.50000000000000133 0 -0.32750579650535672 -0.48798687004089669 0 -0.34342087683177741 -0.48669095008188618 0 -0.33387795429423722 -0.5 0 -0.33709504481289931 -0.46474263175187808 0 -0.32933965142182292 -0.47777380670114528 0 -0.35181335970555933 -0.47167232718529989 0 -0.34342087683177741 -0.48669095008188618 0 -0.32933965142182292 -0.47777380670114528 0 -0.35181335970555933 -0.47167232718529989 0 -0.32750579650535672 -0.48798687004089669 0 -0.34342087683177741 -0.48669095008188618 0 -0.32933965142182292 -0.47777380670114528 0 -0.33709504481289931 -0.46474263175187808 0 -0.32054712240525829 -0.47546959342145068 0 -0.32933965142182292 -0.47777380670114528 0 -0.32933965142182292 -0.47777380670114528 0 -0.35181335970555933 -0.47167232718529989 0 -0.34342087683177741 -0.48669095008188618 0 -0.35181335970555933 -0.47167232718529989 0 -0.35979455825166368 -0.48519290092039941 0 -0.34342087683177741 -0.48669095008188618 0 -0.35741253101478748 -0.5 0 -0.35979455825166368 -0.48519290092039941 0 -0.34342087683177741 -0.48669095008188618 0 -0.33387795429423722 -0.5 0 -0.35741253101478748 -0.5 0 -0.38094710773533791 -0.49999999999999839 0 -0.35741253101478748 -0.5 0 -0.37240076261097882 -0.48974555046165519 0 -0.35741253101478748 -0.5 0 -0.35979455825166368 -0.48519290092039941 0 -0.37240076261097882 -0.48974555046165519 0 -0.35181335970555933 -0.47167232718529989 0 -0.35979455825166368 -0.48519290092039941 0 -0.37411677223754131 -0.47733161267270968 0 -0.35181335970555933 -0.47167232718529989 0 -0.37411677223754131 -0.47733161267270968 0 -0.37428706798929601 -0.46557084766945539 0 -0.35979455825166368 -0.48519290092039941 0 -0.37240076261097882 -0.48974555046165519 0 -0.37411677223754131 -0.47733161267270968 0 -0.37411677223754131 -0.47733161267270968 0 -0.37428706798929601 -0.46557084766945539 0 -0.35181335970555933 -0.47167232718529989 0 -0.37428706798929601 -0.46557084766945539 0 -0.35302422329502631 -0.44785824460859458 0 -0.35181335970555933 -0.47167232718529989 0 -0.37428706798929601 -0.46557084766945539 0 -0.33709504481289931 -0.46474263175187808 0 -0.35181335970555933 -0.47167232718529989 0 -0.35302422329502631 -0.44785824460859458 0 -0.37428706798929601 -0.46557084766945539 0 -0.35302422329502631 -0.44785824460859458 0 -0.37472313619600889 -0.43545561783144832 0 -0.37428706798929601 -0.46557084766945539 0 -0.37472313619600889 -0.43545561783144832 0 -0.35302422329502631 -0.44785824460859458 0 -0.37472313619600889 -0.43545561783144832 0 -0.36076670325611282 -0.42019275678090617 0 -0.37515920440272033 -0.40534038799344108 0 -0.37472313619600889 -0.43545561783144832 0 -0.36076670325611282 -0.42019275678090617 0 -0.37515920440272033 -0.40534038799344108 0 -0.36076670325611282 -0.42019275678090617 0 -0.35115835689997099 -0.40187837368579798 0 -0.37515920440272033 -0.40534038799344108 0 -0.37472313619600889 -0.43545561783144832 0 -0.36076670325611282 -0.42019275678090617 0 -0.35115835689997099 -0.40187837368579798 0 -0.34095461206840061 -0.42640878026434909 0 -0.34815033243380111 -0.40144447968524521 0 -0.35115835689997099 -0.40187837368579798 0 -0.34095461206840061 -0.42640878026434909 0 -0.35115835689997099 -0.40187837368579798 0 -0.34095461206840061 -0.42640878026434909 0 -0.35302422329502631 -0.44785824460859458 0 -0.36076670325611282 -0.42019275678090617 0 -0.34095461206840061 -0.42640878026434909 0 -0.37543310808941849 -0.38642437359143528 0 -0.36100598543278789 -0.37820409176948921 0 -0.35115835689997099 -0.40187837368579798 0 -0.37543310808941849 -0.38642437359143528 0 -0.37568304780698558 -0.36916333065311507 0 -0.36100598543278789 -0.37820409176948921 0 -0.37543310808941849 -0.38642437359143528 0 -0.36100598543278789 -0.37820409176948921 0 -0.37515920440272033 -0.40534038799344108 0 -0.37543310808941849 -0.38642437359143528 0 -0.35115835689997099 -0.40187837368579798 0 -0.37515920440272033 -0.40534038799344108 0 -0.35115835689997099 -0.40187837368579798 0 -0.35115835689997099 -0.40187837368579798 0 -0.34646966066369161 -0.38533898881774881 0 -0.34316085436749 -0.39382471367395527 0 -0.34815033243380111 -0.40144447968524521 0 -0.35115835689997099 -0.40187837368579798 0 -0.34316085436749 -0.39382471367395527 0 -0.34815033243380111 -0.40144447968524521 0 -0.35115835689997099 -0.40187837368579798 0 -0.33937201587241012 -0.36587749477948078 0 -0.36100598543278789 -0.37820409176948921 0 -0.34646966066369161 -0.38533898881774881 0 -0.36100598543278789 -0.37820409176948921 0 -0.35115835689997099 -0.40187837368579798 0 -0.36100598543278789 -0.37820409176948921 0 -0.35115835689997099 -0.40187837368579798 0 -0.34646966066369161 -0.38533898881774881 0 -0.33937201587241012 -0.36587749477948078 0 -0.32803705280137402 -0.37447550275240871 0 -0.34646966066369161 -0.38533898881774881 0 -0.32803705280137402 -0.37447550275240871 0 -0.34646966066369161 -0.38533898881774881 0 -0.32931529664348408 -0.38869437358142001 0 -0.34646966066369161 -0.38533898881774881 0 -0.32931529664348408 -0.38869437358142001 0 -0.34316085436749 -0.39382471367395527 0 -0.34815033243380111 -0.40144447968524521 0 -0.33486919938690762 -0.39884665705885908 0 -0.32944617452305069 -0.41182817437998842 0 -0.32931529664348408 -0.38869437358142001 0 -0.34316085436749 -0.39382471367395527 0 -0.33486919938690762 -0.39884665705885908 0 -0.32931529664348408 -0.38869437358142001 0 -0.33486919938690762 -0.39884665705885908 0 -0.32365381597648563 -0.39942827076698811 0 -0.34815033243380111 -0.40144447968524521 0 -0.34316085436749 -0.39382471367395527 0 -0.33486919938690762 -0.39884665705885908 0 -0.33486919938690762 -0.39884665705885908 0 -0.32365381597648563 -0.39942827076698811 0 -0.32944617452305069 -0.41182817437998842 0 -0.32931529664348408 -0.38869437358142001 0 -0.32365381597648563 -0.39942827076698811 0 -0.30988209993594379 -0.39542680479545339 0 -0.32365381597648563 -0.39942827076698811 0 -0.30595412674790001 -0.41636475829844438 0 -0.30988209993594379 -0.39542680479545339 0 -0.31381007312398762 -0.37448885129246268 0 -0.32931529664348408 -0.38869437358142001 0 -0.30988209993594379 -0.39542680479545339 0 -0.31381007312398762 -0.37448885129246268 0 -0.32803705280137402 -0.37447550275240871 0 -0.32931529664348408 -0.38869437358142001 0 -0.34095461206840061 -0.42640878026434909 0 -0.32944617452305069 -0.41182817437998842 0 -0.3206124180200437 -0.43193612962395289 0 -0.33075086723682939 -0.45093918684289991 0 -0.34095461206840061 -0.42640878026434909 0 -0.3206124180200437 -0.43193612962395289 0 -0.34815033243380111 -0.40144447968524521 0 -0.34095461206840061 -0.42640878026434909 0 -0.32944617452305069 -0.41182817437998842 0 -0.32944617452305069 -0.41182817437998842 0 -0.3206124180200437 -0.43193612962395289 0 -0.30595412674790001 -0.41636475829844438 0 -0.32365381597648563 -0.39942827076698811 0 -0.32944617452305069 -0.41182817437998842 0 -0.30595412674790001 -0.41636475829844438 0 -0.3206124180200437 -0.43193612962395289 0 -0.30595412674790001 -0.41636475829844438 0 -0.29602166034141808 -0.43748304283089118 0 -0.30595412674790001 -0.41636475829844438 0 -0.28680587137917263 -0.41476105187328532 0 -0.29502227998321778 -0.40112933436643161 0 -0.30595412674790001 -0.41636475829844438 0 -0.28680587137917263 -0.41476105187328532 0 -0.29602166034141808 -0.43748304283089118 0 -0.28680587137917263 -0.41476105187328532 0 -0.29602166034141808 -0.43748304283089118 0 -0.27149625348017281 -0.42637325053463759 0 -0.29602166034141808 -0.43748304283089118 0 -0.27149625348017281 -0.42637325053463759 0 -0.29602166034141808 -0.43748304283089118 0 -0.27149625348017281 -0.42637325053463759 0 -0.27906578537949278 -0.44687665772048962 0 -0.31381007312398762 -0.37448885129246268 0 -0.30988209993594379 -0.39542680479545339 0 -0.31381007312398762 -0.37448885129246268 0 -0.30988209993594379 -0.39542680479545339 0 -0.29196992941862432 -0.3825632544476108 0 -0.30595412674790001 -0.41636475829844438 0 -0.30988209993594379 -0.39542680479545339 0 -0.30595412674790001 -0.41636475829844438 0 -0.30988209993594379 -0.39542680479545339 0 -0.29502227998321778 -0.40112933436643161 0 -0.30988209993594379 -0.39542680479545339 0 -0.29502227998321778 -0.40112933436643161 0 -0.29196992941862432 -0.3825632544476108 0 -0.28680587137917263 -0.41476105187328532 0 -0.29502227998321778 -0.40112933436643161 0 -0.2806661672136338 -0.39648987600255969 0 -0.29502227998321778 -0.40112933436643161 0 -0.29196992941862432 -0.3825632544476108 0 -0.2806661672136338 -0.39648987600255969 0 -0.27675503022224163 -0.36681377825091099 0 -0.29196992941862432 -0.3825632544476108 0 -0.26924588117792803 -0.38334910629271668 0 -0.29196992941862432 -0.3825632544476108 0 -0.26924588117792803 -0.38334910629271668 0 -0.2806661672136338 -0.39648987600255969 0 -0.27675503022224163 -0.36681377825091099 0 -0.26924588117792803 -0.38334910629271668 0 -0.25812358553267323 -0.37605355791306738 0 -0.28680587137917263 -0.41476105187328532 0 -0.2806661672136338 -0.39648987600255969 0 -0.26326431180229581 -0.40282557300305732 0 -0.26924588117792803 -0.38334910629271668 0 -0.2806661672136338 -0.39648987600255969 0 -0.26326431180229581 -0.40282557300305732 0 -0.26326431180229581 -0.40282557300305732 0 -0.2504897110532438 -0.38524934403489181 0 -0.24394706363899241 -0.39877073912243299 0 -0.26326431180229581 -0.40282557300305732 0 -0.24697084661892749 -0.41526345823838401 0 -0.24394706363899241 -0.39877073912243299 0 -0.26924588117792803 -0.38334910629271668 0 -0.26326431180229581 -0.40282557300305732 0 -0.2504897110532438 -0.38524934403489181 0 -0.26924588117792803 -0.38334910629271668 0 -0.2504897110532438 -0.38524934403489181 0 -0.25812358553267323 -0.37605355791306738 0 -0.2504897110532438 -0.38524934403489181 0 -0.25812358553267323 -0.37605355791306738 0 -0.24839247009954951 -0.37292447016044328 0 -0.28680587137917263 -0.41476105187328532 0 -0.26326431180229581 -0.40282557300305732 0 -0.27149625348017281 -0.42637325053463759 0 -0.27149625348017281 -0.42637325053463759 0 -0.24697084661892749 -0.41526345823838401 0 -0.26326431180229581 -0.40282557300305732 0 -0.27149625348017281 -0.42637325053463759 0 -0.24697084661892749 -0.41526345823838401 0 -0.27149625348017281 -0.42637325053463759 0 -0.25687425522332558 -0.44642006451091643 0 -0.24697084661892749 -0.41526345823838401 0 -0.25687425522332558 -0.44642006451091643 0 -0.27607931301277078 -0.46657199895299017 0 -0.25409384940020791 -0.47271975939701871 0 -0.25687425522332558 -0.44642006451091643 0 -0.27607931301277078 -0.46657199895299017 0 -0.27906578537949278 -0.44687665772048962 0 -0.27149625348017281 -0.42637325053463759 0 -0.25687425522332558 -0.44642006451091643 0 -0.27906578537949278 -0.44687665772048962 0 -0.29602166034141808 -0.43748304283089118 0 -0.27906578537949278 -0.44687665772048962 0 -0.29968055871002541 -0.46203125713240301 0 -0.27607931301277078 -0.46657199895299017 0 -0.27906578537949278 -0.44687665772048962 0 -0.29968055871002541 -0.46203125713240301 0 -0.31571728338184601 -0.45752087103574601 0 -0.29968055871002541 -0.46203125713240301 0 -0.30706080135445341 -0.45057148265483188 0 -0.31571728338184601 -0.45752087103574601 0 -0.32054712240525829 -0.47546959342145068 0 -0.29968055871002541 -0.46203125713240301 0 -0.32054706720266329 -0.44859283512714471 0 -0.29602166034141808 -0.43748304283089118 0 -0.32054706720266329 -0.44859283512714471 0 -0.3206124180200437 -0.43193612962395289 0 -0.29602166034141808 -0.43748304283089118 0 -0.32054706720266329 -0.44859283512714471 0 -0.29602166034141808 -0.43748304283089118 0 -0.30706080135445341 -0.45057148265483188 0 -0.29602166034141808 -0.43748304283089118 0 -0.29968055871002541 -0.46203125713240301 0 -0.30706080135445341 -0.45057148265483188 0 -0.32054712240525829 -0.47546959342145068 0 -0.31034337757368669 -0.50000000000000133 0 -0.2941570887960146 -0.48201569375099518 0 -0.32054712240525829 -0.47546959342145068 0 -0.29968055871002541 -0.46203125713240301 0 -0.2941570887960146 -0.48201569375099518 0 -0.27607931301277078 -0.46657199895299017 0 -0.29968055871002541 -0.46203125713240301 0 -0.2941570887960146 -0.48201569375099518 0 -0.2941570887960146 -0.48201569375099518 0 -0.28248249767631262 -0.5 0 -0.27039562620846602 -0.48462576079096858 0 -0.31034337757368669 -0.50000000000000133 0 -0.2941570887960146 -0.48201569375099518 0 -0.28248249767631262 -0.5 0 -0.28248249767631262 -0.5 0 -0.27039562620846602 -0.48462576079096858 0 -0.25462161777893849 -0.5 0 -0.27607931301277078 -0.46657199895299017 0 -0.2941570887960146 -0.48201569375099518 0 -0.27039562620846602 -0.48462576079096858 0 -0.27607931301277078 -0.46657199895299017 0 -0.27039562620846602 -0.48462576079096858 0 -0.25409384940020791 -0.47271975939701871 0 -0.27039562620846602 -0.48462576079096858 0 -0.25409384940020791 -0.47271975939701871 0 -0.25462161777893849 -0.5 0 -0.25462161777893849 -0.5 0 -0.23155232774708009 -0.47932355884050398 0 -0.22676073788156451 -0.5 0 -0.25409384940020791 -0.47271975939701871 0 -0.25462161777893849 -0.5 0 -0.23155232774708009 -0.47932355884050398 0 -0.25409384940020791 -0.47271975939701871 0 -0.23155232774708009 -0.47932355884050398 0 -0.2350399564306665 -0.45937717328673289 0 -0.23155232774708009 -0.47932355884050398 0 -0.2350399564306665 -0.45937717328673289 0 -0.2080224731694312 -0.47403962225972662 0 -0.23155232774708009 -0.47932355884050398 0 -0.22676073788156451 -0.5 0 -0.2080224731694312 -0.47403962225972662 0 -0.25687425522332558 -0.44642006451091643 0 -0.2350399564306665 -0.45937717328673289 0 -0.23180750449586429 -0.4343742486430574 0 -0.25687425522332558 -0.44642006451091643 0 -0.25409384940020791 -0.47271975939701871 0 -0.2350399564306665 -0.45937717328673289 0 -0.2350399564306665 -0.45937717328673289 0 -0.21590660946663959 -0.44883644739355771 0 -0.2080224731694312 -0.47403962225972662 0 -0.2350399564306665 -0.45937717328673289 0 -0.21590660946663959 -0.44883644739355771 0 -0.23180750449586429 -0.4343742486430574 0 -0.21590660946663959 -0.44883644739355771 0 -0.1943898331460783 -0.4473597119794826 0 -0.20910912931781811 -0.42543372189632289 0 -0.21590660946663959 -0.44883644739355771 0 -0.1943898331460783 -0.4473597119794826 0 -0.2080224731694312 -0.47403962225972662 0 -0.1943898331460783 -0.4473597119794826 0 -0.2080224731694312 -0.47403962225972662 0 -0.17967053697433849 -0.46928570206264231 0 -0.22676073788156451 -0.5 0 -0.2080224731694312 -0.47403962225972662 0 -0.19889985798419041 -0.5 0 -0.2080224731694312 -0.47403962225972662 0 -0.1821948971586228 -0.48648437486529872 0 -0.17967053697433849 -0.46928570206264231 0 -0.2080224731694312 -0.47403962225972662 0 -0.19889985798419041 -0.5 0 -0.1821948971586228 -0.48648437486529872 0 -0.19889985798419041 -0.5 0 -0.1821948971586228 -0.48648437486529872 0 -0.17103897808681609 -0.49999999999999778 0 -0.1821948971586228 -0.48648437486529872 0 -0.17103897808681609 -0.49999999999999778 0 -0.16495124080259491 -0.49121169214579941 0 -0.17103897808681609 -0.49999999999999778 0 -0.16495124080259491 -0.49121169214579941 0 -0.17103897808681609 -0.49999999999999778 0 -0.16495124080259491 -0.49121169214579941 0 -0.15905149781887321 -0.49999999999999961 0 -0.16495124080259491 -0.49121169214579941 0 -0.15905149781887321 -0.49999999999999961 0 -0.1545750311736096 -0.49062041690426861 0 -0.16495124080259491 -0.49121169214579941 0 -0.15905149781887321 -0.49999999999999961 0 -0.16495124080259491 -0.49121169214579941 0 -0.16530166315622061 -0.47155300009798301 0 -0.17967053697433849 -0.46928570206264231 0 -0.16495124080259491 -0.49121169214579941 0 -0.16530166315622061 -0.47155300009798301 0 -0.15083103946930049 -0.47082765280793248 0 -0.16495124080259491 -0.49121169214579941 0 -0.1545750311736096 -0.49062041690426861 0 -0.15083103946930049 -0.47082765280793248 0 -0.16495124080259491 -0.49121169214579941 0 -0.15083103946930049 -0.47082765280793248 0 -0.16495124080259491 -0.49121169214579941 0 -0.17967053697433849 -0.46928570206264231 0 -0.1821948971586228 -0.48648437486529872 0 -0.16495124080259491 -0.49121169214579941 0 -0.17967053697433849 -0.46928570206264231 0 -0.1943898331460783 -0.4473597119794826 0 -0.17967053697433849 -0.46928570206264231 0 -0.1943898331460783 -0.4473597119794826 0 -0.17967053697433849 -0.46928570206264231 0 -0.1657538353786501 -0.45488695337555668 0 -0.1943898331460783 -0.4473597119794826 0 -0.1657538353786501 -0.45488695337555668 0 -0.1755027511393909 -0.43471579892562301 0 -0.1657538353786501 -0.45488695337555668 0 -0.15761868306950341 -0.43586407366366631 0 -0.1755027511393909 -0.43471579892562301 0 -0.16530166315622061 -0.47155300009798301 0 -0.1657538353786501 -0.45488695337555668 0 -0.15083103946930049 -0.47082765280793248 0 -0.16530166315622061 -0.47155300009798301 0 -0.17967053697433849 -0.46928570206264231 0 -0.1657538353786501 -0.45488695337555668 0 -0.13671083813600751 -0.45044361347006462 0 -0.15083103946930049 -0.47082765280793248 0 -0.13671083813600751 -0.45044361347006462 0 -0.13441782301728619 -0.47175980973682791 0 -0.15083103946930049 -0.47082765280793248 0 -0.1657538353786501 -0.45488695337555668 0 -0.13671083813600751 -0.45044361347006462 0 -0.15083103946930049 -0.47082765280793248 0 -0.13671083813600751 -0.45044361347006462 0 -0.13816776916695811 -0.432543871779144 0 -0.15761868306950341 -0.43586407366366631 0 -0.1657538353786501 -0.45488695337555668 0 -0.13671083813600751 -0.45044361347006462 0 -0.15761868306950341 -0.43586407366366631 0 -0.13671083813600751 -0.45044361347006462 0 -0.13816776916695811 -0.432543871779144 0 -0.1225906368027144 -0.43005957413219659 0 -0.13671083813600751 -0.45044361347006462 0 -0.1225906368027144 -0.43005957413219659 0 -0.13671083813600751 -0.45044361347006462 0 -0.13441782301728619 -0.47175980973682791 0 -0.1201929706126502 -0.46127799294672761 0 -0.13441782301728619 -0.47175980973682791 0 -0.12605423818426559 -0.48707922202292669 0 -0.14429533434837091 -0.48908967660720287 0 -0.13441782301728619 -0.47175980973682791 0 -0.12605423818426559 -0.48707922202292669 0 -0.1201929706126502 -0.46127799294672761 0 -0.1295391708778694 -0.5 0 -0.12605423818426559 -0.48707922202292669 0 -0.14429533434837091 -0.48908967660720287 0 -0.15905149781887321 -0.49999999999999961 0 -0.1295391708778694 -0.5 0 -0.14429533434837091 -0.48908967660720287 0 -0.15905149781887321 -0.49999999999999961 0 -0.14429533434837091 -0.48908967660720287 0 -0.1545750311736096 -0.49062041690426861 0 -0.14429533434837091 -0.48908967660720287 0 -0.1545750311736096 -0.49062041690426861 0 -0.15083103946930049 -0.47082765280793248 0 -0.13441782301728619 -0.47175980973682791 0 -0.14429533434837091 -0.48908967660720287 0 -0.15083103946930049 -0.47082765280793248 0 -0.15345949684661231 -0.4053237642064671 0 -0.15136585988972451 -0.39002590355483568 0 -0.13982663417143551 -0.39933000433158738 0 -0.15136585988972451 -0.39002590355483568 0 -0.1368738238800834 -0.3880397179408614 0 -0.13982663417143551 -0.39933000433158738 0 -0.15345949684661231 -0.4053237642064671 0 -0.13982663417143551 -0.39933000433158738 0 -0.1398029654186671 -0.41064466143528439 0 -0.15136585988972451 -0.39002590355483568 0 -0.1368738238800834 -0.3880397179408614 0 -0.13959568407155781 -0.37291875636350952 0 -0.15136585988972451 -0.39002590355483568 0 -0.15951650330528561 -0.37856285477961621 0 -0.13959568407155781 -0.37291875636350952 0 -0.1368738238800834 -0.3880397179408614 0 -0.12625141541498519 -0.38197991289387551 0 -0.13959568407155781 -0.37291875636350952 0 -0.1368738238800834 -0.3880397179408614 0 -0.12625141541498519 -0.38197991289387551 0 -0.1273295258527142 -0.39594401256049883 0 -0.1368738238800834 -0.3880397179408614 0 -0.1273295258527142 -0.39594401256049883 0 -0.13982663417143551 -0.39933000433158738 0 -0.13982663417143551 -0.39933000433158738 0 -0.1295768038857959 -0.40463739140698729 0 -0.1398029654186671 -0.41064466143528439 0 -0.1273295258527142 -0.39594401256049883 0 -0.13982663417143551 -0.39933000433158738 0 -0.1295768038857959 -0.40463739140698729 0 -0.1273295258527142 -0.39594401256049883 0 -0.1295768038857959 -0.40463739140698729 0 -0.1219584454402414 -0.40406961642135292 0 -0.1295768038857959 -0.40463739140698729 0 -0.1296119374269841 -0.41417592727859581 0 -0.1225700411049412 -0.40994677461386392 0 -0.1296119374269841 -0.41417592727859581 0 -0.12315425937001 -0.41747458531602638 0 -0.1225700411049412 -0.40994677461386392 0 -0.1296119374269841 -0.41417592727859581 0 -0.13713184062407599 -0.42036644340313623 0 -0.12908399078123631 -0.42243277819987513 0 -0.1296119374269841 -0.41417592727859581 0 -0.12908399078123631 -0.42243277819987513 0 -0.12315425937001 -0.41747458531602638 0 -0.1296119374269841 -0.41417592727859581 0 -0.13713184062407599 -0.42036644340313623 0 -0.1398029654186671 -0.41064466143528439 0 -0.1295768038857959 -0.40463739140698729 0 -0.1296119374269841 -0.41417592727859581 0 -0.1398029654186671 -0.41064466143528439 0 -0.12908399078123631 -0.42243277819987513 0 -0.13816776916695811 -0.432543871779144 0 -0.1225906368027144 -0.43005957413219659 0 -0.13713184062407599 -0.42036644340313623 0 -0.12908399078123631 -0.42243277819987513 0 -0.13816776916695811 -0.432543871779144 0 -0.13816776916695811 -0.432543871779144 0 -0.14921107955709881 -0.42003443798493328 0 -0.15761868306950341 -0.43586407366366631 0 -0.13713184062407599 -0.42036644340313623 0 -0.13816776916695811 -0.432543871779144 0 -0.14921107955709881 -0.42003443798493328 0 -0.15345949684661231 -0.4053237642064671 0 -0.1398029654186671 -0.41064466143528439 0 -0.14921107955709881 -0.42003443798493328 0 -0.13713184062407599 -0.42036644340313623 0 -0.1398029654186671 -0.41064466143528439 0 -0.14921107955709881 -0.42003443798493328 0 -0.15345949684661231 -0.4053237642064671 0 -0.14921107955709881 -0.42003443798493328 0 -0.17009787391258249 -0.41611158199907422 0 -0.14921107955709881 -0.42003443798493328 0 -0.17009787391258249 -0.41611158199907422 0 -0.15761868306950341 -0.43586407366366631 0 -0.17009787391258249 -0.41611158199907422 0 -0.15761868306950341 -0.43586407366366631 0 -0.1755027511393909 -0.43471579892562301 0 -0.1943898331460783 -0.4473597119794826 0 -0.1755027511393909 -0.43471579892562301 0 -0.18951413900105801 -0.42212105940109063 0 -0.17009787391258249 -0.41611158199907422 0 -0.1755027511393909 -0.43471579892562301 0 -0.18951413900105801 -0.42212105940109063 0 -0.17009787391258249 -0.41611158199907422 0 -0.18562609472684241 -0.40161550393767448 0 -0.18951413900105801 -0.42212105940109063 0 -0.18562609472684241 -0.40161550393767448 0 -0.16863204450281991 -0.39380366607865908 0 -0.18254917963999329 -0.38971973427100182 0 -0.17009787391258249 -0.41611158199907422 0 -0.18562609472684241 -0.40161550393767448 0 -0.16863204450281991 -0.39380366607865908 0 -0.18562609472684241 -0.40161550393767448 0 -0.18254917963999329 -0.38971973427100182 0 -0.19364364155811911 -0.391297223908462 0 -0.15345949684661231 -0.4053237642064671 0 -0.17009787391258249 -0.41611158199907422 0 -0.16863204450281991 -0.39380366607865908 0 -0.15345949684661231 -0.4053237642064671 0 -0.15136585988972451 -0.39002590355483568 0 -0.16863204450281991 -0.39380366607865908 0 -0.15951650330528561 -0.37856285477961621 0 -0.17625218554490921 -0.38180729220612769 0 -0.1663610822414904 -0.3702523776444529 0 -0.16863204450281991 -0.39380366607865908 0 -0.15951650330528561 -0.37856285477961621 0 -0.17625218554490921 -0.38180729220612769 0 -0.15136585988972451 -0.39002590355483568 0 -0.16863204450281991 -0.39380366607865908 0 -0.15951650330528561 -0.37856285477961621 0 -0.17625218554490921 -0.38180729220612769 0 -0.1663610822414904 -0.3702523776444529 0 -0.18579747934449059 -0.37379744869579251 0 -0.16863204450281991 -0.39380366607865908 0 -0.17625218554490921 -0.38180729220612769 0 -0.18254917963999329 -0.38971973427100182 0 -0.17625218554490921 -0.38180729220612769 0 -0.18254917963999329 -0.38971973427100182 0 -0.18859193186727599 -0.38007498522408562 0 -0.17625218554490921 -0.38180729220612769 0 -0.18859193186727599 -0.38007498522408562 0 -0.18579747934449059 -0.37379744869579251 0 -0.18859193186727599 -0.38007498522408562 0 -0.2014200033848125 -0.37119512976538899 0 -0.18859193186727599 -0.38007498522408562 0 -0.2014200033848125 -0.37119512976538899 0 -0.18579747934449059 -0.37379744869579251 0 -0.18859193186727599 -0.38007498522408562 0 -0.1989719328316337 -0.38216032023399737 0 -0.2014200033848125 -0.37119512976538899 0 -0.1989719328316337 -0.38216032023399737 0 -0.20694960464083431 -0.38128159833907621 0 -0.2014200033848125 -0.37119512976538899 0 -0.1989719328316337 -0.38216032023399737 0 -0.19364364155811911 -0.391297223908462 0 -0.20620014074293039 -0.39180645285032889 0 -0.18859193186727599 -0.38007498522408562 0 -0.1989719328316337 -0.38216032023399737 0 -0.19364364155811911 -0.391297223908462 0 -0.18254917963999329 -0.38971973427100182 0 -0.18859193186727599 -0.38007498522408562 0 -0.19364364155811911 -0.391297223908462 0 -0.18562609472684241 -0.40161550393767448 0 -0.19364364155811911 -0.391297223908462 0 -0.20208872018367391 -0.4070926974887904 0 -0.19364364155811911 -0.391297223908462 0 -0.20620014074293039 -0.39180645285032889 0 -0.20208872018367391 -0.4070926974887904 0 -0.20620014074293039 -0.39180645285032889 0 -0.21479853281951461 -0.38638530273916921 0 -0.22382842548955789 -0.4035077318131633 0 -0.20620014074293039 -0.39180645285032889 0 -0.20208872018367391 -0.4070926974887904 0 -0.22382842548955789 -0.4035077318131633 0 -0.21479853281951461 -0.38638530273916921 0 -0.20694960464083431 -0.38128159833907621 0 -0.21335741342528061 -0.3748607861064962 0 -0.21479853281951461 -0.38638530273916921 0 -0.22412886374227589 -0.38235217247817599 0 -0.21335741342528061 -0.3748607861064962 0 -0.20694960464083431 -0.38128159833907621 0 -0.2014200033848125 -0.37119512976538899 0 -0.21335741342528061 -0.3748607861064962 0 -0.20620014074293039 -0.39180645285032889 0 -0.21479853281951461 -0.38638530273916921 0 -0.20694960464083431 -0.38128159833907621 0 -0.1989719328316337 -0.38216032023399737 0 -0.20620014074293039 -0.39180645285032889 0 -0.20694960464083431 -0.38128159833907621 0 -0.1943898331460783 -0.4473597119794826 0 -0.20910912931781811 -0.42543372189632289 0 -0.1943898331460783 -0.4473597119794826 0 -0.18951413900105801 -0.42212105940109063 0 -0.20910912931781811 -0.42543372189632289 0 -0.18951413900105801 -0.42212105940109063 0 -0.20208872018367391 -0.4070926974887904 0 -0.20910912931781811 -0.42543372189632289 0 -0.18562609472684241 -0.40161550393767448 0 -0.18951413900105801 -0.42212105940109063 0 -0.20208872018367391 -0.4070926974887904 0 -0.20208872018367391 -0.4070926974887904 0 -0.20910912931781811 -0.42543372189632289 0 -0.22382842548955789 -0.4035077318131633 0 -0.20910912931781811 -0.42543372189632289 0 -0.22382842548955789 -0.4035077318131633 0 -0.21590660946663959 -0.44883644739355771 0 -0.20910912931781811 -0.42543372189632289 0 -0.23180750449586429 -0.4343742486430574 0 -0.20910912931781811 -0.42543372189632289 0 -0.23180750449586429 -0.4343742486430574 0 -0.22382842548955789 -0.4035077318131633 0 -0.23180750449586429 -0.4343742486430574 0 -0.24697084661892749 -0.41526345823838401 0 -0.22382842548955789 -0.4035077318131633 0 -0.25687425522332558 -0.44642006451091643 0 -0.23180750449586429 -0.4343742486430574 0 -0.24697084661892749 -0.41526345823838401 0 -0.22412886374227589 -0.38235217247817599 0 -0.2351820232309369 -0.38700758852266848 0 -0.22952037500089251 -0.37311519752493849 0 -0.22412886374227589 -0.38235217247817599 0 -0.22186900287429051 -0.37074082218821958 0 -0.21335741342528061 -0.3748607861064962 0 -0.22412886374227589 -0.38235217247817599 0 -0.22952037500089251 -0.37311519752493849 0 -0.22186900287429051 -0.37074082218821958 0 -0.22382842548955789 -0.4035077318131633 0 -0.24394706363899241 -0.39877073912243299 0 -0.2351820232309369 -0.38700758852266848 0 -0.21479853281951461 -0.38638530273916921 0 -0.22412886374227589 -0.38235217247817599 0 -0.22382842548955789 -0.4035077318131633 0 -0.22412886374227589 -0.38235217247817599 0 -0.22382842548955789 -0.4035077318131633 0 -0.2351820232309369 -0.38700758852266848 0 -0.24697084661892749 -0.41526345823838401 0 -0.22382842548955789 -0.4035077318131633 0 -0.24394706363899241 -0.39877073912243299 0 -0.2504897110532438 -0.38524934403489181 0 -0.24394706363899241 -0.39877073912243299 0 -0.2351820232309369 -0.38700758852266848 0 -0.2504897110532438 -0.38524934403489181 0 -0.2351820232309369 -0.38700758852266848 0 -0.24036284435674521 -0.37772398595485779 0 -0.2351820232309369 -0.38700758852266848 0 -0.24036284435674521 -0.37772398595485779 0 -0.22952037500089251 -0.37311519752493849 0 -0.2504897110532438 -0.38524934403489181 0 -0.24036284435674521 -0.37772398595485779 0 -0.24839247009954951 -0.37292447016044328 0 -0.24839247009954951 -0.37292447016044328 0 -0.24532753696728959 -0.36501789644951049 0 -0.23861636880082099 -0.36955921174380651 0 -0.24036284435674521 -0.37772398595485779 0 -0.24839247009954951 -0.37292447016044328 0 -0.23861636880082099 -0.36955921174380651 0 -0.25757508569408222 -0.36424633604315798 0 -0.24532753696728959 -0.36501789644951049 0 -0.24650166737573331 -0.3569693529562265 0 -0.24532753696728959 -0.36501789644951049 0 -0.24234943749700691 -0.36154613291017651 0 -0.24650166737573331 -0.3569693529562265 0 -0.24532753696728959 -0.36501789644951049 0 -0.24234943749700691 -0.36154613291017651 0 -0.23928568589256061 -0.36455139619594779 0 -0.24234943749700691 -0.36154613291017651 0 -0.23928568589256061 -0.36455139619594779 0 -0.23696933381926599 -0.3585493042599866 0 -0.24532753696728959 -0.36501789644951049 0 -0.23928568589256061 -0.36455139619594779 0 -0.23861636880082099 -0.36955921174380651 0 -0.23928568589256061 -0.36455139619594779 0 -0.23861636880082099 -0.36955921174380651 0 -0.23345080570298909 -0.36409891217005902 0 -0.23928568589256061 -0.36455139619594779 0 -0.23345080570298909 -0.36409891217005902 0 -0.23696933381926599 -0.3585493042599866 0 -0.24036284435674521 -0.37772398595485779 0 -0.23861636880082099 -0.36955921174380651 0 -0.22952037500089251 -0.37311519752493849 0 -0.23345080570298909 -0.36409891217005902 0 -0.22186900287429051 -0.37074082218821958 0 -0.21424807490234879 -0.36231527430669241 0 -0.22952037500089251 -0.37311519752493849 0 -0.23345080570298909 -0.36409891217005902 0 -0.22186900287429051 -0.37074082218821958 0 -0.23696933381926599 -0.3585493042599866 0 -0.21424807490234879 -0.36231527430669241 0 -0.23861636880082099 -0.36955921174380651 0 -0.22952037500089251 -0.37311519752493849 0 -0.23345080570298909 -0.36409891217005902 0 -0.23345080570298909 -0.36409891217005902 0 -0.23696933381926599 -0.3585493042599866 0 -0.21424807490234879 -0.36231527430669241 0 -0.22913587473404851 -0.35200963246311751 0 -0.2097464541822805 -0.33582260124732738 0 -0.22913587473404851 -0.35200963246311751 0 -0.23696933381926599 -0.3585493042599866 0 -0.21424807490234879 -0.36231527430669241 0 -0.22913587473404851 -0.35200963246311751 0 -0.21998707993494029 -0.33959044394559312 0 -0.22913587473404851 -0.35200963246311751 0 -0.21424807490234879 -0.36231527430669241 0 -0.22913587473404851 -0.35200963246311751 0 -0.23696933381926599 -0.3585493042599866 0 -0.22913587473404851 -0.35200963246311751 0 -0.24881121389389799 -0.33838995723746451 0 -0.22913587473404851 -0.35200963246311751 0 -0.23696933381926599 -0.3585493042599866 0 -0.24650166737573331 -0.3569693529562265 0 -0.22913587473404851 -0.35200963246311751 0 -0.24650166737573331 -0.3569693529562265 0 -0.24881121389389799 -0.33838995723746451 0 -0.23696933381926599 -0.3585493042599866 0 -0.24650166737573331 -0.3569693529562265 0 -0.24234943749700691 -0.36154613291017651 0 -0.23696933381926599 -0.3585493042599866 0 -0.24650166737573331 -0.3569693529562265 0 -0.22913587473404851 -0.35200963246311751 0 -0.24881121389389799 -0.33838995723746451 0 -0.2325545649384867 -0.33453283978227571 0 -0.24881121389389799 -0.33838995723746451 0 -0.2441082332202735 -0.32380704628422963 0 -0.2325545649384867 -0.33453283978227571 0 -0.23613058105125781 -0.31890710479075163 0 -0.2279063026952847 -0.3135077128279592 0 -0.2444966906846206 -0.31181945912301329 0 -0.2441082332202735 -0.32380704628422963 0 -0.23498207165859719 -0.32537142019391418 0 -0.23613058105125781 -0.31890710479075163 0 -0.2441082332202735 -0.32380704628422963 0 -0.23498207165859719 -0.32537142019391418 0 -0.2325545649384867 -0.33453283978227571 0 -0.2441082332202735 -0.32380704628422963 0 -0.23613058105125781 -0.31890710479075163 0 -0.2444966906846206 -0.31181945912301329 0 -0.2279063026952847 -0.3135077128279592 0 -0.2193464910840433 -0.31976030368968739 0 -0.21134622408423179 -0.310554889255794 0 -0.23613058105125781 -0.31890710479075163 0 -0.2279063026952847 -0.3135077128279592 0 -0.22829430606921119 -0.32293804105388452 0 -0.23498207165859719 -0.32537142019391418 0 -0.22829430606921119 -0.32293804105388452 0 -0.2325545649384867 -0.33453283978227571 0 -0.23498207165859719 -0.32537142019391418 0 -0.23613058105125781 -0.31890710479075163 0 -0.22829430606921119 -0.32293804105388452 0 -0.22829430606921119 -0.32293804105388452 0 -0.2193464910840433 -0.31976030368968739 0 -0.22209033975117781 -0.32887735541776358 0 -0.2279063026952847 -0.3135077128279592 0 -0.22829430606921119 -0.32293804105388452 0 -0.2193464910840433 -0.31976030368968739 0 -0.22913587473404851 -0.35200963246311751 0 -0.2325545649384867 -0.33453283978227571 0 -0.21998707993494029 -0.33959044394559312 0 -0.22913587473404851 -0.35200963246311751 0 -0.21998707993494029 -0.33959044394559312 0 -0.2097464541822805 -0.33582260124732738 0 -0.22829430606921119 -0.32293804105388452 0 -0.2325545649384867 -0.33453283978227571 0 -0.22209033975117781 -0.32887735541776358 0 -0.2325545649384867 -0.33453283978227571 0 -0.22209033975117781 -0.32887735541776358 0 -0.21998707993494029 -0.33959044394559312 0 -0.21998707993494029 -0.33959044394559312 0 -0.21026925672920721 -0.32756514861737779 0 -0.22209033975117781 -0.32887735541776358 0 -0.21998707993494029 -0.33959044394559312 0 -0.21026925672920721 -0.32756514861737779 0 -0.21998707993494029 -0.33959044394559312 0 -0.2097464541822805 -0.33582260124732738 0 -0.21026925672920721 -0.32756514861737779 0 -0.2097464541822805 -0.33582260124732738 0 -0.21026925672920721 -0.32756514861737779 0 -0.21026925672920721 -0.32756514861737779 0 -0.21134622408423179 -0.310554889255794 0 -0.19267178705524021 -0.30578920503631912 0 -0.21026925672920721 -0.32756514861737779 0 -0.21134622408423179 -0.310554889255794 0 -0.2097464541822805 -0.33582260124732738 0 -0.21026925672920721 -0.32756514861737779 0 -0.19254159852174429 -0.31996122112867409 0 -0.2193464910840433 -0.31976030368968739 0 -0.21026925672920721 -0.32756514861737779 0 -0.21134622408423179 -0.310554889255794 0 -0.2193464910840433 -0.31976030368968739 0 -0.22209033975117781 -0.32887735541776358 0 -0.21026925672920721 -0.32756514861737779 0 -0.2097464541822805 -0.33582260124732738 0 -0.1943588054861482 -0.32297640251143073 0 -0.19254159852174429 -0.31996122112867409 0 -0.21026925672920721 -0.32756514861737779 0 -0.19267178705524021 -0.30578920503631912 0 -0.21026925672920721 -0.32756514861737779 0 -0.19254159852174429 -0.31996122112867409 0 -0.19267178705524021 -0.30578920503631912 0 -0.2097464541822805 -0.33582260124732738 0 -0.19254159852174429 -0.31996122112867409 0 -0.1943588054861482 -0.32297640251143073 0 -0.18737083868624629 -0.33075534874643497 0 -0.18479650728396149 -0.32227615663527998 0 -0.1943588054861482 -0.32297640251143073 0 -0.19254159852174429 -0.31996122112867409 0 -0.1789711567900161 -0.3101302037755338 0 -0.2097464541822805 -0.33582260124732738 0 -0.19466829689393059 -0.33824472710720138 0 -0.19565175395430129 -0.3512554891803924 0 -0.2097464541822805 -0.33582260124732738 0 -0.1943588054861482 -0.32297640251143073 0 -0.19466829689393059 -0.33824472710720138 0 -0.2097464541822805 -0.33582260124732738 0 -0.1943588054861482 -0.32297640251143073 0 -0.1943588054861482 -0.32297640251143073 0 -0.19466829689393059 -0.33824472710720138 0 -0.18737083868624629 -0.33075534874643497 0 -0.19466829689393059 -0.33824472710720138 0 -0.18164424501215659 -0.34621916084723381 0 -0.18737083868624629 -0.33075534874643497 0 -0.19466829689393059 -0.33824472710720138 0 -0.19565175395430129 -0.3512554891803924 0 -0.18164424501215659 -0.34621916084723381 0 -0.20800359978069241 -0.36335027445133922 0 -0.18480326185087809 -0.36719565018674682 0 -0.19565175395430129 -0.3512554891803924 0 -0.20800359978069241 -0.36335027445133922 0 -0.18480326185087809 -0.36719565018674682 0 -0.2014200033848125 -0.37119512976538899 0 -0.18480326185087809 -0.36719565018674682 0 -0.18579747934449059 -0.37379744869579251 0 -0.2014200033848125 -0.37119512976538899 0 -0.20800359978069241 -0.36335027445133922 0 -0.18480326185087809 -0.36719565018674682 0 -0.2014200033848125 -0.37119512976538899 0 -0.20800359978069241 -0.36335027445133922 0 -0.20803809997708481 -0.36661394692190907 0 -0.20800359978069241 -0.36335027445133922 0 -0.20803809997708481 -0.36661394692190907 0 -0.21424807490234879 -0.36231527430669241 0 -0.20800359978069241 -0.36335027445133922 0 -0.20803809997708481 -0.36661394692190907 0 -0.2014200033848125 -0.37119512976538899 0 -0.20803809997708481 -0.36661394692190907 0 -0.21335741342528061 -0.3748607861064962 0 -0.2014200033848125 -0.37119512976538899 0 -0.20803809997708481 -0.36661394692190907 0 -0.20803809997708481 -0.36661394692190907 0 -0.21335741342528061 -0.3748607861064962 0 -0.21424807490234879 -0.36231527430669241 0 -0.22186900287429051 -0.37074082218821958 0 -0.21335741342528061 -0.3748607861064962 0 -0.21424807490234879 -0.36231527430669241 0 -0.20800359978069241 -0.36335027445133922 0 -0.21424807490234879 -0.36231527430669241 0 -0.20803809997708481 -0.36661394692190907 0 -0.21424807490234879 -0.36231527430669241 0 -0.2097464541822805 -0.33582260124732738 0 -0.19565175395430129 -0.3512554891803924 0 -0.20800359978069241 -0.36335027445133922 0 -0.2097464541822805 -0.33582260124732738 0 -0.20800359978069241 -0.36335027445133922 0 -0.2097464541822805 -0.33582260124732738 0 -0.20800359978069241 -0.36335027445133922 0 -0.21424807490234879 -0.36231527430669241 0 -0.22913587473404851 -0.35200963246311751 0 -0.2097464541822805 -0.33582260124732738 0 -0.21424807490234879 -0.36231527430669241 0 -0.2335542019388327 -0.26090262277066528 0 -0.21472073189145299 -0.25725591714607071 0 -0.22837296648480071 -0.23789375384220129 0 -0.2335542019388327 -0.26090262277066528 0 -0.21357196166535461 -0.27540027352014051 0 -0.21472073189145299 -0.25725591714607071 0 -0.25298377122075039 -0.27518622721876451 0 -0.2335542019388327 -0.26090262277066528 0 -0.25431856302814809 -0.24833495949118861 0 -0.25298377122075039 -0.27518622721876451 0 -0.2335542019388327 -0.26090262277066528 0 -0.23093648268818689 -0.28342115129973 0 -0.2335542019388327 -0.26090262277066528 0 -0.23093648268818689 -0.28342115129973 0 -0.21357196166535461 -0.27540027352014051 0 -0.23093648268818689 -0.28342115129973 0 -0.21242319143925911 -0.29354462989421048 0 -0.21357196166535461 -0.27540027352014051 0 -0.23093648268818689 -0.28342115129973 0 -0.2435111179254994 -0.29490773243705071 0 -0.2284599410619414 -0.30268204450860919 0 -0.23093648268818689 -0.28342115129973 0 -0.2284599410619414 -0.30268204450860919 0 -0.21242319143925911 -0.29354462989421048 0 -0.25298377122075039 -0.27518622721876451 0 -0.23093648268818689 -0.28342115129973 0 -0.2435111179254994 -0.29490773243705071 0 -0.2444966906846206 -0.31181945912301329 0 -0.2284599410619414 -0.30268204450860919 0 -0.2435111179254994 -0.29490773243705071 0 -0.2444966906846206 -0.31181945912301329 0 -0.2284599410619414 -0.30268204450860919 0 -0.26057201890547982 -0.29344093798311832 0 -0.2435111179254994 -0.29490773243705071 0 -0.2444966906846206 -0.31181945912301329 0 -0.2279063026952847 -0.3135077128279592 0 -0.2444966906846206 -0.31181945912301329 0 -0.2284599410619414 -0.30268204450860919 0 -0.2284599410619414 -0.30268204450860919 0 -0.21242319143925911 -0.29354462989421048 0 -0.2279063026952847 -0.3135077128279592 0 -0.2284599410619414 -0.30268204450860919 0 -0.21134622408423179 -0.310554889255794 0 -0.2284599410619414 -0.30268204450860919 0 -0.21134622408423179 -0.310554889255794 0 -0.21242319143925911 -0.29354462989421048 0 -0.21134622408423179 -0.310554889255794 0 -0.19267178705524021 -0.30578920503631912 0 -0.21242319143925911 -0.29354462989421048 0 -0.21134622408423179 -0.310554889255794 0 -0.21242319143925911 -0.29354462989421048 0 -0.19267178705524021 -0.30578920503631912 0 -0.19410774352861071 -0.2831088592208712 0 -0.21242319143925911 -0.29354462989421048 0 -0.19410774352861071 -0.2831088592208712 0 -0.21242319143925911 -0.29354462989421048 0 -0.21357196166535461 -0.27540027352014051 0 -0.19410774352861071 -0.2831088592208712 0 -0.21242319143925911 -0.29354462989421048 0 -0.21242319143925911 -0.29354462989421048 0 -0.21357196166535461 -0.27540027352014051 0 -0.21357196166535461 -0.27540027352014051 0 -0.21472073189145299 -0.25725591714607071 0 -0.19410774352861071 -0.2831088592208712 0 -0.21357196166535461 -0.27540027352014051 0 -0.1965391795889786 -0.26204425282134669 0 -0.19410774352861071 -0.2831088592208712 0 -0.1965391795889786 -0.26204425282134669 0 -0.17579229561796161 -0.27267308854753308 0 -0.1965391795889786 -0.26204425282134669 0 -0.20565562739327201 -0.24334207984173631 0 -0.18863044441395099 -0.24733650333174401 0 -0.1965391795889786 -0.26204425282134669 0 -0.18340152769721799 -0.25642831405215172 0 -0.18863044441395099 -0.24733650333174401 0 -0.1965391795889786 -0.26204425282134669 0 -0.21472073189145299 -0.25725591714607071 0 -0.20565562739327201 -0.24334207984173631 0 -0.21357196166535461 -0.27540027352014051 0 -0.1965391795889786 -0.26204425282134669 0 -0.21472073189145299 -0.25725591714607071 0 -0.15747684770731041 -0.26223731787419863 0 -0.16344648285301799 -0.25937253054906129 0 -0.17579229561796161 -0.27267308854753308 0 -0.1593809120407062 -0.25278805690175971 0 -0.16344648285301799 -0.25937253054906129 0 -0.1534429259631987 -0.25724555178864622 0 -0.1593809120407062 -0.25278805690175971 0 -0.16344648285301799 -0.25937253054906129 0 -0.16709258238786229 -0.25188408856254202 0 -0.1593809120407062 -0.25278805690175971 0 -0.16709258238786229 -0.25188408856254202 0 -0.1601832428566283 -0.24550858739866141 0 -0.15747684770731041 -0.26223731787419863 0 -0.16344648285301799 -0.25937253054906129 0 -0.1534429259631987 -0.25724555178864622 0 -0.16344648285301799 -0.25937253054906129 0 -0.1534429259631987 -0.25724555178864622 0 -0.16344648285301799 -0.25937253054906129 0 -0.17379217291466831 -0.25992581321180469 0 -0.17579229561796161 -0.27267308854753308 0 -0.16344648285301799 -0.25937253054906129 0 -0.16709258238786229 -0.25188408856254202 0 -0.17379217291466831 -0.25992581321180469 0 -0.16709258238786229 -0.25188408856254202 0 -0.17679077873490559 -0.25046109420941731 0 -0.17379217291466831 -0.25992581321180469 0 -0.1965391795889786 -0.26204425282134669 0 -0.18340152769721799 -0.25642831405215172 0 -0.17579229561796161 -0.27267308854753308 0 -0.17679077873490559 -0.25046109420941731 0 -0.18340152769721799 -0.25642831405215172 0 -0.17379217291466831 -0.25992581321180469 0 -0.18340152769721799 -0.25642831405215172 0 -0.17379217291466831 -0.25992581321180469 0 -0.17579229561796161 -0.27267308854753308 0 -0.17679077873490559 -0.25046109420941731 0 -0.18340152769721799 -0.25642831405215172 0 -0.18863044441395099 -0.24733650333174401 0 -0.19410774352861071 -0.2831088592208712 0 -0.17579229561796161 -0.27267308854753308 0 -0.17507431738127369 -0.28401326145526029 0 -0.19410774352861071 -0.2831088592208712 0 -0.17579229561796161 -0.27267308854753308 0 -0.15747684770731041 -0.26223731787419863 0 -0.17507431738127369 -0.28401326145526029 0 -0.15747684770731041 -0.26223731787419863 0 -0.17579229561796161 -0.27267308854753308 0 -0.15747684770731041 -0.26223731787419863 0 -0.17579229561796161 -0.27267308854753308 0 -0.17507431738127369 -0.28401326145526029 0 -0.15747684770731041 -0.26223731787419863 0 -0.1596399504195592 -0.27820623095404468 0 -0.17507431738127369 -0.28401326145526029 0 -0.1596399504195592 -0.27820623095404468 0 -0.1624028041075358 -0.29248408411088062 0 -0.1494793968803598 -0.28070198605355251 0 -0.1624028041075358 -0.29248408411088062 0 -0.15973767967650701 -0.30493196891575292 0 -0.15108397830665751 -0.29236825921418419 0 -0.1624028041075358 -0.29248408411088062 0 -0.17507431738127369 -0.28401326145526029 0 -0.17391538329452061 -0.29489800819007239 0 -0.1596399504195592 -0.27820623095404468 0 -0.1624028041075358 -0.29248408411088062 0 -0.17507431738127369 -0.28401326145526029 0 -0.19267178705524021 -0.30578920503631912 0 -0.19410774352861071 -0.2831088592208712 0 -0.17507431738127369 -0.28401326145526029 0 -0.19267178705524021 -0.30578920503631912 0 -0.17507431738127369 -0.28401326145526029 0 -0.17391538329452061 -0.29489800819007239 0 -0.19267178705524021 -0.30578920503631912 0 -0.17507431738127369 -0.28401326145526029 0 -0.17391538329452061 -0.29489800819007239 0 -0.17532621133471249 -0.30426618216820789 0 -0.19254159852174429 -0.31996122112867409 0 -0.19267178705524021 -0.30578920503631912 0 -0.17532621133471249 -0.30426618216820789 0 -0.19267178705524021 -0.30578920503631912 0 -0.17391538329452061 -0.29489800819007239 0 -0.17532621133471249 -0.30426618216820789 0 -0.19254159852174429 -0.31996122112867409 0 -0.17532621133471249 -0.30426618216820789 0 -0.1789711567900161 -0.3101302037755338 0 -0.19254159852174429 -0.31996122112867409 0 -0.17532621133471249 -0.30426618216820789 0 -0.17532621133471249 -0.30426618216820789 0 -0.15973767967650701 -0.30493196891575292 0 -0.16582550601247259 -0.31644195918285489 0 -0.1624028041075358 -0.29248408411088062 0 -0.17532621133471249 -0.30426618216820789 0 -0.15973767967650701 -0.30493196891575292 0 -0.1624028041075358 -0.29248408411088062 0 -0.17532621133471249 -0.30426618216820789 0 -0.1624028041075358 -0.29248408411088062 0 -0.17391538329452061 -0.29489800819007239 0 -0.17532621133471249 -0.30426618216820789 0 -0.144593184228827 -0.30237793828586917 0 -0.15261731536399281 -0.31699983390472031 0 -0.1327552185807534 -0.31482398186879779 0 -0.15973767967650701 -0.30493196891575292 0 -0.144593184228827 -0.30237793828586917 0 -0.15261731536399281 -0.31699983390472031 0 -0.15973767967650701 -0.30493196891575292 0 -0.144593184228827 -0.30237793828586917 0 -0.15108397830665751 -0.29236825921418419 0 -0.144593184228827 -0.30237793828586917 0 -0.1304175251842298 -0.30012492429455973 0 -0.1327552185807534 -0.31482398186879779 0 -0.1304175251842298 -0.30012492429455973 0 -0.1327552185807534 -0.31482398186879779 0 -0.11567190875339491 -0.3081878681979589 0 -0.1304175251842298 -0.30012492429455973 0 -0.13697378053928061 -0.28594316463020741 0 -0.11725087491461519 -0.29108504565108578 0 -0.144593184228827 -0.30237793828586917 0 -0.1304175251842298 -0.30012492429455973 0 -0.13697378053928061 -0.28594316463020741 0 -0.13697378053928061 -0.28594316463020741 0 -0.15108397830665751 -0.29236825921418419 0 -0.1494793968803598 -0.28070198605355251 0 -0.144593184228827 -0.30237793828586917 0 -0.13697378053928061 -0.28594316463020741 0 -0.15108397830665751 -0.29236825921418419 0 -0.1624028041075358 -0.29248408411088062 0 -0.15108397830665751 -0.29236825921418419 0 -0.1494793968803598 -0.28070198605355251 0 -0.1624028041075358 -0.29248408411088062 0 -0.1494793968803598 -0.28070198605355251 0 -0.15747684770731041 -0.26223731787419863 0 -0.1596399504195592 -0.27820623095404468 0 -0.1503927610565664 -0.27179087804580171 0 -0.1596399504195592 -0.27820623095404468 0 -0.1494793968803598 -0.28070198605355251 0 -0.1503927610565664 -0.27179087804580171 0 -0.15747684770731041 -0.26223731787419863 0 -0.1503927610565664 -0.27179087804580171 0 -0.1469785187108 -0.2635474229235048 0 -0.1503927610565664 -0.27179087804580171 0 -0.13966748117377659 -0.26847157538705668 0 -0.1469785187108 -0.2635474229235048 0 -0.1503927610565664 -0.27179087804580171 0 -0.14153524490660671 -0.2763029116229278 0 -0.13966748117377659 -0.26847157538705668 0 -0.1494793968803598 -0.28070198605355251 0 -0.1503927610565664 -0.27179087804580171 0 -0.14153524490660671 -0.2763029116229278 0 -0.13697378053928061 -0.28594316463020741 0 -0.1494793968803598 -0.28070198605355251 0 -0.14153524490660671 -0.2763029116229278 0 -0.13697378053928061 -0.28594316463020741 0 -0.14153524490660671 -0.2763029116229278 0 -0.13219795163187159 -0.27110871778552531 0 -0.13697378053928061 -0.28594316463020741 0 -0.1173011125765811 -0.2721428964285707 0 -0.13697378053928061 -0.28594316463020741 0 -0.13219795163187159 -0.27110871778552531 0 -0.1173011125765811 -0.2721428964285707 0 -0.13219795163187159 -0.27110871778552531 0 -0.1333337708168415 -0.26377523499205202 0 -0.12600056203783161 -0.26301541000095829 0 -0.13219795163187159 -0.27110871778552531 0 -0.12600056203783161 -0.26301541000095829 0 -0.1173011125765811 -0.2721428964285707 0 -0.13219795163187159 -0.27110871778552531 0 -0.13966748117377659 -0.26847157538705668 0 -0.1333337708168415 -0.26377523499205202 0 -0.14153524490660671 -0.2763029116229278 0 -0.13219795163187159 -0.27110871778552531 0 -0.13966748117377659 -0.26847157538705668 0 -0.13966748117377659 -0.26847157538705668 0 -0.13807993829988649 -0.25979154560904222 0 -0.1333337708168415 -0.26377523499205202 0 -0.13807993829988649 -0.25979154560904222 0 -0.1333337708168415 -0.26377523499205202 0 -0.13072292094084129 -0.25648892617767749 0 -0.12600056203783161 -0.26301541000095829 0 -0.13072292094084129 -0.25648892617767749 0 -0.1187556211832122 -0.25814451816493872 0 -0.1333337708168415 -0.26377523499205202 0 -0.12600056203783161 -0.26301541000095829 0 -0.13072292094084129 -0.25648892617767749 0 -0.13072292094084129 -0.25648892617767749 0 -0.13218950310710981 -0.25272660122947088 0 -0.1187556211832122 -0.25814451816493872 0 -0.13072292094084129 -0.25648892617767749 0 -0.13218950310710981 -0.25272660122947088 0 -0.13218950310710981 -0.25272660122947088 0 -0.1459019403517107 -0.25564217047089421 0 -0.13375162957080131 -0.24871916986845621 0 -0.13218950310710981 -0.25272660122947088 0 -0.1459019403517107 -0.25564217047089421 0 -0.13218950310710981 -0.25272660122947088 0 -0.13375162957080131 -0.24871916986845621 0 -0.1459019403517107 -0.25564217047089421 0 -0.13375162957080131 -0.24871916986845621 0 -0.13807993829988649 -0.25979154560904222 0 -0.13218950310710981 -0.25272660122947088 0 -0.1459019403517107 -0.25564217047089421 0 -0.13807993829988649 -0.25979154560904222 0 -0.13072292094084129 -0.25648892617767749 0 -0.13218950310710981 -0.25272660122947088 0 -0.1459019403517107 -0.25564217047089421 0 -0.1534429259631987 -0.25724555178864622 0 -0.1378886282313006 -0.2381062402767252 0 -0.13966748117377659 -0.26847157538705668 0 -0.13807993829988649 -0.25979154560904222 0 -0.1469785187108 -0.2635474229235048 0 -0.13807993829988649 -0.25979154560904222 0 -0.1459019403517107 -0.25564217047089421 0 -0.1469785187108 -0.2635474229235048 0 -0.15747684770731041 -0.26223731787419863 0 -0.1459019403517107 -0.25564217047089421 0 -0.1534429259631987 -0.25724555178864622 0 -0.15747684770731041 -0.26223731787419863 0 -0.1459019403517107 -0.25564217047089421 0 -0.1469785187108 -0.2635474229235048 0 -0.15747684770731041 -0.26223731787419863 0 -0.1459019403517107 -0.25564217047089421 0 -0.15747684770731041 -0.26223731787419863 0 -0.1534429259631987 -0.25724555178864622 0 -0.1593809120407062 -0.25278805690175971 0 -0.1534429259631987 -0.25724555178864622 0 -0.15289321433053751 -0.246830478479277 0 -0.1459019403517107 -0.25564217047089421 0 -0.1534429259631987 -0.25724555178864622 0 -0.17143624801538501 -0.35840063883308271 0 -0.1580141783998408 -0.34710035810185619 0 -0.15489216358121211 -0.36256913283011211 0 -0.17143624801538501 -0.35840063883308271 0 -0.1580141783998408 -0.34710035810185619 0 -0.18164424501215659 -0.34621916084723381 0 -0.17143624801538501 -0.35840063883308271 0 -0.1663610822414904 -0.3702523776444529 0 -0.15489216358121211 -0.36256913283011211 0 -0.15951650330528561 -0.37856285477961621 0 -0.1663610822414904 -0.3702523776444529 0 -0.15489216358121211 -0.36256913283011211 0 -0.17143624801538501 -0.35840063883308271 0 -0.1663610822414904 -0.3702523776444529 0 -0.18480326185087809 -0.36719565018674682 0 -0.1663610822414904 -0.3702523776444529 0 -0.18480326185087809 -0.36719565018674682 0 -0.1663610822414904 -0.3702523776444529 0 -0.18480326185087809 -0.36719565018674682 0 -0.18579747934449059 -0.37379744869579251 0 -0.18480326185087809 -0.36719565018674682 0 -0.18579747934449059 -0.37379744869579251 0 -0.18480326185087809 -0.36719565018674682 0 -0.18164424501215659 -0.34621916084723381 0 -0.19565175395430129 -0.3512554891803924 0 -0.18480326185087809 -0.36719565018674682 0 -0.18164424501215659 -0.34621916084723381 0 -0.17143624801538501 -0.35840063883308271 0 -0.18480326185087809 -0.36719565018674682 0 -0.18164424501215659 -0.34621916084723381 0 -0.18164424501215659 -0.34621916084723381 0 -0.17848522817343529 -0.32524267150772068 0 -0.1629610955137164 -0.33076913941787212 0 -0.18164424501215659 -0.34621916084723381 0 -0.17848522817343529 -0.32524267150772068 0 -0.18164424501215659 -0.34621916084723381 0 -0.18737083868624629 -0.33075534874643497 0 -0.17848522817343529 -0.32524267150772068 0 -0.17532621133471249 -0.30426618216820789 0 -0.17848522817343529 -0.32524267150772068 0 -0.17532621133471249 -0.30426618216820789 0 -0.1789711567900161 -0.3101302037755338 0 -0.17848522817343529 -0.32524267150772068 0 -0.17532621133471249 -0.30426618216820789 0 -0.17848522817343529 -0.32524267150772068 0 -0.16582550601247259 -0.31644195918285489 0 -0.1943588054861482 -0.32297640251143073 0 -0.1789711567900161 -0.3101302037755338 0 -0.18479650728396149 -0.32227615663527998 0 -0.1789711567900161 -0.3101302037755338 0 -0.18479650728396149 -0.32227615663527998 0 -0.17848522817343529 -0.32524267150772068 0 -0.1943588054861482 -0.32297640251143073 0 -0.1789711567900161 -0.3101302037755338 0 -0.18737083868624629 -0.33075534874643497 0 -0.18479650728396149 -0.32227615663527998 0 -0.17848522817343529 -0.32524267150772068 0 -0.17848522817343529 -0.32524267150772068 0 -0.16582550601247259 -0.31644195918285489 0 -0.1629610955137164 -0.33076913941787212 0 -0.16582550601247259 -0.31644195918285489 0 -0.1629610955137164 -0.33076913941787212 0 -0.15261731536399281 -0.31699983390472031 0 -0.15973767967650701 -0.30493196891575292 0 -0.16582550601247259 -0.31644195918285489 0 -0.15261731536399281 -0.31699983390472031 0 -0.1580141783998408 -0.34710035810185619 0 -0.18164424501215659 -0.34621916084723381 0 -0.1629610955137164 -0.33076913941787212 0 -0.1580141783998408 -0.34710035810185619 0 -0.1629610955137164 -0.33076913941787212 0 -0.14559484309128301 -0.3331209990743299 0 -0.14559484309128301 -0.3331209990743299 0 -0.15261731536399281 -0.31699983390472031 0 -0.1327552185807534 -0.31482398186879779 0 -0.1629610955137164 -0.33076913941787212 0 -0.14559484309128301 -0.3331209990743299 0 -0.15261731536399281 -0.31699983390472031 0 -0.14559484309128301 -0.3331209990743299 0 -0.1327552185807534 -0.31482398186879779 0 -0.12678352480283511 -0.3369129194106073 0 -0.14559484309128301 -0.3331209990743299 0 -0.12678352480283511 -0.3369129194106073 0 -0.14043772588655989 -0.35211976174212622 0 -0.12678352480283511 -0.3369129194106073 0 -0.14043772588655989 -0.35211976174212622 0 -0.1203130985899742 -0.35955571918490481 0 -0.1580141783998408 -0.34710035810185619 0 -0.14043772588655989 -0.35211976174212622 0 -0.15489216358121211 -0.36256913283011211 0 -0.1580141783998408 -0.34710035810185619 0 -0.14559484309128301 -0.3331209990743299 0 -0.14043772588655989 -0.35211976174212622 0 -0.14043772588655989 -0.35211976174212622 0 -0.15489216358121211 -0.36256913283011211 0 -0.13959568407155781 -0.37291875636350952 0 -0.15951650330528561 -0.37856285477961621 0 -0.15489216358121211 -0.36256913283011211 0 -0.13959568407155781 -0.37291875636350952 0 -0.12625141541498519 -0.38197991289387551 0 -0.13959568407155781 -0.37291875636350952 0 -0.1203130985899742 -0.35955571918490481 0 -0.14043772588655989 -0.35211976174212622 0 -0.13959568407155781 -0.37291875636350952 0 -0.1203130985899742 -0.35955571918490481 0 -0.1203130985899742 -0.35955571918490481 0 -0.11384267237711319 -0.38219851895920232 0 -0.1203130985899742 -0.35955571918490481 0 -0.10849363524981311 -0.36442991456039969 0 -0.11384267237711319 -0.38219851895920232 0 -0.12625141541498519 -0.38197991289387551 0 -0.1203130985899742 -0.35955571918490481 0 -0.11384267237711319 -0.38219851895920232 0 -0.10849363524981311 -0.36442991456039969 0 -0.096157591159299352 -0.35547454281719221 0 -0.10176491866177829 -0.38015793077534599 0 -0.096157591159299352 -0.35547454281719221 0 -0.10176491866177829 -0.38015793077534599 0 -0.096157591159299352 -0.35547454281719221 0 -0.10176491866177829 -0.38015793077534599 0 -0.085276019388031976 -0.37619188405436782 0 -0.096157591159299352 -0.35547454281719221 0 -0.10964553082547281 -0.34513317088572909 0 -0.090550263656820479 -0.33079115485903843 0 -0.10849363524981311 -0.36442991456039969 0 -0.096157591159299352 -0.35547454281719221 0 -0.10964553082547281 -0.34513317088572909 0 -0.1203130985899742 -0.35955571918490481 0 -0.10849363524981311 -0.36442991456039969 0 -0.10964553082547281 -0.34513317088572909 0 -0.12678352480283511 -0.3369129194106073 0 -0.1203130985899742 -0.35955571918490481 0 -0.10964553082547281 -0.34513317088572909 0 -0.12678352480283511 -0.3369129194106073 0 -0.1203130985899742 -0.35955571918490481 0 -0.12678352480283511 -0.3369129194106073 0 -0.10964553082547281 -0.34513317088572909 0 -0.1112875311940303 -0.32576775904759792 0 -0.1327552185807534 -0.31482398186879779 0 -0.12678352480283511 -0.3369129194106073 0 -0.1112875311940303 -0.32576775904759792 0 -0.1327552185807534 -0.31482398186879779 0 -0.1112875311940303 -0.32576775904759792 0 -0.11567190875339491 -0.3081878681979589 0 -0.1112875311940303 -0.32576775904759792 0 -0.1011365257202933 -0.31403431577096802 0 -0.11567190875339491 -0.3081878681979589 0 -0.1112875311940303 -0.32576775904759792 0 -0.1011365257202933 -0.31403431577096802 0 -0.090550263656820479 -0.33079115485903843 0 -0.10964553082547281 -0.34513317088572909 0 -0.1112875311940303 -0.32576775904759792 0 -0.090550263656820479 -0.33079115485903843 0 -0.096157591159299352 -0.35547454281719221 0 -0.090550263656820479 -0.33079115485903843 0 -0.096157591159299352 -0.35547454281719221 0 -0.090550263656820479 -0.33079115485903843 0 -0.073144777225565616 -0.33606175945158517 0 -0.090550263656820479 -0.33079115485903843 0 -0.084942936154341619 -0.30610776690088481 0 -0.090550263656820479 -0.33079115485903843 0 -0.073144777225565616 -0.33606175945158517 0 -0.084942936154341619 -0.30610776690088481 0 -0.1011365257202933 -0.31403431577096802 0 -0.090550263656820479 -0.33079115485903843 0 -0.084942936154341619 -0.30610776690088481 0 -0.073144777225565616 -0.33606175945158517 0 -0.084942936154341619 -0.30610776690088481 0 -0.060613113796085999 -0.32288269869712272 0 -0.073144777225565616 -0.33606175945158517 0 -0.076755031766953086 -0.35884624094615858 0 -0.063306301319701316 -0.35299520754669739 0 -0.076755031766953086 -0.35884624094615858 0 -0.063306301319701316 -0.35299520754669739 0 -0.065890469742167113 -0.37350781086095058 0 -0.076755031766953086 -0.35884624094615858 0 -0.065890469742167113 -0.37350781086095058 0 -0.085276019388031976 -0.37619188405436782 0 -0.096157591159299352 -0.35547454281719221 0 -0.076755031766953086 -0.35884624094615858 0 -0.085276019388031976 -0.37619188405436782 0 -0.096157591159299352 -0.35547454281719221 0 -0.073144777225565616 -0.33606175945158517 0 -0.076755031766953086 -0.35884624094615858 0 -0.097628444613881649 -0.25834262822693399 0 -0.1173011125765811 -0.2721428964285707 0 -0.097628444613881649 -0.25834262822693399 0 -0.1187556211832122 -0.25814451816493872 0 -0.1098930818979398 -0.24798588601512411 0 -0.13218950310710981 -0.25272660122947088 0 -0.1187556211832122 -0.25814451816493872 0 -0.1098930818979398 -0.24798588601512411 0 -0.097628444613881649 -0.25834262822693399 0 -0.1187556211832122 -0.25814451816493872 0 -0.1173011125765811 -0.2721428964285707 0 -0.13218950310710981 -0.25272660122947088 0 -0.1098930818979398 -0.24798588601512411 0 -0.12600056203783161 -0.26301541000095829 0 -0.1187556211832122 -0.25814451816493872 0 -0.1173011125765811 -0.2721428964285707 0 -0.097628444613881649 -0.25834262822693399 0 -0.1173011125765811 -0.2721428964285707 0 -0.090762408808148426 -0.27102181932101072 0 -0.1173011125765811 -0.2721428964285707 0 -0.096655829275762523 -0.28444542957314378 0 -0.090762408808148426 -0.27102181932101072 0 -0.096655829275762523 -0.28444542957314378 0 -0.10322998884287909 -0.29931702984935987 0 -0.084942936154341619 -0.30610776690088481 0 -0.096655829275762523 -0.28444542957314378 0 -0.11725087491461519 -0.29108504565108578 0 -0.10322998884287909 -0.29931702984935987 0 -0.13697378053928061 -0.28594316463020741 0 -0.1173011125765811 -0.2721428964285707 0 -0.11725087491461519 -0.29108504565108578 0 -0.1173011125765811 -0.2721428964285707 0 -0.096655829275762523 -0.28444542957314378 0 -0.11725087491461519 -0.29108504565108578 0 -0.11725087491461519 -0.29108504565108578 0 -0.11567190875339491 -0.3081878681979589 0 -0.10322998884287909 -0.29931702984935987 0 -0.1304175251842298 -0.30012492429455973 0 -0.11725087491461519 -0.29108504565108578 0 -0.11567190875339491 -0.3081878681979589 0 -0.1011365257202933 -0.31403431577096802 0 -0.10322998884287909 -0.29931702984935987 0 -0.084942936154341619 -0.30610776690088481 0 -0.1011365257202933 -0.31403431577096802 0 -0.11567190875339491 -0.3081878681979589 0 -0.10322998884287909 -0.29931702984935987 0 -0.084942936154341619 -0.30610776690088481 0 -0.066237696895848033 -0.30175990202967712 0 -0.078368201618682937 -0.28822753231137022 0 -0.084942936154341619 -0.30610776690088481 0 -0.066237696895848033 -0.30175990202967712 0 -0.060613113796085999 -0.32288269869712272 0 -0.066237696895848033 -0.30175990202967712 0 -0.078368201618682937 -0.28822753231137022 0 -0.057136779716869042 -0.28712205926022771 0 -0.078368201618682937 -0.28822753231137022 0 -0.072744725061100565 -0.27289296274949931 0 -0.057136779716869042 -0.28712205926022771 0 -0.096655829275762523 -0.28444542957314378 0 -0.084942936154341619 -0.30610776690088481 0 -0.078368201618682937 -0.28822753231137022 0 -0.096655829275762523 -0.28444542957314378 0 -0.078368201618682937 -0.28822753231137022 0 -0.090762408808148426 -0.27102181932101072 0 -0.078368201618682937 -0.28822753231137022 0 -0.090762408808148426 -0.27102181932101072 0 -0.072744725061100565 -0.27289296274949931 0 -0.090762408808148426 -0.27102181932101072 0 -0.072744725061100565 -0.27289296274949931 0 -0.081281336266817772 -0.26097832242812891 0 -0.072744725061100565 -0.27289296274949931 0 -0.067161912638977472 -0.25903173736147111 0 -0.055745381016590281 -0.2682223094504298 0 -0.072744725061100565 -0.27289296274949931 0 -0.067161912638977472 -0.25903173736147111 0 -0.081281336266817772 -0.26097832242812891 0 -0.067161912638977472 -0.25903173736147111 0 -0.081281336266817772 -0.26097832242812891 0 -0.077955776651182085 -0.24454236002529731 0 -0.067161912638977472 -0.25903173736147111 0 -0.056939497423126581 -0.24878681181634871 0 -0.077955776651182085 -0.24454236002529731 0 -0.097628444613881649 -0.25834262822693399 0 -0.081281336266817772 -0.26097832242812891 0 -0.077955776651182085 -0.24454236002529731 0 -0.097628444613881649 -0.25834262822693399 0 -0.090762408808148426 -0.27102181932101072 0 -0.081281336266817772 -0.26097832242812891 0 -0.097628444613881649 -0.25834262822693399 0 -0.077955776651182085 -0.24454236002529731 0 -0.025857267464119819 -0.25506418495113531 0 -0.050191684441297867 -0.2485850187836515 0 -0.034199021844566052 -0.25740496373097072 0 -0.056939497423126581 -0.24878681181634871 0 -0.034199021844566052 -0.25740496373097072 0 -0.041398382443623198 -0.25192549838374201 0 -0.056939497423126581 -0.24878681181634871 0 -0.041398382443623198 -0.25192549838374201 0 -0.025857267464119819 -0.25506418495113531 0 -0.050191684441297867 -0.2485850187836515 0 -0.034199021844566052 -0.25740496373097072 0 -0.048255079716108998 -0.25800015923011232 0 -0.056939497423126581 -0.24878681181634871 0 -0.034199021844566052 -0.25740496373097072 0 -0.041398382443623198 -0.25192549838374201 0 -0.025857267464119819 -0.25506418495113531 0 -0.041398382443623198 -0.25192549838374201 0 -0.025857267464119819 -0.25506418495113531 0 -0.034199021844566052 -0.25740496373097072 0 -0.037307574571523318 -0.26201401924185519 0 -0.024854767991187229 -0.26705994663832661 0 -0.037307574571523318 -0.26201401924185519 0 -0.048255079716108998 -0.25800015923011232 0 -0.046606779304586107 -0.26584835010199509 0 -0.034199021844566052 -0.25740496373097072 0 -0.037307574571523318 -0.26201401924185519 0 -0.048255079716108998 -0.25800015923011232 0 -0.05702546769870083 -0.25851025446459042 0 -0.048255079716108998 -0.25800015923011232 0 -0.056939497423126581 -0.24878681181634871 0 -0.041398382443623198 -0.25192549838374201 0 -0.056939497423126581 -0.24878681181634871 0 -0.067161912638977472 -0.25903173736147111 0 -0.05702546769870083 -0.25851025446459042 0 -0.056939497423126581 -0.24878681181634871 0 -0.067161912638977472 -0.25903173736147111 0 -0.05702546769870083 -0.25851025446459042 0 -0.055745381016590281 -0.2682223094504298 0 -0.05702546769870083 -0.25851025446459042 0 -0.048255079716108998 -0.25800015923011232 0 -0.055745381016590281 -0.2682223094504298 0 -0.048255079716108998 -0.25800015923011232 0 -0.055745381016590281 -0.2682223094504298 0 -0.046606779304586107 -0.26584835010199509 0 -0.055745381016590281 -0.2682223094504298 0 -0.045119081914121867 -0.27515691248558288 0 -0.046606779304586107 -0.26584835010199509 0 -0.055745381016590281 -0.2682223094504298 0 -0.045119081914121867 -0.27515691248558288 0 -0.057136779716869042 -0.28712205926022771 0 -0.072744725061100565 -0.27289296274949931 0 -0.055745381016590281 -0.2682223094504298 0 -0.057136779716869042 -0.28712205926022771 0 -0.037307574571523318 -0.26201401924185519 0 -0.034478529498429812 -0.28951379058442123 0 -0.037307574571523318 -0.26201401924185519 0 -0.034478529498429812 -0.28951379058442123 0 -0.024854767991187229 -0.26705994663832661 0 -0.037307574571523318 -0.26201401924185519 0 -0.045119081914121867 -0.27515691248558288 0 -0.034478529498429812 -0.28951379058442123 0 -0.037307574571523318 -0.26201401924185519 0 -0.045119081914121867 -0.27515691248558288 0 -0.046606779304586107 -0.26584835010199509 0 -0.045119081914121867 -0.27515691248558288 0 -0.034478529498429812 -0.28951379058442123 0 -0.057136779716869042 -0.28712205926022771 0 -0.034478529498429812 -0.28951379058442123 0 -0.057136779716869042 -0.28712205926022771 0 -0.05012745319326059 -0.30445945297878008 0 -0.066237696895848033 -0.30175990202967712 0 -0.05012745319326059 -0.30445945297878008 0 -0.060613113796085999 -0.32288269869712272 0 -0.066237696895848033 -0.30175990202967712 0 -0.057136779716869042 -0.28712205926022771 0 -0.05012745319326059 -0.30445945297878008 0 -0.034478529498429812 -0.28951379058442123 0 -0.05012745319326059 -0.30445945297878008 0 -0.031649484425336299 -0.31701356192698721 0 -0.034478529498429812 -0.28951379058442123 0 -0.031649484425336299 -0.31701356192698721 0 -0.034478529498429812 -0.28951379058442123 0 -0.020284114256294641 -0.29759304008048471 0 -0.031649484425336299 -0.31701356192698721 0 -0.020284114256294641 -0.29759304008048471 0 -0.01007927323019326 -0.3103345258507364 0 -0.031649484425336299 -0.31701356192698721 0 -0.020284114256294641 -0.29759304008048471 0 -0.01007927323019326 -0.3103345258507364 0 -0.0080748459131490501 -0.2914060437848453 0 -0.01007927323019326 -0.3103345258507364 0 -0.0080748459131490501 -0.2914060437848453 0 0.0017563221397047381 -0.2997067901486577 0 -0.020284114256294641 -0.29759304008048471 0 -0.0080748459131490501 -0.2914060437848453 0 -0.017138438214364771 -0.27969727825543328 0 -0.0080748459131490501 -0.2914060437848453 0 -0.002848760243290064 -0.27761611820401882 0 0.0066437179820165657 -0.2861171845936395 0 -0.0080748459131490501 -0.2914060437848453 0 -0.017138438214364771 -0.27969727825543328 0 -0.002848760243290064 -0.27761611820401882 0 -0.034478529498429812 -0.28951379058442123 0 -0.020284114256294641 -0.29759304008048471 0 -0.017138438214364771 -0.27969727825543328 0 -0.034478529498429812 -0.28951379058442123 0 -0.024854767991187229 -0.26705994663832661 0 -0.017138438214364771 -0.27969727825543328 0 -0.024854767991187229 -0.26705994663832661 0 -0.01588915841142927 -0.27169793716392882 0 -0.01145854626600548 -0.26602311564559261 0 -0.024854767991187229 -0.26705994663832661 0 -0.01588915841142927 -0.27169793716392882 0 -0.017138438214364771 -0.27969727825543328 0 -0.017138438214364771 -0.27969727825543328 0 -0.011833725783772399 -0.27375861231724341 0 -0.002848760243290064 -0.27761611820401882 0 -0.01145854626600548 -0.26602311564559261 0 0.01128192931255503 -0.27464126756021451 0 -0.002848760243290064 -0.27761611820401882 0 -0.01145854626600548 -0.26602311564559261 0 0.01128192931255503 -0.27464126756021451 0 -0.01588915841142927 -0.27169793716392882 0 -0.017138438214364771 -0.27969727825543328 0 -0.011833725783772399 -0.27375861231724341 0 -0.011833725783772399 -0.27375861231724341 0 -0.002848760243290064 -0.27761611820401882 0 -0.01145854626600548 -0.26602311564559261 0 -0.01588915841142927 -0.27169793716392882 0 -0.011833725783772399 -0.27375861231724341 0 -0.01145854626600548 -0.26602311564559261 0 -0.01269776775011346 -0.25850600500130039 0 -0.0051360078472848583 -0.25701396995817721 0 0.0057158633005241696 -0.26337829885565528 0 -0.01145854626600548 -0.26602311564559261 0 -0.01269776775011346 -0.25850600500130039 0 0.0057158633005241696 -0.26337829885565528 0 -0.01269776775011346 -0.25850600500130039 0 0.0057158633005241696 -0.26337829885565528 0 -0.0009620894167222515 -0.25496392916579452 0 -0.0051360078472848583 -0.25701396995817721 0 0.0057158633005241696 -0.26337829885565528 0 -0.0071971320314794382 -0.2528457057960789 0 -0.01082738352359053 -0.24876902592697839 0 -0.0029313858115674811 -0.24854412401401971 0 -0.0009620894167222515 -0.25496392916579452 0 -0.0071971320314794382 -0.2528457057960789 0 -0.0029313858115674811 -0.24854412401401971 0 -0.0009620894167222515 -0.25496392916579452 0 -0.0051360078472848583 -0.25701396995817721 0 -0.0071971320314794382 -0.2528457057960789 0 -0.0051360078472848583 -0.25701396995817721 0 -0.0071971320314794382 -0.2528457057960789 0 -0.0094143843739788544 -0.25459574361389747 0 -0.0071971320314794382 -0.2528457057960789 0 -0.0094143843739788544 -0.25459574361389747 0 -0.01082738352359053 -0.24876902592697839 0 -0.01269776775011346 -0.25850600500130039 0 -0.0094143843739788544 -0.25459574361389747 0 -0.01082738352359053 -0.24876902592697839 0 -0.01269776775011346 -0.25850600500130039 0 -0.0051360078472848583 -0.25701396995817721 0 -0.0094143843739788544 -0.25459574361389747 0 -0.01269776775011346 -0.25850600500130039 0 -0.025857267464119819 -0.25506418495113531 0 -0.034199021844566052 -0.25740496373097072 0 -0.01145854626600548 -0.26602311564559261 0 -0.025857267464119819 -0.25506418495113531 0 -0.01269776775011346 -0.25850600500130039 0 -0.025857267464119819 -0.25506418495113531 0 -0.02368513365757598 -0.23851275990414511 0 -0.034199021844566052 -0.25740496373097072 0 -0.024854767991187229 -0.26705994663832661 0 -0.01145854626600548 -0.26602311564559261 0 -0.034199021844566052 -0.25740496373097072 0 -0.01145854626600548 -0.26602311564559261 0 -0.01145854626600548 -0.26602311564559261 0 -0.01269776775011346 -0.25850600500130039 0 -0.025857267464119819 -0.25506418495113531 0 -0.046940286889098168 -0.35955036210978841 0 -0.050269733973634309 -0.3392354021108881 0 -0.02882043935224279 -0.34451333326955308 0 -0.046940286889098168 -0.35955036210978841 0 -0.02882043935224279 -0.34451333326955308 0 -0.026419717968229769 -0.36867473508972981 0 -0.046940286889098168 -0.35955036210978841 0 -0.026419717968229769 -0.36867473508972981 0 -0.046935058978613817 -0.3783756837809118 0 -0.065890469742167113 -0.37350781086095058 0 -0.046940286889098168 -0.35955036210978841 0 -0.046935058978613817 -0.3783756837809118 0 -0.063306301319701316 -0.35299520754669739 0 -0.065890469742167113 -0.37350781086095058 0 -0.046940286889098168 -0.35955036210978841 0 -0.063306301319701316 -0.35299520754669739 0 -0.046940286889098168 -0.35955036210978841 0 -0.050269733973634309 -0.3392354021108881 0 -0.073144777225565616 -0.33606175945158517 0 -0.063306301319701316 -0.35299520754669739 0 -0.050269733973634309 -0.3392354021108881 0 -0.073144777225565616 -0.33606175945158517 0 -0.050269733973634309 -0.3392354021108881 0 -0.060613113796085999 -0.32288269869712272 0 -0.050269733973634309 -0.3392354021108881 0 -0.060613113796085999 -0.32288269869712272 0 -0.031649484425336299 -0.31701356192698721 0 -0.05012745319326059 -0.30445945297878008 0 -0.060613113796085999 -0.32288269869712272 0 -0.031649484425336299 -0.31701356192698721 0 -0.050269733973634309 -0.3392354021108881 0 -0.031649484425336299 -0.31701356192698721 0 -0.02882043935224279 -0.34451333326955308 0 -0.031649484425336299 -0.31701356192698721 0 -0.02882043935224279 -0.34451333326955308 0 -0.031649484425336299 -0.31701356192698721 0 -0.0038616663111063101 -0.33241552487502413 0 -0.02882043935224279 -0.34451333326955308 0 -0.01007927323019326 -0.3103345258507364 0 -0.031649484425336299 -0.31701356192698721 0 -0.0038616663111063101 -0.33241552487502413 0 -0.01007927323019326 -0.3103345258507364 0 -0.0038616663111063101 -0.33241552487502413 0 0.0094652366165251054 -0.31053241408104548 0 -0.0038616663111063101 -0.33241552487502413 0 -0.0043130761299947744 -0.35643483176966217 0 -0.02882043935224279 -0.34451333326955308 0 -0.0043130761299947744 -0.35643483176966217 0 -0.02882043935224279 -0.34451333326955308 0 -0.026419717968229769 -0.36867473508972981 0 -0.0043130761299947744 -0.35643483176966217 0 -0.026419717968229769 -0.36867473508972981 0 -0.0064694903547723136 -0.38059021958606692 0 -0.0064694903547723136 -0.38059021958606692 0 -0.0080625817845775948 -0.40608726553411861 0 -0.026496984295852101 -0.39226102623928111 0 -0.0064694903547723136 -0.38059021958606692 0 -0.0080625817845775948 -0.40608726553411861 0 0.009690974369139977 -0.39295199195252922 0 -0.0080625817845775948 -0.40608726553411861 0 -0.026496984295852101 -0.39226102623928111 0 -0.029852467816379728 -0.41236872525256307 0 -0.026419717968229769 -0.36867473508972981 0 -0.0064694903547723136 -0.38059021958606692 0 -0.026496984295852101 -0.39226102623928111 0 -0.026496984295852101 -0.39226102623928111 0 -0.048213792324517578 -0.39768762776665978 0 -0.046935058978613817 -0.3783756837809118 0 -0.026419717968229769 -0.36867473508972981 0 -0.026496984295852101 -0.39226102623928111 0 -0.046935058978613817 -0.3783756837809118 0 -0.026496984295852101 -0.39226102623928111 0 -0.048213792324517578 -0.39768762776665978 0 -0.029852467816379728 -0.41236872525256307 0 -0.048213792324517578 -0.39768762776665978 0 -0.065379196062645584 -0.39052657147488062 0 -0.06528413140028641 -0.40548789039177052 0 -0.048213792324517578 -0.39768762776665978 0 -0.046935058978613817 -0.3783756837809118 0 -0.065379196062645584 -0.39052657147488062 0 -0.065890469742167113 -0.37350781086095058 0 -0.046935058978613817 -0.3783756837809118 0 -0.065379196062645584 -0.39052657147488062 0 -0.052630130657334448 -0.42871109396582502 0 -0.036803499053157718 -0.43392585985635063 0 -0.055908543568221357 -0.44353945242809251 0 -0.052630130657334448 -0.42871109396582502 0 -0.048282499091199083 -0.41684649723306111 0 -0.065713266975248902 -0.42040157794015642 0 -0.052630130657334448 -0.42871109396582502 0 -0.055908543568221357 -0.44353945242809251 0 -0.077753046024815156 -0.43509142098737241 0 -0.048282499091199083 -0.41684649723306111 0 -0.06528413140028641 -0.40548789039177052 0 -0.065713266975248902 -0.42040157794015642 0 -0.048213792324517578 -0.39768762776665978 0 -0.048282499091199083 -0.41684649723306111 0 -0.06528413140028641 -0.40548789039177052 0 -0.048213792324517578 -0.39768762776665978 0 -0.048282499091199083 -0.41684649723306111 0 -0.029852467816379728 -0.41236872525256307 0 -0.048282499091199083 -0.41684649723306111 0 -0.036803499053157718 -0.43392585985635063 0 -0.029852467816379728 -0.41236872525256307 0 -0.052630130657334448 -0.42871109396582502 0 -0.048282499091199083 -0.41684649723306111 0 -0.036803499053157718 -0.43392585985635063 0 -0.036803499053157718 -0.43392585985635063 0 -0.01686747062211669 -0.42668809062348251 0 -0.022482277956740859 -0.44034230556013138 0 -0.036803499053157718 -0.43392585985635063 0 -0.01686747062211669 -0.42668809062348251 0 -0.029852467816379728 -0.41236872525256307 0 -0.0080625817845775948 -0.40608726553411861 0 -0.01686747062211669 -0.42668809062348251 0 -0.029852467816379728 -0.41236872525256307 0 -0.0080625817845775948 -0.40608726553411861 0 -0.01686747062211669 -0.42668809062348251 0 0.01224976062295041 -0.42183763890738629 0 -0.01686747062211669 -0.42668809062348251 0 -0.008216644178786571 -0.4466179140804285 0 0.01224976062295041 -0.42183763890738629 0 -0.008216644178786571 -0.4466179140804285 0 -0.0021957942935651631 -0.46571035637089769 0 -0.016151777162071251 -0.46269316979172348 0 -0.0021957942935651631 -0.46571035637089769 0 -0.016151777162071251 -0.46269316979172348 0 -0.01292321871024151 -0.47600360382280887 0 -0.008216644178786571 -0.4466179140804285 0 -0.016151777162071251 -0.46269316979172348 0 -0.028753682251359231 -0.45370767630375852 0 -0.016151777162071251 -0.46269316979172348 0 -0.030722049445265721 -0.46513815794063051 0 -0.025757536927686689 -0.47561542944709773 0 -0.016151777162071251 -0.46269316979172348 0 -0.030722049445265721 -0.46513815794063051 0 -0.028753682251359231 -0.45370767630375852 0 -0.036803499053157718 -0.43392585985635063 0 -0.028753682251359231 -0.45370767630375852 0 -0.022482277956740859 -0.44034230556013138 0 -0.01686747062211669 -0.42668809062348251 0 -0.008216644178786571 -0.4466179140804285 0 -0.022482277956740859 -0.44034230556013138 0 -0.008216644178786571 -0.4466179140804285 0 -0.028753682251359231 -0.45370767630375852 0 -0.022482277956740859 -0.44034230556013138 0 -0.011489863113854141 -0.5 0 -0.010144146689038991 -0.48941639725935437 0 0.012735562036971701 -0.48508522326900949 0 -0.010144146689038991 -0.48941639725935437 0 -0.00065605929082254884 -0.47874224407546379 0 -0.01292321871024151 -0.47600360382280887 0 -0.010144146689038991 -0.48941639725935437 0 -0.01292321871024151 -0.47600360382280887 0 -0.022633997898264431 -0.48384402599231691 0 -0.0021957942935651631 -0.46571035637089769 0 -0.00065605929082254884 -0.47874224407546379 0 -0.01292321871024151 -0.47600360382280887 0 -0.016151777162071251 -0.46269316979172348 0 -0.01292321871024151 -0.47600360382280887 0 -0.025757536927686689 -0.47561542944709773 0 -0.025757536927686689 -0.47561542944709773 0 -0.022633997898264431 -0.48384402599231691 0 -0.032724513000240443 -0.48384135401243772 0 -0.01292321871024151 -0.47600360382280887 0 -0.025757536927686689 -0.47561542944709773 0 -0.022633997898264431 -0.48384402599231691 0 -0.011489863113854141 -0.5 0 -0.010144146689038991 -0.48941639725935437 0 -0.033023855415049652 -0.49374757124969931 0 -0.010144146689038991 -0.48941639725935437 0 -0.022633997898264431 -0.48384402599231691 0 -0.033023855415049652 -0.49374757124969931 0 -0.011489863113854141 -0.5 0 -0.041002190054857779 -0.5 0 -0.033023855415049652 -0.49374757124969931 0 -0.010144146689038991 -0.48941639725935437 0 -0.033023855415049652 -0.49374757124969931 0 -0.022633997898264431 -0.48384402599231691 0 -0.033023855415049652 -0.49374757124969931 0 -0.032724513000240443 -0.48384135401243772 0 -0.041002190054857779 -0.5 0 -0.040644419244316249 -0.48874723383863622 0 -0.055758353525359711 -0.48944453406372251 0 -0.041002190054857779 -0.5 0 -0.033023855415049652 -0.49374757124969931 0 -0.040644419244316249 -0.48874723383863622 0 -0.033023855415049652 -0.49374757124969931 0 -0.040644419244316249 -0.48874723383863622 0 -0.032724513000240443 -0.48384135401243772 0 -0.040644419244316249 -0.48874723383863622 0 -0.040713184226073652 -0.47670270986732172 0 -0.055758353525359711 -0.48944453406372251 0 -0.040644419244316249 -0.48874723383863622 0 -0.040713184226073652 -0.47670270986732172 0 -0.032724513000240443 -0.48384135401243772 0 -0.025757536927686689 -0.47561542944709773 0 -0.040713184226073652 -0.47670270986732172 0 -0.032724513000240443 -0.48384135401243772 0 -0.030722049445265721 -0.46513815794063051 0 -0.025757536927686689 -0.47561542944709773 0 -0.040713184226073652 -0.47670270986732172 0 -0.040713184226073652 -0.47670270986732172 0 -0.05604151524233808 -0.47085547185542692 0 -0.042137987481662489 -0.46199998676314519 0 -0.040713184226073652 -0.47670270986732172 0 -0.05604151524233808 -0.47085547185542692 0 -0.055758353525359711 -0.48944453406372251 0 -0.05604151524233808 -0.47085547185542692 0 -0.055758353525359711 -0.48944453406372251 0 -0.068357021366280857 -0.47830767763467641 0 -0.041002190054857779 -0.5 0 -0.055758353525359711 -0.48944453406372251 0 -0.070514516995861642 -0.5 0 -0.036803499053157718 -0.43392585985635063 0 -0.028753682251359231 -0.45370767630375852 0 -0.042591220718736618 -0.44931976272637059 0 -0.036803499053157718 -0.43392585985635063 0 -0.042591220718736618 -0.44931976272637059 0 -0.055908543568221357 -0.44353945242809251 0 -0.028753682251359231 -0.45370767630375852 0 -0.042591220718736618 -0.44931976272637059 0 -0.042137987481662489 -0.46199998676314519 0 -0.030722049445265721 -0.46513815794063051 0 -0.028753682251359231 -0.45370767630375852 0 -0.042137987481662489 -0.46199998676314519 0 -0.030722049445265721 -0.46513815794063051 0 -0.040713184226073652 -0.47670270986732172 0 -0.042137987481662489 -0.46199998676314519 0 -0.042591220718736618 -0.44931976272637059 0 -0.042137987481662489 -0.46199998676314519 0 -0.054601469153056192 -0.45704509188174619 0 -0.05604151524233808 -0.47085547185542692 0 -0.054601469153056192 -0.45704509188174619 0 -0.071896784036839162 -0.45711427830285839 0 -0.05604151524233808 -0.47085547185542692 0 -0.042137987481662489 -0.46199998676314519 0 -0.054601469153056192 -0.45704509188174619 0 -0.054601469153056192 -0.45704509188174619 0 -0.055908543568221357 -0.44353945242809251 0 -0.071896784036839162 -0.45711427830285839 0 -0.042591220718736618 -0.44931976272637059 0 -0.054601469153056192 -0.45704509188174619 0 -0.055908543568221357 -0.44353945242809251 0 -0.055908543568221357 -0.44353945242809251 0 -0.071896784036839162 -0.45711427830285839 0 -0.077753046024815156 -0.43509142098737241 0 -0.071896784036839162 -0.45711427830285839 0 -0.087573937031005744 -0.47412410395137422 0 -0.093954286744555499 -0.45179652052777369 0 -0.087573937031005744 -0.47412410395137422 0 -0.093954286744555499 -0.45179652052777369 0 -0.071896784036839162 -0.45711427830285839 0 -0.093954286744555499 -0.45179652052777369 0 -0.077753046024815156 -0.43509142098737241 0 -0.093954286744555499 -0.45179652052777369 0 -0.10033463645810529 -0.42946893710417328 0 -0.077753046024815156 -0.43509142098737241 0 -0.055758353525359711 -0.48944453406372251 0 -0.070514516995861642 -0.5 0 -0.068357021366280857 -0.47830767763467641 0 -0.05604151524233808 -0.47085547185542692 0 -0.071896784036839162 -0.45711427830285839 0 -0.068357021366280857 -0.47830767763467641 0 -0.071896784036839162 -0.45711427830285839 0 -0.068357021366280857 -0.47830767763467641 0 -0.087573937031005744 -0.47412410395137422 0 -0.070514516995861642 -0.5 0 -0.068357021366280857 -0.47830767763467641 0 -0.087573937031005744 -0.47412410395137422 0 -0.070514516995861642 -0.5 0 -0.087573937031005744 -0.47412410395137422 0 -0.10002684393686551 -0.5 0 -0.087573937031005744 -0.47412410395137422 0 -0.10002684393686551 -0.5 0 -0.10780494223314389 -0.47765854937150709 0 -0.087573937031005744 -0.47412410395137422 0 -0.10780494223314389 -0.47765854937150709 0 -0.1029954147344513 -0.46359439800738522 0 -0.12605423818426559 -0.48707922202292669 0 -0.10780494223314389 -0.47765854937150709 0 -0.1201929706126502 -0.46127799294672761 0 -0.12605423818426559 -0.48707922202292669 0 -0.1201929706126502 -0.46127799294672761 0 -0.12605423818426559 -0.48707922202292669 0 -0.10002684393686551 -0.5 0 -0.10780494223314389 -0.47765854937150709 0 -0.1295391708778694 -0.5 0 -0.12605423818426559 -0.48707922202292669 0 -0.10002684393686551 -0.5 0 -0.093954286744555499 -0.45179652052777369 0 -0.10033463645810529 -0.42946893710417328 0 -0.10636180231815941 -0.44832292249131772 0 -0.11433170304103479 -0.43547676387052858 0 -0.10033463645810529 -0.42946893710417328 0 -0.10636180231815941 -0.44832292249131772 0 -0.093954286744555499 -0.45179652052777369 0 -0.10033463645810529 -0.42946893710417328 0 -0.087573937031005744 -0.47412410395137422 0 -0.093954286744555499 -0.45179652052777369 0 -0.1029954147344513 -0.46359439800738522 0 -0.10636180231815941 -0.44832292249131772 0 -0.093954286744555499 -0.45179652052777369 0 -0.1029954147344513 -0.46359439800738522 0 -0.10780494223314389 -0.47765854937150709 0 -0.1029954147344513 -0.46359439800738522 0 -0.1201929706126502 -0.46127799294672761 0 -0.10636180231815941 -0.44832292249131772 0 -0.1029954147344513 -0.46359439800738522 0 -0.1201929706126502 -0.46127799294672761 0 -0.13671083813600751 -0.45044361347006462 0 -0.1201929706126502 -0.46127799294672761 0 -0.11433170304103479 -0.43547676387052858 0 -0.10636180231815941 -0.44832292249131772 0 -0.1201929706126502 -0.46127799294672761 0 -0.11433170304103479 -0.43547676387052858 0 -0.13671083813600751 -0.45044361347006462 0 -0.1225906368027144 -0.43005957413219659 0 -0.11433170304103479 -0.43547676387052858 0 -0.1201929706126502 -0.46127799294672761 0 -0.11433170304103479 -0.43547676387052858 0 -0.1225906368027144 -0.43005957413219659 0 -0.11433170304103479 -0.43547676387052858 0 -0.10847043546942051 -0.40967553479432928 0 -0.11433170304103479 -0.43547676387052858 0 -0.10847043546942051 -0.40967553479432928 0 -0.12908399078123631 -0.42243277819987513 0 -0.1225906368027144 -0.43005957413219659 0 -0.12315425937001 -0.41747458531602638 0 -0.11433170304103479 -0.43547676387052858 0 -0.10033463645810529 -0.42946893710417328 0 -0.10847043546942051 -0.40967553479432928 0 -0.10033463645810529 -0.42946893710417328 0 -0.094107383989168333 -0.41562629379671062 0 -0.1067149861716557 -0.40714135368057303 0 -0.10033463645810529 -0.42946893710417328 0 -0.1067149861716557 -0.40714135368057303 0 -0.10847043546942051 -0.40967553479432928 0 -0.10033463645810529 -0.42946893710417328 0 -0.1067149861716557 -0.40714135368057303 0 -0.094107383989168333 -0.41562629379671062 0 -0.1067149861716557 -0.40714135368057303 0 -0.093615658715422545 -0.40476526464288082 0 -0.10847043546942051 -0.40967553479432928 0 -0.1105756132387118 -0.40676785322215941 0 -0.1073722461642546 -0.40484131873350049 0 -0.10847043546942051 -0.40967553479432928 0 -0.1073722461642546 -0.40484131873350049 0 -0.1067149861716557 -0.40714135368057303 0 -0.10847043546942051 -0.40967553479432928 0 -0.1073722461642546 -0.40484131873350049 0 -0.1067149861716557 -0.40714135368057303 0 -0.10847043546942051 -0.40967553479432928 0 -0.1225906368027144 -0.43005957413219659 0 -0.1163272184937543 -0.41351727508190028 0 -0.12315425937001 -0.41747458531602638 0 -0.10847043546942051 -0.40967553479432928 0 -0.1125412123036873 -0.40894162881917728 0 -0.1163272184937543 -0.41351727508190028 0 -0.1125412123036873 -0.40894162881917728 0 -0.1105756132387118 -0.40676785322215941 0 -0.1147915820128618 -0.40580585217832088 0 -0.1225906368027144 -0.43005957413219659 0 -0.10847043546942051 -0.40967553479432928 0 -0.1163272184937543 -0.41351727508190028 0 -0.10847043546942051 -0.40967553479432928 0 -0.1125412123036873 -0.40894162881917728 0 -0.1105756132387118 -0.40676785322215941 0 -0.1225906368027144 -0.43005957413219659 0 -0.10847043546942051 -0.40967553479432928 0 -0.1125412123036873 -0.40894162881917728 0 -0.1163272184937543 -0.41351727508190028 0 -0.1147915820128618 -0.40580585217832088 0 -0.1225700411049412 -0.40994677461386392 0 -0.1219584454402414 -0.40406961642135292 0 -0.1147915820128618 -0.40580585217832088 0 -0.1163272184937543 -0.41351727508190028 0 -0.1225700411049412 -0.40994677461386392 0 -0.1147915820128618 -0.40580585217832088 0 -0.1163272184937543 -0.41351727508190028 0 -0.12315425937001 -0.41747458531602638 0 -0.1225700411049412 -0.40994677461386392 0 -0.1273295258527142 -0.39594401256049883 0 -0.1219584454402414 -0.40406961642135292 0 -0.1190781430676657 -0.39944145851713192 0 -0.11305295545189779 -0.39895005080087959 0 -0.11384267237711319 -0.38219851895920232 0 -0.1073722461642546 -0.40484131873350049 0 -0.1295768038857959 -0.40463739140698729 0 -0.1225700411049412 -0.40994677461386392 0 -0.1219584454402414 -0.40406961642135292 0 -0.1182582065806136 -0.392437760624607 0 -0.11305295545189779 -0.39895005080087959 0 -0.11384267237711319 -0.38219851895920232 0 -0.11384267237711319 -0.38219851895920232 0 -0.1073722461642546 -0.40484131873350049 0 -0.1219584454402414 -0.40406961642135292 0 -0.1190781430676657 -0.39944145851713192 0 -0.1147915820128618 -0.40580585217832088 0 -0.1273295258527142 -0.39594401256049883 0 -0.1190781430676657 -0.39944145851713192 0 -0.1182582065806136 -0.392437760624607 0 -0.1190781430676657 -0.39944145851713192 0 -0.1182582065806136 -0.392437760624607 0 -0.11305295545189779 -0.39895005080087959 0 -0.1105756132387118 -0.40676785322215941 0 -0.1114480992169309 -0.40409126873371493 0 -0.1073722461642546 -0.40484131873350049 0 -0.1105756132387118 -0.40676785322215941 0 -0.1114480992169309 -0.40409126873371493 0 -0.1147915820128618 -0.40580585217832088 0 -0.11305295545189779 -0.39895005080087959 0 -0.1114480992169309 -0.40409126873371493 0 -0.1147915820128618 -0.40580585217832088 0 -0.11305295545189779 -0.39895005080087959 0 -0.1114480992169309 -0.40409126873371493 0 -0.1073722461642546 -0.40484131873350049 0 -0.1190781430676657 -0.39944145851713192 0 -0.11305295545189779 -0.39895005080087959 0 -0.1147915820128618 -0.40580585217832088 0 -0.12625141541498519 -0.38197991289387551 0 -0.1182582065806136 -0.392437760624607 0 -0.11384267237711319 -0.38219851895920232 0 -0.12625141541498519 -0.38197991289387551 0 -0.1273295258527142 -0.39594401256049883 0 -0.1182582065806136 -0.392437760624607 0 -0.11384267237711319 -0.38219851895920232 0 -0.10176491866177829 -0.38015793077534599 0 -0.1073722461642546 -0.40484131873350049 0 -0.10176491866177829 -0.38015793077534599 0 -0.095995502779844255 -0.39166661886747001 0 -0.085276019388031976 -0.37619188405436782 0 -0.10849363524981311 -0.36442991456039969 0 -0.11384267237711319 -0.38219851895920232 0 -0.10176491866177829 -0.38015793077534599 0 -0.10176491866177829 -0.38015793077534599 0 -0.1073722461642546 -0.40484131873350049 0 -0.095995502779844255 -0.39166661886747001 0 -0.10176491866177829 -0.38015793077534599 0 -0.1073722461642546 -0.40484131873350049 0 -0.1067149861716557 -0.40714135368057303 0 -0.1073722461642546 -0.40484131873350049 0 -0.095995502779844255 -0.39166661886747001 0 -0.1067149861716557 -0.40714135368057303 0 -0.1073722461642546 -0.40484131873350049 0 -0.1067149861716557 -0.40714135368057303 0 -0.095995502779844255 -0.39166661886747001 0 -0.1067149861716557 -0.40714135368057303 0 -0.095995502779844255 -0.39166661886747001 0 -0.093615658715422545 -0.40476526464288082 0 -0.093615658715422545 -0.40476526464288082 0 -0.081664681120336771 -0.39582842074610342 0 -0.082451352827770552 -0.41163664718976212 0 -0.095995502779844255 -0.39166661886747001 0 -0.093615658715422545 -0.40476526464288082 0 -0.081664681120336771 -0.39582842074610342 0 -0.095995502779844255 -0.39166661886747001 0 -0.081664681120336771 -0.39582842074610342 0 -0.085276019388031976 -0.37619188405436782 0 -0.081664681120336771 -0.39582842074610342 0 -0.085276019388031976 -0.37619188405436782 0 -0.074552591578295357 -0.38401367178407558 0 -0.095995502779844255 -0.39166661886747001 0 -0.085276019388031976 -0.37619188405436782 0 -0.081664681120336771 -0.39582842074610342 0 -0.065379196062645584 -0.39052657147488062 0 -0.074552591578295357 -0.38401367178407558 0 -0.065890469742167113 -0.37350781086095058 0 -0.085276019388031976 -0.37619188405436782 0 -0.074552591578295357 -0.38401367178407558 0 -0.065890469742167113 -0.37350781086095058 0 -0.065379196062645584 -0.39052657147488062 0 -0.074552591578295357 -0.38401367178407558 0 -0.081664681120336771 -0.39582842074610342 0 -0.06528413140028641 -0.40548789039177052 0 -0.082451352827770552 -0.41163664718976212 0 -0.081664681120336771 -0.39582842074610342 0 -0.065379196062645584 -0.39052657147488062 0 -0.06528413140028641 -0.40548789039177052 0 -0.065713266975248902 -0.42040157794015642 0 -0.085028608260126398 -0.42320905853578622 0 -0.082451352827770552 -0.41163664718976212 0 -0.06528413140028641 -0.40548789039177052 0 -0.065713266975248902 -0.42040157794015642 0 -0.082451352827770552 -0.41163664718976212 0 -0.065713266975248902 -0.42040157794015642 0 -0.077753046024815156 -0.43509142098737241 0 -0.085028608260126398 -0.42320905853578622 0 -0.052630130657334448 -0.42871109396582502 0 -0.065713266975248902 -0.42040157794015642 0 -0.077753046024815156 -0.43509142098737241 0 -0.10033463645810529 -0.42946893710417328 0 -0.077753046024815156 -0.43509142098737241 0 -0.085028608260126398 -0.42320905853578622 0 -0.10033463645810529 -0.42946893710417328 0 -0.094107383989168333 -0.41562629379671062 0 -0.085028608260126398 -0.42320905853578622 0 -0.094107383989168333 -0.41562629379671062 0 -0.085028608260126398 -0.42320905853578622 0 -0.082451352827770552 -0.41163664718976212 0 -0.094107383989168333 -0.41562629379671062 0 -0.093615658715422545 -0.40476526464288082 0 -0.082451352827770552 -0.41163664718976212 0 -0.080832567710134945 -0.085265223789800185 0 -0.09573268077664969 -0.090624673380050064 0 -0.094924188455715333 -0.074372309221374736 0 -0.080832567710134945 -0.085265223789800185 0 -0.0944050220014645 -0.1050702242089397 0 -0.09573268077664969 -0.090624673380050064 0 -0.094924188455715333 -0.074372309221374736 0 -0.077079431972146645 -0.050953682142663811 0 -0.080832567710134945 -0.085265223789800185 0 -0.077460787511610923 -0.070469280456870842 0 -0.094924188455715333 -0.074372309221374736 0 -0.077460787511610923 -0.070469280456870842 0 -0.094924188455715333 -0.074372309221374736 0 -0.078535685693175539 -0.061573663464548622 0 -0.080832567710134945 -0.085265223789800185 0 -0.072736864716213656 -0.076885636419884412 0 -0.077460787511610923 -0.070469280456870842 0 -0.072736864716213656 -0.076885636419884412 0 -0.077460787511610923 -0.070469280456870842 0 -0.067174029152377468 -0.071022972744677337 0 -0.077460787511610923 -0.070469280456870842 0 -0.067174029152377468 -0.071022972744677337 0 -0.070308423821052124 -0.061023041189074957 0 -0.077460787511610923 -0.070469280456870842 0 -0.078535685693175539 -0.061573663464548622 0 -0.070308423821052124 -0.061023041189074957 0 -0.067174029152377468 -0.071022972744677337 0 -0.070308423821052124 -0.061023041189074957 0 -0.060830035872249492 -0.064558057335980773 0 -0.072736864716213656 -0.076885636419884412 0 -0.067174029152377468 -0.071022972744677337 0 -0.063732237529271596 -0.080733089011810297 0 -0.067174029152377468 -0.071022972744677337 0 -0.063732237529271596 -0.080733089011810297 0 -0.058000192015007383 -0.073011667883306972 0 -0.080832567710134945 -0.085265223789800185 0 -0.063732237529271596 -0.080733089011810297 0 -0.066023591375222151 -0.09957098179305135 0 -0.080832567710134945 -0.085265223789800185 0 -0.072736864716213656 -0.076885636419884412 0 -0.063732237529271596 -0.080733089011810297 0 -0.066023591375222151 -0.09957098179305135 0 -0.069466171350113709 -0.1135628440840601 0 -0.0944050220014645 -0.1050702242089397 0 -0.066023591375222151 -0.09957098179305135 0 -0.069466171350113709 -0.1135628440840601 0 -0.054384952187449757 -0.110609208962567 0 -0.077516787342341589 -0.1242022911324857 0 -0.069466171350113709 -0.1135628440840601 0 -0.059238207921678762 -0.13024384051707169 0 -0.077516787342341589 -0.1242022911324857 0 -0.093262550211769629 -0.1231040070079162 0 -0.0944050220014645 -0.1050702242089397 0 -0.077516787342341589 -0.1242022911324857 0 -0.069466171350113709 -0.1135628440840601 0 -0.0944050220014645 -0.1050702242089397 0 -0.066023591375222151 -0.09957098179305135 0 -0.0944050220014645 -0.1050702242089397 0 -0.080832567710134945 -0.085265223789800185 0 -0.066023591375222151 -0.09957098179305135 0 -0.0944050220014645 -0.1050702242089397 0 -0.0944050220014645 -0.1050702242089397 0 -0.1071147179002416 -0.1244919901550422 0 -0.11276894493928399 -0.097790936300085646 0 -0.0944050220014645 -0.1050702242089397 0 -0.11276894493928399 -0.097790936300085646 0 -0.09573268077664969 -0.090624673380050064 0 -0.093262550211769629 -0.1231040070079162 0 -0.0944050220014645 -0.1050702242089397 0 -0.1071147179002416 -0.1244919901550422 0 -0.1071147179002416 -0.1244919901550422 0 -0.11276894493928399 -0.097790936300085646 0 -0.1306137014228527 -0.1212095633787966 0 -0.11276894493928399 -0.097790936300085646 0 -0.1306137014228527 -0.1212095633787966 0 -0.112702195828283 -0.076339248342475546 0 -0.13438499311011279 -0.096174695905308166 0 -0.11276894493928399 -0.097790936300085646 0 -0.112702195828283 -0.076339248342475546 0 -0.13438499311011279 -0.096174695905308166 0 -0.11276894493928399 -0.097790936300085646 0 -0.094924188455715333 -0.074372309221374736 0 -0.112702195828283 -0.076339248342475546 0 -0.11276894493928399 -0.097790936300085646 0 -0.094924188455715333 -0.074372309221374736 0 -0.11276894493928399 -0.097790936300085646 0 -0.09573268077664969 -0.090624673380050064 0 -0.094924188455715333 -0.074372309221374736 0 -0.094924188455715333 -0.074372309221374736 0 -0.1026030192468113 -0.064894788769428779 0 -0.112702195828283 -0.076339248342475546 0 -0.094924188455715333 -0.074372309221374736 0 -0.1026030192468113 -0.064894788769428779 0 -0.090333769324138391 -0.059362086744932152 0 -0.1026030192468113 -0.064894788769428779 0 -0.112702195828283 -0.076339248342475546 0 -0.1158705629695205 -0.060236298698018297 0 -0.112702195828283 -0.076339248342475546 0 -0.1158705629695205 -0.060236298698018297 0 -0.13497135686491851 -0.078315161523928284 0 -0.1158705629695205 -0.060236298698018297 0 -0.1150956899200111 -0.045830426672337207 0 -0.1070798181065768 -0.041876824406217303 0 -0.1158705629695205 -0.060236298698018297 0 -0.1150956899200111 -0.045830426672337207 0 -0.12809376798702951 -0.047905065599393698 0 -0.1163329610324388 -0.034474533447810513 0 -0.12530131535501859 -0.034952786400489197 0 -0.12809376798702951 -0.047905065599393698 0 -0.11023593420079281 -0.033339602888773932 0 -0.1150956899200111 -0.045830426672337207 0 -0.12809376798702951 -0.047905065599393698 0 -0.11023593420079281 -0.033339602888773932 0 -0.1163329610324388 -0.034474533447810513 0 -0.12809376798702951 -0.047905065599393698 0 -0.11023593420079281 -0.033339602888773932 0 -0.12809376798702951 -0.047905065599393698 0 -0.1163329610324388 -0.034474533447810513 0 -0.1221370268088495 -0.025998648103035 0 -0.12530131535501859 -0.034952786400489197 0 -0.11023593420079281 -0.033339602888773932 0 -0.1150956899200111 -0.045830426672337207 0 -0.1070798181065768 -0.041876824406217303 0 -0.11023593420079281 -0.033339602888773932 0 -0.1163329610324388 -0.034474533447810513 0 -0.097427134368436918 -0.027820357899848831 0 -0.11023593420079281 -0.033339602888773932 0 -0.1070798181065768 -0.041876824406217303 0 -0.097427134368436918 -0.027820357899848831 0 -0.1070798181065768 -0.041876824406217303 0 -0.096769769074122519 -0.04215743587210824 0 -0.097427134368436918 -0.027820357899848831 0 -0.1158705629695205 -0.060236298698018297 0 -0.1070798181065768 -0.041876824406217303 0 -0.096769769074122519 -0.04215743587210824 0 -0.1026030192468113 -0.064894788769428779 0 -0.1158705629695205 -0.060236298698018297 0 -0.099264754381345577 -0.055060356505970513 0 -0.1158705629695205 -0.060236298698018297 0 -0.096769769074122519 -0.04215743587210824 0 -0.099264754381345577 -0.055060356505970513 0 -0.096769769074122519 -0.04215743587210824 0 -0.099264754381345577 -0.055060356505970513 0 -0.090746651292135133 -0.048651172445365112 0 -0.1158705629695205 -0.060236298698018297 0 -0.096769769074122519 -0.04215743587210824 0 -0.1026030192468113 -0.064894788769428779 0 -0.099264754381345577 -0.055060356505970513 0 -0.090333769324138391 -0.059362086744932152 0 -0.1029392013539359 -0.0085751277431150782 0 -0.12735709500343681 0.004015926865657337 0 -0.1236693299605585 -0.0137973575501921 0 -0.1110604598185659 -0.0207882196779367 0 -0.1029392013539359 -0.0085751277431150782 0 -0.1236693299605585 -0.0137973575501921 0 -0.1029392013539359 -0.0085751277431150782 0 -0.12735709500343681 0.004015926865657337 0 -0.1236693299605585 -0.0137973575501921 0 -0.1110604598185659 -0.0207882196779367 0 -0.1221370268088495 -0.025998648103035 0 -0.1163329610324388 -0.034474533447810513 0 -0.1221370268088495 -0.025998648103035 0 -0.11173939550707281 -0.027270439782157759 0 -0.1110604598185659 -0.0207882196779367 0 -0.1221370268088495 -0.025998648103035 0 -0.11173939550707281 -0.027270439782157759 0 -0.1163329610324388 -0.034474533447810513 0 -0.097427134368436918 -0.027820357899848831 0 -0.1110604598185659 -0.0207882196779367 0 -0.097427134368436918 -0.027820357899848831 0 -0.1029392013539359 -0.0085751277431150782 0 -0.1163329610324388 -0.034474533447810513 0 -0.11173939550707281 -0.027270439782157759 0 -0.097427134368436918 -0.027820357899848831 0 -0.1110604598185659 -0.0207882196779367 0 -0.11173939550707281 -0.027270439782157759 0 -0.097427134368436918 -0.027820357899848831 0 -0.1029392013539359 -0.0085751277431150782 0 -0.086097875964997059 -0.0058870606910941042 0 -0.078521307704434995 -0.021166182351887271 0 -0.1029392013539359 -0.0085751277431150782 0 -0.078521307704434995 -0.021166182351887271 0 -0.1029392013539359 -0.0085751277431150782 0 -0.086097875964997059 -0.0058870606910941042 0 -0.091682611010439896 0.0063963380850077774 0 -0.086097875964997059 -0.0058870606910941042 0 -0.073830544796709738 -0.0078542708917730738 0 -0.078933949510919491 0.00072378658541613432 0 -0.086097875964997059 -0.0058870606910941042 0 -0.078521307704434995 -0.021166182351887271 0 -0.073830544796709738 -0.0078542708917730738 0 -0.097427134368436918 -0.027820357899848831 0 -0.078521307704434995 -0.021166182351887271 0 -0.097427134368436918 -0.027820357899848831 0 -0.078521307704434995 -0.021166182351887271 0 -0.077668975178724509 -0.024078573046198169 0 -0.097427134368436918 -0.027820357899848831 0 -0.1029392013539359 -0.0085751277431150782 0 -0.078521307704434995 -0.021166182351887271 0 -0.078521307704434995 -0.021166182351887271 0 -0.055132092173872667 -0.033226800447327051 0 -0.05822397002114936 -0.01402224463886402 0 -0.078521307704434995 -0.021166182351887271 0 -0.055132092173872667 -0.033226800447327051 0 -0.077668975178724509 -0.024078573046198169 0 -0.075465350998538308 -0.032772608828030472 0 -0.055132092173872667 -0.033226800447327051 0 -0.078521307704434995 -0.021166182351887271 0 -0.077668975178724509 -0.024078573046198169 0 -0.055132092173872667 -0.033226800447327051 0 -0.078521307704434995 -0.021166182351887271 0 -0.05822397002114936 -0.01402224463886402 0 -0.078521307704434995 -0.021166182351887271 0 -0.073830544796709738 -0.0078542708917730738 0 -0.05822397002114936 -0.01402224463886402 0 -0.073830544796709738 -0.0078542708917730738 0 -0.05822397002114936 -0.01402224463886402 0 -0.068462160169621672 0.0025537029525893409 0 -0.073830544796709738 -0.0078542708917730738 0 -0.078933949510919491 0.00072378658541613432 0 -0.068462160169621672 0.0025537029525893409 0 -0.094924188455715333 -0.074372309221374736 0 -0.090333769324138391 -0.059362086744932152 0 -0.077079431972146645 -0.050953682142663811 0 -0.094924188455715333 -0.074372309221374736 0 -0.078535685693175539 -0.061573663464548622 0 -0.077079431972146645 -0.050953682142663811 0 -0.084868245962835154 -0.053326759561897898 0 -0.090333769324138391 -0.059362086744932152 0 -0.077079431972146645 -0.050953682142663811 0 -0.084868245962835154 -0.053326759561897898 0 -0.080876314157704687 -0.04955372347343575 0 -0.082849096915408454 -0.045583035938281863 0 -0.080876314157704687 -0.04955372347343575 0 -0.078708481780428496 -0.048351416250899462 0 -0.082849096915408454 -0.045583035938281863 0 -0.080876314157704687 -0.04955372347343575 0 -0.078708481780428496 -0.048351416250899462 0 -0.077079431972146645 -0.050953682142663811 0 -0.084868245962835154 -0.053326759561897898 0 -0.080876314157704687 -0.04955372347343575 0 -0.077079431972146645 -0.050953682142663811 0 -0.084868245962835154 -0.053326759561897898 0 -0.090746651292135133 -0.048651172445365112 0 -0.082849096915408454 -0.045583035938281863 0 -0.084868245962835154 -0.053326759561897898 0 -0.090333769324138391 -0.059362086744932152 0 -0.090746651292135133 -0.048651172445365112 0 -0.099264754381345577 -0.055060356505970513 0 -0.090333769324138391 -0.059362086744932152 0 -0.090746651292135133 -0.048651172445365112 0 -0.096769769074122519 -0.04215743587210824 0 -0.088481073739883592 -0.043344290748051233 0 -0.083558777677868248 -0.036985518736449702 0 -0.096769769074122519 -0.04215743587210824 0 -0.097427134368436918 -0.027820357899848831 0 -0.077668975178724509 -0.024078573046198169 0 -0.096769769074122519 -0.04215743587210824 0 -0.077668975178724509 -0.024078573046198169 0 -0.083558777677868248 -0.036985518736449702 0 -0.096769769074122519 -0.04215743587210824 0 -0.077668975178724509 -0.024078573046198169 0 -0.090746651292135133 -0.048651172445365112 0 -0.088481073739883592 -0.043344290748051233 0 -0.082849096915408454 -0.045583035938281863 0 -0.096769769074122519 -0.04215743587210824 0 -0.090746651292135133 -0.048651172445365112 0 -0.088481073739883592 -0.043344290748051233 0 -0.077668975178724509 -0.024078573046198169 0 -0.083558777677868248 -0.036985518736449702 0 -0.075465350998538308 -0.032772608828030472 0 -0.083558777677868248 -0.036985518736449702 0 -0.082849096915408454 -0.045583035938281863 0 -0.075062618692292638 -0.040325846155841297 0 -0.088481073739883592 -0.043344290748051233 0 -0.083558777677868248 -0.036985518736449702 0 -0.082849096915408454 -0.045583035938281863 0 -0.082849096915408454 -0.045583035938281863 0 -0.078067002861142085 -0.04575568247049161 0 -0.075062618692292638 -0.040325846155841297 0 -0.078708481780428496 -0.048351416250899462 0 -0.082849096915408454 -0.045583035938281863 0 -0.078067002861142085 -0.04575568247049161 0 -0.075647814056438792 -0.048762431536943832 0 -0.055132092173872667 -0.033226800447327051 0 -0.078067002861142085 -0.04575568247049161 0 -0.075062618692292638 -0.040325846155841297 0 -0.075647814056438792 -0.048762431536943832 0 -0.075062618692292638 -0.040325846155841297 0 -0.075465350998538308 -0.032772608828030472 0 -0.055132092173872667 -0.033226800447327051 0 -0.075647814056438792 -0.048762431536943832 0 -0.061428605263776047 -0.046553119166432878 0 -0.055132092173872667 -0.033226800447327051 0 -0.075062618692292638 -0.040325846155841297 0 -0.075647814056438792 -0.048762431536943832 0 -0.055132092173872667 -0.033226800447327051 0 -0.083558777677868248 -0.036985518736449702 0 -0.075062618692292638 -0.040325846155841297 0 -0.075465350998538308 -0.032772608828030472 0 -0.065722760200719738 -0.052253177456942877 0 -0.075647814056438792 -0.048762431536943832 0 -0.061428605263776047 -0.046553119166432878 0 -0.065722760200719738 -0.052253177456942877 0 -0.07269306068786438 -0.052406879740114577 0 -0.069833853901725543 -0.055329661047837618 0 -0.065722760200719738 -0.052253177456942877 0 -0.07269306068786438 -0.052406879740114577 0 -0.075647814056438792 -0.048762431536943832 0 -0.07269306068786438 -0.052406879740114577 0 -0.073703714626092445 -0.056102563442451223 0 -0.069833853901725543 -0.055329661047837618 0 -0.07269306068786438 -0.052406879740114577 0 -0.077079431972146645 -0.050953682142663811 0 -0.073703714626092445 -0.056102563442451223 0 -0.078708481780428496 -0.048351416250899462 0 -0.077079431972146645 -0.050953682142663811 0 -0.075647814056438792 -0.048762431536943832 0 -0.07269306068786438 -0.052406879740114577 0 -0.077079431972146645 -0.050953682142663811 0 -0.075647814056438792 -0.048762431536943832 0 -0.078708481780428496 -0.048351416250899462 0 -0.078067002861142085 -0.04575568247049161 0 -0.075647814056438792 -0.048762431536943832 0 -0.078535685693175539 -0.061573663464548622 0 -0.073703714626092445 -0.056102563442451223 0 -0.070308423821052124 -0.061023041189074957 0 -0.078535685693175539 -0.061573663464548622 0 -0.077079431972146645 -0.050953682142663811 0 -0.073703714626092445 -0.056102563442451223 0 -0.073703714626092445 -0.056102563442451223 0 -0.070308423821052124 -0.061023041189074957 0 -0.069833853901725543 -0.055329661047837618 0 -0.070308423821052124 -0.061023041189074957 0 -0.064391701294429504 -0.057679717025484439 0 -0.060830035872249492 -0.064558057335980773 0 -0.070308423821052124 -0.061023041189074957 0 -0.069833853901725543 -0.055329661047837618 0 -0.064391701294429504 -0.057679717025484439 0 -0.065722760200719738 -0.052253177456942877 0 -0.069833853901725543 -0.055329661047837618 0 -0.064391701294429504 -0.057679717025484439 0 -0.064391701294429504 -0.057679717025484439 0 -0.055978059279945473 -0.056388284161067823 0 -0.060830035872249492 -0.064558057335980773 0 -0.065722760200719738 -0.052253177456942877 0 -0.064391701294429504 -0.057679717025484439 0 -0.055978059279945473 -0.056388284161067823 0 -0.055978059279945473 -0.056388284161067823 0 -0.041230103293456458 -0.058058117591144771 0 -0.049479852383656611 -0.067543566470139038 0 -0.055978059279945473 -0.056388284161067823 0 -0.049741921456861897 -0.048697412542500033 0 -0.041230103293456458 -0.058058117591144771 0 -0.055978059279945473 -0.056388284161067823 0 -0.049741921456861897 -0.048697412542500033 0 -0.061428605263776047 -0.046553119166432878 0 -0.065722760200719738 -0.052253177456942877 0 -0.055978059279945473 -0.056388284161067823 0 -0.061428605263776047 -0.046553119166432878 0 -0.049741921456861897 -0.048697412542500033 0 -0.061428605263776047 -0.046553119166432878 0 -0.055132092173872667 -0.033226800447327051 0 -0.049741921456861897 -0.048697412542500033 0 -0.055132092173872667 -0.033226800447327051 0 -0.032367863380537598 -0.044965144957206583 0 -0.055132092173872667 -0.033226800447327051 0 -0.032367863380537598 -0.044965144957206583 0 -0.055132092173872667 -0.033226800447327051 0 -0.032367863380537598 -0.044965144957206583 0 -0.031233838643279398 -0.031193199633022049 0 -0.049741921456861897 -0.048697412542500033 0 -0.032367863380537598 -0.044965144957206583 0 -0.041230103293456458 -0.058058117591144771 0 -0.032367863380537598 -0.044965144957206583 0 -0.041230103293456458 -0.058058117591144771 0 -0.026902341230915561 -0.060374551747501753 0 -0.05822397002114936 -0.01402224463886402 0 -0.057836245250817257 0.0062936453779614283 0 -0.044352522143416888 0.0050416822031405977 0 -0.05822397002114936 -0.01402224463886402 0 -0.037926632337863607 -0.0068783069258408786 0 -0.05822397002114936 -0.01402224463886402 0 -0.068462160169621672 0.0025537029525893409 0 -0.057836245250817257 0.0062936453779614283 0 -0.055132092173872667 -0.033226800447327051 0 -0.05822397002114936 -0.01402224463886402 0 -0.036243114184870161 -0.018923029155399909 0 -0.055132092173872667 -0.033226800447327051 0 -0.036243114184870161 -0.018923029155399909 0 -0.031233838643279398 -0.031193199633022049 0 -0.055132092173872667 -0.033226800447327051 0 -0.036243114184870161 -0.018923029155399909 0 -0.05822397002114936 -0.01402224463886402 0 -0.036243114184870161 -0.018923029155399909 0 -0.037926632337863607 -0.0068783069258408786 0 -0.05822397002114936 -0.01402224463886402 0 -0.037926632337863607 -0.0068783069258408786 0 -0.044352522143416888 0.0050416822031405977 0 -0.036243114184870161 -0.018923029155399909 0 -0.037926632337863607 -0.0068783069258408786 0 -0.029121832422534862 -0.0067169982391169078 0 -0.037926632337863607 -0.0068783069258408786 0 -0.029539197120254941 -0.00051038393964639519 0 -0.029121832422534862 -0.0067169982391169078 0 -0.037926632337863607 -0.0068783069258408786 0 -0.029539197120254941 -0.00051038393964639519 0 -0.03614709390981162 0.0015378833132510439 0 -0.037926632337863607 -0.0068783069258408786 0 -0.03614709390981162 0.0015378833132510439 0 -0.044352522143416888 0.0050416822031405977 0 -0.036243114184870161 -0.018923029155399909 0 -0.017354136195868258 -0.0046192578634720229 0 -0.01819617019275287 -0.0061732580868559192 0 -0.036243114184870161 -0.018923029155399909 0 -0.017354136195868258 -0.0046192578634720229 0 -0.029121832422534862 -0.0067169982391169078 0 -0.036243114184870161 -0.018923029155399909 0 -0.01819617019275287 -0.0061732580868559192 0 -0.019637671972121611 -0.02148729346067638 0 -0.036243114184870161 -0.018923029155399909 0 -0.017354136195868258 -0.0046192578634720229 0 -0.017354136195868258 -0.0046192578634720229 0 -0.01819617019275287 -0.0061732580868559192 0 -0.013500839782477779 -0.0058155532537883976 0 -0.017354136195868258 -0.0046192578634720229 0 -0.01819617019275287 -0.0061732580868559192 0 -0.017354136195868258 -0.0046192578634720229 0 -0.024546082273817361 -0.00265401331122534 0 -0.02112675760807068 0.0030512678310729521 0 -0.024546082273817361 -0.00265401331122534 0 -0.029539197120254941 -0.00051038393964639519 0 -0.02112675760807068 0.0030512678310729521 0 -0.017354136195868258 -0.0046192578634720229 0 -0.024546082273817361 -0.00265401331122534 0 -0.029121832422534862 -0.0067169982391169078 0 -0.024546082273817361 -0.00265401331122534 0 -0.029539197120254941 -0.00051038393964639519 0 -0.029121832422534862 -0.0067169982391169078 0 -0.01819617019275287 -0.0061732580868559192 0 -0.019637671972121611 -0.02148729346067638 0 -0.011008321991883009 -0.01057962122923565 0 -0.036243114184870161 -0.018923029155399909 0 -0.019637671972121611 -0.02148729346067638 0 -0.031233838643279398 -0.031193199633022049 0 -0.019637671972121611 -0.02148729346067638 0 -0.031233838643279398 -0.031193199633022049 0 -0.016064986363794779 -0.036441041599790329 0 -0.0077215053668332834 -0.022860670268973711 0 -0.00118246574067416 -0.01324232368796026 0 0.0015263381015913891 -0.033415212413580753 0 -0.0077215053668332834 -0.022860670268973711 0 -0.016064986363794779 -0.036441041599790329 0 0.0015263381015913891 -0.033415212413580753 0 -0.019637671972121611 -0.02148729346067638 0 -0.0077215053668332834 -0.022860670268973711 0 -0.016064986363794779 -0.036441041599790329 0 -0.019637671972121611 -0.02148729346067638 0 -0.0077215053668332834 -0.022860670268973711 0 -0.011008321991883009 -0.01057962122923565 0 -0.011008321991883009 -0.01057962122923565 0 -0.00118246574067416 -0.01324232368796026 0 -0.0072764121498596901 -0.0036325873431357339 0 -0.0077215053668332834 -0.022860670268973711 0 -0.011008321991883009 -0.01057962122923565 0 -0.00118246574067416 -0.01324232368796026 0 -0.00118246574067416 -0.01324232368796026 0 -0.0072764121498596901 -0.0036325873431357339 0 0.0012074066645448821 -0.00065723147797176382 0 -0.0072764121498596901 -0.0036325873431357339 0 -0.013500839782477779 -0.0058155532537883976 0 -0.013607688627124061 -0.00178224205395049 0 -0.011008321991883009 -0.01057962122923565 0 -0.0072764121498596901 -0.0036325873431357339 0 -0.013500839782477779 -0.0058155532537883976 0 -0.01819617019275287 -0.0061732580868559192 0 -0.011008321991883009 -0.01057962122923565 0 -0.013500839782477779 -0.0058155532537883976 0 -0.017354136195868258 -0.0046192578634720229 0 -0.013500839782477779 -0.0058155532537883976 0 -0.013607688627124061 -0.00178224205395049 0 -0.017354136195868258 -0.0046192578634720229 0 -0.013607688627124061 -0.00178224205395049 0 -0.032367863380537598 -0.044965144957206583 0 -0.0096036345872028556 -0.056703489467087059 0 -0.032367863380537598 -0.044965144957206583 0 -0.026902341230915561 -0.060374551747501753 0 -0.0096036345872028556 -0.056703489467087059 0 -0.032367863380537598 -0.044965144957206583 0 -0.031233838643279398 -0.031193199633022049 0 -0.016064986363794779 -0.036441041599790329 0 -0.032367863380537598 -0.044965144957206583 0 -0.016064986363794779 -0.036441041599790329 0 -0.0096036345872028556 -0.056703489467087059 0 -0.0096036345872028556 -0.056703489467087059 0 0.0015263381015913891 -0.033415212413580753 0 -0.016064986363794779 -0.036441041599790329 0 -0.0096036345872028556 -0.056703489467087059 0 0.0015263381015913891 -0.033415212413580753 0 -0.0096036345872028556 -0.056703489467087059 0 0.0015263381015913891 -0.033415212413580753 0 0.007298405735321048 -0.051477207310420908 0 -0.0096036345872028556 -0.056703489467087059 0 0.0052181775422467033 -0.064346337314722044 0 -0.0096036345872028556 -0.056703489467087059 0 -0.0043762627118289626 -0.071729097412358583 0 0.0052181775422467033 -0.064346337314722044 0 -0.0043762627118289626 -0.071729097412358583 0 -0.0092607301227374331 -0.088572496961274561 0 -0.01646375475339092 -0.071057556949349329 0 -0.0096036345872028556 -0.056703489467087059 0 -0.01646375475339092 -0.071057556949349329 0 -0.0096036345872028556 -0.056703489467087059 0 -0.0043762627118289626 -0.071729097412358583 0 -0.01646375475339092 -0.071057556949349329 0 -0.0092607301227374331 -0.088572496961274561 0 -0.00044729776891663488 -0.1011528385718463 0 0.0042106568376920582 -0.081118225430045127 0 -0.0043762627118289626 -0.071729097412358583 0 -0.0092607301227374331 -0.088572496961274561 0 0.0042106568376920582 -0.081118225430045127 0 -0.0092607301227374331 -0.088572496961274561 0 -0.037642160748979789 -0.094071739377162955 0 -0.0092607301227374331 -0.088572496961274561 0 -0.023323874919582349 -0.085411624431610003 0 -0.01646375475339092 -0.071057556949349329 0 -0.0092607301227374331 -0.088572496961274561 0 -0.023323874919582349 -0.085411624431610003 0 -0.037642160748979789 -0.094071739377162955 0 -0.023323874919582349 -0.085411624431610003 0 -0.01646375475339092 -0.071057556949349329 0 -0.023323874919582349 -0.085411624431610003 0 -0.01646375475339092 -0.071057556949349329 0 -0.034846350139989962 -0.07108844977272101 0 -0.026902341230915561 -0.060374551747501753 0 -0.01646375475339092 -0.071057556949349329 0 -0.034846350139989962 -0.07108844977272101 0 -0.026902341230915561 -0.060374551747501753 0 -0.0096036345872028556 -0.056703489467087059 0 -0.01646375475339092 -0.071057556949349329 0 -0.041230103293456458 -0.058058117591144771 0 -0.026902341230915561 -0.060374551747501753 0 -0.034846350139989962 -0.07108844977272101 0 -0.041230103293456458 -0.058058117591144771 0 -0.034846350139989962 -0.07108844977272101 0 -0.049479852383656611 -0.067543566470139038 0 -0.034846350139989962 -0.07108844977272101 0 -0.048784805137481749 -0.081200653853927454 0 -0.049479852383656611 -0.067543566470139038 0 -0.023323874919582349 -0.085411624431610003 0 -0.034846350139989962 -0.07108844977272101 0 -0.036149297736508462 -0.082943116858855345 0 -0.023323874919582349 -0.085411624431610003 0 -0.036149297736508462 -0.082943116858855345 0 -0.037642160748979789 -0.094071739377162955 0 -0.036149297736508462 -0.082943116858855345 0 -0.048784805137481749 -0.081200653853927454 0 -0.037642160748979789 -0.094071739377162955 0 -0.034846350139989962 -0.07108844977272101 0 -0.036149297736508462 -0.082943116858855345 0 -0.048784805137481749 -0.081200653853927454 0 -0.063732237529271596 -0.080733089011810297 0 -0.066023591375222151 -0.09957098179305135 0 -0.048784805137481749 -0.081200653853927454 0 -0.066023591375222151 -0.09957098179305135 0 -0.048784805137481749 -0.081200653853927454 0 -0.037642160748979789 -0.094071739377162955 0 -0.063732237529271596 -0.080733089011810297 0 -0.048784805137481749 -0.081200653853927454 0 -0.058000192015007383 -0.073011667883306972 0 -0.055978059279945473 -0.056388284161067823 0 -0.060830035872249492 -0.064558057335980773 0 -0.049479852383656611 -0.067543566470139038 0 -0.058000192015007383 -0.073011667883306972 0 -0.060830035872249492 -0.064558057335980773 0 -0.049479852383656611 -0.067543566470139038 0 -0.067174029152377468 -0.071022972744677337 0 -0.058000192015007383 -0.073011667883306972 0 -0.060830035872249492 -0.064558057335980773 0 -0.048784805137481749 -0.081200653853927454 0 -0.058000192015007383 -0.073011667883306972 0 -0.049479852383656611 -0.067543566470139038 0 -0.069466171350113709 -0.1135628440840601 0 -0.054384952187449757 -0.110609208962567 0 -0.059238207921678762 -0.13024384051707169 0 -0.054384952187449757 -0.110609208962567 0 -0.059238207921678762 -0.13024384051707169 0 -0.032945469352336033 -0.1293562392835419 0 -0.066023591375222151 -0.09957098179305135 0 -0.054384952187449757 -0.110609208962567 0 -0.037642160748979789 -0.094071739377162955 0 -0.066023591375222151 -0.09957098179305135 0 -0.037642160748979789 -0.094071739377162955 0 -0.054384952187449757 -0.110609208962567 0 -0.037642160748979789 -0.094071739377162955 0 -0.035661083064217503 -0.11124856921529409 0 -0.054384952187449757 -0.110609208962567 0 -0.032945469352336033 -0.1293562392835419 0 -0.054384952187449757 -0.110609208962567 0 -0.035661083064217503 -0.11124856921529409 0 -0.032945469352336033 -0.1293562392835419 0 -0.01767174996810443 -0.1109570892379047 0 -0.012892303975098539 -0.12786221844410239 0 -0.032945469352336033 -0.1293562392835419 0 -0.035661083064217503 -0.11124856921529409 0 -0.01767174996810443 -0.1109570892379047 0 -0.032945469352336033 -0.1293562392835419 0 -0.0092607301227374331 -0.088572496961274561 0 -0.037642160748979789 -0.094071739377162955 0 -0.01767174996810443 -0.1109570892379047 0 -0.037642160748979789 -0.094071739377162955 0 -0.035661083064217503 -0.11124856921529409 0 -0.01767174996810443 -0.1109570892379047 0 -0.01767174996810443 -0.1109570892379047 0 -0.00044729776891663488 -0.1011528385718463 0 0.005085065621477718 -0.1151057880332567 0 -0.0092607301227374331 -0.088572496961274561 0 -0.01767174996810443 -0.1109570892379047 0 -0.00044729776891663488 -0.1011528385718463 0 -0.01767174996810443 -0.1109570892379047 0 -0.012892303975098539 -0.12786221844410239 0 0.005085065621477718 -0.1151057880332567 0 -0.012892303975098539 -0.12786221844410239 0 0.0027021066240326768 -0.1317064378292063 0 0.005085065621477718 -0.1151057880332567 0 -0.011505986517222349 -0.14810326960451681 0 -0.033736789854580403 -0.16402697950055581 0 -0.032945469352336033 -0.1293562392835419 0 -0.012892303975098539 -0.12786221844410239 0 -0.011505986517222349 -0.14810326960451681 0 0.0027021066240326768 -0.1317064378292063 0 -0.011505986517222349 -0.14810326960451681 0 -0.032945469352336033 -0.1293562392835419 0 -0.012892303975098539 -0.12786221844410239 0 -0.011505986517222349 -0.14810326960451681 0 -0.032945469352336033 -0.1293562392835419 0 -0.011505986517222349 -0.14810326960451681 0 0.009933496317892726 -0.16685029992549011 0 -0.011505986517222349 -0.14810326960451681 0 -0.0085976242789068957 -0.177408956520272 0 0.009933496317892726 -0.16685029992549011 0 -0.0085976242789068957 -0.177408956520272 0 -0.003739977245034012 -0.19168309442994089 0 -0.02712874487570623 -0.18796761311505439 0 -0.0085976242789068957 -0.177408956520272 0 -0.003739977245034012 -0.19168309442994089 0 0.0034571977838801569 -0.17702496179755631 0 -0.0085976242789068957 -0.177408956520272 0 -0.02712874487570623 -0.18796761311505439 0 -0.0085976242789068957 -0.177408956520272 0 -0.033736789854580403 -0.16402697950055581 0 -0.02712874487570623 -0.18796761311505439 0 -0.011505986517222349 -0.14810326960451681 0 -0.0085976242789068957 -0.177408956520272 0 -0.033736789854580403 -0.16402697950055581 0 -0.033736789854580403 -0.16402697950055581 0 -0.041678182321736049 -0.18065303021324261 0 -0.02712874487570623 -0.18796761311505439 0 -0.033736789854580403 -0.16402697950055581 0 -0.041678182321736049 -0.18065303021324261 0 -0.060187329084152079 -0.17209125852752319 0 -0.041678182321736049 -0.18065303021324261 0 -0.060187329084152079 -0.17209125852752319 0 -0.045659865472505487 -0.198526269709837 0 -0.060187329084152079 -0.17209125852752319 0 -0.045659865472505487 -0.198526269709837 0 -0.033736789854580403 -0.16402697950055581 0 -0.060187329084152079 -0.17209125852752319 0 -0.051699405537506939 -0.14899167338562519 0 -0.060187329084152079 -0.17209125852752319 0 -0.051699405537506939 -0.14899167338562519 0 -0.072389231474787458 -0.1492400490994332 0 -0.051699405537506939 -0.14899167338562519 0 -0.059238207921678762 -0.13024384051707169 0 -0.072389231474787458 -0.1492400490994332 0 -0.033736789854580403 -0.16402697950055581 0 -0.051699405537506939 -0.14899167338562519 0 -0.032945469352336033 -0.1293562392835419 0 -0.051699405537506939 -0.14899167338562519 0 -0.059238207921678762 -0.13024384051707169 0 -0.032945469352336033 -0.1293562392835419 0 -0.025857267464119819 -0.25506418495113531 0 -0.02368513365757598 -0.23851275990414511 0 -0.036167443228362108 -0.24337299090061551 0 -0.01269776775011346 -0.25850600500130039 0 -0.02368513365757598 -0.23851275990414511 0 -0.01269776775011346 -0.25850600500130039 0 -0.02368513365757598 -0.23851275990414511 0 -0.01082738352359053 -0.24876902592697839 0 -0.02368513365757598 -0.23851275990414511 0 -0.0067432183097289999 -0.239968376336817 0 -0.0090267388034834407 -0.23007068799598671 0 -0.02368513365757598 -0.23851275990414511 0 -0.01082738352359053 -0.24876902592697839 0 -0.0067432183097289999 -0.239968376336817 0 -0.01082738352359053 -0.24876902592697839 0 -0.0029313858115674811 -0.24854412401401971 0 -0.0067432183097289999 -0.239968376336817 0 -0.0029313858115674811 -0.24854412401401971 0 -0.0067432183097289999 -0.239968376336817 0 0.0026199421412959989 -0.2430643023623929 0 -0.0067432183097289999 -0.239968376336817 0 0.0026199421412959989 -0.2430643023623929 0 0.0017465435191736189 -0.23378549097037141 0 -0.0067432183097289999 -0.239968376336817 0 -0.0090267388034834407 -0.23007068799598671 0 0.0017465435191736189 -0.23378549097037141 0 -0.0090267388034834407 -0.23007068799598671 0 -0.00080535468136348092 -0.21995366459000901 0 -0.01839049427805331 -0.2195873775130934 0 -0.0090267388034834407 -0.23007068799598671 0 -0.00080535468136348092 -0.21995366459000901 0 0.0017465435191736189 -0.23378549097037141 0 -0.02368513365757598 -0.23851275990414511 0 -0.0090267388034834407 -0.23007068799598671 0 -0.01839049427805331 -0.2195873775130934 0 -0.02368513365757598 -0.23851275990414511 0 -0.01839049427805331 -0.2195873775130934 0 -0.034672499565036527 -0.2185195148069887 0 -0.02368513365757598 -0.23851275990414511 0 -0.034672499565036527 -0.2185195148069887 0 -0.01839049427805331 -0.2195873775130934 0 -0.027127261386640289 -0.20489204062456881 0 -0.034672499565036527 -0.2185195148069887 0 -0.01839049427805331 -0.2195873775130934 0 -0.027127261386640289 -0.20489204062456881 0 -0.01084996336714465 -0.20584666152463099 0 -0.00080535468136348092 -0.21995366459000901 0 -0.01839049427805331 -0.2195873775130934 0 -0.01084996336714465 -0.20584666152463099 0 -0.00080535468136348092 -0.21995366459000901 0 -0.01084996336714465 -0.20584666152463099 0 0.01016515501406726 -0.20926501301563591 0 -0.01084996336714465 -0.20584666152463099 0 -0.003739977245034012 -0.19168309442994089 0 0.01016515501406726 -0.20926501301563591 0 -0.01084996336714465 -0.20584666152463099 0 -0.003739977245034012 -0.19168309442994089 0 -0.02712874487570623 -0.18796761311505439 0 -0.027127261386640289 -0.20489204062456881 0 -0.01084996336714465 -0.20584666152463099 0 -0.02712874487570623 -0.18796761311505439 0 -0.041678182321736049 -0.18065303021324261 0 -0.02712874487570623 -0.18796761311505439 0 -0.045659865472505487 -0.198526269709837 0 -0.02712874487570623 -0.18796761311505439 0 -0.045659865472505487 -0.198526269709837 0 -0.027127261386640289 -0.20489204062456881 0 -0.02712874487570623 -0.18796761311505439 0 -0.045659865472505487 -0.198526269709837 0 -0.045659865472505487 -0.198526269709837 0 -0.067682806497079445 -0.21107449474949169 0 -0.062708331551170268 -0.19442045911658551 0 -0.060187329084152079 -0.17209125852752319 0 -0.045659865472505487 -0.198526269709837 0 -0.062708331551170268 -0.19442045911658551 0 -0.045659865472505487 -0.198526269709837 0 -0.067682806497079445 -0.21107449474949169 0 -0.045659865472505487 -0.198526269709837 0 -0.054546183461555722 -0.22015285450131489 0 -0.067682806497079445 -0.21107449474949169 0 -0.045659865472505487 -0.198526269709837 0 -0.034672499565036527 -0.2185195148069887 0 -0.054546183461555722 -0.22015285450131489 0 -0.045659865472505487 -0.198526269709837 0 -0.034672499565036527 -0.2185195148069887 0 -0.027127261386640289 -0.20489204062456881 0 -0.045659865472505487 -0.198526269709837 0 -0.034672499565036527 -0.2185195148069887 0 -0.034672499565036527 -0.2185195148069887 0 -0.044145410485190079 -0.23242073182379891 0 -0.054546183461555722 -0.22015285450131489 0 -0.02368513365757598 -0.23851275990414511 0 -0.034672499565036527 -0.2185195148069887 0 -0.044145410485190079 -0.23242073182379891 0 -0.044145410485190079 -0.23242073182379891 0 -0.054546183461555722 -0.22015285450131489 0 -0.061280333386656921 -0.23284462843810469 0 -0.061280333386656921 -0.23284462843810469 0 -0.050191684441297867 -0.2485850187836515 0 -0.071591358857016049 -0.2429226102204386 0 -0.050191684441297867 -0.2485850187836515 0 -0.071591358857016049 -0.2429226102204386 0 -0.056939497423126581 -0.24878681181634871 0 -0.050191684441297867 -0.2485850187836515 0 -0.071591358857016049 -0.2429226102204386 0 -0.044145410485190079 -0.23242073182379891 0 -0.061280333386656921 -0.23284462843810469 0 -0.050191684441297867 -0.2485850187836515 0 -0.041398382443623198 -0.25192549838374201 0 -0.056939497423126581 -0.24878681181634871 0 -0.050191684441297867 -0.2485850187836515 0 -0.044145410485190079 -0.23242073182379891 0 -0.050191684441297867 -0.2485850187836515 0 -0.036167443228362108 -0.24337299090061551 0 -0.02368513365757598 -0.23851275990414511 0 -0.044145410485190079 -0.23242073182379891 0 -0.036167443228362108 -0.24337299090061551 0 -0.025857267464119819 -0.25506418495113531 0 -0.050191684441297867 -0.2485850187836515 0 -0.036167443228362108 -0.24337299090061551 0 -0.097628444613881649 -0.25834262822693399 0 -0.087470553331264578 -0.24262075389877999 0 -0.077955776651182085 -0.24454236002529731 0 -0.087470553331264578 -0.24262075389877999 0 -0.087928467376508473 -0.23859976953689591 0 -0.1005617376665941 -0.23997685579502359 0 -0.087928467376508473 -0.23859976953689591 0 -0.07453604668454375 -0.2421434382925548 0 -0.07383618536286593 -0.22753148747966839 0 -0.087928467376508473 -0.23859976953689591 0 -0.07453604668454375 -0.2421434382925548 0 -0.087928467376508473 -0.23859976953689591 0 -0.077955776651182085 -0.24454236002529731 0 -0.07453604668454375 -0.2421434382925548 0 -0.087470553331264578 -0.24262075389877999 0 -0.087928467376508473 -0.23859976953689591 0 -0.077955776651182085 -0.24454236002529731 0 -0.087470553331264578 -0.24262075389877999 0 -0.077955776651182085 -0.24454236002529731 0 -0.056939497423126581 -0.24878681181634871 0 -0.077955776651182085 -0.24454236002529731 0 -0.071591358857016049 -0.2429226102204386 0 -0.056939497423126581 -0.24878681181634871 0 -0.077955776651182085 -0.24454236002529731 0 -0.077955776651182085 -0.24454236002529731 0 -0.071591358857016049 -0.2429226102204386 0 -0.07453604668454375 -0.2421434382925548 0 -0.077955776651182085 -0.24454236002529731 0 -0.07453604668454375 -0.2421434382925548 0 -0.071591358857016049 -0.2429226102204386 0 -0.07453604668454375 -0.2421434382925548 0 -0.056939497423126581 -0.24878681181634871 0 -0.071591358857016049 -0.2429226102204386 0 -0.061280333386656921 -0.23284462843810469 0 -0.071591358857016049 -0.2429226102204386 0 -0.07453604668454375 -0.2421434382925548 0 -0.061280333386656921 -0.23284462843810469 0 -0.07453604668454375 -0.2421434382925548 0 -0.07383618536286593 -0.22753148747966839 0 -0.089705747521653334 -0.22362271978914661 0 -0.067682806497079445 -0.21107449474949169 0 -0.054546183461555722 -0.22015285450131489 0 -0.061280333386656921 -0.23284462843810469 0 -0.07383618536286593 -0.22753148747966839 0 -0.054546183461555722 -0.22015285450131489 0 -0.07383618536286593 -0.22753148747966839 0 -0.067682806497079445 -0.21107449474949169 0 -0.061280333386656921 -0.23284462843810469 0 -0.07453604668454375 -0.2421434382925548 0 -0.07383618536286593 -0.22753148747966839 0 -0.087928467376508473 -0.23859976953689591 0 -0.07383618536286593 -0.22753148747966839 0 -0.089705747521653334 -0.22362271978914661 0 -0.087928467376508473 -0.23859976953689591 0 -0.089705747521653334 -0.22362271978914661 0 -0.1005617376665941 -0.23997685579502359 0 -0.089705747521653334 -0.22362271978914661 0 -0.067682806497079445 -0.21107449474949169 0 -0.089705747521653334 -0.22362271978914661 0 -0.084027466008495671 -0.20735524824550181 0 -0.09921486728828334 -0.20109800384388701 0 -0.089705747521653334 -0.22362271978914661 0 -0.084027466008495671 -0.20735524824550181 0 -0.067682806497079445 -0.21107449474949169 0 -0.084027466008495671 -0.20735524824550181 0 -0.067682806497079445 -0.21107449474949169 0 -0.079506442726966622 -0.19362577459948219 0 -0.067682806497079445 -0.21107449474949169 0 -0.062708331551170268 -0.19442045911658551 0 -0.079506442726966622 -0.19362577459948219 0 -0.079506442726966622 -0.19362577459948219 0 -0.09921486728828334 -0.20109800384388701 0 -0.089369030920126963 -0.1732707743578942 0 -0.084027466008495671 -0.20735524824550181 0 -0.079506442726966622 -0.19362577459948219 0 -0.09921486728828334 -0.20109800384388701 0 -0.09921486728828334 -0.20109800384388701 0 -0.1156293974943295 -0.1822747327150937 0 -0.1210853022939376 -0.205467400633562 0 -0.1156293974943295 -0.1822747327150937 0 -0.13505851963374399 -0.18906788910329131 0 -0.09921486728828334 -0.20109800384388701 0 -0.1210853022939376 -0.205467400633562 0 -0.1156293974943295 -0.1822747327150937 0 -0.1210853022939376 -0.205467400633562 0 -0.10755849924533691 -0.2178899443088799 0 -0.11989889803527461 -0.22145143588075511 0 -0.1210853022939376 -0.205467400633562 0 -0.11989889803527461 -0.22145143588075511 0 -0.13086176299679239 -0.21746526838305219 0 -0.089705747521653334 -0.22362271978914661 0 -0.09921486728828334 -0.20109800384388701 0 -0.10755849924533691 -0.2178899443088799 0 -0.09921486728828334 -0.20109800384388701 0 -0.1210853022939376 -0.205467400633562 0 -0.10755849924533691 -0.2178899443088799 0 -0.089705747521653334 -0.22362271978914661 0 -0.11172868854622731 -0.23617094482880149 0 -0.1005617376665941 -0.23997685579502359 0 -0.089705747521653334 -0.22362271978914661 0 -0.11172868854622731 -0.23617094482880149 0 -0.089705747521653334 -0.22362271978914661 0 -0.10755849924533691 -0.2178899443088799 0 -0.11172868854622731 -0.23617094482880149 0 -0.11989889803527461 -0.22145143588075511 0 -0.11172868854622731 -0.23617094482880149 0 -0.127825895831608 -0.22987551408160201 0 -0.10755849924533691 -0.2178899443088799 0 -0.11989889803527461 -0.22145143588075511 0 -0.11172868854622731 -0.23617094482880149 0 -0.13218950310710981 -0.25272660122947088 0 -0.1218823470606431 -0.24640061544388489 0 -0.1098930818979398 -0.24798588601512411 0 -0.11172868854622731 -0.23617094482880149 0 -0.13375162957080131 -0.24871916986845621 0 -0.11172868854622731 -0.23617094482880149 0 -0.1218823470606431 -0.24640061544388489 0 -0.13375162957080131 -0.24871916986845621 0 -0.11172868854622731 -0.23617094482880149 0 -0.13375162957080131 -0.24871916986845621 0 -0.127825895831608 -0.22987551408160201 0 -0.11172868854622731 -0.23617094482880149 0 -0.1218823470606431 -0.24640061544388489 0 -0.1098930818979398 -0.24798588601512411 0 -0.097628444613881649 -0.25834262822693399 0 -0.087470553331264578 -0.24262075389877999 0 -0.1098930818979398 -0.24798588601512411 0 -0.087470553331264578 -0.24262075389877999 0 -0.1098930818979398 -0.24798588601512411 0 -0.1005617376665941 -0.23997685579502359 0 -0.087470553331264578 -0.24262075389877999 0 -0.1098930818979398 -0.24798588601512411 0 -0.11172868854622731 -0.23617094482880149 0 -0.1098930818979398 -0.24798588601512411 0 -0.1005617376665941 -0.23997685579502359 0 -0.087470553331264578 -0.24262075389877999 0 -0.1005617376665941 -0.23997685579502359 0 -0.072389231474787458 -0.1492400490994332 0 -0.089369030920126963 -0.1732707743578942 0 -0.096011965921864201 -0.14265464397282879 0 -0.077516787342341589 -0.1242022911324857 0 -0.093262550211769629 -0.1231040070079162 0 -0.096011965921864201 -0.14265464397282879 0 -0.077516787342341589 -0.1242022911324857 0 -0.072389231474787458 -0.1492400490994332 0 -0.096011965921864201 -0.14265464397282879 0 -0.077516787342341589 -0.1242022911324857 0 -0.059238207921678762 -0.13024384051707169 0 -0.072389231474787458 -0.1492400490994332 0 -0.060187329084152079 -0.17209125852752319 0 -0.072389231474787458 -0.1492400490994332 0 -0.089369030920126963 -0.1732707743578942 0 -0.060187329084152079 -0.17209125852752319 0 -0.079506442726966622 -0.19362577459948219 0 -0.089369030920126963 -0.1732707743578942 0 -0.060187329084152079 -0.17209125852752319 0 -0.062708331551170268 -0.19442045911658551 0 -0.079506442726966622 -0.19362577459948219 0 -0.089369030920126963 -0.1732707743578942 0 -0.1107512355661594 -0.16096683979900789 0 -0.096011965921864201 -0.14265464397282879 0 -0.09921486728828334 -0.20109800384388701 0 -0.089369030920126963 -0.1732707743578942 0 -0.1156293974943295 -0.1822747327150937 0 -0.089369030920126963 -0.1732707743578942 0 -0.1156293974943295 -0.1822747327150937 0 -0.1107512355661594 -0.16096683979900789 0 -0.1156293974943295 -0.1822747327150937 0 -0.13204392770037571 -0.1634514615863005 0 -0.1156293974943295 -0.1822747327150937 0 -0.1107512355661594 -0.16096683979900789 0 -0.13204392770037571 -0.1634514615863005 0 -0.1107512355661594 -0.16096683979900789 0 -0.12070185579410091 -0.1431825863629223 0 -0.13204392770037571 -0.1634514615863005 0 -0.1107512355661594 -0.16096683979900789 0 -0.12070185579410091 -0.1431825863629223 0 -0.096011965921864201 -0.14265464397282879 0 -0.1071147179002416 -0.1244919901550422 0 -0.12070185579410091 -0.1431825863629223 0 -0.096011965921864201 -0.14265464397282879 0 -0.093262550211769629 -0.1231040070079162 0 -0.1071147179002416 -0.1244919901550422 0 -0.096011965921864201 -0.14265464397282879 0 -0.1071147179002416 -0.1244919901550422 0 -0.12070185579410091 -0.1431825863629223 0 -0.1306137014228527 -0.1212095633787966 0 -0.12070185579410091 -0.1431825863629223 0 -0.14845845790642179 -0.14462819045750719 0 -0.1306137014228527 -0.1212095633787966 0 -0.14845845790642179 -0.14462819045750719 0 -0.1306137014228527 -0.1212095633787966 0 -0.15036797716661271 -0.14243845987679379 0 -0.14845845790642179 -0.14462819045750719 0 -0.1306137014228527 -0.1212095633787966 0 -0.15406265534163929 -0.1294064941378926 0 -0.15036797716661271 -0.14243845987679379 0 -0.1306137014228527 -0.1212095633787966 0 -0.15406265534163929 -0.1294064941378926 0 -0.15036797716661271 -0.14243845987679379 0 -0.1564494690737798 -0.13971242061594299 0 -0.1543278084257422 -0.1453912472931165 0 -0.14845845790642179 -0.14462819045750719 0 -0.15894149653025619 -0.15184230729274609 0 -0.15519343748037609 -0.14309809199123349 0 -0.15036797716661271 -0.14243845987679379 0 -0.1564494690737798 -0.13971242061594299 0 -0.1543278084257422 -0.1453912472931165 0 -0.15519343748037609 -0.14309809199123349 0 -0.15036797716661271 -0.14243845987679379 0 -0.1543278084257422 -0.1453912472931165 0 -0.15036797716661271 -0.14243845987679379 0 -0.14845845790642179 -0.14462819045750719 0 -0.15036797716661271 -0.14243845987679379 0 -0.14845845790642179 -0.14462819045750719 0 -0.12070185579410091 -0.1431825863629223 0 -0.14845845790642179 -0.14462819045750719 0 -0.13204392770037571 -0.1634514615863005 0 -0.14845845790642179 -0.14462819045750719 0 -0.13204392770037571 -0.1634514615863005 0 -0.13204392770037571 -0.1634514615863005 0 -0.1475860696211248 -0.17640031700015249 0 -0.13505851963374399 -0.18906788910329131 0 -0.1156293974943295 -0.1822747327150937 0 -0.13204392770037571 -0.1634514615863005 0 -0.13505851963374399 -0.18906788910329131 0 -0.1475860696211248 -0.17640031700015249 0 -0.1655722477793394 -0.1670875310098065 0 -0.15496537504316019 -0.19429807729602311 0 -0.1475860696211248 -0.17640031700015249 0 -0.13505851963374399 -0.18906788910329131 0 -0.15496537504316019 -0.19429807729602311 0 -0.1475860696211248 -0.17640031700015249 0 -0.14862352044039201 -0.16347018067920821 0 -0.1655722477793394 -0.1670875310098065 0 -0.14845845790642179 -0.14462819045750719 0 -0.13204392770037571 -0.1634514615863005 0 -0.14862352044039201 -0.16347018067920821 0 -0.14845845790642179 -0.14462819045750719 0 -0.14862352044039201 -0.16347018067920821 0 -0.1655722477793394 -0.1670875310098065 0 -0.13204392770037571 -0.1634514615863005 0 -0.1475860696211248 -0.17640031700015249 0 -0.14862352044039201 -0.16347018067920821 0 -0.1655722477793394 -0.1670875310098065 0 -0.1716614177265566 -0.15146656102038991 0 -0.1655722477793394 -0.1670875310098065 0 -0.15894149653025619 -0.15184230729274609 0 -0.1716614177265566 -0.15146656102038991 0 -0.1655722477793394 -0.1670875310098065 0 -0.17557921295501691 -0.18022020591375351 0 -0.1689483943248192 -0.19264195369377959 0 -0.1655722477793394 -0.1670875310098065 0 -0.15496537504316019 -0.19429807729602311 0 -0.1689483943248192 -0.19264195369377959 0 -0.1655722477793394 -0.1670875310098065 0 -0.15496537504316019 -0.19429807729602311 0 -0.1655722477793394 -0.1670875310098065 0 -0.17557921295501691 -0.18022020591375351 0 -0.17557921295501691 -0.18022020591375351 0 -0.18239484980351819 -0.16464781923938721 0 -0.1907059301477185 -0.18468107337543721 0 -0.1655722477793394 -0.1670875310098065 0 -0.17557921295501691 -0.18022020591375351 0 -0.18239484980351819 -0.16464781923938721 0 -0.1655722477793394 -0.1670875310098065 0 -0.18239484980351819 -0.16464781923938721 0 -0.1716614177265566 -0.15146656102038991 0 -0.18239484980351819 -0.16464781923938721 0 -0.1716614177265566 -0.15146656102038991 0 -0.1894311146879058 -0.1465309504005988 0 -0.17775058767377289 -0.13584559103097291 0 -0.1716614177265566 -0.15146656102038991 0 -0.1894311146879058 -0.1465309504005988 0 -0.17775058767377289 -0.13584559103097291 0 -0.1716614177265566 -0.15146656102038991 0 -0.17775058767377289 -0.13584559103097291 0 -0.1894311146879058 -0.1465309504005988 0 -0.17775058767377289 -0.13584559103097291 0 -0.19823449762692411 -0.13229999761030051 0 -0.18534812722118199 -0.1163550958908785 0 -0.17775058767377289 -0.13584559103097291 0 -0.18534812722118199 -0.1163550958908785 0 -0.15406265534163929 -0.1294064941378926 0 -0.16394560233522651 -0.1386698702264933 0 -0.15606779039194271 -0.1160101434681408 0 -0.17775058767377289 -0.13584559103097291 0 -0.16394560233522651 -0.1386698702264933 0 -0.15606779039194271 -0.1160101434681408 0 -0.17775058767377289 -0.13584559103097291 0 -0.15606779039194271 -0.1160101434681408 0 -0.15406265534163929 -0.1294064941378926 0 -0.16394560233522651 -0.1386698702264933 0 -0.1564494690737798 -0.13971242061594299 0 -0.16394560233522651 -0.1386698702264933 0 -0.1564494690737798 -0.13971242061594299 0 -0.15962849525536979 -0.1448502401790808 0 -0.14845845790642179 -0.14462819045750719 0 -0.1655722477793394 -0.1670875310098065 0 -0.14845845790642179 -0.14462819045750719 0 -0.1655722477793394 -0.1670875310098065 0 -0.15894149653025619 -0.15184230729274609 0 -0.15519343748037609 -0.14309809199123349 0 -0.1564494690737798 -0.13971242061594299 0 -0.15962849525536979 -0.1448502401790808 0 -0.1543278084257422 -0.1453912472931165 0 -0.15519343748037609 -0.14309809199123349 0 -0.15962849525536979 -0.1448502401790808 0 -0.1543278084257422 -0.1453912472931165 0 -0.15962849525536979 -0.1448502401790808 0 -0.15894149653025619 -0.15184230729274609 0 -0.15962849525536979 -0.1448502401790808 0 -0.15894149653025619 -0.15184230729274609 0 -0.1716614177265566 -0.15146656102038991 0 -0.17775058767377289 -0.13584559103097291 0 -0.16394560233522651 -0.1386698702264933 0 -0.1716614177265566 -0.15146656102038991 0 -0.16394560233522651 -0.1386698702264933 0 -0.15962849525536979 -0.1448502401790808 0 -0.1716614177265566 -0.15146656102038991 0 -0.1534429259631987 -0.25724555178864622 0 -0.15289321433053751 -0.246830478479277 0 -0.1378886282313006 -0.2381062402767252 0 -0.1534429259631987 -0.25724555178864622 0 -0.1378886282313006 -0.2381062402767252 0 -0.15348527020851541 -0.23913552791147211 0 -0.1378886282313006 -0.2381062402767252 0 -0.15430752157141919 -0.22794821467022949 0 -0.15289321433053751 -0.246830478479277 0 -0.15348527020851541 -0.23913552791147211 0 -0.1601832428566283 -0.24550858739866141 0 -0.15289321433053751 -0.246830478479277 0 -0.15348527020851541 -0.23913552791147211 0 -0.1378886282313006 -0.2381062402767252 0 -0.1459019403517107 -0.25564217047089421 0 -0.13375162957080131 -0.24871916986845621 0 -0.1378886282313006 -0.2381062402767252 0 -0.13375162957080131 -0.24871916986845621 0 -0.1378886282313006 -0.2381062402767252 0 -0.127825895831608 -0.22987551408160201 0 -0.13375162957080131 -0.24871916986845621 0 -0.1378886282313006 -0.2381062402767252 0 -0.13218950310710981 -0.25272660122947088 0 -0.1218823470606431 -0.24640061544388489 0 -0.13375162957080131 -0.24871916986845621 0 -0.127825895831608 -0.22987551408160201 0 -0.14435850230698141 -0.22150862358223991 0 -0.13086176299679239 -0.21746526838305219 0 -0.1378886282313006 -0.2381062402767252 0 -0.127825895831608 -0.22987551408160201 0 -0.14435850230698141 -0.22150862358223991 0 -0.11989889803527461 -0.22145143588075511 0 -0.127825895831608 -0.22987551408160201 0 -0.13086176299679239 -0.21746526838305219 0 -0.1378886282313006 -0.2381062402767252 0 -0.14435850230698141 -0.22150862358223991 0 -0.14435850230698141 -0.22150862358223991 0 -0.15430752157141919 -0.22794821467022949 0 -0.16410544360365359 -0.21493654602220469 0 -0.1378886282313006 -0.2381062402767252 0 -0.14435850230698141 -0.22150862358223991 0 -0.15430752157141919 -0.22794821467022949 0 -0.14435850230698141 -0.22150862358223991 0 -0.15496537504316019 -0.19429807729602311 0 -0.14435850230698141 -0.22150862358223991 0 -0.1373527607074172 -0.20563907323320921 0 -0.15496537504316019 -0.19429807729602311 0 -0.14435850230698141 -0.22150862358223991 0 -0.15496537504316019 -0.19429807729602311 0 -0.16410544360365359 -0.21493654602220469 0 -0.14435850230698141 -0.22150862358223991 0 -0.1373527607074172 -0.20563907323320921 0 -0.13086176299679239 -0.21746526838305219 0 -0.1210853022939376 -0.205467400633562 0 -0.1373527607074172 -0.20563907323320921 0 -0.13086176299679239 -0.21746526838305219 0 -0.1210853022939376 -0.205467400633562 0 -0.1373527607074172 -0.20563907323320921 0 -0.13505851963374399 -0.18906788910329131 0 -0.1373527607074172 -0.20563907323320921 0 -0.13505851963374399 -0.18906788910329131 0 -0.15496537504316019 -0.19429807729602311 0 -0.1689483943248192 -0.19264195369377959 0 -0.17994482166635981 -0.2014366202218163 0 -0.16410544360365359 -0.21493654602220469 0 -0.15496537504316019 -0.19429807729602311 0 -0.1689483943248192 -0.19264195369377959 0 -0.16410544360365359 -0.21493654602220469 0 -0.17557921295501691 -0.18022020591375351 0 -0.1689483943248192 -0.19264195369377959 0 -0.17994482166635981 -0.2014366202218163 0 -0.17557921295501691 -0.18022020591375351 0 -0.17994482166635981 -0.2014366202218163 0 -0.1907059301477185 -0.18468107337543721 0 -0.17994482166635981 -0.2014366202218163 0 -0.1784102433228649 -0.21681777692650089 0 -0.16410544360365359 -0.21493654602220469 0 -0.17994482166635981 -0.2014366202218163 0 -0.18904495760185211 -0.20873870471059999 0 -0.19252771524915421 -0.19930647688205899 0 -0.17994482166635981 -0.2014366202218163 0 -0.1784102433228649 -0.21681777692650089 0 -0.18904495760185211 -0.20873870471059999 0 -0.1784102433228649 -0.21681777692650089 0 -0.19175951728552271 -0.21959172261586679 0 -0.18904495760185211 -0.20873870471059999 0 -0.15430752157141919 -0.22794821467022949 0 -0.16410544360365359 -0.21493654602220469 0 -0.16877954452522659 -0.2255120540677526 0 -0.15430752157141919 -0.22794821467022949 0 -0.16877954452522659 -0.2255120540677526 0 -0.16324537569009509 -0.2357306359809743 0 -0.15348527020851541 -0.23913552791147211 0 -0.15430752157141919 -0.22794821467022949 0 -0.16324537569009509 -0.2357306359809743 0 -0.16877954452522659 -0.2255120540677526 0 -0.17781387366555559 -0.23090770197000129 0 -0.16324537569009509 -0.2357306359809743 0 -0.1784102433228649 -0.21681777692650089 0 -0.16410544360365359 -0.21493654602220469 0 -0.16877954452522659 -0.2255120540677526 0 -0.1784102433228649 -0.21681777692650089 0 -0.16877954452522659 -0.2255120540677526 0 -0.17781387366555559 -0.23090770197000129 0 -0.1784102433228649 -0.21681777692650089 0 -0.17781387366555559 -0.23090770197000129 0 -0.19175951728552271 -0.21959172261586679 0 -0.17781387366555559 -0.23090770197000129 0 -0.1805311654956796 -0.2411950136452527 0 -0.19410287643929239 -0.23312434657521411 0 -0.17781387366555559 -0.23090770197000129 0 -0.1805311654956796 -0.2411950136452527 0 -0.16955513552828311 -0.24305067226283769 0 -0.17679077873490559 -0.25046109420941731 0 -0.1805311654956796 -0.2411950136452527 0 -0.18863044441395099 -0.24733650333174401 0 -0.17679077873490559 -0.25046109420941731 0 -0.1805311654956796 -0.2411950136452527 0 -0.16955513552828311 -0.24305067226283769 0 -0.16709258238786229 -0.25188408856254202 0 -0.17679077873490559 -0.25046109420941731 0 -0.16955513552828311 -0.24305067226283769 0 -0.16709258238786229 -0.25188408856254202 0 -0.16955513552828311 -0.24305067226283769 0 -0.1601832428566283 -0.24550858739866141 0 -0.17781387366555559 -0.23090770197000129 0 -0.16955513552828311 -0.24305067226283769 0 -0.16324537569009509 -0.2357306359809743 0 -0.16955513552828311 -0.24305067226283769 0 -0.16324537569009509 -0.2357306359809743 0 -0.1601832428566283 -0.24550858739866141 0 -0.15348527020851541 -0.23913552791147211 0 -0.16324537569009509 -0.2357306359809743 0 -0.1601832428566283 -0.24550858739866141 0 -0.1593809120407062 -0.25278805690175971 0 -0.15289321433053751 -0.246830478479277 0 -0.1601832428566283 -0.24550858739866141 0 -0.20565562739327201 -0.24334207984173631 0 -0.19410287643929239 -0.23312434657521411 0 -0.21201774175915139 -0.2290986139018284 0 -0.21472073189145299 -0.25725591714607071 0 -0.20565562739327201 -0.24334207984173631 0 -0.22837296648480071 -0.23789375384220129 0 -0.20565562739327201 -0.24334207984173631 0 -0.21201774175915139 -0.2290986139018284 0 -0.22837296648480071 -0.23789375384220129 0 -0.20565562739327201 -0.24334207984173631 0 -0.18863044441395099 -0.24733650333174401 0 -0.19410287643929239 -0.23312434657521411 0 -0.1805311654956796 -0.2411950136452527 0 -0.18863044441395099 -0.24733650333174401 0 -0.19410287643929239 -0.23312434657521411 0 -0.17781387366555559 -0.23090770197000129 0 -0.19410287643929239 -0.23312434657521411 0 -0.19175951728552271 -0.21959172261586679 0 -0.19410287643929239 -0.23312434657521411 0 -0.19175951728552271 -0.21959172261586679 0 -0.20443040571370949 -0.21985141578154491 0 -0.21201774175915139 -0.2290986139018284 0 -0.20443040571370949 -0.21985141578154491 0 -0.22630383013383959 -0.21240708539258099 0 -0.19410287643929239 -0.23312434657521411 0 -0.21201774175915139 -0.2290986139018284 0 -0.20443040571370949 -0.21985141578154491 0 -0.20157622681128409 -0.2075672839719423 0 -0.21557055542943429 -0.1904257004922347 0 -0.22630383013383959 -0.21240708539258099 0 -0.20157622681128409 -0.2075672839719423 0 -0.22630383013383959 -0.21240708539258099 0 -0.20443040571370949 -0.21985141578154491 0 -0.20157622681128409 -0.2075672839719423 0 -0.22630383013383959 -0.21240708539258099 0 -0.19175951728552271 -0.21959172261586679 0 -0.20443040571370949 -0.21985141578154491 0 -0.20157622681128409 -0.2075672839719423 0 -0.19175951728552271 -0.21959172261586679 0 -0.20157622681128409 -0.2075672839719423 0 -0.19175951728552271 -0.21959172261586679 0 -0.18904495760185211 -0.20873870471059999 0 -0.20157622681128409 -0.2075672839719423 0 -0.18904495760185211 -0.20873870471059999 0 -0.20157622681128409 -0.2075672839719423 0 -0.19252771524915421 -0.19930647688205899 0 -0.17994482166635981 -0.2014366202218163 0 -0.19252771524915421 -0.19930647688205899 0 -0.1907059301477185 -0.18468107337543721 0 -0.20157622681128409 -0.2075672839719423 0 -0.19252771524915421 -0.19930647688205899 0 -0.20187756758401409 -0.19506767240709361 0 -0.19252771524915421 -0.19930647688205899 0 -0.20187756758401409 -0.19506767240709361 0 -0.1907059301477185 -0.18468107337543721 0 -0.20157622681128409 -0.2075672839719423 0 -0.21557055542943429 -0.1904257004922347 0 -0.20187756758401409 -0.19506767240709361 0 -0.21557055542943429 -0.1904257004922347 0 -0.2038146335316797 -0.1820121315948606 0 -0.20157622681128409 -0.2075672839719423 0 -0.20187756758401409 -0.19506767240709361 0 -0.21557055542943429 -0.1904257004922347 0 -0.21557055542943429 -0.1904257004922347 0 -0.23533053747689989 -0.1962925907305976 0 -0.22630383013383959 -0.21240708539258099 0 -0.23533053747689989 -0.1962925907305976 0 -0.25103143345639523 -0.21724688681321891 0 -0.25418198431724581 -0.18809916394242601 0 -0.22630383013383959 -0.21240708539258099 0 -0.25103143345639523 -0.21724688681321891 0 -0.23533053747689989 -0.1962925907305976 0 -0.22630383013383959 -0.21240708539258099 0 -0.25103143345639523 -0.21724688681321891 0 -0.21201774175915139 -0.2290986139018284 0 -0.22630383013383959 -0.21240708539258099 0 -0.22837296648480071 -0.23789375384220129 0 -0.22630383013383959 -0.21240708539258099 0 -0.22837296648480071 -0.23789375384220129 0 -0.25103143345639523 -0.21724688681321891 0 -0.22837296648480071 -0.23789375384220129 0 -0.25431856302814809 -0.24833495949118861 0 -0.25103143345639523 -0.21724688681321891 0 -0.2335542019388327 -0.26090262277066528 0 -0.22837296648480071 -0.23789375384220129 0 -0.25431856302814809 -0.24833495949118861 0 -0.20708483324238849 -0.15128624944667929 0 -0.22647357207813959 -0.15205360930679629 0 -0.2195633859389316 -0.1340578990397249 0 -0.20708483324238849 -0.15128624944667929 0 -0.19823449762692411 -0.13229999761030051 0 -0.2195633859389316 -0.1340578990397249 0 -0.19823449762692411 -0.13229999761030051 0 -0.2195633859389316 -0.1340578990397249 0 -0.21022893699736381 -0.1097241998529486 0 -0.17775058767377289 -0.13584559103097291 0 -0.19823449762692411 -0.13229999761030051 0 -0.1894311146879058 -0.1465309504005988 0 -0.20708483324238849 -0.15128624944667929 0 -0.1894311146879058 -0.1465309504005988 0 -0.19351686899232889 -0.15854259719770419 0 -0.20708483324238849 -0.15128624944667929 0 -0.19823449762692411 -0.13229999761030051 0 -0.1894311146879058 -0.1465309504005988 0 -0.20708483324238849 -0.15128624944667929 0 -0.19351686899232889 -0.15854259719770419 0 -0.19880271024428661 -0.17007658736909009 0 -0.18239484980351819 -0.16464781923938721 0 -0.1894311146879058 -0.1465309504005988 0 -0.19351686899232889 -0.15854259719770419 0 -0.18239484980351819 -0.16464781923938721 0 -0.19351686899232889 -0.15854259719770419 0 -0.19880271024428661 -0.17007658736909009 0 -0.18239484980351819 -0.16464781923938721 0 -0.19880271024428661 -0.17007658736909009 0 -0.1907059301477185 -0.18468107337543721 0 -0.19880271024428661 -0.17007658736909009 0 -0.1907059301477185 -0.18468107337543721 0 -0.2038146335316797 -0.1820121315948606 0 -0.20187756758401409 -0.19506767240709361 0 -0.1907059301477185 -0.18468107337543721 0 -0.2038146335316797 -0.1820121315948606 0 -0.21557055542943429 -0.1904257004922347 0 -0.2038146335316797 -0.1820121315948606 0 -0.21355186476225221 -0.16985639920369799 0 -0.19880271024428661 -0.17007658736909009 0 -0.2038146335316797 -0.1820121315948606 0 -0.21355186476225221 -0.16985639920369799 0 -0.20708483324238849 -0.15128624944667929 0 -0.21355186476225221 -0.16985639920369799 0 -0.22647357207813959 -0.15205360930679629 0 -0.20708483324238849 -0.15128624944667929 0 -0.19880271024428661 -0.17007658736909009 0 -0.21355186476225221 -0.16985639920369799 0 -0.22956488404758479 -0.1732841170125273 0 -0.2435592126657353 -0.1561425335328199 0 -0.22647357207813959 -0.15205360930679629 0 -0.21355186476225221 -0.16985639920369799 0 -0.22956488404758479 -0.1732841170125273 0 -0.22647357207813959 -0.15205360930679629 0 -0.21557055542943429 -0.1904257004922347 0 -0.21355186476225221 -0.16985639920369799 0 -0.22956488404758479 -0.1732841170125273 0 -0.21557055542943429 -0.1904257004922347 0 -0.22956488404758479 -0.1732841170125273 0 -0.21557055542943429 -0.1904257004922347 0 -0.23533053747689989 -0.1962925907305976 0 -0.22956488404758479 -0.1732841170125273 0 -0.23533053747689989 -0.1962925907305976 0 -0.22956488404758479 -0.1732841170125273 0 -0.25418198431724581 -0.18809916394242601 0 -0.22956488404758479 -0.1732841170125273 0 -0.25418198431724581 -0.18809916394242601 0 -0.2565438833259911 -0.1687602707777138 0 -0.22956488404758479 -0.1732841170125273 0 -0.2435592126657353 -0.1561425335328199 0 -0.22956488404758479 -0.1732841170125273 0 -0.2435592126657353 -0.1561425335328199 0 -0.2565438833259911 -0.1687602707777138 0 -0.2435592126657353 -0.1561425335328199 0 -0.22647357207813959 -0.15205360930679629 0 -0.2432602079730701 -0.13485583854350039 0 -0.22647357207813959 -0.15205360930679629 0 -0.2195633859389316 -0.1340578990397249 0 -0.2432602079730701 -0.13485583854350039 0 -0.2195633859389316 -0.1340578990397249 0 -0.2432602079730701 -0.13485583854350039 0 -0.23065476516460279 -0.11957242830579699 0 -0.2432602079730701 -0.13485583854350039 0 -0.2499653418643101 -0.1102460646797562 0 -0.23065476516460279 -0.11957242830579699 0 -0.2499653418643101 -0.1102460646797562 0 -0.2308399038819596 -0.1034577205422559 0 -0.23065476516460279 -0.11957242830579699 0 -0.2308399038819596 -0.1034577205422559 0 -0.25308440776240432 -0.086371671251396109 0 -0.2499653418643101 -0.1102460646797562 0 -0.2308399038819596 -0.1034577205422559 0 -0.25308440776240432 -0.086371671251396109 0 -0.2308399038819596 -0.1034577205422559 0 -0.21022893699736381 -0.1097241998529486 0 -0.21520721362926831 -0.098298511723915558 0 -0.2308399038819596 -0.1034577205422559 0 -0.22013457808717909 -0.089221868029860679 0 -0.21520721362926831 -0.098298511723915558 0 -0.2308399038819596 -0.1034577205422559 0 -0.23065476516460279 -0.11957242830579699 0 -0.21022893699736381 -0.1097241998529486 0 -0.2195633859389316 -0.1340578990397249 0 -0.23065476516460279 -0.11957242830579699 0 -0.21022893699736381 -0.1097241998529486 0 -0.2335598957907816 -0.079883889973887123 0 -0.24475965461883589 -0.059498385283178377 0 -0.2582325144520296 -0.070050845257802419 0 -0.2335598957907816 -0.079883889973887123 0 -0.2582325144520296 -0.070050845257802419 0 -0.25308440776240432 -0.086371671251396109 0 -0.2308399038819596 -0.1034577205422559 0 -0.2335598957907816 -0.079883889973887123 0 -0.25308440776240432 -0.086371671251396109 0 -0.2308399038819596 -0.1034577205422559 0 -0.22013457808717909 -0.089221868029860679 0 -0.2335598957907816 -0.079883889973887123 0 -0.22013457808717909 -0.089221868029860679 0 -0.2335598957907816 -0.079883889973887123 0 -0.21963876375789801 -0.077814354495200549 0 -0.2335598957907816 -0.079883889973887123 0 -0.21595644614104051 -0.065738508165203102 0 -0.24475965461883589 -0.059498385283178377 0 -0.21595644614104051 -0.065738508165203102 0 -0.24475965461883589 -0.059498385283178377 0 -0.2335598957907816 -0.079883889973887123 0 -0.21963876375789801 -0.077814354495200549 0 -0.21595644614104051 -0.065738508165203102 0 -0.20438945881064449 -0.068244458930106389 0 -0.21100771399754009 -0.086966924160961745 0 -0.21595644614104051 -0.065738508165203102 0 -0.21100771399754009 -0.086966924160961745 0 -0.20438945881064449 -0.068244458930106389 0 -0.21595644614104051 -0.065738508165203102 0 -0.21100771399754009 -0.086966924160961745 0 -0.21963876375789801 -0.077814354495200549 0 -0.21595644614104051 -0.065738508165203102 0 -0.21100771399754009 -0.086966924160961745 0 -0.20438945881064449 -0.068244458930106389 0 -0.21595644614104051 -0.065738508165203102 0 -0.20438945881064449 -0.068244458930106389 0 -0.21595644614104051 -0.065738508165203102 0 -0.20711132549122371 -0.057203435059411119 0 -0.20438945881064449 -0.068244458930106389 0 -0.21100771399754009 -0.086966924160961745 0 -0.19851231957361129 -0.085310821531315487 0 -0.22013457808717909 -0.089221868029860679 0 -0.21963876375789801 -0.077814354495200549 0 -0.21100771399754009 -0.086966924160961745 0 -0.22013457808717909 -0.089221868029860679 0 -0.21100771399754009 -0.086966924160961745 0 -0.21520721362926831 -0.098298511723915558 0 -0.21100771399754009 -0.086966924160961745 0 -0.19851231957361129 -0.085310821531315487 0 -0.20550431009004061 -0.095676697317907802 0 -0.21100771399754009 -0.086966924160961745 0 -0.21520721362926831 -0.098298511723915558 0 -0.20550431009004061 -0.095676697317907802 0 -0.19851231957361129 -0.085310821531315487 0 -0.18118326058104209 -0.08825419183970401 0 -0.18409944718507371 -0.07264022497537044 0 -0.19851231957361129 -0.085310821531315487 0 -0.19294566676858971 -0.096864600750783431 0 -0.18118326058104209 -0.08825419183970401 0 -0.19851231957361129 -0.085310821531315487 0 -0.20550431009004061 -0.095676697317907802 0 -0.19294566676858971 -0.096864600750783431 0 -0.20438945881064449 -0.068244458930106389 0 -0.19851231957361129 -0.085310821531315487 0 -0.18409944718507371 -0.07264022497537044 0 -0.20438945881064449 -0.068244458930106389 0 -0.18409944718507371 -0.07264022497537044 0 -0.18769526278089041 -0.057829612445021099 0 -0.20438945881064449 -0.068244458930106389 0 -0.18409944718507371 -0.07264022497537044 0 -0.21022893699736381 -0.1097241998529486 0 -0.21520721362926831 -0.098298511723915558 0 -0.20550431009004061 -0.095676697317907802 0 -0.21022893699736381 -0.1097241998529486 0 -0.20550431009004061 -0.095676697317907802 0 -0.19294566676858971 -0.096864600750783431 0 -0.19294566676858971 -0.096864600750783431 0 -0.18534812722118199 -0.1163550958908785 0 -0.21022893699736381 -0.1097241998529486 0 -0.19294566676858971 -0.096864600750783431 0 -0.18534812722118199 -0.1163550958908785 0 -0.19823449762692411 -0.13229999761030051 0 -0.21022893699736381 -0.1097241998529486 0 -0.18534812722118199 -0.1163550958908785 0 -0.18534812722118199 -0.1163550958908785 0 -0.17423934197139679 -0.1017815859784342 0 -0.15606779039194271 -0.1160101434681408 0 -0.17775058767377289 -0.13584559103097291 0 -0.18534812722118199 -0.1163550958908785 0 -0.15606779039194271 -0.1160101434681408 0 -0.16057304666404501 -0.10079887419961479 0 -0.17423934197139679 -0.1017815859784342 0 -0.15606779039194271 -0.1160101434681408 0 -0.16057304666404501 -0.10079887419961479 0 -0.16746185343044401 -0.091445336260546128 0 -0.1570966781871318 -0.090327755750333361 0 -0.16057304666404501 -0.10079887419961479 0 -0.17423934197139679 -0.1017815859784342 0 -0.16746185343044401 -0.091445336260546128 0 -0.17423934197139679 -0.1017815859784342 0 -0.18118326058104209 -0.08825419183970401 0 -0.16746185343044401 -0.091445336260546128 0 -0.19294566676858971 -0.096864600750783431 0 -0.18534812722118199 -0.1163550958908785 0 -0.17423934197139679 -0.1017815859784342 0 -0.19294566676858971 -0.096864600750783431 0 -0.17423934197139679 -0.1017815859784342 0 -0.18118326058104209 -0.08825419183970401 0 -0.18118326058104209 -0.08825419183970401 0 -0.18409944718507371 -0.07264022497537044 0 -0.16915717098214109 -0.081397787743409861 0 -0.18118326058104209 -0.08825419183970401 0 -0.16746185343044401 -0.091445336260546128 0 -0.16915717098214109 -0.081397787743409861 0 -0.18409944718507371 -0.07264022497537044 0 -0.1702117591297739 -0.06777753321031553 0 -0.16380943555950259 -0.077035991020633382 0 -0.18409944718507371 -0.07264022497537044 0 -0.16380943555950259 -0.077035991020633382 0 -0.16915717098214109 -0.081397787743409861 0 -0.18409944718507371 -0.07264022497537044 0 -0.17187825396406881 -0.057945450019426657 0 -0.18769526278089041 -0.057829612445021099 0 -0.18409944718507371 -0.07264022497537044 0 -0.16380943555950259 -0.077035991020633382 0 -0.18409944718507371 -0.07264022497537044 0 -0.1702117591297739 -0.06777753321031553 0 -0.17187825396406881 -0.057945450019426657 0 -0.16380943555950259 -0.077035991020633382 0 -0.16105989981045041 -0.063488466825831633 0 -0.14595160177326619 -0.062470528310013429 0 -0.1702117591297739 -0.06777753321031553 0 -0.16105989981045041 -0.063488466825831633 0 -0.17187825396406881 -0.057945450019426657 0 -0.1702117591297739 -0.06777753321031553 0 -0.16380943555950259 -0.077035991020633382 0 -0.16105989981045041 -0.063488466825831633 0 -0.16380943555950259 -0.077035991020633382 0 -0.16109871639751261 -0.084134952385501949 0 -0.14796844382834351 -0.080467891152587012 0 -0.16746185343044401 -0.091445336260546128 0 -0.16915717098214109 -0.081397787743409861 0 -0.16109871639751261 -0.084134952385501949 0 -0.16380943555950259 -0.077035991020633382 0 -0.16915717098214109 -0.081397787743409861 0 -0.16109871639751261 -0.084134952385501949 0 -0.16380943555950259 -0.077035991020633382 0 -0.16915717098214109 -0.081397787743409861 0 -0.16746185343044401 -0.091445336260546128 0 -0.16109871639751261 -0.084134952385501949 0 -0.1570966781871318 -0.090327755750333361 0 -0.16380943555950259 -0.077035991020633382 0 -0.14796844382834351 -0.080467891152587012 0 -0.14796844382834351 -0.080467891152587012 0 -0.13497135686491851 -0.078315161523928284 0 -0.1484932433812913 -0.094043062253026791 0 -0.1570966781871318 -0.090327755750333361 0 -0.14796844382834351 -0.080467891152587012 0 -0.1484932433812913 -0.094043062253026791 0 -0.16109871639751261 -0.084134952385501949 0 -0.1570966781871318 -0.090327755750333361 0 -0.14796844382834351 -0.080467891152587012 0 -0.16380943555950259 -0.077035991020633382 0 -0.14796844382834351 -0.080467891152587012 0 -0.14595160177326619 -0.062470528310013429 0 -0.16380943555950259 -0.077035991020633382 0 -0.14595160177326619 -0.062470528310013429 0 -0.14796844382834351 -0.080467891152587012 0 -0.13497135686491851 -0.078315161523928284 0 -0.14595160177326619 -0.062470528310013429 0 -0.1158705629695205 -0.060236298698018297 0 -0.13497135686491851 -0.078315161523928284 0 -0.1158705629695205 -0.060236298698018297 0 -0.13497135686491851 -0.078315161523928284 0 -0.13122182239868371 -0.062231763532838429 0 -0.13497135686491851 -0.078315161523928284 0 -0.13122182239868371 -0.062231763532838429 0 -0.14595160177326619 -0.062470528310013429 0 -0.112702195828283 -0.076339248342475546 0 -0.13497135686491851 -0.078315161523928284 0 -0.13438499311011279 -0.096174695905308166 0 -0.13497135686491851 -0.078315161523928284 0 -0.13438499311011279 -0.096174695905308166 0 -0.1484932433812913 -0.094043062253026791 0 -0.11276894493928399 -0.097790936300085646 0 -0.13438499311011279 -0.096174695905308166 0 -0.1306137014228527 -0.1212095633787966 0 -0.13438499311011279 -0.096174695905308166 0 -0.1306137014228527 -0.1212095633787966 0 -0.15606779039194271 -0.1160101434681408 0 -0.15406265534163929 -0.1294064941378926 0 -0.1306137014228527 -0.1212095633787966 0 -0.15606779039194271 -0.1160101434681408 0 -0.13438499311011279 -0.096174695905308166 0 -0.15606779039194271 -0.1160101434681408 0 -0.1484932433812913 -0.094043062253026791 0 -0.16057304666404501 -0.10079887419961479 0 -0.15606779039194271 -0.1160101434681408 0 -0.1484932433812913 -0.094043062253026791 0 -0.13438499311011279 -0.096174695905308166 0 -0.15606779039194271 -0.1160101434681408 0 -0.16057304666404501 -0.10079887419961479 0 -0.1570966781871318 -0.090327755750333361 0 -0.1484932433812913 -0.094043062253026791 0 -0.14513665439653431 -0.02122229521611602 0 -0.15148395360685291 -0.031475856168514699 0 -0.16129500549156001 -0.024264335985147129 0 -0.14513665439653431 -0.02122229521611602 0 -0.1346415055917565 -0.031432898451717602 0 -0.15148395360685291 -0.031475856168514699 0 -0.14513665439653431 -0.02122229521611602 0 -0.15327979458335059 -0.01391829646419882 0 -0.16129500549156001 -0.024264335985147129 0 -0.1412848112475209 -0.008091449167619497 0 -0.15773416148281841 -0.0035868741371463562 0 -0.14801408494475049 0.0031182785745780331 0 -0.15327979458335059 -0.01391829646419882 0 -0.1412848112475209 -0.008091449167619497 0 -0.15773416148281841 -0.0035868741371463562 0 -0.14513665439653431 -0.02122229521611602 0 -0.15327979458335059 -0.01391829646419882 0 -0.1412848112475209 -0.008091449167619497 0 -0.1236693299605585 -0.0137973575501921 0 -0.1412848112475209 -0.008091449167619497 0 -0.12735709500343681 0.004015926865657337 0 -0.1412848112475209 -0.008091449167619497 0 -0.12735709500343681 0.004015926865657337 0 -0.14801408494475049 0.0031182785745780331 0 -0.1236693299605585 -0.0137973575501921 0 -0.1412848112475209 -0.008091449167619497 0 -0.13426109495296229 -0.02049569832685658 0 -0.1236693299605585 -0.0137973575501921 0 -0.1221370268088495 -0.025998648103035 0 -0.13426109495296229 -0.02049569832685658 0 -0.14513665439653431 -0.02122229521611602 0 -0.1412848112475209 -0.008091449167619497 0 -0.13426109495296229 -0.02049569832685658 0 -0.14513665439653431 -0.02122229521611602 0 -0.13426109495296229 -0.02049569832685658 0 -0.1346415055917565 -0.031432898451717602 0 -0.1221370268088495 -0.025998648103035 0 -0.12530131535501859 -0.034952786400489197 0 -0.1346415055917565 -0.031432898451717602 0 -0.1221370268088495 -0.025998648103035 0 -0.13426109495296229 -0.02049569832685658 0 -0.1346415055917565 -0.031432898451717602 0 -0.12530131535501859 -0.034952786400489197 0 -0.1346415055917565 -0.031432898451717602 0 -0.12809376798702951 -0.047905065599393698 0 -0.1346415055917565 -0.031432898451717602 0 -0.12809376798702951 -0.047905065599393698 0 -0.14629371500633531 -0.042796653234188263 0 -0.12809376798702951 -0.047905065599393698 0 -0.14595160177326619 -0.062470528310013429 0 -0.12809376798702951 -0.047905065599393698 0 -0.14595160177326619 -0.062470528310013429 0 -0.14629371500633531 -0.042796653234188263 0 -0.13122182239868371 -0.062231763532838429 0 -0.12809376798702951 -0.047905065599393698 0 -0.14595160177326619 -0.062470528310013429 0 -0.1158705629695205 -0.060236298698018297 0 -0.13122182239868371 -0.062231763532838429 0 -0.12809376798702951 -0.047905065599393698 0 -0.14595160177326619 -0.062470528310013429 0 -0.14629371500633531 -0.042796653234188263 0 -0.15696853651444401 -0.052603520026387289 0 -0.16105989981045041 -0.063488466825831633 0 -0.14595160177326619 -0.062470528310013429 0 -0.15696853651444401 -0.052603520026387289 0 -0.15148395360685291 -0.031475856168514699 0 -0.14629371500633531 -0.042796653234188263 0 -0.16402488563849801 -0.041062174760887443 0 -0.1346415055917565 -0.031432898451717602 0 -0.15148395360685291 -0.031475856168514699 0 -0.14629371500633531 -0.042796653234188263 0 -0.14629371500633531 -0.042796653234188263 0 -0.16402488563849801 -0.041062174760887443 0 -0.15696853651444401 -0.052603520026387289 0 -0.15148395360685291 -0.031475856168514699 0 -0.16402488563849801 -0.041062174760887443 0 -0.16129500549156001 -0.024264335985147129 0 -0.16402488563849801 -0.041062174760887443 0 -0.17409393016306191 -0.030370879776367592 0 -0.16129500549156001 -0.024264335985147129 0 -0.16402488563849801 -0.041062174760887443 0 -0.15696853651444401 -0.052603520026387289 0 -0.17187825396406881 -0.057945450019426657 0 -0.16105989981045041 -0.063488466825831633 0 -0.15696853651444401 -0.052603520026387289 0 -0.17187825396406881 -0.057945450019426657 0 -0.16402488563849801 -0.041062174760887443 0 -0.17187825396406881 -0.057945450019426657 0 -0.18133558272394029 -0.043618149437272283 0 -0.17187825396406881 -0.057945450019426657 0 -0.18133558272394029 -0.043618149437272283 0 -0.18769526278089041 -0.057829612445021099 0 -0.18133558272394029 -0.043618149437272283 0 -0.17409393016306191 -0.030370879776367592 0 -0.18915768363079971 -0.025155098795753519 0 -0.16402488563849801 -0.041062174760887443 0 -0.18133558272394029 -0.043618149437272283 0 -0.17409393016306191 -0.030370879776367592 0 -0.17409393016306191 -0.030370879776367592 0 -0.17549551533112251 -0.014893414490097231 0 -0.18915768363079971 -0.025155098795753519 0 -0.16129500549156001 -0.024264335985147129 0 -0.16350931143073591 -0.01273440345064396 0 -0.17549551533112251 -0.014893414490097231 0 -0.17409393016306191 -0.030370879776367592 0 -0.16129500549156001 -0.024264335985147129 0 -0.17549551533112251 -0.014893414490097231 0 -0.15327979458335059 -0.01391829646419882 0 -0.16129500549156001 -0.024264335985147129 0 -0.16350931143073591 -0.01273440345064396 0 -0.15773416148281841 -0.0035868741371463562 0 -0.16716832075785379 -0.0032078365625175 0 -0.1619193683370386 0.0066468078375689294 0 -0.15773416148281841 -0.0035868741371463562 0 -0.16350931143073591 -0.01273440345064396 0 -0.16716832075785379 -0.0032078365625175 0 -0.15327979458335059 -0.01391829646419882 0 -0.15773416148281841 -0.0035868741371463562 0 -0.16350931143073591 -0.01273440345064396 0 -0.16350931143073591 -0.01273440345064396 0 -0.16716832075785379 -0.0032078365625175 0 -0.17549551533112251 -0.014893414490097231 0 -0.17549551533112251 -0.014893414490097231 0 -0.18154179604087481 -0.0036104187285780349 0 -0.18915768363079971 -0.025155098795753519 0 -0.18154179604087481 -0.0036104187285780349 0 -0.18915768363079971 -0.025155098795753519 0 -0.17549551533112251 -0.014893414490097231 0 -0.17584419881677341 0.0071523107965592754 0 -0.17549551533112251 -0.014893414490097231 0 -0.18154179604087481 -0.0036104187285780349 0 -0.17584419881677341 0.0071523107965592754 0 -0.16716832075785379 -0.0032078365625175 0 -0.17549551533112251 -0.014893414490097231 0 -0.17584419881677341 0.0071523107965592754 0 -0.18154179604087481 -0.0036104187285780349 0 -0.19066530249761049 -0.0041303576494283751 0 -0.18915768363079971 -0.025155098795753519 0 -0.18154179604087481 -0.0036104187285780349 0 -0.19066530249761049 -0.0041303576494283751 0 -0.18717715497560061 0.0062623078557712403 0 -0.19066530249761049 -0.0041303576494283751 0 -0.1989264366345522 -0.0080023544535597537 0 -0.18915768363079971 -0.025155098795753519 0 -0.19066530249761049 -0.0041303576494283751 0 -0.1989264366345522 -0.0080023544535597537 0 -0.1965234412062255 0.0098537758749781944 0 -0.1989264366345522 -0.0080023544535597537 0 -0.2007918169376324 -0.0191738513677071 0 -0.20680177871376751 -0.0119671669755851 0 -0.18915768363079971 -0.025155098795753519 0 -0.2007918169376324 -0.0191738513677071 0 -0.21013076049929519 -0.028334228638799381 0 -0.1989264366345522 -0.0080023544535597537 0 -0.18915768363079971 -0.025155098795753519 0 -0.2007918169376324 -0.0191738513677071 0 -0.2007918169376324 -0.0191738513677071 0 -0.21013076049929519 -0.028334228638799381 0 -0.20680177871376751 -0.0119671669755851 0 -0.21013076049929519 -0.028334228638799381 0 -0.21702438745170211 -0.0043907958627755336 0 -0.21921501925093501 -0.017985606360015789 0 -0.21013076049929519 -0.028334228638799381 0 -0.21702438745170211 -0.0043907958627755336 0 -0.21013076049929519 -0.028334228638799381 0 -0.22271521407306469 -0.037269361340154371 0 -0.21921501925093501 -0.017985606360015789 0 -0.21013076049929519 -0.028334228638799381 0 -0.21702438745170211 -0.0043907958627755336 0 -0.20680177871376751 -0.0119671669755851 0 -0.1989264366345522 -0.0080023544535597537 0 -0.20680177871376751 -0.0119671669755851 0 -0.20713549204565579 6.5395444916274768e-05 0 -0.21702438745170211 -0.0043907958627755336 0 -0.20680177871376751 -0.0119671669755851 0 -0.20713549204565579 6.5395444916274768e-05 0 -0.20438945881064449 -0.068244458930106389 0 -0.1967735712207245 -0.046699778862929052 0 -0.20438945881064449 -0.068244458930106389 0 -0.18769526278089041 -0.057829612445021099 0 -0.1967735712207245 -0.046699778862929052 0 -0.20438945881064449 -0.068244458930106389 0 -0.1967735712207245 -0.046699778862929052 0 -0.20711132549122371 -0.057203435059411119 0 -0.18133558272394029 -0.043618149437272283 0 -0.18769526278089041 -0.057829612445021099 0 -0.1967735712207245 -0.046699778862929052 0 -0.18133558272394029 -0.043618149437272283 0 -0.18915768363079971 -0.025155098795753519 0 -0.1967735712207245 -0.046699778862929052 0 -0.18915768363079971 -0.025155098795753519 0 -0.1967735712207245 -0.046699778862929052 0 -0.18915768363079971 -0.025155098795753519 0 -0.21013076049929519 -0.028334228638799381 0 -0.1967735712207245 -0.046699778862929052 0 -0.21013076049929519 -0.028334228638799381 0 -0.21132582579248671 -0.048130994279405613 0 -0.22271521407306469 -0.037269361340154371 0 -0.21013076049929519 -0.028334228638799381 0 -0.1967735712207245 -0.046699778862929052 0 -0.21132582579248671 -0.048130994279405613 0 -0.21595644614104051 -0.065738508165203102 0 -0.21132582579248671 -0.048130994279405613 0 -0.22271521407306469 -0.037269361340154371 0 -0.21595644614104051 -0.065738508165203102 0 -0.21132582579248671 -0.048130994279405613 0 -0.20711132549122371 -0.057203435059411119 0 -0.1967735712207245 -0.046699778862929052 0 -0.21132582579248671 -0.048130994279405613 0 -0.20711132549122371 -0.057203435059411119 0 -0.21595644614104051 -0.065738508165203102 0 -0.2284172135094342 -0.053659916570315727 0 -0.24475965461883589 -0.059498385283178377 0 -0.21595644614104051 -0.065738508165203102 0 -0.2284172135094342 -0.053659916570315727 0 -0.22271521407306469 -0.037269361340154371 0 -0.21595644614104051 -0.065738508165203102 0 -0.22271521407306469 -0.037269361340154371 0 -0.2284172135094342 -0.053659916570315727 0 -0.22271521407306469 -0.037269361340154371 0 -0.23903543051913109 -0.043198085603962481 0 -0.22271521407306469 -0.037269361340154371 0 -0.23903543051913109 -0.043198085603962481 0 -0.24161885061771041 -0.026720350447010301 0 -0.23903543051913109 -0.043198085603962481 0 -0.24161885061771041 -0.026720350447010301 0 -0.25766621977661042 -0.038842414379153638 0 -0.23903543051913109 -0.043198085603962481 0 -0.24475965461883589 -0.059498385283178377 0 -0.25766621977661042 -0.038842414379153638 0 -0.2284172135094342 -0.053659916570315727 0 -0.23903543051913109 -0.043198085603962481 0 -0.24475965461883589 -0.059498385283178377 0 -0.22947398200509031 -0.0088002145151058891 0 -0.22867745033346079 0.0038692188645070222 0 -0.2401015516947359 0.00075261550232862703 0 -0.21702438745170211 -0.0043907958627755336 0 -0.22947398200509031 -0.0088002145151058891 0 -0.22867745033346079 0.0038692188645070222 0 -0.21702438745170211 -0.0043907958627755336 0 -0.22947398200509031 -0.0088002145151058891 0 -0.21921501925093501 -0.017985606360015789 0 -0.22271521407306469 -0.037269361340154371 0 -0.22947398200509031 -0.0088002145151058891 0 -0.21921501925093501 -0.017985606360015789 0 -0.22271521407306469 -0.037269361340154371 0 -0.22947398200509031 -0.0088002145151058891 0 -0.22271521407306469 -0.037269361340154371 0 -0.22947398200509031 -0.0088002145151058891 0 -0.24161885061771041 -0.026720350447010301 0 -0.22947398200509031 -0.0088002145151058891 0 -0.24161885061771041 -0.026720350447010301 0 -0.2437457614006571 -0.011962382738850049 0 -0.24161885061771041 -0.026720350447010301 0 -0.2437457614006571 -0.011962382738850049 0 -0.2598032925822476 -0.0188915667982569 0 -0.22947398200509031 -0.0088002145151058891 0 -0.2437457614006571 -0.011962382738850049 0 -0.2401015516947359 0.00075261550232862703 0 -0.2437457614006571 -0.011962382738850049 0 -0.25267499080189931 -0.0034516002120552492 0 -0.2401015516947359 0.00075261550232862703 0 -0.25267499080189931 -0.0034516002120552492 0 -0.2598032925822476 -0.0188915667982569 0 -0.26909988492935111 -0.0018655285383734981 0 -0.2437457614006571 -0.011962382738850049 0 -0.25267499080189931 -0.0034516002120552492 0 -0.2598032925822476 -0.0188915667982569 0 -0.2598032925822476 -0.0188915667982569 0 -0.27267419604841259 -0.026924212746328481 0 -0.25766621977661042 -0.038842414379153638 0 -0.24161885061771041 -0.026720350447010301 0 -0.2598032925822476 -0.0188915667982569 0 -0.25766621977661042 -0.038842414379153638 0 -0.2598032925822476 -0.0188915667982569 0 -0.27267419604841259 -0.026924212746328481 0 -0.27804425228895369 -0.016131696666228459 0 -0.27267419604841259 -0.026924212746328481 0 -0.27804425228895369 -0.016131696666228459 0 -0.28378415359151371 -0.031280105512012511 0 -0.27804425228895369 -0.016131696666228459 0 -0.26909988492935111 -0.0018655285383734981 0 -0.2917254884257266 -0.0017566381736345419 0 -0.2598032925822476 -0.0188915667982569 0 -0.27804425228895369 -0.016131696666228459 0 -0.26909988492935111 -0.0018655285383734981 0 -0.27804425228895369 -0.016131696666228459 0 -0.2917254884257266 -0.0017566381736345419 0 -0.2928870998243559 -0.020527937726781 0 -0.27804425228895369 -0.016131696666228459 0 -0.2928870998243559 -0.020527937726781 0 -0.28378415359151371 -0.031280105512012511 0 -0.2928870998243559 -0.020527937726781 0 -0.29943422057661201 -0.032203920876667472 0 -0.28378415359151371 -0.031280105512012511 0 -0.2928870998243559 -0.020527937726781 0 -0.31144738423897378 -0.02126732740536201 0 -0.29943422057661201 -0.032203920876667472 0 -0.31144738423897378 -0.02126732740536201 0 -0.31110423911055801 -0.035316851109560482 0 -0.29943422057661201 -0.032203920876667472 0 -0.2917254884257266 -0.0017566381736345419 0 -0.31144738423897378 -0.02126732740536201 0 -0.31177688145040278 0.0050359958776742568 0 -0.2917254884257266 -0.0017566381736345419 0 -0.2928870998243559 -0.020527937726781 0 -0.31144738423897378 -0.02126732740536201 0 -0.2917254884257266 -0.0017566381736345419 0 -0.31144738423897378 -0.02126732740536201 0 -0.30323190850646392 -0.052883144282766713 0 -0.3023660715744253 -0.047018139519123002 0 -0.29757341552329353 -0.05219957266967655 0 -0.29931176789370939 -0.061629941742321552 0 -0.30659897303184058 -0.057135789817405573 0 -0.30728911182784302 -0.064893595009923935 0 -0.30323190850646392 -0.052883144282766713 0 -0.29931176789370939 -0.061629941742321552 0 -0.30659897303184058 -0.057135789817405573 0 -0.30323190850646392 -0.052883144282766713 0 -0.29757341552329353 -0.05219957266967655 0 -0.29931176789370939 -0.061629941742321552 0 -0.30659897303184058 -0.057135789817405573 0 -0.30728911182784302 -0.064893595009923935 0 -0.31405483352543062 -0.056831087900065053 0 -0.30323190850646392 -0.052883144282766713 0 -0.3023660715744253 -0.047018139519123002 0 -0.31025625293594222 -0.050033124508212908 0 -0.30659897303184058 -0.057135789817405573 0 -0.31025625293594222 -0.050033124508212908 0 -0.31405483352543062 -0.056831087900065053 0 -0.30323190850646392 -0.052883144282766713 0 -0.30659897303184058 -0.057135789817405573 0 -0.31025625293594222 -0.050033124508212908 0 -0.3023660715744253 -0.047018139519123002 0 -0.31110423911055801 -0.035316851109560482 0 -0.29943422057661201 -0.032203920876667472 0 -0.3023660715744253 -0.047018139519123002 0 -0.29943422057661201 -0.032203920876667472 0 -0.29166722635019171 -0.038853801873014321 0 -0.29943422057661201 -0.032203920876667472 0 -0.29166722635019171 -0.038853801873014321 0 -0.28378415359151371 -0.031280105512012511 0 -0.3023660715744253 -0.047018139519123002 0 -0.29166722635019171 -0.038853801873014321 0 -0.28390051605192418 -0.042754285685484159 0 -0.29166722635019171 -0.038853801873014321 0 -0.28378415359151371 -0.031280105512012511 0 -0.28390051605192418 -0.042754285685484159 0 -0.3023660715744253 -0.047018139519123002 0 -0.28390051605192418 -0.042754285685484159 0 -0.27356286309663053 -0.053258262401150697 0 -0.3023660715744253 -0.047018139519123002 0 -0.27356286309663053 -0.053258262401150697 0 -0.29757341552329353 -0.05219957266967655 0 -0.27356286309663053 -0.053258262401150697 0 -0.27532891164284878 -0.069285621960536392 0 -0.29757341552329353 -0.05219957266967655 0 -0.27532891164284878 -0.069285621960536392 0 -0.3023660715744253 -0.047018139519123002 0 -0.29757341552329353 -0.05219957266967655 0 -0.27356286309663053 -0.053258262401150697 0 -0.29757341552329353 -0.05219957266967655 0 -0.29931176789370939 -0.061629941742321552 0 -0.27532891164284878 -0.069285621960536392 0 -0.27267419604841259 -0.026924212746328481 0 -0.27375437843427658 -0.039043607324579933 0 -0.25766621977661042 -0.038842414379153638 0 -0.27356286309663053 -0.053258262401150697 0 -0.27375437843427658 -0.039043607324579933 0 -0.25766621977661042 -0.038842414379153638 0 -0.28378415359151371 -0.031280105512012511 0 -0.28390051605192418 -0.042754285685484159 0 -0.27375437843427658 -0.039043607324579933 0 -0.27267419604841259 -0.026924212746328481 0 -0.28378415359151371 -0.031280105512012511 0 -0.27375437843427658 -0.039043607324579933 0 -0.28390051605192418 -0.042754285685484159 0 -0.27356286309663053 -0.053258262401150697 0 -0.27375437843427658 -0.039043607324579933 0 -0.24475965461883589 -0.059498385283178377 0 -0.27356286309663053 -0.053258262401150697 0 -0.2582325144520296 -0.070050845257802419 0 -0.24475965461883589 -0.059498385283178377 0 -0.27356286309663053 -0.053258262401150697 0 -0.24475965461883589 -0.059498385283178377 0 -0.27356286309663053 -0.053258262401150697 0 -0.25766621977661042 -0.038842414379153638 0 -0.2582325144520296 -0.070050845257802419 0 -0.25308440776240432 -0.086371671251396109 0 -0.27532891164284878 -0.069285621960536392 0 -0.25308440776240432 -0.086371671251396109 0 -0.27532891164284878 -0.069285621960536392 0 -0.25308440776240432 -0.086371671251396109 0 -0.27361062541114611 -0.085405998149086934 0 -0.26907394573302829 -0.10103393024372311 0 -0.27361062541114611 -0.085405998149086934 0 -0.26907394573302829 -0.10103393024372311 0 -0.28494676303449051 -0.09097811142482605 0 -0.25308440776240432 -0.086371671251396109 0 -0.27361062541114611 -0.085405998149086934 0 -0.27532891164284878 -0.069285621960536392 0 -0.27356286309663053 -0.053258262401150697 0 -0.2582325144520296 -0.070050845257802419 0 -0.27532891164284878 -0.069285621960536392 0 -0.27361062541114611 -0.085405998149086934 0 -0.27532891164284878 -0.069285621960536392 0 -0.28561909888295839 -0.079360655864953042 0 -0.2432602079730701 -0.13485583854350039 0 -0.2499653418643101 -0.1102460646797562 0 -0.26490928006600228 -0.12397715003998409 0 -0.2499653418643101 -0.1102460646797562 0 -0.26490928006600228 -0.12397715003998409 0 -0.26907394573302829 -0.10103393024372311 0 -0.2499653418643101 -0.1102460646797562 0 -0.25308440776240432 -0.086371671251396109 0 -0.26907394573302829 -0.10103393024372311 0 -0.26907394573302829 -0.10103393024372311 0 -0.28789548083438649 -0.11161882002010511 0 -0.28494676303449051 -0.09097811142482605 0 -0.26490928006600228 -0.12397715003998409 0 -0.28789548083438649 -0.11161882002010511 0 -0.28428672055728371 -0.13281235115180859 0 -0.26490928006600228 -0.12397715003998409 0 -0.26907394573302829 -0.10103393024372311 0 -0.28789548083438649 -0.11161882002010511 0 -0.28789548083438649 -0.11161882002010511 0 -0.28428672055728371 -0.13281235115180859 0 -0.30877835781368662 -0.12931532841693749 0 -0.28789548083438649 -0.11161882002010511 0 -0.29765529442092259 -0.094840601490837839 0 -0.28494676303449051 -0.09097811142482605 0 -0.30761934067920371 -0.1042503242997595 0 -0.29765529442092259 -0.094840601490837839 0 -0.30832877355579341 -0.086934752854072747 0 -0.30761934067920371 -0.1042503242997595 0 -0.30832877355579341 -0.086934752854072747 0 -0.31968159473222052 -0.091584555267719248 0 -0.28789548083438649 -0.11161882002010511 0 -0.30761934067920371 -0.1042503242997595 0 -0.29765529442092259 -0.094840601490837839 0 -0.28789548083438649 -0.11161882002010511 0 -0.30761934067920371 -0.1042503242997595 0 -0.30877835781368662 -0.12931532841693749 0 -0.29931176789370939 -0.061629941742321552 0 -0.27532891164284878 -0.069285621960536392 0 -0.29568251685582603 -0.071589435967753134 0 -0.27532891164284878 -0.069285621960536392 0 -0.29568251685582603 -0.071589435967753134 0 -0.28561909888295839 -0.079360655864953042 0 -0.29568251685582603 -0.071589435967753134 0 -0.28561909888295839 -0.079360655864953042 0 -0.29849490204505058 -0.081938345925378783 0 -0.27361062541114611 -0.085405998149086934 0 -0.28561909888295839 -0.079360655864953042 0 -0.28494676303449051 -0.09097811142482605 0 -0.29765529442092259 -0.094840601490837839 0 -0.28494676303449051 -0.09097811142482605 0 -0.29849490204505058 -0.081938345925378783 0 -0.28561909888295839 -0.079360655864953042 0 -0.28494676303449051 -0.09097811142482605 0 -0.29849490204505058 -0.081938345925378783 0 -0.29849490204505058 -0.081938345925378783 0 -0.30832877355579341 -0.086934752854072747 0 -0.3066986514807607 -0.074546990101646726 0 -0.29765529442092259 -0.094840601490837839 0 -0.29849490204505058 -0.081938345925378783 0 -0.30832877355579341 -0.086934752854072747 0 -0.30832877355579341 -0.086934752854072747 0 -0.3066986514807607 -0.074546990101646726 0 -0.31636087034116728 -0.076704125898778439 0 -0.3066986514807607 -0.074546990101646726 0 -0.31411021802290889 -0.069356746280106005 0 -0.31636087034116728 -0.076704125898778439 0 -0.29568251685582603 -0.071589435967753134 0 -0.29849490204505058 -0.081938345925378783 0 -0.3066986514807607 -0.074546990101646726 0 -0.29568251685582603 -0.071589435967753134 0 -0.3066986514807607 -0.074546990101646726 0 -0.30728911182784302 -0.064893595009923935 0 -0.29931176789370939 -0.061629941742321552 0 -0.29568251685582603 -0.071589435967753134 0 -0.30728911182784302 -0.064893595009923935 0 -0.3066986514807607 -0.074546990101646726 0 -0.30728911182784302 -0.064893595009923935 0 -0.31411021802290889 -0.069356746280106005 0 -0.30728911182784302 -0.064893595009923935 0 -0.31630436981946819 -0.062936971351065629 0 -0.31411021802290889 -0.069356746280106005 0 -0.31630436981946819 -0.062936971351065629 0 -0.31411021802290889 -0.069356746280106005 0 -0.32389808664530562 -0.067702049039115322 0 -0.31630436981946819 -0.062936971351065629 0 -0.32389808664530562 -0.067702049039115322 0 -0.32481687078849097 -0.058022226865728103 0 -0.32389808664530562 -0.067702049039115322 0 -0.3259684841043719 -0.075020057435826168 0 -0.31636087034116728 -0.076704125898778439 0 -0.31411021802290889 -0.069356746280106005 0 -0.32389808664530562 -0.067702049039115322 0 -0.31636087034116728 -0.076704125898778439 0 -0.30832877355579341 -0.086934752854072747 0 -0.32608803180755441 -0.084321365842938284 0 -0.30832877355579341 -0.086934752854072747 0 -0.31968159473222052 -0.091584555267719248 0 -0.32608803180755441 -0.084321365842938284 0 -0.30832877355579341 -0.086934752854072747 0 -0.31636087034116728 -0.076704125898778439 0 -0.32608803180755441 -0.084321365842938284 0 -0.31968159473222052 -0.091584555267719248 0 -0.32608803180755441 -0.084321365842938284 0 -0.3259684841043719 -0.075020057435826168 0 -0.31636087034116728 -0.076704125898778439 0 -0.32608803180755441 -0.084321365842938284 0 -0.31968159473222052 -0.091584555267719248 0 -0.32608803180755441 -0.084321365842938284 0 -0.34030971713070318 -0.087052614945596102 0 -0.32608803180755441 -0.084321365842938284 0 -0.34030971713070318 -0.087052614945596102 0 -0.34745734249292459 -0.081176736816750444 0 -0.32608803180755441 -0.084321365842938284 0 -0.33752694762346008 -0.07135268896247253 0 -0.34745734249292459 -0.081176736816750444 0 -0.32608803180755441 -0.084321365842938284 0 -0.34745734249292459 -0.081176736816750444 0 -0.33752694762346008 -0.07135268896247253 0 -0.3489658634393657 -0.058384012082006782 0 -0.33645864726091979 -0.05858208772264157 0 -0.33752694762346008 -0.07135268896247253 0 -0.3489658634393657 -0.058384012082006782 0 -0.32389808664530562 -0.067702049039115322 0 -0.33752694762346008 -0.07135268896247253 0 -0.33645864726091979 -0.05858208772264157 0 -0.3259684841043719 -0.075020057435826168 0 -0.32608803180755441 -0.084321365842938284 0 -0.33752694762346008 -0.07135268896247253 0 -0.32608803180755441 -0.084321365842938284 0 -0.33752694762346008 -0.07135268896247253 0 -0.32389808664530562 -0.067702049039115322 0 -0.3259684841043719 -0.075020057435826168 0 -0.33752694762346008 -0.07135268896247253 0 -0.32454403747219479 -0.1081839716812668 0 -0.30877835781368662 -0.12931532841693749 0 -0.30761934067920371 -0.1042503242997595 0 -0.32454403747219479 -0.1081839716812668 0 -0.30877835781368662 -0.12931532841693749 0 -0.32454403747219479 -0.1081839716812668 0 -0.33570809008837621 -0.11845594114356341 0 -0.30877835781368662 -0.12931532841693749 0 -0.30761934067920371 -0.1042503242997595 0 -0.31968159473222052 -0.091584555267719248 0 -0.32454403747219479 -0.1081839716812668 0 -0.34030971713070318 -0.087052614945596102 0 -0.32454403747219479 -0.1081839716812668 0 -0.34278855512837281 -0.1049294584887832 0 -0.31968159473222052 -0.091584555267719248 0 -0.34030971713070318 -0.087052614945596102 0 -0.32454403747219479 -0.1081839716812668 0 -0.34030971713070318 -0.087052614945596102 0 -0.32454403747219479 -0.1081839716812668 0 -0.32454403747219479 -0.1081839716812668 0 -0.34278855512837281 -0.1049294584887832 0 -0.33570809008837621 -0.11845594114356341 0 -0.33570809008837621 -0.11845594114356341 0 -0.35404294059136687 -0.1217835462641018 0 -0.33688620478323589 -0.13358080389391511 0 -0.34278855512837281 -0.1049294584887832 0 -0.35404294059136687 -0.1217835462641018 0 -0.35932798989652742 -0.1047455147758234 0 -0.34278855512837281 -0.1049294584887832 0 -0.33570809008837621 -0.11845594114356341 0 -0.35404294059136687 -0.1217835462641018 0 -0.34278855512837281 -0.1049294584887832 0 -0.35932798989652742 -0.1047455147758234 0 -0.35079718399447979 -0.093651592615473511 0 -0.34030971713070318 -0.087052614945596102 0 -0.34278855512837281 -0.1049294584887832 0 -0.35079718399447979 -0.093651592615473511 0 -0.35932798989652742 -0.1047455147758234 0 -0.35079718399447979 -0.093651592615473511 0 -0.36132419909701757 -0.091459041133748031 0 -0.35932798989652742 -0.1047455147758234 0 -0.37367929427193591 -0.1014825750548952 0 -0.37212838853434238 -0.11808059788504249 0 -0.35932798989652742 -0.1047455147758234 0 -0.37367929427193591 -0.1014825750548952 0 -0.36132419909701757 -0.091459041133748031 0 -0.35404294059136687 -0.1217835462641018 0 -0.37212838853434238 -0.11808059788504249 0 -0.37028068739271691 -0.13083580994494901 0 -0.35404294059136687 -0.1217835462641018 0 -0.35932798989652742 -0.1047455147758234 0 -0.37212838853434238 -0.11808059788504249 0 -0.35069420168351129 -0.07223638641294812 0 -0.34745734249292459 -0.081176736816750444 0 -0.36882665317829499 -0.078032107790563188 0 -0.36882665317829499 -0.078032107790563188 0 -0.3489658634393657 -0.058384012082006782 0 -0.35069420168351129 -0.07223638641294812 0 -0.36882665317829499 -0.078032107790563188 0 -0.3489658634393657 -0.058384012082006782 0 -0.33752694762346008 -0.07135268896247253 0 -0.35069420168351129 -0.07223638641294812 0 -0.3489658634393657 -0.058384012082006782 0 -0.33752694762346008 -0.07135268896247253 0 -0.35069420168351129 -0.07223638641294812 0 -0.34745734249292459 -0.081176736816750444 0 -0.34745734249292459 -0.081176736816750444 0 -0.36882665317829499 -0.078032107790563188 0 -0.34745734249292459 -0.081176736816750444 0 -0.36132419909701757 -0.091459041133748031 0 -0.36882665317829499 -0.078032107790563188 0 -0.34030971713070318 -0.087052614945596102 0 -0.34745734249292459 -0.081176736816750444 0 -0.35079718399447979 -0.093651592615473511 0 -0.34745734249292459 -0.081176736816750444 0 -0.35079718399447979 -0.093651592615473511 0 -0.36132419909701757 -0.091459041133748031 0 -0.37367929427193591 -0.1014825750548952 0 -0.36132419909701757 -0.091459041133748031 0 -0.36882665317829499 -0.078032107790563188 0 -0.36882665317829499 -0.078032107790563188 0 -0.36862349457690058 -0.057461967220355487 0 -0.3489658634393657 -0.058384012082006782 0 -0.36882665317829499 -0.078032107790563188 0 -0.36862349457690058 -0.057461967220355487 0 -0.37947166312044489 -0.067272628224985004 0 -0.36862349457690058 -0.057461967220355487 0 -0.3489658634393657 -0.058384012082006782 0 -0.36066681755822472 -0.045118253717945672 0 -0.36862349457690058 -0.057461967220355487 0 -0.37355784227175309 -0.045246792894939887 0 -0.3815482533063424 -0.052412606119804542 0 -0.36862349457690058 -0.057461967220355487 0 -0.36066681755822472 -0.045118253717945672 0 -0.37355784227175309 -0.045246792894939887 0 -0.3489658634393657 -0.058384012082006782 0 -0.36066681755822472 -0.045118253717945672 0 -0.3489658634393657 -0.058384012082006782 0 -0.34511111307690212 -0.046137334811030092 0 -0.36066681755822472 -0.045118253717945672 0 -0.35304062521722218 -0.036039659744318157 0 -0.3553139768507978 -0.023567241021099371 0 -0.33371347875736079 -0.040226824134751989 0 -0.34511111307690212 -0.046137334811030092 0 -0.35304062521722218 -0.036039659744318157 0 -0.33371347875736079 -0.040226824134751989 0 -0.34511111307690212 -0.046137334811030092 0 -0.35304062521722218 -0.036039659744318157 0 -0.36066681755822472 -0.045118253717945672 0 -0.36066681755822472 -0.045118253717945672 0 -0.37236777167708351 -0.031852495353884333 0 -0.35304062521722218 -0.036039659744318157 0 -0.37236777167708351 -0.031852495353884333 0 -0.35304062521722218 -0.036039659744318157 0 -0.36066681755822472 -0.045118253717945672 0 -0.37236777167708351 -0.031852495353884333 0 -0.36066681755822472 -0.045118253717945672 0 -0.37355784227175309 -0.045246792894939887 0 -0.37236777167708351 -0.031852495353884333 0 -0.37236777167708351 -0.031852495353884333 0 -0.3739022591900184 -0.02415390189740213 0 -0.36770044175442279 -0.02036669541201027 0 -0.37236777167708351 -0.031852495353884333 0 -0.36770044175442279 -0.02036669541201027 0 -0.3553139768507978 -0.023567241021099371 0 -0.36770044175442279 -0.02036669541201027 0 -0.35847393927256738 -0.010652033510738681 0 -0.38297625517291389 -0.017448943304264108 0 -0.35304062521722218 -0.036039659744318157 0 -0.37236777167708351 -0.031852495353884333 0 -0.3553139768507978 -0.023567241021099371 0 -0.3739022591900184 -0.02415390189740213 0 -0.36770044175442279 -0.02036669541201027 0 -0.38297625517291389 -0.017448943304264108 0 -0.36770044175442279 -0.02036669541201027 0 -0.35847393927256738 -0.010652033510738681 0 -0.3553139768507978 -0.023567241021099371 0 -0.35847393927256738 -0.010652033510738681 0 -0.38297625517291389 -0.017448943304264108 0 -0.37278444596104371 -0.0079457960458173115 0 -0.35847393927256738 -0.010652033510738681 0 -0.38297625517291389 -0.017448943304264108 0 -0.37474494217865062 -0.0022388935110706832 0 -0.37278444596104371 -0.0079457960458173115 0 -0.36307869926690151 -0.00068504054922277494 0 -0.37278444596104371 -0.0079457960458173115 0 -0.36307869926690151 -0.00068504054922277494 0 -0.35847393927256738 -0.010652033510738681 0 -0.36307869926690151 -0.00068504054922277494 0 -0.34718119132474479 -0.01384164818341615 0 -0.36064890389212972 0.0125435277679194 0 -0.36307869926690151 -0.00068504054922277494 0 -0.35847393927256738 -0.010652033510738681 0 -0.34718119132474479 -0.01384164818341615 0 -0.34718119132474479 -0.01384164818341615 0 -0.36064890389212972 0.0125435277679194 0 -0.34718119132474479 -0.01384164818341615 0 -0.3553139768507978 -0.023567241021099371 0 -0.33371347875736079 -0.040226824134751989 0 -0.35847393927256738 -0.010652033510738681 0 -0.34718119132474479 -0.01384164818341615 0 -0.3553139768507978 -0.023567241021099371 0 -0.34718119132474479 -0.01384164818341615 0 -0.33035884889608558 -0.02420969997450095 0 -0.33371347875736079 -0.040226824134751989 0 -0.34718119132474479 -0.01384164818341615 0 -0.33371347875736079 -0.040226824134751989 0 -0.34718119132474479 -0.01384164818341615 0 -0.32828291010712762 -0.0049346835118845543 0 -0.34055428987364128 0.0059527955302196532 0 -0.34718119132474479 -0.01384164818341615 0 -0.33035884889608558 -0.02420969997450095 0 -0.32828291010712762 -0.0049346835118845543 0 -0.31144738423897378 -0.02126732740536201 0 -0.32828291010712762 -0.0049346835118845543 0 -0.31177688145040278 0.0050359958776742568 0 -0.31144738423897378 -0.02126732740536201 0 -0.33116928005221918 -0.040778016637091109 0 -0.31144738423897378 -0.02126732740536201 0 -0.33035884889608558 -0.02420969997450095 0 -0.32828291010712762 -0.0049346835118845543 0 -0.31144738423897378 -0.02126732740536201 0 -0.33035884889608558 -0.02420969997450095 0 -0.33116928005221918 -0.040778016637091109 0 -0.3023660715744253 -0.047018139519123002 0 -0.31110423911055801 -0.035316851109560482 0 -0.33116928005221918 -0.040778016637091109 0 -0.3023660715744253 -0.047018139519123002 0 -0.31025625293594222 -0.050033124508212908 0 -0.33116928005221918 -0.040778016637091109 0 -0.3023660715744253 -0.047018139519123002 0 -0.33116928005221918 -0.040778016637091109 0 -0.31144738423897378 -0.02126732740536201 0 -0.31110423911055801 -0.035316851109560482 0 -0.33116928005221918 -0.040778016637091109 0 -0.31025625293594222 -0.050033124508212908 0 -0.31770057673851387 -0.05020147555903863 0 -0.33116928005221918 -0.040778016637091109 0 -0.31025625293594222 -0.050033124508212908 0 -0.31770057673851387 -0.05020147555903863 0 -0.31405483352543062 -0.056831087900065053 0 -0.31770057673851387 -0.05020147555903863 0 -0.31405483352543062 -0.056831087900065053 0 -0.31936567051967829 -0.054711673150449433 0 -0.31630436981946819 -0.062936971351065629 0 -0.31936567051967829 -0.054711673150449433 0 -0.32481687078849097 -0.058022226865728103 0 -0.30728911182784302 -0.064893595009923935 0 -0.31630436981946819 -0.062936971351065629 0 -0.31405483352543062 -0.056831087900065053 0 -0.31630436981946819 -0.062936971351065629 0 -0.31405483352543062 -0.056831087900065053 0 -0.31936567051967829 -0.054711673150449433 0 -0.31770057673851387 -0.05020147555903863 0 -0.32448711316898249 -0.050622394842538963 0 -0.33116928005221918 -0.040778016637091109 0 -0.31936567051967829 -0.054711673150449433 0 -0.32481687078849097 -0.058022226865728103 0 -0.32448711316898249 -0.050622394842538963 0 -0.31770057673851387 -0.05020147555903863 0 -0.31936567051967829 -0.054711673150449433 0 -0.32448711316898249 -0.050622394842538963 0 -0.32481687078849097 -0.058022226865728103 0 -0.32770904195502032 -0.053173566283506987 0 -0.32448711316898249 -0.050622394842538963 0 -0.32770904195502032 -0.053173566283506987 0 -0.32448711316898249 -0.050622394842538963 0 -0.32972533979495861 -0.048040159006195682 0 -0.3489658634393657 -0.058384012082006782 0 -0.34511111307690212 -0.046137334811030092 0 -0.3326728772282519 -0.042265511425067279 0 -0.32972533979495861 -0.048040159006195682 0 -0.33645864726091979 -0.05858208772264157 0 -0.3326728772282519 -0.042265511425067279 0 -0.3489658634393657 -0.058384012082006782 0 -0.3326728772282519 -0.042265511425067279 0 -0.32770904195502032 -0.053173566283506987 0 -0.32972533979495861 -0.048040159006195682 0 -0.33645864726091979 -0.05858208772264157 0 -0.3489658634393657 -0.058384012082006782 0 -0.33645864726091979 -0.05858208772264157 0 -0.3326728772282519 -0.042265511425067279 0 -0.32389808664530562 -0.067702049039115322 0 -0.32481687078849097 -0.058022226865728103 0 -0.33645864726091979 -0.05858208772264157 0 -0.32481687078849097 -0.058022226865728103 0 -0.32770904195502032 -0.053173566283506987 0 -0.33645864726091979 -0.05858208772264157 0 -0.34511111307690212 -0.046137334811030092 0 -0.33371347875736079 -0.040226824134751989 0 -0.3326728772282519 -0.042265511425067279 0 -0.33035884889608558 -0.02420969997450095 0 -0.33116928005221918 -0.040778016637091109 0 -0.33371347875736079 -0.040226824134751989 0 -0.35304062521722218 -0.036039659744318157 0 -0.33371347875736079 -0.040226824134751989 0 -0.32448711316898249 -0.050622394842538963 0 -0.32972533979495861 -0.048040159006195682 0 -0.33116928005221918 -0.040778016637091109 0 -0.33116928005221918 -0.040778016637091109 0 -0.3326728772282519 -0.042265511425067279 0 -0.32972533979495861 -0.048040159006195682 0 -0.3326728772282519 -0.042265511425067279 0 -0.32972533979495861 -0.048040159006195682 0 -0.33116928005221918 -0.040778016637091109 0 -0.3326728772282519 -0.042265511425067279 0 -0.33116928005221918 -0.040778016637091109 0 -0.33371347875736079 -0.040226824134751989 0 -0.33116928005221918 -0.040778016637091109 0 -0.33371347875736079 -0.040226824134751989 0 -0.3326728772282519 -0.042265511425067279 0 -0.33371347875736079 -0.040226824134751989 0 -0.3326728772282519 -0.042265511425067279 0 -0.2907170577323625 -0.25177677077710309 0 -0.30853150187083839 -0.25429835417001312 0 -0.30748271917561598 -0.2431056607245809 0 -0.30748271917561598 -0.2431056607245809 0 -0.3004866401015065 -0.2269264896544945 0 -0.32066485276457768 -0.2334308190911655 0 -0.2907170577323625 -0.25177677077710309 0 -0.30748271917561598 -0.2431056607245809 0 -0.3004866401015065 -0.2269264896544945 0 -0.30853150187083839 -0.25429835417001312 0 -0.30748271917561598 -0.2431056607245809 0 -0.32023222063025569 -0.2489608815952247 0 -0.3004866401015065 -0.2269264896544945 0 -0.27575903677895092 -0.22208668823385669 0 -0.3004866401015065 -0.2269264896544945 0 -0.27309361240676189 -0.24179026653703889 0 -0.27575903677895092 -0.22208668823385669 0 -0.3004866401015065 -0.2269264896544945 0 -0.27575903677895092 -0.22208668823385669 0 -0.29482007196541532 -0.2089319155152673 0 -0.2907170577323625 -0.25177677077710309 0 -0.3004866401015065 -0.2269264896544945 0 -0.27309361240676189 -0.24179026653703889 0 -0.27309361240676189 -0.24179026653703889 0 -0.25431856302814809 -0.24833495949118861 0 -0.25103143345639523 -0.21724688681321891 0 -0.27575903677895092 -0.22208668823385669 0 -0.25103143345639523 -0.21724688681321891 0 -0.27309361240676189 -0.24179026653703889 0 -0.27575903677895092 -0.22208668823385669 0 -0.25103143345639523 -0.21724688681321891 0 -0.27575903677895092 -0.22208668823385669 0 -0.25103143345639523 -0.21724688681321891 0 -0.27708552823660842 -0.19790031786117671 0 -0.25103143345639523 -0.21724688681321891 0 -0.25418198431724581 -0.18809916394242601 0 -0.27708552823660842 -0.19790031786117671 0 -0.27708552823660842 -0.19790031786117671 0 -0.29482007196541532 -0.2089319155152673 0 -0.30195969341908391 -0.19078830755985379 0 -0.29482007196541532 -0.2089319155152673 0 -0.30195969341908391 -0.19078830755985379 0 -0.32674672588845421 -0.2120308859258328 0 -0.3004866401015065 -0.2269264896544945 0 -0.29482007196541532 -0.2089319155152673 0 -0.32674672588845421 -0.2120308859258328 0 -0.27575903677895092 -0.22208668823385669 0 -0.27708552823660842 -0.19790031786117671 0 -0.29482007196541532 -0.2089319155152673 0 -0.30195969341908391 -0.19078830755985379 0 -0.30674796742087651 -0.1684647150882764 0 -0.32123008678095788 -0.18729232698745699 0 -0.30674796742087651 -0.1684647150882764 0 -0.2930126781551784 -0.15044668515260809 0 -0.3206808779707625 -0.15110047818677941 0 -0.27724699849667023 -0.17157804188827869 0 -0.2930126781551784 -0.15044668515260809 0 -0.30674796742087651 -0.1684647150882764 0 -0.27724699849667023 -0.17157804188827869 0 -0.2930126781551784 -0.15044668515260809 0 -0.27708552823660842 -0.19790031786117671 0 -0.30195969341908391 -0.19078830755985379 0 -0.27724699849667023 -0.17157804188827869 0 -0.30195969341908391 -0.19078830755985379 0 -0.30674796742087651 -0.1684647150882764 0 -0.27724699849667023 -0.17157804188827869 0 -0.25418198431724581 -0.18809916394242601 0 -0.27708552823660842 -0.19790031786117671 0 -0.27724699849667023 -0.17157804188827869 0 -0.25418198431724581 -0.18809916394242601 0 -0.2565438833259911 -0.1687602707777138 0 -0.27724699849667023 -0.17157804188827869 0 -0.2435592126657353 -0.1561425335328199 0 -0.2565438833259911 -0.1687602707777138 0 -0.26683780591716472 -0.14870377212940841 0 -0.27724699849667023 -0.17157804188827869 0 -0.26683780591716472 -0.14870377212940841 0 -0.2930126781551784 -0.15044668515260809 0 -0.2565438833259911 -0.1687602707777138 0 -0.27724699849667023 -0.17157804188827869 0 -0.26683780591716472 -0.14870377212940841 0 -0.2435592126657353 -0.1561425335328199 0 -0.2432602079730701 -0.13485583854350039 0 -0.26683780591716472 -0.14870377212940841 0 -0.2432602079730701 -0.13485583854350039 0 -0.26490928006600228 -0.12397715003998409 0 -0.26683780591716472 -0.14870377212940841 0 -0.26490928006600228 -0.12397715003998409 0 -0.26683780591716472 -0.14870377212940841 0 -0.28428672055728371 -0.13281235115180859 0 -0.28428672055728371 -0.13281235115180859 0 -0.2930126781551784 -0.15044668515260809 0 -0.30877835781368662 -0.12931532841693749 0 -0.26683780591716472 -0.14870377212940841 0 -0.28428672055728371 -0.13281235115180859 0 -0.2930126781551784 -0.15044668515260809 0 -0.2930126781551784 -0.15044668515260809 0 -0.30877835781368662 -0.12931532841693749 0 -0.3206808779707625 -0.15110047818677941 0 -0.2930126781551784 -0.15044668515260809 0 -0.30877835781368662 -0.12931532841693749 0 -0.33570809008837621 -0.11845594114356341 0 -0.30877835781368662 -0.12931532841693749 0 -0.33688620478323589 -0.13358080389391511 0 -0.30877835781368662 -0.12931532841693749 0 -0.3206808779707625 -0.15110047818677941 0 -0.33688620478323589 -0.13358080389391511 0 -0.3206808779707625 -0.15110047818677941 0 -0.33688620478323589 -0.13358080389391511 0 -0.34399943231138669 -0.15408109000358611 0 -0.33688620478323589 -0.13358080389391511 0 -0.35929992868189681 -0.1386942596847188 0 -0.35404294059136687 -0.1217835462641018 0 -0.33688620478323589 -0.13358080389391511 0 -0.35929992868189681 -0.1386942596847188 0 -0.35404294059136687 -0.1217835462641018 0 -0.35929992868189681 -0.1386942596847188 0 -0.37028068739271691 -0.13083580994494901 0 -0.35929992868189681 -0.1386942596847188 0 -0.37028068739271691 -0.13083580994494901 0 -0.3804539816512269 -0.14482329966991631 0 -0.35929992868189681 -0.1386942596847188 0 -0.3804539816512269 -0.14482329966991631 0 -0.35929992868189681 -0.1386942596847188 0 -0.3655172116091886 -0.15688196674787641 0 -0.3804539816512269 -0.14482329966991631 0 -0.3655172116091886 -0.15688196674787641 0 -0.3804539816512269 -0.14482329966991631 0 -0.3655172116091886 -0.15688196674787641 0 -0.37839901512320262 -0.15996290040625341 0 -0.3804539816512269 -0.14482329966991631 0 -0.33688620478323589 -0.13358080389391511 0 -0.35929992868189681 -0.1386942596847188 0 -0.34399943231138669 -0.15408109000358611 0 -0.35929992868189681 -0.1386942596847188 0 -0.34399943231138669 -0.15408109000358611 0 -0.3655172116091886 -0.15688196674787641 0 -0.34399943231138669 -0.15408109000358611 0 -0.35323542112630057 -0.1671812377988513 0 -0.3655172116091886 -0.15688196674787641 0 -0.3655172116091886 -0.15688196674787641 0 -0.37378547386561772 -0.17392500984250869 0 -0.37839901512320262 -0.15996290040625341 0 -0.35323542112630057 -0.1671812377988513 0 -0.3655172116091886 -0.15688196674787641 0 -0.37378547386561772 -0.17392500984250869 0 -0.37378547386561772 -0.17392500984250869 0 -0.35240556330307887 -0.18479875362473361 0 -0.36895563931783232 -0.19259611207654981 0 -0.35323542112630057 -0.1671812377988513 0 -0.37378547386561772 -0.17392500984250869 0 -0.35240556330307887 -0.18479875362473361 0 -0.35323542112630057 -0.1671812377988513 0 -0.35240556330307887 -0.18479875362473361 0 -0.33400288196205857 -0.17193246321376471 0 -0.35240556330307887 -0.18479875362473361 0 -0.33400288196205857 -0.17193246321376471 0 -0.33669316521431608 -0.19324526314955739 0 -0.33400288196205857 -0.17193246321376471 0 -0.32123008678095788 -0.18729232698745699 0 -0.33669316521431608 -0.19324526314955739 0 -0.3206808779707625 -0.15110047818677941 0 -0.34399943231138669 -0.15408109000358611 0 -0.33400288196205857 -0.17193246321376471 0 -0.34399943231138669 -0.15408109000358611 0 -0.35323542112630057 -0.1671812377988513 0 -0.33400288196205857 -0.17193246321376471 0 -0.30674796742087651 -0.1684647150882764 0 -0.3206808779707625 -0.15110047818677941 0 -0.33400288196205857 -0.17193246321376471 0 -0.30674796742087651 -0.1684647150882764 0 -0.33400288196205857 -0.17193246321376471 0 -0.32123008678095788 -0.18729232698745699 0 -0.30195969341908391 -0.19078830755985379 0 -0.32123008678095788 -0.18729232698745699 0 -0.32674672588845421 -0.2120308859258328 0 -0.32674672588845421 -0.2120308859258328 0 -0.35024140450074381 -0.20994798342056251 0 -0.32674672588845421 -0.2120308859258328 0 -0.33669316521431608 -0.19324526314955739 0 -0.35024140450074381 -0.20994798342056251 0 -0.32674672588845421 -0.2120308859258328 0 -0.35024140450074381 -0.20994798342056251 0 -0.3377174746324717 -0.2284461722996495 0 -0.32123008678095788 -0.18729232698745699 0 -0.32674672588845421 -0.2120308859258328 0 -0.33669316521431608 -0.19324526314955739 0 -0.35240556330307887 -0.18479875362473361 0 -0.36895563931783232 -0.19259611207654981 0 -0.35024140450074381 -0.20994798342056251 0 -0.35240556330307887 -0.18479875362473361 0 -0.33669316521431608 -0.19324526314955739 0 -0.35024140450074381 -0.20994798342056251 0 -0.36895563931783232 -0.19259611207654981 0 -0.37373608311303341 -0.20786508091529229 0 -0.35024140450074381 -0.20994798342056251 0 -0.37373608311303341 -0.20786508091529229 0 -0.35024140450074381 -0.20994798342056251 0 -0.37373608311303341 -0.20786508091529229 0 -0.35024140450074381 -0.20994798342056251 0 -0.36602803805366552 -0.21914337572849349 0 -0.37373608311303341 -0.20786508091529229 0 -0.36602803805366552 -0.21914337572849349 0 -0.37785639846487218 -0.21906994256996459 0 -0.35024140450074381 -0.20994798342056251 0 -0.357966965356528 -0.23170644806675769 0 -0.3377174746324717 -0.2284461722996495 0 -0.35024140450074381 -0.20994798342056251 0 -0.357966965356528 -0.23170644806675769 0 -0.36602803805366552 -0.21914337572849349 0 -0.357966965356528 -0.23170644806675769 0 -0.36602803805366552 -0.21914337572849349 0 -0.36983275924353248 -0.22875232439276311 0 -0.36602803805366552 -0.21914337572849349 0 -0.36983275924353248 -0.22875232439276311 0 -0.37785639846487218 -0.21906994256996459 0 -0.357966965356528 -0.23170644806675769 0 -0.36983275924353248 -0.22875232439276311 0 -0.37747963509906429 -0.24508953120583671 0 -0.35872453044413888 -0.25078889886649508 0 -0.357966965356528 -0.23170644806675769 0 -0.37747963509906429 -0.24508953120583671 0 -0.357966965356528 -0.23170644806675769 0 -0.34395992200845399 -0.24382677409400949 0 -0.3377174746324717 -0.2284461722996495 0 -0.35872453044413888 -0.25078889886649508 0 -0.357966965356528 -0.23170644806675769 0 -0.34395992200845399 -0.24382677409400949 0 -0.33345250408021371 -0.25331871279766999 0 -0.34395992200845399 -0.24382677409400949 0 -0.33132333615916232 -0.2411148243472106 0 -0.33345250408021371 -0.25331871279766999 0 -0.33132333615916232 -0.2411148243472106 0 -0.32023222063025569 -0.2489608815952247 0 -0.34395992200845399 -0.24382677409400949 0 -0.33132333615916232 -0.2411148243472106 0 -0.3377174746324717 -0.2284461722996495 0 -0.32674672588845421 -0.2120308859258328 0 -0.3377174746324717 -0.2284461722996495 0 -0.32066485276457768 -0.2334308190911655 0 -0.33132333615916232 -0.2411148243472106 0 -0.3377174746324717 -0.2284461722996495 0 -0.32066485276457768 -0.2334308190911655 0 -0.3004866401015065 -0.2269264896544945 0 -0.32674672588845421 -0.2120308859258328 0 -0.32066485276457768 -0.2334308190911655 0 -0.30748271917561598 -0.2431056607245809 0 -0.32066485276457768 -0.2334308190911655 0 -0.32023222063025569 -0.2489608815952247 0 -0.33132333615916232 -0.2411148243472106 0 -0.32066485276457768 -0.2334308190911655 0 -0.32023222063025569 -0.2489608815952247 0 -0.43445882011373449 -0.25478651907497341 0 -0.43806130733353449 -0.23541812032183559 0 -0.43445882011373449 -0.25478651907497341 0 -0.4258852610480256 -0.24284815888716721 0 -0.43806130733353449 -0.23541812032183559 0 -0.4258852610480256 -0.24284815888716721 0 -0.42538833238501789 -0.2333934851751748 0 -0.41698539980062188 -0.23875950084572559 0 -0.43445882011373449 -0.25478651907497341 0 -0.4258852610480256 -0.24284815888716721 0 -0.42335340856967768 -0.24893549408922019 0 -0.4258852610480256 -0.24284815888716721 0 -0.42538833238501789 -0.2333934851751748 0 -0.43806130733353449 -0.23541812032183559 0 -0.43091611572645672 -0.22699763907763329 0 -0.42538833238501789 -0.2333934851751748 0 -0.43806130733353449 -0.23541812032183559 0 -0.43091611572645672 -0.22699763907763329 0 -0.44166379455333399 -0.21604972156869759 0 -0.43806130733353449 -0.23541812032183559 0 -0.43091611572645672 -0.22699763907763329 0 -0.43133498143110582 -0.21921018883561361 0 -0.44166379455333399 -0.21604972156869759 0 -0.43133498143110582 -0.21921018883561361 0 -0.4232485836513401 -0.22477446532261011 0 -0.4232102070061276 -0.21869015764887889 0 -0.43091611572645672 -0.22699763907763329 0 -0.43133498143110582 -0.21921018883561361 0 -0.4232485836513401 -0.22477446532261011 0 -0.43091611572645672 -0.22699763907763329 0 -0.4232485836513401 -0.22477446532261011 0 -0.42538833238501789 -0.2333934851751748 0 -0.4232485836513401 -0.22477446532261011 0 -0.42538833238501789 -0.2333934851751748 0 -0.41731365953457839 -0.2310953018814938 0 -0.4232485836513401 -0.22477446532261011 0 -0.41731365953457839 -0.2310953018814938 0 -0.4121948509493269 -0.2247325638453028 0 -0.41731365953457839 -0.2310953018814938 0 -0.4080561583250083 -0.23272886934204159 0 -0.41698539980062188 -0.23875950084572559 0 -0.4232485836513401 -0.22477446532261011 0 -0.4121948509493269 -0.2247325638453028 0 -0.41685681033243982 -0.21746512418924929 0 -0.4232485836513401 -0.22477446532261011 0 -0.41685681033243982 -0.21746512418924929 0 -0.4232102070061276 -0.21869015764887889 0 -0.4121948509493269 -0.2247325638453028 0 -0.4080561583250083 -0.23272886934204159 0 -0.39971520205611372 -0.2221352637332015 0 -0.4121948509493269 -0.2247325638453028 0 -0.40807454407470489 -0.21592977391801271 0 -0.41685681033243982 -0.21746512418924929 0 -0.4121948509493269 -0.2247325638453028 0 -0.39971520205611372 -0.2221352637332015 0 -0.40807454407470489 -0.21592977391801271 0 -0.41731365953457839 -0.2310953018814938 0 -0.4121948509493269 -0.2247325638453028 0 -0.4080561583250083 -0.23272886934204159 0 -0.4080561583250083 -0.23272886934204159 0 -0.40983148527785651 -0.24118391776602099 0 -0.41698539980062188 -0.23875950084572559 0 -0.42538833238501789 -0.2333934851751748 0 -0.41731365953457839 -0.2310953018814938 0 -0.41698539980062188 -0.23875950084572559 0 -0.40983148527785651 -0.24118391776602099 0 -0.41698539980062188 -0.23875950084572559 0 -0.41627810448972868 -0.24641300060905449 0 -0.4258852610480256 -0.24284815888716721 0 -0.42335340856967768 -0.24893549408922019 0 -0.41627810448972868 -0.24641300060905449 0 -0.4258852610480256 -0.24284815888716721 0 -0.41698539980062188 -0.23875950084572559 0 -0.41627810448972868 -0.24641300060905449 0 -0.41679144862722167 -0.25169429778568547 0 -0.42335340856967768 -0.24893549408922019 0 -0.41627810448972868 -0.24641300060905449 0 -0.41385673751816382 -0.25312989710486528 0 -0.41627810448972868 -0.24641300060905449 0 -0.4086566941719203 -0.24778871483445111 0 -0.40983148527785651 -0.24118391776602099 0 -0.41627810448972868 -0.24641300060905449 0 -0.4086566941719203 -0.24778871483445111 0 -0.40282532782868952 -0.25224285689579767 0 -0.4086566941719203 -0.24778871483445111 0 -0.40022281387448849 -0.24084313907701979 0 -0.40983148527785651 -0.24118391776602099 0 -0.4086566941719203 -0.24778871483445111 0 -0.40022281387448849 -0.24084313907701979 0 -0.4080561583250083 -0.23272886934204159 0 -0.40983148527785651 -0.24118391776602099 0 -0.40022281387448849 -0.24084313907701979 0 -0.40022281387448849 -0.24084313907701979 0 -0.3903832871219331 -0.2411545733314838 0 -0.38772777019650018 -0.2315142496456449 0 -0.3938256931015453 -0.25037754026629511 0 -0.40022281387448849 -0.24084313907701979 0 -0.3903832871219331 -0.2411545733314838 0 -0.3938256931015453 -0.25037754026629511 0 -0.3903832871219331 -0.2411545733314838 0 -0.37747963509906429 -0.24508953120583671 0 -0.3903832871219331 -0.2411545733314838 0 -0.37747963509906429 -0.24508953120583671 0 -0.38772777019650018 -0.2315142496456449 0 -0.37747963509906429 -0.24508953120583671 0 -0.37785639846487218 -0.21906994256996459 0 -0.37747963509906429 -0.24508953120583671 0 -0.37785639846487218 -0.21906994256996459 0 -0.38772777019650018 -0.2315142496456449 0 -0.36983275924353248 -0.22875232439276311 0 -0.37747963509906429 -0.24508953120583671 0 -0.37785639846487218 -0.21906994256996459 0 -0.37785639846487218 -0.21906994256996459 0 -0.38772777019650018 -0.2315142496456449 0 -0.38790285805175961 -0.2167146319195192 0 -0.4080561583250083 -0.23272886934204159 0 -0.40022281387448849 -0.24084313907701979 0 -0.39971520205611372 -0.2221352637332015 0 -0.40022281387448849 -0.24084313907701979 0 -0.39971520205611372 -0.2221352637332015 0 -0.38772777019650018 -0.2315142496456449 0 -0.39971520205611372 -0.2221352637332015 0 -0.38790285805175961 -0.2167146319195192 0 -0.40022281387448849 -0.24084313907701979 0 -0.38772777019650018 -0.2315142496456449 0 -0.39971520205611372 -0.2221352637332015 0 -0.39971520205611372 -0.2221352637332015 0 -0.39723076172532301 -0.205782178410022 0 -0.40807454407470489 -0.21592977391801271 0 -0.39971520205611372 -0.2221352637332015 0 -0.39723076172532301 -0.205782178410022 0 -0.38790285805175961 -0.2167146319195192 0 -0.39723076172532301 -0.205782178410022 0 -0.41303892827123678 -0.21093405469715851 0 -0.40807454407470489 -0.21592977391801271 0 -0.37373608311303341 -0.20786508091529229 0 -0.39723076172532301 -0.205782178410022 0 -0.38370630256805799 -0.1971119561512929 0 -0.37373608311303341 -0.20786508091529229 0 -0.39723076172532301 -0.205782178410022 0 -0.38790285805175961 -0.2167146319195192 0 -0.37373608311303341 -0.20786508091529229 0 -0.39723076172532301 -0.205782178410022 0 -0.37373608311303341 -0.20786508091529229 0 -0.37785639846487218 -0.21906994256996459 0 -0.38790285805175961 -0.2167146319195192 0 -0.36895563931783232 -0.19259611207654981 0 -0.38370630256805799 -0.1971119561512929 0 -0.3831693110633177 -0.1873742460103984 0 -0.36895563931783232 -0.19259611207654981 0 -0.37373608311303341 -0.20786508091529229 0 -0.38370630256805799 -0.1971119561512929 0 -0.38370630256805799 -0.1971119561512929 0 -0.39543971762078378 -0.19194216334420211 0 -0.3831693110633177 -0.1873742460103984 0 -0.39723076172532301 -0.205782178410022 0 -0.38370630256805799 -0.1971119561512929 0 -0.39543971762078378 -0.19194216334420211 0 -0.39723076172532301 -0.205782178410022 0 -0.39543971762078378 -0.19194216334420211 0 -0.40534117689708921 -0.19634387975323889 0 -0.39543971762078378 -0.19194216334420211 0 -0.40534117689708921 -0.19634387975323889 0 -0.40730162077548249 -0.18407395049314179 0 -0.39723076172532301 -0.205782178410022 0 -0.40534117689708921 -0.19634387975323889 0 -0.42072544033761272 -0.20369927590475301 0 -0.42032122747045741 -0.1927313373696285 0 -0.42072544033761272 -0.20369927590475301 0 -0.40730162077548249 -0.18407395049314179 0 -0.42072544033761272 -0.20369927590475301 0 -0.40730162077548249 -0.18407395049314179 0 -0.40534117689708921 -0.19634387975323889 0 -0.42072544033761272 -0.20369927590475301 0 -0.40730162077548249 -0.18407395049314179 0 -0.39723076172532301 -0.205782178410022 0 -0.41303892827123678 -0.21093405469715851 0 -0.42072544033761272 -0.20369927590475301 0 -0.39723076172532301 -0.205782178410022 0 -0.42072544033761272 -0.20369927590475301 0 -0.41303892827123678 -0.21093405469715851 0 -0.40807454407470489 -0.21592977391801271 0 -0.41685681033243982 -0.21746512418924929 0 -0.41303892827123678 -0.21093405469715851 0 -0.41685681033243982 -0.21746512418924929 0 -0.42140045260962489 -0.21331085224804261 0 -0.41685681033243982 -0.21746512418924929 0 -0.42140045260962489 -0.21331085224804261 0 -0.4232102070061276 -0.21869015764887889 0 -0.41303892827123678 -0.21093405469715851 0 -0.42140045260962489 -0.21331085224804261 0 -0.42072544033761272 -0.20369927590475301 0 -0.42512182626149492 -0.2033095177213731 0 -0.43378961613155448 -0.20908682079381441 0 -0.44184138868315109 -0.20247798044170351 0 -0.42072544033761272 -0.20369927590475301 0 -0.42512182626149492 -0.2033095177213731 0 -0.43133498143110582 -0.21921018883561361 0 -0.42072544033761272 -0.20369927590475301 0 -0.42512182626149492 -0.2033095177213731 0 -0.43133498143110582 -0.21921018883561361 0 -0.42512182626149492 -0.2033095177213731 0 -0.43378961613155448 -0.20908682079381441 0 -0.43133498143110582 -0.21921018883561361 0 -0.42140045260962489 -0.21331085224804261 0 -0.4232102070061276 -0.21869015764887889 0 -0.43133498143110582 -0.21921018883561361 0 -0.42072544033761272 -0.20369927590475301 0 -0.43133498143110582 -0.21921018883561361 0 -0.42140045260962489 -0.21331085224804261 0 -0.42072544033761272 -0.20369927590475301 0 -0.43133498143110582 -0.21921018883561361 0 -0.43378961613155448 -0.20908682079381441 0 -0.44166379455333399 -0.21604972156869759 0 -0.42032122747045741 -0.1927313373696285 0 -0.44184138868315109 -0.20247798044170351 0 -0.42032122747045741 -0.1927313373696285 0 -0.43099962817645188 -0.18319011649723049 0 -0.43833565968517207 -0.19112957676178299 0 -0.42032122747045741 -0.1927313373696285 0 -0.42512182626149492 -0.2033095177213731 0 -0.44184138868315109 -0.20247798044170351 0 -0.42032122747045741 -0.1927313373696285 0 -0.43833565968517207 -0.19112957676178299 0 -0.44184138868315109 -0.20247798044170351 0 -0.42032122747045741 -0.1927313373696285 0 -0.42072544033761272 -0.20369927590475301 0 -0.42512182626149492 -0.2033095177213731 0 -0.42549584187692119 -0.17333418479170171 0 -0.43099962817645188 -0.18319011649723049 0 -0.41834400919125792 -0.18158621355319651 0 -0.42032122747045741 -0.1927313373696285 0 -0.43099962817645188 -0.18319011649723049 0 -0.41834400919125792 -0.18158621355319651 0 -0.43099962817645188 -0.18319011649723049 0 -0.43495901877196291 -0.17485617288990979 0 -0.44455133712372419 -0.18300714728765441 0 -0.42549584187692119 -0.17333418479170171 0 -0.43099962817645188 -0.18319011649723049 0 -0.43495901877196291 -0.17485617288990979 0 -0.42549584187692119 -0.17333418479170171 0 -0.43495901877196291 -0.17485617288990979 0 -0.43155613508544272 -0.1669321437644439 0 -0.43495901877196291 -0.17485617288990979 0 -0.43155613508544272 -0.1669321437644439 0 -0.44219215159727421 -0.16781727210851849 0 -0.43155613508544272 -0.1669321437644439 0 -0.43166640735559808 -0.1552039120346444 0 -0.44219215159727421 -0.16781727210851849 0 -0.43155613508544272 -0.1669321437644439 0 -0.4214232379976206 -0.16216052115063159 0 -0.43166640735559808 -0.1552039120346444 0 -0.42549584187692119 -0.17333418479170171 0 -0.43155613508544272 -0.1669321437644439 0 -0.4214232379976206 -0.16216052115063159 0 -0.42549584187692119 -0.17333418479170171 0 -0.4214232379976206 -0.16216052115063159 0 -0.41110577652129249 -0.1670682470007229 0 -0.4214232379976206 -0.16216052115063159 0 -0.41110577652129249 -0.1670682470007229 0 -0.40669002996807779 -0.1495058137550834 0 -0.41110577652129249 -0.1670682470007229 0 -0.41834400919125792 -0.18158621355319651 0 -0.40730162077548249 -0.18407395049314179 0 -0.42549584187692119 -0.17333418479170171 0 -0.41110577652129249 -0.1670682470007229 0 -0.41834400919125792 -0.18158621355319651 0 -0.42032122747045741 -0.1927313373696285 0 -0.41834400919125792 -0.18158621355319651 0 -0.40730162077548249 -0.18407395049314179 0 -0.39543971762078378 -0.19194216334420211 0 -0.40730162077548249 -0.18407395049314179 0 -0.39267839793348491 -0.17927693187167279 0 -0.40730162077548249 -0.18407395049314179 0 -0.39267839793348491 -0.17927693187167279 0 -0.39387780121335469 -0.16444862508152899 0 -0.40730162077548249 -0.18407395049314179 0 -0.39387780121335469 -0.16444862508152899 0 -0.37378547386561772 -0.17392500984250869 0 -0.36895563931783232 -0.19259611207654981 0 -0.3831693110633177 -0.1873742460103984 0 -0.37378547386561772 -0.17392500984250869 0 -0.39267839793348491 -0.17927693187167279 0 -0.3831693110633177 -0.1873742460103984 0 -0.37378547386561772 -0.17392500984250869 0 -0.39267839793348491 -0.17927693187167279 0 -0.39387780121335469 -0.16444862508152899 0 -0.39543971762078378 -0.19194216334420211 0 -0.39267839793348491 -0.17927693187167279 0 -0.3831693110633177 -0.1873742460103984 0 -0.37378547386561772 -0.17392500984250869 0 -0.37839901512320262 -0.15996290040625341 0 -0.39387780121335469 -0.16444862508152899 0 -0.37839901512320262 -0.15996290040625341 0 -0.39387780121335469 -0.16444862508152899 0 -0.3804539816512269 -0.14482329966991631 0 -0.41110577652129249 -0.1670682470007229 0 -0.39387780121335469 -0.16444862508152899 0 -0.40669002996807779 -0.1495058137550834 0 -0.41110577652129249 -0.1670682470007229 0 -0.40730162077548249 -0.18407395049314179 0 -0.39387780121335469 -0.16444862508152899 0 -0.39387780121335469 -0.16444862508152899 0 -0.3804539816512269 -0.14482329966991631 0 -0.40669002996807779 -0.1495058137550834 0 -0.3804539816512269 -0.14482329966991631 0 -0.39647179587780151 -0.13189450107720049 0 -0.40669002996807779 -0.1495058137550834 0 -0.3804539816512269 -0.14482329966991631 0 -0.40669002996807779 -0.1495058137550834 0 -0.39387780121335469 -0.16444862508152899 0 -0.3804539816512269 -0.14482329966991631 0 -0.3804539816512269 -0.14482329966991631 0 -0.38278168804071749 -0.12940228238898679 0 -0.39647179587780151 -0.13189450107720049 0 -0.3804539816512269 -0.14482329966991631 0 -0.39647179587780151 -0.13189450107720049 0 -0.37212838853434238 -0.11808059788504249 0 -0.37028068739271691 -0.13083580994494901 0 -0.38278168804071749 -0.12940228238898679 0 -0.37028068739271691 -0.13083580994494901 0 -0.3804539816512269 -0.14482329966991631 0 -0.38278168804071749 -0.12940228238898679 0 -0.38278168804071749 -0.12940228238898679 0 -0.39647179587780151 -0.13189450107720049 0 -0.39044023874876249 -0.11757149150947201 0 -0.39647179587780151 -0.13189450107720049 0 -0.40828286160401828 -0.1310364195873514 0 -0.40669002996807779 -0.1495058137550834 0 -0.39647179587780151 -0.13189450107720049 0 -0.40828286160401828 -0.1310364195873514 0 -0.41122993917504558 -0.1199812866788818 0 -0.39647179587780151 -0.13189450107720049 0 -0.41122993917504558 -0.1199812866788818 0 -0.40828286160401828 -0.1310364195873514 0 -0.41930562378398423 -0.12797048681614909 0 -0.41122993917504558 -0.1199812866788818 0 -0.41930562378398423 -0.12797048681614909 0 -0.41533589961201212 -0.13938201891822019 0 -0.4273858072007774 -0.14414008567558009 0 -0.40828286160401828 -0.1310364195873514 0 -0.41533589961201212 -0.13938201891822019 0 -0.40669002996807779 -0.1495058137550834 0 -0.40828286160401828 -0.1310364195873514 0 -0.41930562378398423 -0.12797048681614909 0 -0.41533589961201212 -0.13938201891822019 0 -0.40669002996807779 -0.1495058137550834 0 -0.43166640735559808 -0.1552039120346444 0 -0.4214232379976206 -0.16216052115063159 0 -0.40669002996807779 -0.1495058137550834 0 -0.43166640735559808 -0.1552039120346444 0 -0.41533589961201212 -0.13938201891822019 0 -0.40669002996807779 -0.1495058137550834 0 -0.4273858072007774 -0.14414008567558009 0 -0.40669002996807779 -0.1495058137550834 0 -0.4273858072007774 -0.14414008567558009 0 -0.43166640735559808 -0.1552039120346444 0 -0.43166640735559808 -0.1552039120346444 0 -0.43525592456887258 -0.14374997194848471 0 -0.44410307239699631 -0.15282998285397989 0 -0.4273858072007774 -0.14414008567558009 0 -0.43166640735559808 -0.1552039120346444 0 -0.43525592456887258 -0.14374997194848471 0 -0.41930562378398423 -0.12797048681614909 0 -0.43525592456887258 -0.14374997194848471 0 -0.41930562378398423 -0.12797048681614909 0 -0.4273858072007774 -0.14414008567558009 0 -0.43525592456887258 -0.14374997194848471 0 -0.41930562378398423 -0.12797048681614909 0 -0.4273858072007774 -0.14414008567558009 0 -0.41930562378398423 -0.12797048681614909 0 -0.43525592456887258 -0.14374997194848471 0 -0.43389101300267191 -0.13422730327376839 0 -0.41930562378398423 -0.12797048681614909 0 -0.43389101300267191 -0.13422730327376839 0 -0.4149348530849476 -0.1169905694289516 0 -0.43389101300267191 -0.13422730327376839 0 -0.4149348530849476 -0.1169905694289516 0 -0.43389101300267191 -0.13422730327376839 0 -0.43160182387889101 -0.1187955019330571 0 -0.44085253015216358 -0.1237950587173612 0 -0.43389101300267191 -0.13422730327376839 0 -0.44872577578551592 -0.13320174295465559 0 -0.452847172920396 -0.1514640371185853 0 -0.44872577578551592 -0.13320174295465559 0 -0.45896755277767909 -0.12575633132281341 0 -0.45000974795797011 -0.119430952696417 0 -0.44872577578551592 -0.13320174295465559 0 -0.45000974795797011 -0.119430952696417 0 -0.44085253015216358 -0.1237950587173612 0 -0.43389101300267191 -0.13422730327376839 0 -0.44872577578551592 -0.13320174295465559 0 -0.44085253015216358 -0.1237950587173612 0 -0.43525592456887258 -0.14374997194848471 0 -0.43389101300267191 -0.13422730327376839 0 -0.452847172920396 -0.1514640371185853 0 -0.43525592456887258 -0.14374997194848471 0 -0.44410307239699631 -0.15282998285397989 0 -0.452847172920396 -0.1514640371185853 0 -0.44872577578551592 -0.13320174295465559 0 -0.452847172920396 -0.1514640371185853 0 -0.456386085566235 -0.14096643446963419 0 -0.43389101300267191 -0.13422730327376839 0 -0.452847172920396 -0.1514640371185853 0 -0.44410307239699631 -0.15282998285397989 0 -0.452847172920396 -0.1514640371185853 0 -0.45664278474311831 -0.16090201031420531 0 -0.452847172920396 -0.1514640371185853 0 -0.456386085566235 -0.14096643446963419 0 -0.46738274896045578 -0.15003021006820461 0 -0.452847172920396 -0.1514640371185853 0 -0.46738274896045578 -0.15003021006820461 0 -0.45664278474311831 -0.16090201031420531 0 -0.456386085566235 -0.14096643446963419 0 -0.46738274896045578 -0.15003021006820461 0 -0.47200539146090159 -0.13839174763128981 0 -0.456386085566235 -0.14096643446963419 0 -0.47200539146090159 -0.13839174763128981 0 -0.47750202174635031 -0.1215216316744509 0 -0.456386085566235 -0.14096643446963419 0 -0.45896755277767909 -0.12575633132281341 0 -0.47750202174635031 -0.1215216316744509 0 -0.456386085566235 -0.14096643446963419 0 -0.47750202174635031 -0.1215216316744509 0 -0.44872577578551592 -0.13320174295465559 0 -0.456386085566235 -0.14096643446963419 0 -0.45896755277767909 -0.12575633132281341 0 -0.47200539146090159 -0.13839174763128981 0 -0.48675070957056549 -0.14104871431286931 0 -0.47750202174635031 -0.1215216316744509 0 -0.50000000000000011 -0.12648838757554831 0 -0.48675070957056549 -0.14104871431286931 0 -0.5 -0.15043640832747529 0 -0.50000000000000011 -0.12648838757554831 0 -0.48675070957056549 -0.14104871431286931 0 -0.47750202174635031 -0.1215216316744509 0 -0.48675070957056549 -0.14104871431286931 0 -0.5 -0.15043640832747529 0 -0.48062174440056549 -0.15969986187448909 0 -0.46738274896045578 -0.15003021006820461 0 -0.47200539146090159 -0.13839174763128981 0 -0.48675070957056549 -0.14104871431286931 0 -0.48675070957056549 -0.14104871431286931 0 -0.48062174440056549 -0.15969986187448909 0 -0.46738274896045578 -0.15003021006820461 0 -0.48675070957056549 -0.14104871431286931 0 -0.48062174440056549 -0.15969986187448909 0 -0.48062174440056549 -0.15969986187448909 0 -0.46548313673471758 -0.16971310035941381 0 -0.46753260370971428 -0.1600862956540782 0 -0.46738274896045578 -0.15003021006820461 0 -0.48062174440056549 -0.15969986187448909 0 -0.46753260370971428 -0.1600862956540782 0 -0.48062174440056549 -0.15969986187448909 0 -0.47449277923056221 -0.17835100943610771 0 -0.46548313673471758 -0.16971310035941381 0 -0.48062174440056549 -0.15969986187448909 0 -0.47449277923056221 -0.17835100943610771 0 -0.5 -0.15043640832747529 0 -0.48062174440056549 -0.15969986187448909 0 -0.49999999999999828 -0.17438442907940241 0 -0.48062174440056549 -0.15969986187448909 0 -0.49999999999999828 -0.17438442907940241 0 -0.47449277923056221 -0.17835100943610771 0 -0.49999999999999828 -0.17438442907940241 0 -0.47449277923056221 -0.17835100943610771 0 -0.49999999999999828 -0.17438442907940241 0 -0.47449277923056221 -0.17835100943610771 0 -0.48549376880548989 -0.19132810400505559 0 -0.47449277923056221 -0.17835100943610771 0 -0.46892716456320649 -0.19528781647494389 0 -0.47449277923056221 -0.17835100943610771 0 -0.45952205817714309 -0.18067907836188021 0 -0.46892716456320649 -0.19528781647494389 0 -0.45952205817714309 -0.18067907836188021 0 -0.46548313673471758 -0.16971310035941381 0 -0.45289664290439807 -0.17180374819378549 0 -0.47449277923056221 -0.17835100943610771 0 -0.45952205817714309 -0.18067907836188021 0 -0.47449277923056221 -0.17835100943610771 0 -0.45952205817714309 -0.18067907836188021 0 -0.46548313673471758 -0.16971310035941381 0 -0.46548313673471758 -0.16971310035941381 0 -0.46753260370971428 -0.1600862956540782 0 -0.45664278474311831 -0.16090201031420531 0 -0.46738274896045578 -0.15003021006820461 0 -0.46753260370971428 -0.1600862956540782 0 -0.45664278474311831 -0.16090201031420531 0 -0.46548313673471758 -0.16971310035941381 0 -0.45664278474311831 -0.16090201031420531 0 -0.45289664290439807 -0.17180374819378549 0 -0.45664278474311831 -0.16090201031420531 0 -0.45289664290439807 -0.17180374819378549 0 -0.44219215159727421 -0.16781727210851849 0 -0.43166640735559808 -0.1552039120346444 0 -0.45664278474311831 -0.16090201031420531 0 -0.44219215159727421 -0.16781727210851849 0 -0.43166640735559808 -0.1552039120346444 0 -0.45664278474311831 -0.16090201031420531 0 -0.43166640735559808 -0.1552039120346444 0 -0.44410307239699631 -0.15282998285397989 0 -0.45664278474311831 -0.16090201031420531 0 -0.43495901877196291 -0.17485617288990979 0 -0.44219215159727421 -0.16781727210851849 0 -0.44455133712372419 -0.18300714728765441 0 -0.43099962817645188 -0.18319011649723049 0 -0.44455133712372419 -0.18300714728765441 0 -0.43833565968517207 -0.19112957676178299 0 -0.45952205817714309 -0.18067907836188021 0 -0.44455133712372419 -0.18300714728765441 0 -0.45396471697207569 -0.194241302212698 0 -0.45952205817714309 -0.18067907836188021 0 -0.44455133712372419 -0.18300714728765441 0 -0.45952205817714309 -0.18067907836188021 0 -0.45289664290439807 -0.17180374819378549 0 -0.44455133712372419 -0.18300714728765441 0 -0.45289664290439807 -0.17180374819378549 0 -0.44219215159727421 -0.16781727210851849 0 -0.44455133712372419 -0.18300714728765441 0 -0.44455133712372419 -0.18300714728765441 0 -0.43833565968517207 -0.19112957676178299 0 -0.45396471697207569 -0.194241302212698 0 -0.43833565968517207 -0.19112957676178299 0 -0.44184138868315109 -0.20247798044170351 0 -0.45396471697207569 -0.194241302212698 0 -0.44184138868315109 -0.20247798044170351 0 -0.46336154989584488 -0.2122246235137781 0 -0.45396471697207569 -0.194241302212698 0 -0.44184138868315109 -0.20247798044170351 0 -0.46336154989584488 -0.2122246235137781 0 -0.45338394269579491 -0.2190794284651259 0 -0.43378961613155448 -0.20908682079381441 0 -0.44184138868315109 -0.20247798044170351 0 -0.44166379455333399 -0.21604972156869759 0 -0.44184138868315109 -0.20247798044170351 0 -0.44166379455333399 -0.21604972156869759 0 -0.45338394269579491 -0.2190794284651259 0 -0.44184138868315109 -0.20247798044170351 0 -0.46336154989584488 -0.2122246235137781 0 -0.46336154989584488 -0.2122246235137781 0 -0.46892716456320649 -0.19528781647494389 0 -0.46336154989584488 -0.2122246235137781 0 -0.45396471697207569 -0.194241302212698 0 -0.46892716456320649 -0.19528781647494389 0 -0.45952205817714309 -0.18067907836188021 0 -0.45396471697207569 -0.194241302212698 0 -0.46892716456320649 -0.19528781647494389 0 -0.47449277923056221 -0.17835100943610771 0 -0.46892716456320649 -0.19528781647494389 0 -0.48549376880548989 -0.19132810400505559 0 -0.46892716456320649 -0.19528781647494389 0 -0.48549376880548989 -0.19132810400505559 0 -0.47978640147694102 -0.20418872613165631 0 -0.5 -0.20182215567114031 0 -0.48549376880548989 -0.19132810400505559 0 -0.47978640147694102 -0.20418872613165631 0 -0.49999999999999828 -0.17438442907940241 0 -0.5 -0.20182215567114031 0 -0.48549376880548989 -0.19132810400505559 0 -0.5 -0.20182215567114031 0 -0.48114952412016337 -0.22028093099336349 0 -0.49893749834448198 -0.22833723847294871 0 -0.5 -0.20182215567114031 0 -0.47978640147694102 -0.20418872613165631 0 -0.48114952412016337 -0.22028093099336349 0 -0.46336154989584488 -0.2122246235137781 0 -0.48114952412016337 -0.22028093099336349 0 -0.46336154989584488 -0.2122246235137781 0 -0.47978640147694102 -0.20418872613165631 0 -0.48114952412016337 -0.22028093099336349 0 -0.46336154989584488 -0.2122246235137781 0 -0.46892716456320649 -0.19528781647494389 0 -0.47978640147694102 -0.20418872613165631 0 -0.46336154989584488 -0.2122246235137781 0 -0.48114952412016337 -0.22028093099336349 0 -0.46857810181099829 -0.22486784275082261 0 -0.48114952412016337 -0.22028093099336349 0 -0.48798868478634799 -0.231470988200419 0 -0.47142395938804471 -0.23802335247430181 0 -0.48114952412016337 -0.22028093099336349 0 -0.47142395938804471 -0.23802335247430181 0 -0.46857810181099829 -0.22486784275082261 0 -0.48114952412016337 -0.22028093099336349 0 -0.48798868478634799 -0.231470988200419 0 -0.49893749834448198 -0.22833723847294871 0 -0.48114952412016337 -0.22028093099336349 0 -0.49893749834448198 -0.22833723847294871 0 -0.48798868478634799 -0.231470988200419 0 -0.49893749834448198 -0.22833723847294871 0 -0.4875835208682564 -0.24248539692068891 0 -0.5 -0.25669760885461612 0 -0.49893749834448198 -0.22833723847294871 0 -0.4875835208682564 -0.24248539692068891 0 -0.48798868478634799 -0.231470988200419 0 -0.4875835208682564 -0.24248539692068891 0 -0.47142395938804471 -0.23802335247430181 0 -0.47878778985378329 -0.25835102983948688 0 -0.4875835208682564 -0.24248539692068891 0 -0.47142395938804471 -0.23802335247430181 0 -0.45662330498375908 -0.25656877445722759 0 -0.47142395938804471 -0.23802335247430181 0 -0.45034617445999431 -0.24335722649563979 0 -0.47142395938804471 -0.23802335247430181 0 -0.45735065046854989 -0.23051648340969341 0 -0.45034617445999431 -0.24335722649563979 0 -0.46336154989584488 -0.2122246235137781 0 -0.46857810181099829 -0.22486784275082261 0 -0.45735065046854989 -0.23051648340969341 0 -0.46336154989584488 -0.2122246235137781 0 -0.45735065046854989 -0.23051648340969341 0 -0.47142395938804471 -0.23802335247430181 0 -0.46857810181099829 -0.22486784275082261 0 -0.45735065046854989 -0.23051648340969341 0 -0.46336154989584488 -0.2122246235137781 0 -0.45338394269579491 -0.2190794284651259 0 -0.45735065046854989 -0.23051648340969341 0 -0.45338394269579491 -0.2190794284651259 0 -0.45735065046854989 -0.23051648340969341 0 -0.43806130733353449 -0.23541812032183559 0 -0.44166379455333399 -0.21604972156869759 0 -0.43806130733353449 -0.23541812032183559 0 -0.44166379455333399 -0.21604972156869759 0 -0.45338394269579491 -0.2190794284651259 0 -0.43806130733353449 -0.23541812032183559 0 -0.45735065046854989 -0.23051648340969341 0 -0.45034617445999431 -0.24335722649563979 0 -0.43806130733353449 -0.23541812032183559 0 -0.43445882011373449 -0.25478651907497341 0 -0.45034617445999431 -0.24335722649563979 0 -0.43806130733353449 -0.23541812032183559 0 -0.41324955929443102 -0.038374170610562031 0 -0.41005136228565903 -0.05540387285823338 0 -0.42435348212729052 -0.04457483879584373 0 -0.41324955929443102 -0.038374170610562031 0 -0.41005136228565903 -0.05540387285823338 0 -0.39900851660089293 -0.046429079601448257 0 -0.41324955929443102 -0.038374170610562031 0 -0.40747857107326091 -0.02424585309778798 0 -0.40045416304880688 -0.034240371911693122 0 -0.41005136228565903 -0.05540387285823338 0 -0.4246600563061857 -0.059067830999859447 0 -0.41422906440869389 -0.068128229862373102 0 -0.41005136228565903 -0.05540387285823338 0 -0.4246600563061857 -0.059067830999859447 0 -0.42435348212729052 -0.04457483879584373 0 -0.4246600563061857 -0.059067830999859447 0 -0.42435348212729052 -0.04457483879584373 0 -0.43957367317472601 -0.045089571971719818 0 -0.4246600563061857 -0.059067830999859447 0 -0.43957367317472601 -0.045089571971719818 0 -0.44544580640037118 -0.056213229689383748 0 -0.41324955929443102 -0.038374170610562031 0 -0.42435348212729052 -0.04457483879584373 0 -0.42981912379901888 -0.030443092666165631 0 -0.42435348212729052 -0.04457483879584373 0 -0.42981912379901888 -0.030443092666165631 0 -0.43957367317472601 -0.045089571971719818 0 -0.41302196833726168 -0.01226972299954816 0 -0.4392085005598273 -0.024676348383282701 0 -0.42659341977192161 -0.010103830507352861 0 -0.41302196833726168 -0.01226972299954816 0 -0.4392085005598273 -0.024676348383282701 0 -0.42981912379901888 -0.030443092666165631 0 -0.41673372021425997 -0.022240754673565791 0 -0.4392085005598273 -0.024676348383282701 0 -0.41302196833726168 -0.01226972299954816 0 -0.41673372021425997 -0.022240754673565791 0 -0.4392085005598273 -0.024676348383282701 0 -0.43741768347029059 -0.01288367903972009 0 -0.42659341977192161 -0.010103830507352861 0 -0.4392085005598273 -0.024676348383282701 0 -0.4441818909265971 -0.00998157505946092 0 -0.42578104856505677 0.0031949168855625672 0 -0.43741768347029059 -0.01288367903972009 0 -0.4441818909265971 -0.00998157505946092 0 -0.42578104856505677 0.0031949168855625672 0 -0.43741768347029059 -0.01288367903972009 0 -0.42659341977192161 -0.010103830507352861 0 -0.42578104856505677 0.0031949168855625672 0 -0.43741768347029059 -0.01288367903972009 0 -0.42578104856505677 0.0031949168855625672 0 -0.42659341977192161 -0.010103830507352861 0 -0.41753789792717189 -0.0038843189997757009 0 -0.42578104856505677 0.0031949168855625672 0 -0.42659341977192161 -0.010103830507352861 0 -0.41753789792717189 -0.0038843189997757009 0 -0.41302196833726168 -0.01226972299954816 0 -0.41753789792717189 -0.0038843189997757009 0 -0.41302196833726168 -0.01226972299954816 0 -0.40771050441737638 -0.0035262849216432719 0 -0.41753789792717189 -0.0038843189997757009 0 -0.40771050441737638 -0.0035262849216432719 0 -0.41105156913745711 0.0034129409419674369 0 -0.42981912379901888 -0.030443092666165631 0 -0.40747857107326091 -0.02424585309778798 0 -0.41324955929443102 -0.038374170610562031 0 -0.42981912379901888 -0.030443092666165631 0 -0.40747857107326091 -0.02424585309778798 0 -0.42981912379901888 -0.030443092666165631 0 -0.41673372021425997 -0.022240754673565791 0 -0.40747857107326091 -0.02424585309778798 0 -0.41302196833726168 -0.01226972299954816 0 -0.41673372021425997 -0.022240754673565791 0 -0.40747857107326091 -0.02424585309778798 0 -0.41673372021425997 -0.022240754673565791 0 -0.40747857107326091 -0.02424585309778798 0 -0.40747857107326091 -0.02424585309778798 0 -0.38992317137517202 -0.02804917422583518 0 -0.40747857107326091 -0.02424585309778798 0 -0.38992317137517202 -0.02804917422583518 0 -0.38297625517291389 -0.017448943304264108 0 -0.40747857107326091 -0.02424585309778798 0 -0.38992317137517202 -0.02804917422583518 0 -0.40045416304880688 -0.034240371911693122 0 -0.40747857107326091 -0.02424585309778798 0 -0.39567459441968961 -0.012635194689989219 0 -0.38297625517291389 -0.017448943304264108 0 -0.40747857107326091 -0.02424585309778798 0 -0.38297625517291389 -0.017448943304264108 0 -0.41302196833726168 -0.01226972299954816 0 -0.40747857107326091 -0.02424585309778798 0 -0.39567459441968961 -0.012635194689989219 0 -0.41302196833726168 -0.01226972299954816 0 -0.40771050441737638 -0.0035262849216432719 0 -0.38683543611469601 0.0001369023841863784 0 -0.41302196833726168 -0.01226972299954816 0 -0.39567459441968961 -0.012635194689989219 0 -0.38683543611469601 0.0001369023841863784 0 -0.41302196833726168 -0.01226972299954816 0 -0.38683543611469601 0.0001369023841863784 0 -0.40771050441737638 -0.0035262849216432719 0 -0.38683543611469601 0.0001369023841863784 0 -0.40226596945639398 0.0014711925349297271 0 -0.39567459441968961 -0.012635194689989219 0 -0.38502252263107412 -0.0084426060797158468 0 -0.38683543611469601 0.0001369023841863784 0 -0.39567459441968961 -0.012635194689989219 0 -0.38502252263107412 -0.0084426060797158468 0 -0.38297625517291389 -0.017448943304264108 0 -0.38502252263107412 -0.0084426060797158468 0 -0.38009964520605882 -0.0090403485437739461 0 -0.38297625517291389 -0.017448943304264108 0 -0.37278444596104371 -0.0079457960458173115 0 -0.38009964520605882 -0.0090403485437739461 0 -0.38297625517291389 -0.017448943304264108 0 -0.37474494217865062 -0.0022388935110706832 0 -0.38502252263107412 -0.0084426060797158468 0 -0.38683543611469601 0.0001369023841863784 0 -0.37474494217865062 -0.0022388935110706832 0 -0.38502252263107412 -0.0084426060797158468 0 -0.38009964520605882 -0.0090403485437739461 0 -0.37474494217865062 -0.0022388935110706832 0 -0.37278444596104371 -0.0079457960458173115 0 -0.38009964520605882 -0.0090403485437739461 0 -0.37236777167708351 -0.031852495353884333 0 -0.38992317137517202 -0.02804917422583518 0 -0.37990921189048049 -0.023302515363219579 0 -0.37236777167708351 -0.031852495353884333 0 -0.38992317137517202 -0.02804917422583518 0 -0.38992317137517202 -0.02804917422583518 0 -0.38297625517291389 -0.017448943304264108 0 -0.37990921189048049 -0.023302515363219579 0 -0.3739022591900184 -0.02415390189740213 0 -0.38297625517291389 -0.017448943304264108 0 -0.37990921189048049 -0.023302515363219579 0 -0.37236777167708351 -0.031852495353884333 0 -0.3739022591900184 -0.02415390189740213 0 -0.37990921189048049 -0.023302515363219579 0 -0.37236777167708351 -0.031852495353884333 0 -0.37990921189048049 -0.023302515363219579 0 -0.38458287424021398 -0.039388642062709187 0 -0.39900851660089293 -0.046429079601448257 0 -0.3815482533063424 -0.052412606119804542 0 -0.37355784227175309 -0.045246792894939887 0 -0.37236777167708351 -0.031852495353884333 0 -0.38458287424021398 -0.039388642062709187 0 -0.37236777167708351 -0.031852495353884333 0 -0.38992317137517202 -0.02804917422583518 0 -0.38458287424021398 -0.039388642062709187 0 -0.37355784227175309 -0.045246792894939887 0 -0.38458287424021398 -0.039388642062709187 0 -0.3815482533063424 -0.052412606119804542 0 -0.38458287424021398 -0.039388642062709187 0 -0.39900851660089293 -0.046429079601448257 0 -0.40045416304880688 -0.034240371911693122 0 -0.38992317137517202 -0.02804917422583518 0 -0.38458287424021398 -0.039388642062709187 0 -0.40045416304880688 -0.034240371911693122 0 -0.41324955929443102 -0.038374170610562031 0 -0.39900851660089293 -0.046429079601448257 0 -0.40045416304880688 -0.034240371911693122 0 -0.39900851660089293 -0.046429079601448257 0 -0.39626447370361728 -0.06091275685647668 0 -0.3815482533063424 -0.052412606119804542 0 -0.41005136228565903 -0.05540387285823338 0 -0.39626447370361728 -0.06091275685647668 0 -0.40517181862379281 -0.066558370858305557 0 -0.41005136228565903 -0.05540387285823338 0 -0.39900851660089293 -0.046429079601448257 0 -0.39626447370361728 -0.06091275685647668 0 -0.36862349457690058 -0.057461967220355487 0 -0.3815482533063424 -0.052412606119804542 0 -0.37947166312044489 -0.067272628224985004 0 -0.3815482533063424 -0.052412606119804542 0 -0.37947166312044489 -0.067272628224985004 0 -0.39260231949431601 -0.074533368335879327 0 -0.36882665317829499 -0.078032107790563188 0 -0.39260231949431601 -0.074533368335879327 0 -0.39626447370361728 -0.06091275685647668 0 -0.3815482533063424 -0.052412606119804542 0 -0.39260231949431601 -0.074533368335879327 0 -0.3815482533063424 -0.052412606119804542 0 -0.39260231949431601 -0.074533368335879327 0 -0.36882665317829499 -0.078032107790563188 0 -0.37947166312044489 -0.067272628224985004 0 -0.39260231949431601 -0.074533368335879327 0 -0.36882665317829499 -0.078032107790563188 0 -0.39260231949431601 -0.074533368335879327 0 -0.39002829617667018 -0.099006697234722524 0 -0.36882665317829499 -0.078032107790563188 0 -0.39002829617667018 -0.099006697234722524 0 -0.37367929427193591 -0.1014825750548952 0 -0.36882665317829499 -0.078032107790563188 0 -0.39002829617667018 -0.099006697234722524 0 -0.39260231949431601 -0.074533368335879327 0 -0.39002829617667018 -0.099006697234722524 0 -0.39510370691593599 -0.098958215311000047 0 -0.39260231949431601 -0.074533368335879327 0 -0.40274583300482147 -0.094831984843681591 0 -0.39260231949431601 -0.074533368335879327 0 -0.39510370691593599 -0.098958215311000047 0 -0.40274583300482147 -0.094831984843681591 0 -0.40361170428446441 -0.083317353290434007 0 -0.39260231949431601 -0.074533368335879327 0 -0.40274583300482147 -0.094831984843681591 0 -0.40361170428446441 -0.083317353290434007 0 -0.39867569396630093 -0.073639632925658519 0 -0.40696916935602839 -0.074517235882718885 0 -0.39867569396630093 -0.073639632925658519 0 -0.40517181862379281 -0.066558370858305557 0 -0.40696916935602839 -0.074517235882718885 0 -0.39626447370361728 -0.06091275685647668 0 -0.39867569396630093 -0.073639632925658519 0 -0.40517181862379281 -0.066558370858305557 0 -0.39626447370361728 -0.06091275685647668 0 -0.39867569396630093 -0.073639632925658519 0 -0.39260231949431601 -0.074533368335879327 0 -0.40361170428446441 -0.083317353290434007 0 -0.39867569396630093 -0.073639632925658519 0 -0.39260231949431601 -0.074533368335879327 0 -0.39867569396630093 -0.073639632925658519 0 -0.39260231949431601 -0.074533368335879327 0 -0.37212838853434238 -0.11808059788504249 0 -0.38278168804071749 -0.12940228238898679 0 -0.39044023874876249 -0.11757149150947201 0 -0.37367929427193591 -0.1014825750548952 0 -0.37212838853434238 -0.11808059788504249 0 -0.39044023874876249 -0.11757149150947201 0 -0.37367929427193591 -0.1014825750548952 0 -0.39044023874876249 -0.11757149150947201 0 -0.39002829617667018 -0.099006697234722524 0 -0.39510370691593599 -0.098958215311000047 0 -0.40274583300482147 -0.094831984843681591 0 -0.41288934651532883 -0.11513060135148299 0 -0.39002829617667018 -0.099006697234722524 0 -0.39510370691593599 -0.098958215311000047 0 -0.41122993917504558 -0.1199812866788818 0 -0.39510370691593599 -0.098958215311000047 0 -0.41288934651532883 -0.11513060135148299 0 -0.39647179587780151 -0.13189450107720049 0 -0.39044023874876249 -0.11757149150947201 0 -0.41122993917504558 -0.1199812866788818 0 -0.39002829617667018 -0.099006697234722524 0 -0.41122993917504558 -0.1199812866788818 0 -0.39044023874876249 -0.11757149150947201 0 -0.39002829617667018 -0.099006697234722524 0 -0.41122993917504558 -0.1199812866788818 0 -0.39510370691593599 -0.098958215311000047 0 -0.41122993917504558 -0.1199812866788818 0 -0.41288934651532883 -0.11513060135148299 0 -0.41930562378398423 -0.12797048681614909 0 -0.41122993917504558 -0.1199812866788818 0 -0.4149348530849476 -0.1169905694289516 0 -0.41930562378398423 -0.12797048681614909 0 -0.41122993917504558 -0.1199812866788818 0 -0.41930562378398423 -0.12797048681614909 0 -0.4149348530849476 -0.1169905694289516 0 -0.41122993917504558 -0.1199812866788818 0 -0.41288934651532883 -0.11513060135148299 0 -0.4149348530849476 -0.1169905694289516 0 -0.41122993917504558 -0.1199812866788818 0 -0.4149348530849476 -0.1169905694289516 0 -0.41288934651532883 -0.11513060135148299 0 -0.4149348530849476 -0.1169905694289516 0 -0.41288934651532883 -0.11513060135148299 0 -0.4149348530849476 -0.1169905694289516 0 -0.41458672172207622 -0.10427776634057311 0 -0.40274583300482147 -0.094831984843681591 0 -0.41288934651532883 -0.11513060135148299 0 -0.4149348530849476 -0.1169905694289516 0 -0.41458672172207622 -0.10427776634057311 0 -0.43059848591229039 -0.1043464168163742 0 -0.40274583300482147 -0.094831984843681591 0 -0.41288934651532883 -0.11513060135148299 0 -0.41458672172207622 -0.10427776634057311 0 -0.41458672172207622 -0.10427776634057311 0 -0.41348552386521947 -0.090840815536544176 0 -0.43025813067654672 -0.08737754853092726 0 -0.40274583300482147 -0.094831984843681591 0 -0.41458672172207622 -0.10427776634057311 0 -0.41348552386521947 -0.090840815536544176 0 -0.43059848591229039 -0.1043464168163742 0 -0.43025813067654672 -0.08737754853092726 0 -0.44626211873963212 -0.091702264203795431 0 -0.41458672172207622 -0.10427776634057311 0 -0.43059848591229039 -0.1043464168163742 0 -0.43025813067654672 -0.08737754853092726 0 -0.41458672172207622 -0.10427776634057311 0 -0.43025813067654672 -0.08737754853092726 0 -0.4149348530849476 -0.1169905694289516 0 -0.43059848591229039 -0.1043464168163742 0 -0.43160182387889101 -0.1187955019330571 0 -0.4149348530849476 -0.1169905694289516 0 -0.43059848591229039 -0.1043464168163742 0 -0.43389101300267191 -0.13422730327376839 0 -0.4149348530849476 -0.1169905694289516 0 -0.43160182387889101 -0.1187955019330571 0 -0.43059848591229039 -0.1043464168163742 0 -0.43160182387889101 -0.1187955019330571 0 -0.44003429013576911 -0.11331979272890801 0 -0.43160182387889101 -0.1187955019330571 0 -0.44085253015216358 -0.1237950587173612 0 -0.44003429013576911 -0.11331979272890801 0 -0.41422906440869389 -0.068128229862373102 0 -0.41539885585273961 -0.080089681603359497 0 -0.42594434486026628 -0.073522222089585226 0 -0.4246600563061857 -0.059067830999859447 0 -0.41422906440869389 -0.068128229862373102 0 -0.42594434486026628 -0.073522222089585226 0 -0.41005136228565903 -0.05540387285823338 0 -0.40517181862379281 -0.066558370858305557 0 -0.41422906440869389 -0.068128229862373102 0 -0.40517181862379281 -0.066558370858305557 0 -0.41422906440869389 -0.068128229862373102 0 -0.40696916935602839 -0.074517235882718885 0 -0.41422906440869389 -0.068128229862373102 0 -0.40696916935602839 -0.074517235882718885 0 -0.41539885585273961 -0.080089681603359497 0 -0.41348552386521947 -0.090840815536544176 0 -0.41539885585273961 -0.080089681603359497 0 -0.43025813067654672 -0.08737754853092726 0 -0.40361170428446441 -0.083317353290434007 0 -0.41348552386521947 -0.090840815536544176 0 -0.41539885585273961 -0.080089681603359497 0 -0.40361170428446441 -0.083317353290434007 0 -0.40696916935602839 -0.074517235882718885 0 -0.41539885585273961 -0.080089681603359497 0 -0.40361170428446441 -0.083317353290434007 0 -0.40274583300482147 -0.094831984843681591 0 -0.41348552386521947 -0.090840815536544176 0 -0.41539885585273961 -0.080089681603359497 0 -0.43025813067654672 -0.08737754853092726 0 -0.42594434486026628 -0.073522222089585226 0 -0.4246600563061857 -0.059067830999859447 0 -0.44592953963101739 -0.07047733072128165 0 -0.43025813067654672 -0.08737754853092726 0 -0.42594434486026628 -0.073522222089585226 0 -0.44592953963101739 -0.07047733072128165 0 -0.4246600563061857 -0.059067830999859447 0 -0.42594434486026628 -0.073522222089585226 0 -0.44592953963101739 -0.07047733072128165 0 -0.44592953963101739 -0.07047733072128165 0 -0.45893666683642192 -0.056450303318209168 0 -0.44592953963101739 -0.07047733072128165 0 -0.44626211873963212 -0.091702264203795431 0 -0.46192575156697407 -0.079058111591217034 0 -0.43025813067654672 -0.08737754853092726 0 -0.44592953963101739 -0.07047733072128165 0 -0.43025813067654672 -0.08737754853092726 0 -0.44592953963101739 -0.07047733072128165 0 -0.44626211873963212 -0.091702264203795431 0 -0.44626211873963212 -0.091702264203795431 0 -0.46631049206888459 -0.091444160656324658 0 -0.46192575156697407 -0.079058111591217034 0 -0.44626211873963212 -0.091702264203795431 0 -0.46192575156697407 -0.079058111591217034 0 -0.46631049206888459 -0.091444160656324658 0 -0.46192575156697407 -0.079058111591217034 0 -0.47702460168979111 -0.087157524427869615 0 -0.44592953963101739 -0.07047733072128165 0 -0.46192575156697407 -0.079058111591217034 0 -0.45893666683642192 -0.056450303318209168 0 -0.46192575156697407 -0.079058111591217034 0 -0.47491389520024407 -0.068573693827893439 0 -0.45893666683642192 -0.056450303318209168 0 -0.46192575156697407 -0.079058111591217034 0 -0.47491389520024407 -0.068573693827893439 0 -0.44592953963101739 -0.07047733072128165 0 -0.46192575156697407 -0.079058111591217034 0 -0.45000974795797011 -0.119430952696417 0 -0.44085253015216358 -0.1237950587173612 0 -0.44003429013576911 -0.11331979272890801 0 -0.45000974795797011 -0.119430952696417 0 -0.44003429013576911 -0.11331979272890801 0 -0.44926481423485548 -0.10476542824413421 0 -0.43059848591229039 -0.1043464168163742 0 -0.44626211873963212 -0.091702264203795431 0 -0.43059848591229039 -0.1043464168163742 0 -0.44626211873963212 -0.091702264203795431 0 -0.44926481423485548 -0.10476542824413421 0 -0.43059848591229039 -0.1043464168163742 0 -0.44003429013576911 -0.11331979272890801 0 -0.44926481423485548 -0.10476542824413421 0 -0.44626211873963212 -0.091702264203795431 0 -0.44926481423485548 -0.10476542824413421 0 -0.46153012095291662 -0.1019472767233552 0 -0.44626211873963212 -0.091702264203795431 0 -0.46631049206888459 -0.091444160656324658 0 -0.46153012095291662 -0.1019472767233552 0 -0.46631049206888459 -0.091444160656324658 0 -0.46153012095291662 -0.1019472767233552 0 -0.4710589232177344 -0.098453604121520433 0 -0.46153012095291662 -0.1019472767233552 0 -0.46221413283232399 -0.11366089481890911 0 -0.47430793409480421 -0.10627177682285049 0 -0.44926481423485548 -0.10476542824413421 0 -0.46153012095291662 -0.1019472767233552 0 -0.46221413283232399 -0.11366089481890911 0 -0.45896755277767909 -0.12575633132281341 0 -0.46221413283232399 -0.11366089481890911 0 -0.47750202174635031 -0.1215216316744509 0 -0.45000974795797011 -0.119430952696417 0 -0.44926481423485548 -0.10476542824413421 0 -0.46221413283232399 -0.11366089481890911 0 -0.45896755277767909 -0.12575633132281341 0 -0.45000974795797011 -0.119430952696417 0 -0.46221413283232399 -0.11366089481890911 0 -0.47750202174635031 -0.1215216316744509 0 -0.47430793409480421 -0.10627177682285049 0 -0.48673501487359588 -0.1010237797652184 0 -0.46221413283232399 -0.11366089481890911 0 -0.47750202174635031 -0.1215216316744509 0 -0.47430793409480421 -0.10627177682285049 0 -0.47430793409480421 -0.10627177682285049 0 -0.47745372589702628 -0.099742000537211661 0 -0.48673501487359588 -0.1010237797652184 0 -0.46153012095291662 -0.1019472767233552 0 -0.47430793409480421 -0.10627177682285049 0 -0.4710589232177344 -0.098453604121520433 0 -0.46631049206888459 -0.091444160656324658 0 -0.4710589232177344 -0.098453604121520433 0 -0.47771303140197108 -0.093218841439257433 0 -0.47430793409480421 -0.10627177682285049 0 -0.4710589232177344 -0.098453604121520433 0 -0.47745372589702628 -0.099742000537211661 0 -0.4710589232177344 -0.098453604121520433 0 -0.47745372589702628 -0.099742000537211661 0 -0.47771303140197108 -0.093218841439257433 0 -0.47745372589702628 -0.099742000537211661 0 -0.48673501487359588 -0.1010237797652184 0 -0.47771303140197108 -0.093218841439257433 0 -0.48673501487359588 -0.1010237797652184 0 -0.47771303140197108 -0.093218841439257433 0 -0.47702460168979111 -0.087157524427869615 0 -0.47750202174635031 -0.1215216316744509 0 -0.48673501487359588 -0.1010237797652184 0 -0.4986179579264654 -0.1020768288792674 0 -0.48673501487359588 -0.1010237797652184 0 -0.49842317329231273 -0.098636270432611556 0 -0.47702460168979111 -0.087157524427869615 0 -0.48673501487359588 -0.1010237797652184 0 -0.49842317329231273 -0.098636270432611556 0 -0.4986179579264654 -0.1020768288792674 0 -0.49999999999999939 -0.099482120969144883 0 -0.49842317329231273 -0.098636270432611556 0 -0.4986179579264654 -0.1020768288792674 0 -0.49842317329231273 -0.098636270432611556 0 -0.4986179579264654 -0.1020768288792674 0 -0.49999999999999939 -0.099482120969144883 0 -0.49842317329231273 -0.098636270432611556 0 -0.50000000000000011 -0.12648838757554831 0 -0.47750202174635031 -0.1215216316744509 0 -0.4986179579264654 -0.1020768288792674 0 -0.47750202174635031 -0.1215216316744509 0 -0.4986179579264654 -0.1020768288792674 0 -0.47491389520024407 -0.068573693827893439 0 -0.47702460168979111 -0.087157524427869615 0 -0.4847984782487687 -0.075944598732494498 0 -0.47491389520024407 -0.068573693827893439 0 -0.47702460168979111 -0.087157524427869615 0 -0.47967839073812912 -0.064727650616396362 0 -0.4847984782487687 -0.075944598732494498 0 -0.48794163871831331 -0.064119883023254248 0 -0.47967839073812912 -0.064727650616396362 0 -0.47491389520024407 -0.068573693827893439 0 -0.4847984782487687 -0.075944598732494498 0 -0.47967839073812912 -0.064727650616396362 0 -0.47491389520024407 -0.068573693827893439 0 -0.46192575156697407 -0.079058111591217034 0 -0.47702460168979111 -0.087157524427869615 0 -0.46192575156697407 -0.079058111591217034 0 -0.47491389520024407 -0.068573693827893439 0 -0.47702460168979111 -0.087157524427869615 0 -0.46631049206888459 -0.091444160656324658 0 -0.47771303140197108 -0.093218841439257433 0 -0.47702460168979111 -0.087157524427869615 0 -0.47771303140197108 -0.093218841439257433 0 -0.47702460168979111 -0.087157524427869615 0 -0.49842317329231273 -0.098636270432611556 0 -0.49712708577170861 -0.075742961183477536 0 -0.4847984782487687 -0.075944598732494498 0 -0.49999999999999939 -0.099482120969144883 0 -0.49842317329231273 -0.098636270432611556 0 -0.5 -0.078030389970551228 0 -0.49842317329231273 -0.098636270432611556 0 -0.49712708577170861 -0.075742961183477536 0 -0.49842317329231273 -0.098636270432611556 0 -0.5 -0.078030389970551228 0 -0.49712708577170861 -0.075742961183477536 0 -0.49842317329231273 -0.098636270432611556 0 -0.47702460168979111 -0.087157524427869615 0 -0.4847984782487687 -0.075944598732494498 0 -0.49842317329231273 -0.098636270432611556 0 -0.47702460168979111 -0.087157524427869615 0 -0.5 -0.078030389970551228 0 -0.49712708577170861 -0.075742961183477536 0 -0.49999999999999928 -0.056578658971957581 0 -0.49712708577170861 -0.075742961183477536 0 -0.49583099825110311 -0.052849651934343489 0 -0.49712708577170861 -0.075742961183477536 0 -0.48794163871831331 -0.064119883023254248 0 -0.49583099825110311 -0.052849651934343489 0 -0.49712708577170861 -0.075742961183477536 0 -0.4847984782487687 -0.075944598732494498 0 -0.48794163871831331 -0.064119883023254248 0 -0.49712708577170861 -0.075742961183477536 0 -0.49999999999999928 -0.056578658971957581 0 -0.49583099825110311 -0.052849651934343489 0 -0.49583099825110311 -0.052849651934343489 0 -0.47748890114140963 -0.036443372127734748 0 -0.48227324058185622 -0.051334552649559453 0 -0.49999999999999928 -0.056578658971957581 0 -0.49583099825110311 -0.052849651934343489 0 -0.49999999999999928 -0.056578658971957581 0 -0.50000000000000144 -0.053559852644015388 0 -0.49583099825110311 -0.052849651934343489 0 -0.48794163871831331 -0.064119883023254248 0 -0.49583099825110311 -0.052849651934343489 0 -0.48227324058185622 -0.051334552649559453 0 -0.50000000000000144 -0.053559852644015388 0 -0.49583099825110311 -0.052849651934343489 0 -0.48598145264485831 -0.02728491224803695 0 -0.49583099825110311 -0.052849651934343489 0 -0.47748890114140963 -0.036443372127734748 0 -0.48598145264485831 -0.02728491224803695 0 -0.50000000000000144 -0.053559852644015388 0 -0.48598145264485831 -0.02728491224803695 0 -0.50000000000000144 -0.053559852644015388 0 -0.48598145264485831 -0.02728491224803695 0 -0.5 -0.025161366008633609 0 -0.49583099825110311 -0.052849651934343489 0 -0.47748890114140963 -0.036443372127734748 0 -0.47748890114140963 -0.036443372127734748 0 -0.48598145264485831 -0.02728491224803695 0 -0.47748890114140963 -0.036443372127734748 0 -0.47194379404182718 -0.042423275915137587 0 -0.48227324058185622 -0.051334552649559453 0 -0.47748890114140963 -0.036443372127734748 0 -0.47194379404182718 -0.042423275915137587 0 -0.47748890114140963 -0.036443372127734748 0 -0.47194379404182718 -0.042423275915137587 0 -0.47056077858213702 -0.03024644074295027 0 -0.47194379404182718 -0.042423275915137587 0 -0.46539503278239303 -0.037082973767017267 0 -0.47056077858213702 -0.03024644074295027 0 -0.47194379404182718 -0.042423275915137587 0 -0.47056077858213702 -0.03024644074295027 0 -0.47748890114140963 -0.036443372127734748 0 -0.47056077858213702 -0.03024644074295027 0 -0.47748890114140963 -0.036443372127734748 0 -0.47056077858213702 -0.03024644074295027 0 -0.47745882259212458 -0.028728106929589409 0 -0.47967839073812912 -0.064727650616396362 0 -0.47491389520024407 -0.068573693827893439 0 -0.47194379404182718 -0.042423275915137587 0 -0.47967839073812912 -0.064727650616396362 0 -0.47194379404182718 -0.042423275915137587 0 -0.48227324058185622 -0.051334552649559453 0 -0.47491389520024407 -0.068573693827893439 0 -0.47194379404182718 -0.042423275915137587 0 -0.47967839073812912 -0.064727650616396362 0 -0.48794163871831331 -0.064119883023254248 0 -0.48227324058185622 -0.051334552649559453 0 -0.47491389520024407 -0.068573693827893439 0 -0.47194379404182718 -0.042423275915137587 0 -0.45893666683642192 -0.056450303318209168 0 -0.45893666683642192 -0.056450303318209168 0 -0.45743491846808387 -0.04563500224908737 0 -0.44544580640037118 -0.056213229689383748 0 -0.47194379404182718 -0.042423275915137587 0 -0.45893666683642192 -0.056450303318209168 0 -0.45743491846808387 -0.04563500224908737 0 -0.47194379404182718 -0.042423275915137587 0 -0.45893666683642192 -0.056450303318209168 0 -0.46539503278239303 -0.037082973767017267 0 -0.44890774518284438 -0.02927164544362729 0 -0.46539503278239303 -0.037082973767017267 0 -0.45215967652477718 -0.036640332234541717 0 -0.44890774518284438 -0.02927164544362729 0 -0.46539503278239303 -0.037082973767017267 0 -0.44890774518284438 -0.02927164544362729 0 -0.46189821575704781 -0.02986243911986371 0 -0.47194379404182718 -0.042423275915137587 0 -0.46539503278239303 -0.037082973767017267 0 -0.45743491846808387 -0.04563500224908737 0 -0.46539503278239303 -0.037082973767017267 0 -0.46189821575704781 -0.02986243911986371 0 -0.47056077858213702 -0.03024644074295027 0 -0.46539503278239303 -0.037082973767017267 0 -0.45743491846808387 -0.04563500224908737 0 -0.45215967652477718 -0.036640332234541717 0 -0.42981912379901888 -0.030443092666165631 0 -0.45215967652477718 -0.036640332234541717 0 -0.45743491846808387 -0.04563500224908737 0 -0.45215967652477718 -0.036640332234541717 0 -0.43957367317472601 -0.045089571971719818 0 -0.42981912379901888 -0.030443092666165631 0 -0.45215967652477718 -0.036640332234541717 0 -0.43957367317472601 -0.045089571971719818 0 -0.45743491846808387 -0.04563500224908737 0 -0.43957367317472601 -0.045089571971719818 0 -0.44544580640037118 -0.056213229689383748 0 -0.4246600563061857 -0.059067830999859447 0 -0.44592953963101739 -0.07047733072128165 0 -0.44544580640037118 -0.056213229689383748 0 -0.44592953963101739 -0.07047733072128165 0 -0.45893666683642192 -0.056450303318209168 0 -0.44544580640037118 -0.056213229689383748 0 -0.4441818909265971 -0.00998157505946092 0 -0.45588653083934588 0.00041698580085632909 0 -0.44737850259376799 0.0077656591989471307 0 -0.4441818909265971 -0.00998157505946092 0 -0.4570262928383732 -0.018140378997512391 0 -0.45633913854906122 -0.0094275687658610888 0 -0.4441818909265971 -0.00998157505946092 0 -0.45633913854906122 -0.0094275687658610888 0 -0.45588653083934588 0.00041698580085632909 0 -0.43741768347029059 -0.01288367903972009 0 -0.4441818909265971 -0.00998157505946092 0 -0.44890774518284438 -0.02927164544362729 0 -0.42981912379901888 -0.030443092666165631 0 -0.45215967652477718 -0.036640332234541717 0 -0.4392085005598273 -0.024676348383282701 0 -0.4441818909265971 -0.00998157505946092 0 -0.44890774518284438 -0.02927164544362729 0 -0.46258273328813732 -0.023158067004484729 0 -0.43741768347029059 -0.01288367903972009 0 -0.44890774518284438 -0.02927164544362729 0 -0.43741768347029059 -0.01288367903972009 0 -0.4392085005598273 -0.024676348383282701 0 -0.44890774518284438 -0.02927164544362729 0 -0.4392085005598273 -0.024676348383282701 0 -0.44890774518284438 -0.02927164544362729 0 -0.45215967652477718 -0.036640332234541717 0 -0.4392085005598273 -0.024676348383282701 0 -0.44890774518284438 -0.02927164544362729 0 -0.4441818909265971 -0.00998157505946092 0 -0.46258273328813732 -0.023158067004484729 0 -0.46258273328813732 -0.023158067004484729 0 -0.46826183959192841 -0.01000530680732737 0 -0.47056077858213702 -0.03024644074295027 0 -0.4441818909265971 -0.00998157505946092 0 -0.4570262928383732 -0.018140378997512391 0 -0.46258273328813732 -0.023158067004484729 0 -0.4570262928383732 -0.018140378997512391 0 -0.46258273328813732 -0.023158067004484729 0 -0.44890774518284438 -0.02927164544362729 0 -0.46189821575704781 -0.02986243911986371 0 -0.46258273328813732 -0.023158067004484729 0 -0.46258273328813732 -0.023158067004484729 0 -0.47056077858213702 -0.03024644074295027 0 -0.46189821575704781 -0.02986243911986371 0 -0.46258273328813732 -0.023158067004484729 0 -0.47056077858213702 -0.03024644074295027 0 -0.4570262928383732 -0.018140378997512391 0 -0.46258273328813732 -0.023158067004484729 0 -0.46826183959192841 -0.01000530680732737 0 -0.4570262928383732 -0.018140378997512391 0 -0.46826183959192841 -0.01000530680732737 0 -0.45633913854906122 -0.0094275687658610888 0 -0.46826183959192841 -0.01000530680732737 0 -0.45633913854906122 -0.0094275687658610888 0 -0.45588653083934588 0.00041698580085632909 0 -0.46826183959192841 -0.01000530680732737 0 -0.47597217662329228 -0.0085245425598697612 0 -0.4659629006017233 0.010235827128295859 0 -0.46826183959192841 -0.01000530680732737 0 -0.47597217662329228 -0.0085245425598697612 0 -0.47580415800009379 -0.02093770259963601 0 -0.47597217662329228 -0.0085245425598697612 0 -0.48922725890134677 -0.010453537226696331 0 -0.48082517856277007 0.001845263919603602 0 -0.47597217662329228 -0.0085245425598697612 0 -0.47580415800009379 -0.02093770259963601 0 -0.48598145264485831 -0.02728491224803695 0 -0.47597217662329228 -0.0085245425598697612 0 -0.48598145264485831 -0.02728491224803695 0 -0.46826183959192841 -0.01000530680732737 0 -0.47056077858213702 -0.03024644074295027 0 -0.47580415800009379 -0.02093770259963601 0 -0.47597217662329228 -0.0085245425598697612 0 -0.48598145264485831 -0.02728491224803695 0 -0.4893389393206713 -0.02366416211133009 0 -0.46826183959192841 -0.01000530680732737 0 -0.47056077858213702 -0.03024644074295027 0 -0.47056077858213702 -0.03024644074295027 0 -0.47580415800009379 -0.02093770259963601 0 -0.47745882259212458 -0.028728106929589409 0 -0.47580415800009379 -0.02093770259963601 0 -0.47745882259212458 -0.028728106929589409 0 -0.48598145264485831 -0.02728491224803695 0 -0.47748890114140963 -0.036443372127734748 0 -0.47745882259212458 -0.028728106929589409 0 -0.48598145264485831 -0.02728491224803695 0 -0.48598145264485831 -0.02728491224803695 0 -0.4893389393206713 -0.02366416211133009 0 -0.5 -0.025161366008633609 0 -0.48598145264485831 -0.02728491224803695 0 -0.4893389393206713 -0.02366416211133009 0 -0.4893389393206713 -0.02366416211133009 0 -0.5 -0.025161366008633609 0 -0.48922725890134677 -0.010453537226696331 0 -0.48922725890134677 -0.010453537226696331 0 -0.5 0.0032371206267481911 0 -0.48082517856277007 0.001845263919603602 0 -0.5 -0.025161366008633609 0 -0.48922725890134677 -0.010453537226696331 0 -0.5 0.0032371206267481911 0 -0.47597217662329228 -0.0085245425598697612 0 -0.4893389393206713 -0.02366416211133009 0 -0.48922725890134677 -0.010453537226696331 0 -0.5 0.0032371206267481911 0 -0.48596576445654982 0.01457961489688041 0 -0.48082517856277007 0.001845263919603602 0 -0.48596576445654982 0.01457961489688041 0 -0.47541999506787802 0.025418180444172121 0 -0.5 0.031635607262129987 0 -0.5 0.0032371206267481911 0 -0.48596576445654982 0.01457961489688041 0 -0.5 0.031635607262129987 0 -0.48596576445654982 0.01457961489688041 0 -0.47541999506787802 0.025418180444172121 0 -0.47401658579892991 0.013489912392399149 0 -0.47541999506787802 0.025418180444172121 0 -0.46963945276383978 0.01793989872667965 0 -0.47401658579892991 0.013489912392399149 0 -0.47597217662329228 -0.0085245425598697612 0 -0.48082517856277007 0.001845263919603602 0 -0.4659629006017233 0.010235827128295859 0 -0.47401658579892991 0.013489912392399149 0 -0.48082517856277007 0.001845263919603602 0 -0.4659629006017233 0.010235827128295859 0 -0.46963945276383978 0.01793989872667965 0 -0.47401658579892991 0.013489912392399149 0 -0.4659629006017233 0.010235827128295859 0 -0.47597217662329228 -0.0085245425598697612 0 -0.4659629006017233 0.010235827128295859 0 -0.48596576445654982 0.01457961489688041 0 -0.47401658579892991 0.013489912392399149 0 -0.48082517856277007 0.001845263919603602 0 -0.5 0.060034093897511798 0 -0.47816362815030861 0.043832779932641487 0 -0.48068047186290208 0.063626500276227002 0 -0.47541999506787802 0.025418180444172121 0 -0.5 0.031635607262129987 0 -0.47816362815030861 0.043832779932641487 0 -0.5 0.060034093897511798 0 -0.5 0.031635607262129987 0 -0.47816362815030861 0.043832779932641487 0 -0.47541999506787802 0.025418180444172121 0 -0.47816362815030861 0.043832779932641487 0 -0.46442391639916691 0.036471327701905212 0 -0.47816362815030861 0.043832779932641487 0 -0.46119618507356652 0.049359273152949731 0 -0.48068047186290208 0.063626500276227002 0 -0.46119618507356652 0.049359273152949731 0 -0.46103932749027238 0.064238871702306077 0 -0.48068047186290208 0.063626500276227002 0 -0.46119618507356652 0.049359273152949731 0 -0.44286953411296898 0.045255716157198693 0 -0.46103932749027238 0.064238871702306077 0 -0.47816362815030861 0.043832779932641487 0 -0.46119618507356652 0.049359273152949731 0 -0.46442391639916691 0.036471327701905212 0 -0.46119618507356652 0.049359273152949731 0 -0.46442391639916691 0.036471327701905212 0 -0.45082509298125129 0.038608595210277222 0 -0.46442391639916691 0.036471327701905212 0 -0.45082509298125129 0.038608595210277222 0 -0.4583939967914884 0.024422211169287101 0 -0.45082509298125129 0.038608595210277222 0 -0.4583939967914884 0.024422211169287101 0 -0.46119618507356652 0.049359273152949731 0 -0.45082509298125129 0.038608595210277222 0 -0.44286953411296898 0.045255716157198693 0 -0.45082509298125129 0.038608595210277222 0 -0.4405409619944019 0.035432846457562263 0 -0.4458839614772655 0.023387518650519249 0 -0.45082509298125129 0.038608595210277222 0 -0.4405409619944019 0.035432846457562263 0 -0.44286953411296898 0.045255716157198693 0 -0.4405409619944019 0.035432846457562263 0 -0.44286953411296898 0.045255716157198693 0 -0.43229092530358848 0.04451632412921195 0 -0.44286953411296898 0.045255716157198693 0 -0.44282721760043869 0.062046251170956107 0 -0.46103932749027238 0.064238871702306077 0 -0.44286953411296898 0.045255716157198693 0 -0.44282721760043869 0.062046251170956107 0 -0.43188097302969042 0.056955122555226501 0 -0.44286953411296898 0.045255716157198693 0 -0.46103932749027238 0.064238871702306077 0 -0.46826183959192841 -0.01000530680732737 0 -0.45588653083934588 0.00041698580085632909 0 -0.4659629006017233 0.010235827128295859 0 -0.46826183959192841 -0.01000530680732737 0 -0.4659629006017233 0.010235827128295859 0 -0.45609316173783881 0.014082317838893479 0 -0.45588653083934588 0.00041698580085632909 0 -0.4659629006017233 0.010235827128295859 0 -0.46963945276383978 0.01793989872667965 0 -0.4659629006017233 0.010235827128295859 0 -0.4583939967914884 0.024422211169287101 0 -0.4659629006017233 0.010235827128295859 0 -0.4583939967914884 0.024422211169287101 0 -0.47541999506787802 0.025418180444172121 0 -0.46963945276383978 0.01793989872667965 0 -0.4583939967914884 0.024422211169287101 0 -0.47541999506787802 0.025418180444172121 0 -0.46442391639916691 0.036471327701905212 0 -0.4583939967914884 0.024422211169287101 0 -0.45609316173783881 0.014082317838893479 0 -0.4659629006017233 0.010235827128295859 0 -0.4583939967914884 0.024422211169287101 0 -0.45609316173783881 0.014082317838893479 0 -0.4583939967914884 0.024422211169287101 0 -0.4458839614772655 0.023387518650519249 0 -0.45082509298125129 0.038608595210277222 0 -0.4583939967914884 0.024422211169287101 0 -0.4458839614772655 0.023387518650519249 0 -0.4405409619944019 0.035432846457562263 0 -0.4458839614772655 0.023387518650519249 0 -0.43566193494816191 0.02574822372494872 0 -0.4458839614772655 0.023387518650519249 0 -0.4359559447540089 0.01018896392150693 0 -0.43566193494816191 0.02574822372494872 0 -0.4441818909265971 -0.00998157505946092 0 -0.44737850259376799 0.0077656591989471307 0 -0.4359559447540089 0.01018896392150693 0 -0.4458839614772655 0.023387518650519249 0 -0.44737850259376799 0.0077656591989471307 0 -0.4359559447540089 0.01018896392150693 0 -0.45609316173783881 0.014082317838893479 0 -0.4458839614772655 0.023387518650519249 0 -0.44737850259376799 0.0077656591989471307 0 -0.45609316173783881 0.014082317838893479 0 -0.45588653083934588 0.00041698580085632909 0 -0.44737850259376799 0.0077656591989471307 0 -0.4441818909265971 -0.00998157505946092 0 -0.4359559447540089 0.01018896392150693 0 -0.42578104856505677 0.0031949168855625672 0 -0.42578104856505677 0.0031949168855625672 0 -0.41622595309658328 0.016397403714119251 0 -0.42870406893849561 0.019163111370922251 0 -0.4359559447540089 0.01018896392150693 0 -0.42578104856505677 0.0031949168855625672 0 -0.42870406893849561 0.019163111370922251 0 -0.41753789792717189 -0.0038843189997757009 0 -0.42578104856505677 0.0031949168855625672 0 -0.41105156913745711 0.0034129409419674369 0 -0.42578104856505677 0.0031949168855625672 0 -0.40852807671777941 0.0155494406680463 0 -0.41622595309658328 0.016397403714119251 0 -0.42578104856505677 0.0031949168855625672 0 -0.40852807671777941 0.0155494406680463 0 -0.41105156913745711 0.0034129409419674369 0 -0.42578104856505677 0.0031949168855625672 0 -0.40852807671777941 0.0155494406680463 0 -0.42578104856505677 0.0031949168855625672 0 -0.41622595309658328 0.016397403714119251 0 -0.40852807671777941 0.0155494406680463 0 -0.41105156913745711 0.0034129409419674369 0 -0.40262572535869262 0.0089097845909437267 0 -0.40771050441737638 -0.0035262849216432719 0 -0.41105156913745711 0.0034129409419674369 0 -0.40226596945639398 0.0014711925349297271 0 -0.40667085762811028 0.029599890542676258 0 -0.41622595309658328 0.016397403714119251 0 -0.42870406893849561 0.019163111370922251 0 -0.40667085762811028 0.029599890542676258 0 -0.42870406893849561 0.019163111370922251 0 -0.40667085762811028 0.029599890542676258 0 -0.41990433555607742 0.03061685230769556 0 -0.42870406893849561 0.019163111370922251 0 -0.40852807671777941 0.0155494406680463 0 -0.40667085762811028 0.029599890542676258 0 -0.41622595309658328 0.016397403714119251 0 -0.40667085762811028 0.029599890542676258 0 -0.41622595309658328 0.016397403714119251 0 -0.41990433555607742 0.03061685230769556 0 -0.4284463216954002 0.029357354603554459 0 -0.42870406893849561 0.019163111370922251 0 -0.4359559447540089 0.01018896392150693 0 -0.42870406893849561 0.019163111370922251 0 -0.43566193494816191 0.02574822372494872 0 -0.4284463216954002 0.029357354603554459 0 -0.42870406893849561 0.019163111370922251 0 -0.43566193494816191 0.02574822372494872 0 -0.4284463216954002 0.029357354603554459 0 -0.43566193494816191 0.02574822372494872 0 -0.43264023121812112 0.033917661463996759 0 -0.4405409619944019 0.035432846457562263 0 -0.43264023121812112 0.033917661463996759 0 -0.43229092530358848 0.04451632412921195 0 -0.43264023121812112 0.033917661463996759 0 -0.43229092530358848 0.04451632412921195 0 -0.42532103781614489 0.037340924150209003 0 -0.4405409619944019 0.035432846457562263 0 -0.43566193494816191 0.02574822372494872 0 -0.43264023121812112 0.033917661463996759 0 -0.43229092530358848 0.04451632412921195 0 -0.42532103781614489 0.037340924150209003 0 -0.42042490988599091 0.046091327469671317 0 -0.4284463216954002 0.029357354603554459 0 -0.43264023121812112 0.033917661463996759 0 -0.42532103781614489 0.037340924150209003 0 -0.41990433555607742 0.03061685230769556 0 -0.4284463216954002 0.029357354603554459 0 -0.42532103781614489 0.037340924150209003 0 -0.43229092530358848 0.04451632412921195 0 -0.43188097302969042 0.056955122555226501 0 -0.42585725303016408 0.051510102087770737 0 -0.44286953411296898 0.045255716157198693 0 -0.43229092530358848 0.04451632412921195 0 -0.43188097302969042 0.056955122555226501 0 -0.43229092530358848 0.04451632412921195 0 -0.42585725303016408 0.051510102087770737 0 -0.42042490988599091 0.046091327469671317 0 -0.43188097302969042 0.056955122555226501 0 -0.41883220390138681 0.058477634196973202 0 -0.43131469147834472 0.070632617455275076 0 -0.43188097302969042 0.056955122555226501 0 -0.42585725303016408 0.051510102087770737 0 -0.41883220390138681 0.058477634196973202 0 -0.41883220390138681 0.058477634196973202 0 -0.40840220717331749 0.048304634434869917 0 -0.39985653820026013 0.060860810446949978 0 -0.42585725303016408 0.051510102087770737 0 -0.41883220390138681 0.058477634196973202 0 -0.42042490988599091 0.046091327469671317 0 -0.41883220390138681 0.058477634196973202 0 -0.40840220717331749 0.048304634434869917 0 -0.42042490988599091 0.046091327469671317 0 -0.41990433555607742 0.03061685230769556 0 -0.42532103781614489 0.037340924150209003 0 -0.4122967326089878 0.037821593301397609 0 -0.42532103781614489 0.037340924150209003 0 -0.42042490988599091 0.046091327469671317 0 -0.4122967326089878 0.037821593301397609 0 -0.40840220717331749 0.048304634434869917 0 -0.4122967326089878 0.037821593301397609 0 -0.40579981868685489 0.041495006097714962 0 -0.40840220717331749 0.048304634434869917 0 -0.42042490988599091 0.046091327469671317 0 -0.4122967326089878 0.037821593301397609 0 -0.4122967326089878 0.037821593301397609 0 -0.40278544391907911 0.034968452634622761 0 -0.40579981868685489 0.041495006097714962 0 -0.40667085762811028 0.029599890542676258 0 -0.4122967326089878 0.037821593301397609 0 -0.40278544391907911 0.034968452634622761 0 -0.40667085762811028 0.029599890542676258 0 -0.41990433555607742 0.03061685230769556 0 -0.4122967326089878 0.037821593301397609 0 -0.40667085762811028 0.029599890542676258 0 -0.40278544391907911 0.034968452634622761 0 -0.40667085762811028 0.029599890542676258 0 -0.38856614517843069 0.038175802748282091 0 -0.40667085762811028 0.029599890542676258 0 -0.38856614517843069 0.038175802748282091 0 -0.39127510487050182 0.027903964450529759 0 -0.40667085762811028 0.029599890542676258 0 -0.40278544391907911 0.034968452634622761 0 -0.38856614517843069 0.038175802748282091 0 -0.40278544391907911 0.034968452634622761 0 -0.40579981868685489 0.041495006097714962 0 -0.3977250587697031 0.045015474274426849 0 -0.40840220717331749 0.048304634434869917 0 -0.40579981868685489 0.041495006097714962 0 -0.3977250587697031 0.045015474274426849 0 -0.40278544391907911 0.034968452634622761 0 -0.3977250587697031 0.045015474274426849 0 -0.38856614517843069 0.038175802748282091 0 -0.40840220717331749 0.048304634434869917 0 -0.3977250587697031 0.045015474274426849 0 -0.39985653820026013 0.060860810446949978 0 -0.3977250587697031 0.045015474274426849 0 -0.39985653820026013 0.060860810446949978 0 -0.38472691017257071 0.052921849058569698 0 -0.39985653820026013 0.060860810446949978 0 -0.38472691017257071 0.052921849058569698 0 -0.38510762700538009 0.066428587654483159 0 -0.38472691017257071 0.052921849058569698 0 -0.37046143272875132 0.04675171495388801 0 -0.37000681959492809 0.05831264468359916 0 -0.38472691017257071 0.052921849058569698 0 -0.38510762700538009 0.066428587654483159 0 -0.37000681959492809 0.05831264468359916 0 -0.38856614517843069 0.038175802748282091 0 -0.37871402691879819 0.03757115751491092 0 -0.37046143272875132 0.04675171495388801 0 -0.38856614517843069 0.038175802748282091 0 -0.37046143272875132 0.04675171495388801 0 -0.38472691017257071 0.052921849058569698 0 -0.38856614517843069 0.038175802748282091 0 -0.37046143272875132 0.04675171495388801 0 -0.38856614517843069 0.038175802748282091 0 -0.38315308642314733 0.033917821982192238 0 -0.39127510487050182 0.027903964450529759 0 -0.38856614517843069 0.038175802748282091 0 -0.38315308642314733 0.033917821982192238 0 -0.37871402691879819 0.03757115751491092 0 -0.3977250587697031 0.045015474274426849 0 -0.38472691017257071 0.052921849058569698 0 -0.38856614517843069 0.038175802748282091 0 -0.37871402691879819 0.03757115751491092 0 -0.3764786745208083 0.032098692741998169 0 -0.37046143272875132 0.04675171495388801 0 -0.38315308642314733 0.033917821982192238 0 -0.3764786745208083 0.032098692741998169 0 -0.38155727091044611 0.028316364585127811 0 -0.38315308642314733 0.033917821982192238 0 -0.37871402691879819 0.03757115751491092 0 -0.3764786745208083 0.032098692741998169 0 -0.3764786745208083 0.032098692741998169 0 -0.38155727091044611 0.028316364585127811 0 -0.37960108001976323 0.022263106047543741 0 -0.37960108001976323 0.022263106047543741 0 -0.37998819155715241 0.0057865511937031933 0 -0.37123175334181557 0.027162262264614271 0 -0.3764786745208083 0.032098692741998169 0 -0.37960108001976323 0.022263106047543741 0 -0.37123175334181557 0.027162262264614271 0 -0.38155727091044611 0.028316364585127811 0 -0.38533699425949169 0.022674384769296389 0 -0.37960108001976323 0.022263106047543741 0 -0.38155727091044611 0.028316364585127811 0 -0.38533699425949169 0.022674384769296389 0 -0.39127510487050182 0.027903964450529759 0 -0.38315308642314733 0.033917821982192238 0 -0.38155727091044611 0.028316364585127811 0 -0.39127510487050182 0.027903964450529759 0 -0.39054146691731162 0.018060194648231769 0 -0.38533699425949169 0.022674384769296389 0 -0.39127510487050182 0.027903964450529759 0 -0.38533699425949169 0.022674384769296389 0 -0.3837100485794358 0.01682829411504885 0 -0.37960108001976323 0.022263106047543741 0 -0.39054146691731162 0.018060194648231769 0 -0.38533699425949169 0.022674384769296389 0 -0.3837100485794358 0.01682829411504885 0 -0.3837100485794358 0.01682829411504885 0 -0.37960108001976323 0.022263106047543741 0 -0.37998819155715241 0.0057865511937031933 0 -0.37998819155715241 0.0057865511937031933 0 -0.38683543611469601 0.0001369023841863784 0 -0.36064890389212972 0.0125435277679194 0 -0.37998819155715241 0.0057865511937031933 0 -0.38683543611469601 0.0001369023841863784 0 -0.38901012294298121 0.0062908016400105649 0 -0.38683543611469601 0.0001369023841863784 0 -0.38901012294298121 0.0062908016400105649 0 -0.39501457079486157 0.0055715078560810288 0 -0.37998819155715241 0.0057865511937031933 0 -0.38901012294298121 0.0062908016400105649 0 -0.38744744785130802 0.01185902438546781 0 -0.3837100485794358 0.01682829411504885 0 -0.37998819155715241 0.0057865511937031933 0 -0.38744744785130802 0.01185902438546781 0 -0.38901012294298121 0.0062908016400105649 0 -0.38744744785130802 0.01185902438546781 0 -0.39422738021243581 0.01127211946813913 0 -0.39054146691731162 0.018060194648231769 0 -0.3837100485794358 0.01682829411504885 0 -0.38744744785130802 0.01185902438546781 0 -0.39054146691731162 0.018060194648231769 0 -0.39422738021243581 0.01127211946813913 0 -0.39743955081534421 0.016339100765178138 0 -0.39054146691731162 0.018060194648231769 0 -0.38744744785130802 0.01185902438546781 0 -0.39422738021243581 0.01127211946813913 0 -0.39422738021243581 0.01127211946813913 0 -0.39501457079486157 0.0055715078560810288 0 -0.40262572535869262 0.0089097845909437267 0 -0.39422738021243581 0.01127211946813913 0 -0.40262572535869262 0.0089097845909437267 0 -0.39743955081534421 0.016339100765178138 0 -0.38683543611469601 0.0001369023841863784 0 -0.39501457079486157 0.0055715078560810288 0 -0.40226596945639398 0.0014711925349297271 0 -0.38901012294298121 0.0062908016400105649 0 -0.39422738021243581 0.01127211946813913 0 -0.39501457079486157 0.0055715078560810288 0 -0.41105156913745711 0.0034129409419674369 0 -0.40226596945639398 0.0014711925349297271 0 -0.40262572535869262 0.0089097845909437267 0 -0.39501457079486157 0.0055715078560810288 0 -0.40226596945639398 0.0014711925349297271 0 -0.40262572535869262 0.0089097845909437267 0 -0.40852807671777941 0.0155494406680463 0 -0.40262572535869262 0.0089097845909437267 0 -0.39743955081534421 0.016339100765178138 0 -0.40852807671777941 0.0155494406680463 0 -0.39127510487050182 0.027903964450529759 0 -0.40852807671777941 0.0155494406680463 0 -0.40667085762811028 0.029599890542676258 0 -0.39127510487050182 0.027903964450529759 0 -0.40852807671777941 0.0155494406680463 0 -0.39127510487050182 0.027903964450529759 0 -0.39743955081534421 0.016339100765178138 0 -0.39054146691731162 0.018060194648231769 0 -0.39127510487050182 0.027903964450529759 0 -0.39743955081534421 0.016339100765178138 0 -0.39792088922733271 0.1160922105611595 0 -0.40104213778508202 0.092866093853817611 0 -0.41467909406405851 0.1139188519362445 0 -0.39792088922733271 0.1160922105611595 0 -0.3782625711058698 0.101617738696854 0 -0.40104213778508202 0.092866093853817611 0 -0.3782625711058698 0.101617738696854 0 -0.38372255811484618 0.13025780258704611 0 -0.3782625711058698 0.101617738696854 0 -0.38372255811484618 0.13025780258704611 0 -0.36747352968705388 0.12273486311700831 0 -0.39792088922733271 0.1160922105611595 0 -0.3782625711058698 0.101617738696854 0 -0.38372255811484618 0.13025780258704611 0 -0.39792088922733271 0.1160922105611595 0 -0.3782625711058698 0.101617738696854 0 -0.3782625711058698 0.101617738696854 0 -0.40104213778508202 0.092866093853817611 0 -0.37470600383380392 0.082961959162170973 0 -0.39520328107527708 0.075997639864115257 0 -0.40104213778508202 0.092866093853817611 0 -0.37470600383380392 0.082961959162170973 0 -0.3782625711058698 0.101617738696854 0 -0.37470600383380392 0.082961959162170973 0 -0.40104213778508202 0.092866093853817611 0 -0.37470600383380392 0.082961959162170973 0 -0.38510762700538009 0.066428587654483159 0 -0.37000681959492809 0.05831264468359916 0 -0.37470600383380392 0.082961959162170973 0 -0.38510762700538009 0.066428587654483159 0 -0.39520328107527708 0.075997639864115257 0 -0.37470600383380392 0.082961959162170973 0 -0.39985653820026013 0.060860810446949978 0 -0.39520328107527708 0.075997639864115257 0 -0.41322693425173768 0.074694678089132868 0 -0.39985653820026013 0.060860810446949978 0 -0.38510762700538009 0.066428587654483159 0 -0.39520328107527708 0.075997639864115257 0 -0.39520328107527708 0.075997639864115257 0 -0.40104213778508202 0.092866093853817611 0 -0.41322693425173768 0.074694678089132868 0 -0.40104213778508202 0.092866093853817611 0 -0.41322693425173768 0.074694678089132868 0 -0.42957324029363853 0.085693113452461764 0 -0.41883220390138681 0.058477634196973202 0 -0.41322693425173768 0.074694678089132868 0 -0.43131469147834472 0.070632617455275076 0 -0.41883220390138681 0.058477634196973202 0 -0.39985653820026013 0.060860810446949978 0 -0.41322693425173768 0.074694678089132868 0 -0.43131469147834472 0.070632617455275076 0 -0.42957324029363853 0.085693113452461764 0 -0.4470315618909167 0.073148927984774167 0 -0.41322693425173768 0.074694678089132868 0 -0.43131469147834472 0.070632617455275076 0 -0.42957324029363853 0.085693113452461764 0 -0.44282721760043869 0.062046251170956107 0 -0.43188097302969042 0.056955122555226501 0 -0.43131469147834472 0.070632617455275076 0 -0.42957324029363853 0.085693113452461764 0 -0.42737827173636012 0.1027702285454639 0 -0.44343173260412461 0.097571970950778963 0 -0.40104213778508202 0.092866093853817611 0 -0.42737827173636012 0.1027702285454639 0 -0.41467909406405851 0.1139188519362445 0 -0.40104213778508202 0.092866093853817611 0 -0.42737827173636012 0.1027702285454639 0 -0.40104213778508202 0.092866093853817611 0 -0.42957324029363853 0.085693113452461764 0 -0.42737827173636012 0.1027702285454639 0 -0.39792088922733271 0.1160922105611595 0 -0.41467909406405851 0.1139188519362445 0 -0.417579207348795 0.13056668242546571 0 -0.39792088922733271 0.1160922105611595 0 -0.417579207348795 0.13056668242546571 0 -0.41467909406405851 0.1139188519362445 0 -0.42608096723388439 0.1205091241492761 0 -0.417579207348795 0.13056668242546571 0 -0.42737827173636012 0.1027702285454639 0 -0.41467909406405851 0.1139188519362445 0 -0.42608096723388439 0.1205091241492761 0 -0.42737827173636012 0.1027702285454639 0 -0.42608096723388439 0.1205091241492761 0 -0.43826405507869293 0.1195835460605416 0 -0.42608096723388439 0.1205091241492761 0 -0.43826405507869293 0.1195835460605416 0 -0.43293323699752101 0.1317554923945817 0 -0.43826405507869293 0.1195835460605416 0 -0.45371440568763749 0.1126743632371118 0 -0.44901593584904892 0.12912088192892021 0 -0.42737827173636012 0.1027702285454639 0 -0.43826405507869293 0.1195835460605416 0 -0.45371440568763749 0.1126743632371118 0 -0.4523882543875366 0.10983005993361 0 -0.45371440568763749 0.1126743632371118 0 -0.42737827173636012 0.1027702285454639 0 -0.4523882543875366 0.10983005993361 0 -0.44343173260412461 0.097571970950778963 0 -0.42737827173636012 0.1027702285454639 0 -0.4523882543875366 0.10983005993361 0 -0.45371440568763749 0.1126743632371118 0 -0.42737827173636012 0.1027702285454639 0 -0.45371440568763749 0.1126743632371118 0 -0.44343173260412461 0.097571970950778963 0 -0.45084974973894648 0.096020795281878568 0 -0.45306155814551219 0.1028275296158008 0 -0.44343173260412461 0.097571970950778963 0 -0.45084974973894648 0.096020795281878568 0 -0.44733932132275389 0.088290098875458828 0 -0.4523882543875366 0.10983005993361 0 -0.44343173260412461 0.097571970950778963 0 -0.45306155814551219 0.1028275296158008 0 -0.4523882543875366 0.10983005993361 0 -0.45306155814551219 0.1028275296158008 0 -0.45661100561120399 0.109540819014999 0 -0.45306155814551219 0.1028275296158008 0 -0.46084618436187341 0.10490351706993729 0 -0.45661100561120399 0.109540819014999 0 -0.45306155814551219 0.1028275296158008 0 -0.46084618436187341 0.10490351706993729 0 -0.45799439118323759 0.099220837031069903 0 -0.46084618436187341 0.10490351706993729 0 -0.4635407771028337 0.1124237257980706 0 -0.45661100561120399 0.109540819014999 0 -0.45799439118323759 0.099220837031069903 0 -0.46723244863383712 0.097971273043108306 0 -0.45594156200913483 0.091684632610025046 0 -0.45084974973894648 0.096020795281878568 0 -0.45799439118323759 0.099220837031069903 0 -0.45594156200913483 0.091684632610025046 0 -0.45084974973894648 0.096020795281878568 0 -0.45306155814551219 0.1028275296158008 0 -0.45799439118323759 0.099220837031069903 0 -0.46084618436187341 0.10490351706993729 0 -0.45799439118323759 0.099220837031069903 0 -0.46723244863383712 0.097971273043108306 0 -0.46084618436187341 0.10490351706993729 0 -0.46723244863383712 0.097971273043108306 0 -0.46686982756835349 0.1074114054382402 0 -0.46084618436187341 0.10490351706993729 0 -0.46686982756835349 0.1074114054382402 0 -0.4635407771028337 0.1124237257980706 0 -0.45371440568763749 0.1126743632371118 0 -0.46425598871103851 0.13528374379222011 0 -0.4635407771028337 0.1124237257980706 0 -0.45674497769142258 0.1138140594952527 0 -0.46958882025875243 0.12035793204680111 0 -0.46686982756835349 0.1074114054382402 0 -0.4635407771028337 0.1124237257980706 0 -0.47044075898603932 0.11380610730348489 0 -0.4635407771028337 0.1124237257980706 0 -0.46958882025875243 0.12035793204680111 0 -0.47044075898603932 0.11380610730348489 0 -0.45674497769142258 0.1138140594952527 0 -0.45371440568763749 0.1126743632371118 0 -0.46425598871103851 0.13528374379222011 0 -0.45674497769142258 0.1138140594952527 0 -0.46958882025875243 0.12035793204680111 0 -0.46425598871103851 0.13528374379222011 0 -0.4523882543875366 0.10983005993361 0 -0.45661100561120399 0.109540819014999 0 -0.45371440568763749 0.1126743632371118 0 -0.45674497769142258 0.1138140594952527 0 -0.45661100561120399 0.109540819014999 0 -0.45371440568763749 0.1126743632371118 0 -0.45674497769142258 0.1138140594952527 0 -0.45371440568763749 0.1126743632371118 0 -0.4635407771028337 0.1124237257980706 0 -0.45674497769142258 0.1138140594952527 0 -0.45661100561120399 0.109540819014999 0 -0.44282721760043869 0.062046251170956107 0 -0.4470315618909167 0.073148927984774167 0 -0.46103932749027238 0.064238871702306077 0 -0.44282721760043869 0.062046251170956107 0 -0.43131469147834472 0.070632617455275076 0 -0.4470315618909167 0.073148927984774167 0 -0.42957324029363853 0.085693113452461764 0 -0.44343173260412461 0.097571970950778963 0 -0.44733932132275389 0.088290098875458828 0 -0.42957324029363853 0.085693113452461764 0 -0.4470315618909167 0.073148927984774167 0 -0.44733932132275389 0.088290098875458828 0 -0.4470315618909167 0.073148927984774167 0 -0.44733932132275389 0.088290098875458828 0 -0.46047789149500767 0.082617330138573752 0 -0.45084974973894648 0.096020795281878568 0 -0.44733932132275389 0.088290098875458828 0 -0.45594156200913483 0.091684632610025046 0 -0.44733932132275389 0.088290098875458828 0 -0.45594156200913483 0.091684632610025046 0 -0.46047789149500767 0.082617330138573752 0 -0.46723244863383712 0.097971273043108306 0 -0.45594156200913483 0.091684632610025046 0 -0.46047789149500767 0.082617330138573752 0 -0.46047789149500767 0.082617330138573752 0 -0.46103932749027238 0.064238871702306077 0 -0.47920912086757578 0.083222027247413538 0 -0.4470315618909167 0.073148927984774167 0 -0.46047789149500767 0.082617330138573752 0 -0.46103932749027238 0.064238871702306077 0 -0.46103932749027238 0.064238871702306077 0 -0.48068047186290208 0.063626500276227002 0 -0.47920912086757578 0.083222027247413538 0 -0.46103932749027238 0.064238871702306077 0 -0.47920912086757578 0.083222027247413538 0 -0.46723244863383712 0.097971273043108306 0 -0.46047789149500767 0.082617330138573752 0 -0.47920912086757578 0.083222027247413538 0 -0.48068047186290208 0.063626500276227002 0 -0.47920912086757578 0.083222027247413538 0 -0.5 0.088432580532893601 0 -0.47920912086757578 0.083222027247413538 0 -0.49737891424487929 0.102205182792521 0 -0.47920912086757578 0.083222027247413538 0 -0.5 0.088432580532893601 0 -0.49737891424487929 0.102205182792521 0 -0.5 0.060034093897511798 0 -0.48068047186290208 0.063626500276227002 0 -0.5 0.088432580532893601 0 -0.47827810320487629 0.116675775998883 0 -0.48837893466537508 0.1117690854599766 0 -0.4842723158563047 0.1301441798928954 0 -0.47827810320487629 0.116675775998883 0 -0.47512549980118862 0.10796659812409699 0 -0.48837893466537508 0.1117690854599766 0 -0.47827810320487629 0.116675775998883 0 -0.46958882025875243 0.12035793204680111 0 -0.4842723158563047 0.1301441798928954 0 -0.47827810320487629 0.116675775998883 0 -0.47044075898603932 0.11380610730348489 0 -0.47512549980118862 0.10796659812409699 0 -0.46686982756835349 0.1074114054382402 0 -0.47044075898603932 0.11380610730348489 0 -0.47512549980118862 0.10796659812409699 0 -0.47827810320487629 0.116675775998883 0 -0.46958882025875243 0.12035793204680111 0 -0.47044075898603932 0.11380610730348489 0 -0.46723244863383712 0.097971273043108306 0 -0.47512549980118862 0.10796659812409699 0 -0.48162445158666772 0.1005823670901454 0 -0.46723244863383712 0.097971273043108306 0 -0.47920912086757578 0.083222027247413538 0 -0.48162445158666772 0.1005823670901454 0 -0.46723244863383712 0.097971273043108306 0 -0.46686982756835349 0.1074114054382402 0 -0.47512549980118862 0.10796659812409699 0 -0.47512549980118862 0.10796659812409699 0 -0.48162445158666772 0.1005823670901454 0 -0.48837893466537508 0.1117690854599766 0 -0.48162445158666772 0.1005823670901454 0 -0.49737891424487929 0.102205182792521 0 -0.48837893466537508 0.1117690854599766 0 -0.47920912086757578 0.083222027247413538 0 -0.48162445158666772 0.1005823670901454 0 -0.49737891424487929 0.102205182792521 0 -0.5 0.088432580532893601 0 -0.49737891424487929 0.102205182792521 0 -0.5 0.1168310671682755 0 -0.49737891424487929 0.102205182792521 0 -0.5 0.1168310671682755 0 -0.48837893466537508 0.1117690854599766 0 -0.5 0.1168310671682755 0 -0.48837893466537508 0.1117690854599766 0 -0.4842723158563047 0.1301441798928954 0 -0.5 0.1168310671682755 0 -0.4842723158563047 0.1301441798928954 0 -0.5 0.14522955380365729 0 -0.46958882025875243 0.12035793204680111 0 -0.4842723158563047 0.1301441798928954 0 -0.46425598871103851 0.13528374379222011 0 -0.4842723158563047 0.1301441798928954 0 -0.47479757173443998 0.15789312434732811 0 -0.46425598871103851 0.13528374379222011 0 -0.47479757173443998 0.15789312434732811 0 -0.46425598871103851 0.13528374379222011 0 -0.4842723158563047 0.1301441798928954 0 -0.5 0.14522955380365729 0 -0.47479757173443998 0.15789312434732811 0 -0.5 0.14522955380365729 0 -0.49999999999999972 0.17362804043903909 0 -0.47479757173443998 0.15789312434732811 0 -0.49999999999999972 0.17362804043903909 0 -0.47479757173443998 0.15789312434732811 0 -0.49999999999999972 0.17362804043903909 0 -0.49200992699072321 0.1743962810239672 0 -0.47479757173443998 0.15789312434732811 0 -0.48341269367675271 0.17637066895233999 0 -0.49170634683837577 0.1941587336203292 0 -0.49368671912131301 0.1828531969182482 0 -0.49999999999999972 0.17362804043903909 0 -0.5 0.19278741936367841 0 -0.49368671912131301 0.1828531969182482 0 -0.48341269367675271 0.17637066895233999 0 -0.49170634683837577 0.1941587336203292 0 -0.49368671912131301 0.1828531969182482 0 -0.49999999999999972 0.17362804043903909 0 -0.49200992699072321 0.1743962810239672 0 -0.49200992699072321 0.1743962810239672 0 -0.48341269367675271 0.17637066895233999 0 -0.49368671912131301 0.1828531969182482 0 -0.49200992699072321 0.1743962810239672 0 -0.48341269367675271 0.17637066895233999 0 -0.48341269367675271 0.17637066895233999 0 -0.45591042926964898 0.18268667049205081 0 -0.47274380268756999 0.19288508587190861 0 -0.48341269367675271 0.17637066895233999 0 -0.45591042926964898 0.18268667049205081 0 -0.49200992699072321 0.1743962810239672 0 -0.48341269367675271 0.17637066895233999 0 -0.47479757173443998 0.15789312434732811 0 -0.48341269367675271 0.17637066895233999 0 -0.47479757173443998 0.15789312434732811 0 -0.48341269367675271 0.17637066895233999 0 -0.47479757173443998 0.15789312434732811 0 -0.45723956394668003 0.16387676974864759 0 -0.48341269367675271 0.17637066895233999 0 -0.45723956394668003 0.16387676974864759 0 -0.45591042926964898 0.18268667049205081 0 -0.45591042926964898 0.18268667049205081 0 -0.43992511097516529 0.17411109905454999 0 -0.4284081648625454 0.1890026720317621 0 -0.45591042926964898 0.18268667049205081 0 -0.4284081648625454 0.1890026720317621 0 -0.45723956394668003 0.16387676974864759 0 -0.45591042926964898 0.18268667049205081 0 -0.43992511097516529 0.17411109905454999 0 -0.45723956394668003 0.16387676974864759 0 -0.43992511097516529 0.17411109905454999 0 -0.43892522612619872 0.15930650560997939 0 -0.43892522612619872 0.15930650560997939 0 -0.43796764784210812 0.14528805014891141 0 -0.45386540436598038 0.14482430837095511 0 -0.45723956394668003 0.16387676974864759 0 -0.43892522612619872 0.15930650560997939 0 -0.45386540436598038 0.14482430837095511 0 -0.45386540436598038 0.14482430837095511 0 -0.43293323699752101 0.1317554923945817 0 -0.43826405507869293 0.1195835460605416 0 -0.44901593584904892 0.12912088192892021 0 -0.43293323699752101 0.1317554923945817 0 -0.43796764784210812 0.14528805014891141 0 -0.45386540436598038 0.14482430837095511 0 -0.43293323699752101 0.1317554923945817 0 -0.44901593584904892 0.12912088192892021 0 -0.45386540436598038 0.14482430837095511 0 -0.43293323699752101 0.1317554923945817 0 -0.45371440568763749 0.1126743632371118 0 -0.44901593584904892 0.12912088192892021 0 -0.46425598871103851 0.13528374379222011 0 -0.44901593584904892 0.12912088192892021 0 -0.46425598871103851 0.13528374379222011 0 -0.45386540436598038 0.14482430837095511 0 -0.47479757173443998 0.15789312434732811 0 -0.45723956394668003 0.16387676974864759 0 -0.45386540436598038 0.14482430837095511 0 -0.47479757173443998 0.15789312434732811 0 -0.46425598871103851 0.13528374379222011 0 -0.45386540436598038 0.14482430837095511 0 -0.47479757173443998 0.15789312434732811 0 -0.45386540436598038 0.14482430837095511 0 -0.48226153920099157 0.23766317590200001 0 -0.47864167104372218 0.246590621409366 0 -0.48932095354102823 0.25454658797793611 0 -0.47315400564016008 0.2364435414805684 0 -0.47864167104372218 0.246590621409366 0 -0.46938038244821267 0.25133041049185839 0 -0.47315400564016008 0.2364435414805684 0 -0.48226153920099157 0.23766317590200001 0 -0.47864167104372218 0.246590621409366 0 -0.49106398183666961 0.22759324404760359 0 -0.48932095354102823 0.25454658797793611 0 -0.5 0.23810140997737081 0 -0.49106398183666961 0.22759324404760359 0 -0.48932095354102823 0.25454658797793611 0 -0.48226153920099157 0.23766317590200001 0 -0.49106398183666961 0.22759324404760359 0 -0.48932095354102823 0.25454658797793611 0 -0.5 0.23810140997737081 0 -0.49106398183666961 0.22759324404760359 0 -0.50000000000000022 0.21194679828831781 0 -0.49106398183666961 0.22759324404760359 0 -0.47912708394337772 0.2231418845945258 0 -0.48726644121087642 0.21298690825741631 0 -0.48226153920099157 0.23766317590200001 0 -0.49106398183666961 0.22759324404760359 0 -0.47912708394337772 0.2231418845945258 0 -0.47315400564016008 0.2364435414805684 0 -0.48226153920099157 0.23766317590200001 0 -0.47912708394337772 0.2231418845945258 0 -0.47315400564016008 0.2364435414805684 0 -0.47912708394337772 0.2231418845945258 0 -0.46764368341616458 0.22415830119077751 0 -0.47912708394337772 0.2231418845945258 0 -0.47360767850491831 0.20951316246361981 0 -0.46764368341616458 0.22415830119077751 0 -0.47360767850491831 0.20951316246361981 0 -0.48726644121087642 0.21298690825741631 0 -0.49170634683837577 0.1941587336203292 0 -0.47912708394337772 0.2231418845945258 0 -0.47360767850491831 0.20951316246361981 0 -0.48726644121087642 0.21298690825741631 0 -0.49106398183666961 0.22759324404760359 0 -0.50000000000000022 0.21194679828831781 0 -0.48726644121087642 0.21298690825741631 0 -0.50000000000000022 0.21194679828831781 0 -0.48726644121087642 0.21298690825741631 0 -0.49170634683837577 0.1941587336203292 0 -0.50000000000000022 0.21194679828831781 0 -0.49170634683837577 0.1941587336203292 0 -0.50000000000000022 0.21194679828831781 0 -0.5 0.19278741936367841 0 -0.49170634683837577 0.1941587336203292 0 -0.49368671912131301 0.1828531969182482 0 -0.5 0.19278741936367841 0 -0.49170634683837577 0.1941587336203292 0 -0.48341269367675271 0.17637066895233999 0 -0.49170634683837577 0.1941587336203292 0 -0.47274380268756999 0.19288508587190861 0 -0.47360767850491831 0.20951316246361981 0 -0.49170634683837577 0.1941587336203292 0 -0.47274380268756999 0.19288508587190861 0 -0.47360767850491831 0.20951316246361981 0 -0.47274380268756999 0.19288508587190861 0 -0.45820261548712909 0.20353130823034371 0 -0.45591042926964898 0.18268667049205081 0 -0.47274380268756999 0.19288508587190861 0 -0.45820261548712909 0.20353130823034371 0 -0.45591042926964898 0.18268667049205081 0 -0.43516662619925378 0.20614333559983469 0 -0.4284081648625454 0.1890026720317621 0 -0.45591042926964898 0.18268667049205081 0 -0.45820261548712909 0.20353130823034371 0 -0.43516662619925378 0.20614333559983469 0 -0.44192508753596349 0.22328399916790689 0 -0.43516662619925378 0.20614333559983469 0 -0.45032248765871591 0.2151961798839368 0 -0.44192508753596349 0.22328399916790689 0 -0.43516662619925378 0.20614333559983469 0 -0.45032248765871591 0.2151961798839368 0 -0.45820261548712909 0.20353130823034371 0 -0.43516662619925378 0.20614333559983469 0 -0.45032248765871591 0.2151961798839368 0 -0.46109406183397039 0.21551848415653921 0 -0.45620465585954723 0.2251951411450015 0 -0.45032248765871591 0.2151961798839368 0 -0.45820261548712909 0.20353130823034371 0 -0.46109406183397039 0.21551848415653921 0 -0.47360767850491831 0.20951316246361981 0 -0.45820261548712909 0.20353130823034371 0 -0.46109406183397039 0.21551848415653921 0 -0.47360767850491831 0.20951316246361981 0 -0.46109406183397039 0.21551848415653921 0 -0.46764368341616458 0.22415830119077751 0 -0.47315400564016008 0.2364435414805684 0 -0.46764368341616458 0.22415830119077751 0 -0.45925329591452863 0.2407771106774913 0 -0.46764368341616458 0.22415830119077751 0 -0.45620465585954723 0.2251951411450015 0 -0.45925329591452863 0.2407771106774913 0 -0.46109406183397039 0.21551848415653921 0 -0.46764368341616458 0.22415830119077751 0 -0.45620465585954723 0.2251951411450015 0 -0.45032248765871591 0.2151961798839368 0 -0.45620465585954723 0.2251951411450015 0 -0.44192508753596349 0.22328399916790689 0 -0.44192508753596349 0.22328399916790689 0 -0.44062222049055039 0.24203477259657111 0 -0.43146145522804691 0.2313120115293863 0 -0.45620465585954723 0.2251951411450015 0 -0.44062222049055039 0.24203477259657111 0 -0.45620465585954723 0.2251951411450015 0 -0.44192508753596349 0.22328399916790689 0 -0.44062222049055039 0.24203477259657111 0 -0.44062222049055039 0.24203477259657111 0 -0.45046339488490522 0.249057113070103 0 -0.44442574262614493 0.25832327296872359 0 -0.44062222049055039 0.24203477259657111 0 -0.45046339488490522 0.249057113070103 0 -0.45925329591452863 0.2407771106774913 0 -0.45620465585954723 0.2251951411450015 0 -0.44062222049055039 0.24203477259657111 0 -0.45925329591452863 0.2407771106774913 0 -0.45046339488490522 0.249057113070103 0 -0.45925329591452863 0.2407771106774913 0 -0.45807104112411212 0.25534721177055669 0 -0.45925329591452863 0.2407771106774913 0 -0.46938038244821267 0.25133041049185839 0 -0.45807104112411212 0.25534721177055669 0 -0.47315400564016008 0.2364435414805684 0 -0.45925329591452863 0.2407771106774913 0 -0.46938038244821267 0.25133041049185839 0 -0.4198454647722451 0.23985190764030939 0 -0.40081965837488509 0.24074316727492401 0 -0.40585136056822319 0.25674789398696107 0 -0.4198454647722451 0.23985190764030939 0 -0.405480724964072 0.22581663549259839 0 -0.40081965837488509 0.24074316727492401 0 -0.44062222049055039 0.24203477259657111 0 -0.4198454647722451 0.23985190764030939 0 -0.42503978512155383 0.25887440404814072 0 -0.44062222049055039 0.24203477259657111 0 -0.4198454647722451 0.23985190764030939 0 -0.43146145522804691 0.2313120115293863 0 -0.4198454647722451 0.23985190764030939 0 -0.43146145522804691 0.2313120115293863 0 -0.42370673975344808 0.22056464269113771 0 -0.44192508753596349 0.22328399916790689 0 -0.43146145522804691 0.2313120115293863 0 -0.42370673975344808 0.22056464269113771 0 -0.4198454647722451 0.23985190764030939 0 -0.42370673975344808 0.22056464269113771 0 -0.405480724964072 0.22581663549259839 0 -0.42370673975344808 0.22056464269113771 0 -0.40708390191205951 0.20882890034131879 0 -0.405480724964072 0.22581663549259839 0 -0.42370673975344808 0.22056464269113771 0 -0.40708390191205951 0.20882890034131879 0 -0.42107335870595469 0.2022269477122331 0 -0.44192508753596349 0.22328399916790689 0 -0.42370673975344808 0.22056464269113771 0 -0.43516662619925378 0.20614333559983469 0 -0.42370673975344808 0.22056464269113771 0 -0.43516662619925378 0.20614333559983469 0 -0.42107335870595469 0.2022269477122331 0 -0.43516662619925378 0.20614333559983469 0 -0.4284081648625454 0.1890026720317621 0 -0.42107335870595469 0.2022269477122331 0 -0.43516662619925378 0.20614333559983469 0 -0.4284081648625454 0.1890026720317621 0 -0.4284081648625454 0.1890026720317621 0 -0.40915969581062839 0.19342315750049971 0 -0.4284081648625454 0.1890026720317621 0 -0.42107335870595469 0.2022269477122331 0 -0.40915969581062839 0.19342315750049971 0 -0.40708390191205951 0.20882890034131879 0 -0.42107335870595469 0.2022269477122331 0 -0.40915969581062839 0.19342315750049971 0 -0.40708390191205951 0.20882890034131879 0 -0.40915969581062839 0.19342315750049971 0 -0.38991122675871148 0.19784364296923759 0 -0.40915969581062839 0.19342315750049971 0 -0.38991122675871148 0.19784364296923759 0 -0.40915969581062839 0.19342315750049971 0 -0.38991122675871148 0.19784364296923759 0 -0.39569501158598158 0.17813944679546001 0 -0.39158905321283283 0.2136173787495643 0 -0.38435338999826391 0.22831720607051781 0 -0.36414166766971379 0.2074649771098355 0 -0.38991122675871148 0.19784364296923759 0 -0.39158905321283283 0.2136173787495643 0 -0.36414166766971379 0.2074649771098355 0 -0.40708390191205951 0.20882890034131879 0 -0.39158905321283283 0.2136173787495643 0 -0.405480724964072 0.22581663549259839 0 -0.40708390191205951 0.20882890034131879 0 -0.38991122675871148 0.19784364296923759 0 -0.39158905321283283 0.2136173787495643 0 -0.405480724964072 0.22581663549259839 0 -0.38435338999826391 0.22831720607051781 0 -0.40081965837488509 0.24074316727492401 0 -0.39158905321283283 0.2136173787495643 0 -0.405480724964072 0.22581663549259839 0 -0.38435338999826391 0.22831720607051781 0 -0.37619177155740557 0.24036243622333081 0 -0.38790582398472923 0.24962922847932231 0 -0.36318679658289171 0.25196182354824148 0 -0.38435338999826391 0.22831720607051781 0 -0.37619177155740557 0.24036243622333081 0 -0.38790582398472923 0.24962922847932231 0 -0.38435338999826391 0.22831720607051781 0 -0.38790582398472923 0.24962922847932231 0 -0.40081965837488509 0.24074316727492401 0 -0.38790582398472923 0.24962922847932231 0 -0.40081965837488509 0.24074316727492401 0 -0.40585136056822319 0.25674789398696107 0 -0.40926453963391513 0.14045102348790381 0 -0.42614672387873248 0.14526589422012931 0 -0.41883635224822963 0.16472684775983329 0 -0.40926453963391513 0.14045102348790381 0 -0.41883635224822963 0.16472684775983329 0 -0.40926453963391513 0.14045102348790381 0 -0.41883635224822963 0.16472684775983329 0 -0.40029434983296169 0.15790366282291429 0 -0.40926453963391513 0.14045102348790381 0 -0.417579207348795 0.13056668242546571 0 -0.40026410281127539 0.13237877311027449 0 -0.40926453963391513 0.14045102348790381 0 -0.417579207348795 0.13056668242546571 0 -0.42614672387873248 0.14526589422012931 0 -0.417579207348795 0.13056668242546571 0 -0.43293323699752101 0.1317554923945817 0 -0.42614672387873248 0.14526589422012931 0 -0.42608096723388439 0.1205091241492761 0 -0.417579207348795 0.13056668242546571 0 -0.43293323699752101 0.1317554923945817 0 -0.43796764784210812 0.14528805014891141 0 -0.43293323699752101 0.1317554923945817 0 -0.42614672387873248 0.14526589422012931 0 -0.43892522612619872 0.15930650560997939 0 -0.43796764784210812 0.14528805014891141 0 -0.42614672387873248 0.14526589422012931 0 -0.43892522612619872 0.15930650560997939 0 -0.42614672387873248 0.14526589422012931 0 -0.41883635224822963 0.16472684775983329 0 -0.43992511097516529 0.17411109905454999 0 -0.43892522612619872 0.15930650560997939 0 -0.41883635224822963 0.16472684775983329 0 -0.4284081648625454 0.1890026720317621 0 -0.41883635224822963 0.16472684775983329 0 -0.43992511097516529 0.17411109905454999 0 -0.4284081648625454 0.1890026720317621 0 -0.41883635224822963 0.16472684775983329 0 -0.40915969581062839 0.19342315750049971 0 -0.41883635224822963 0.16472684775983329 0 -0.39569501158598158 0.17813944679546001 0 -0.4284081648625454 0.1890026720317621 0 -0.40915969581062839 0.19342315750049971 0 -0.41883635224822963 0.16472684775983329 0 -0.40029434983296169 0.15790366282291429 0 -0.39569501158598158 0.17813944679546001 0 -0.38484252596519369 0.16167484958157691 0 -0.41883635224822963 0.16472684775983329 0 -0.40029434983296169 0.15790366282291429 0 -0.39569501158598158 0.17813944679546001 0 -0.39569501158598158 0.17813944679546001 0 -0.38484252596519369 0.16167484958157691 0 -0.36525228834216061 0.17922160577889321 0 -0.38991122675871148 0.19784364296923759 0 -0.39569501158598158 0.17813944679546001 0 -0.36525228834216061 0.17922160577889321 0 -0.39283331973148827 0.14452614648979731 0 -0.38372255811484618 0.13025780258704611 0 -0.36636290901460722 0.1509782344479508 0 -0.38484252596519369 0.16167484958157691 0 -0.39283331973148827 0.14452614648979731 0 -0.36636290901460722 0.1509782344479508 0 -0.40029434983296169 0.15790366282291429 0 -0.38484252596519369 0.16167484958157691 0 -0.39283331973148827 0.14452614648979731 0 -0.40926453963391513 0.14045102348790381 0 -0.40029434983296169 0.15790366282291429 0 -0.39283331973148827 0.14452614648979731 0 -0.39283331973148827 0.14452614648979731 0 -0.40026410281127539 0.13237877311027449 0 -0.38372255811484618 0.13025780258704611 0 -0.39792088922733271 0.1160922105611595 0 -0.417579207348795 0.13056668242546571 0 -0.40026410281127539 0.13237877311027449 0 -0.39792088922733271 0.1160922105611595 0 -0.40026410281127539 0.13237877311027449 0 -0.38372255811484618 0.13025780258704611 0 -0.40926453963391513 0.14045102348790381 0 -0.39283331973148827 0.14452614648979731 0 -0.40026410281127539 0.13237877311027449 0 -0.38372255811484618 0.13025780258704611 0 -0.36636290901460722 0.1509782344479508 0 -0.36747352968705388 0.12273486311700831 0 -0.36636290901460722 0.1509782344479508 0 -0.36747352968705388 0.12273486311700831 0 -0.35528769071996391 0.12689780186549679 0 -0.36636290901460722 0.1509782344479508 0 -0.36747352968705388 0.12273486311700831 0 -0.35528769071996391 0.12689780186549679 0 -0.33512599087492562 0.1447950320020088 0 -0.35528769071996391 0.12689780186549679 0 -0.35168351666373848 0.14314256241625531 0 -0.33512599087492562 0.1447950320020088 0 -0.35528769071996391 0.12689780186549679 0 -0.33512599087492562 0.1447950320020088 0 -0.34115039425197219 0.12498493974687711 0 -0.35528769071996391 0.12689780186549679 0 -0.35168351666373848 0.14314256241625531 0 -0.36636290901460722 0.1509782344479508 0 -0.35168351666373848 0.14314256241625531 0 -0.36636290901460722 0.1509782344479508 0 -0.34333519974196419 0.16612441953572921 0 -0.38484252596519369 0.16167484958157691 0 -0.36636290901460722 0.1509782344479508 0 -0.36525228834216061 0.17922160577889321 0 -0.36636290901460722 0.1509782344479508 0 -0.36525228834216061 0.17922160577889321 0 -0.36525228834216061 0.17922160577889321 0 -0.34333519974196419 0.16612441953572921 0 -0.34654591437965571 0.19533490523866279 0 -0.36636290901460722 0.1509782344479508 0 -0.36525228834216061 0.17922160577889321 0 -0.34333519974196419 0.16612441953572921 0 -0.34333519974196419 0.16612441953572921 0 -0.31496429102988749 0.16269226213852109 0 -0.33512599087492562 0.1447950320020088 0 -0.34333519974196419 0.16612441953572921 0 -0.34654591437965571 0.19533490523866279 0 -0.32412519241006588 0.1878495682783011 0 -0.31496429102988749 0.16269226213852109 0 -0.32412519241006588 0.1878495682783011 0 -0.34333519974196419 0.16612441953572921 0 -0.31496429102988749 0.16269226213852109 0 -0.32412519241006588 0.1878495682783011 0 -0.31303823693556859 0.17707572181323081 0 -0.31496429102988749 0.16269226213852109 0 -0.32412519241006588 0.1878495682783011 0 -0.31303823693556859 0.17707572181323081 0 -0.32412519241006588 0.1878495682783011 0 -0.3108046026399135 0.18379038091696129 0 -0.31496429102988749 0.16269226213852109 0 -0.31353256245119709 0.1587605055712967 0 -0.31354631638020197 0.13395604467094269 0 -0.33512599087492562 0.1447950320020088 0 -0.3122891553291075 0.14635758184588041 0 -0.31353256245119709 0.1587605055712967 0 -0.33512599087492562 0.1447950320020088 0 -0.3122891553291075 0.14635758184588041 0 -0.31496429102988749 0.16269226213852109 0 -0.31353256245119709 0.1587605055712967 0 -0.33512599087492562 0.1447950320020088 0 -0.31496429102988749 0.16269226213852109 0 -0.33512599087492562 0.1447950320020088 0 -0.31354631638020197 0.13395604467094269 0 -0.32917568526667751 0.12578156900391591 0 -0.33512599087492562 0.1447950320020088 0 -0.31354631638020197 0.13395604467094269 0 -0.32917568526667751 0.12578156900391591 0 -0.32114709127587232 0.11611322513389059 0 -0.32917568526667751 0.12578156900391591 0 -0.33512599087492562 0.1447950320020088 0 -0.34115039425197219 0.12498493974687711 0 -0.35168351666373848 0.14314256241625531 0 -0.34333519974196419 0.16612441953572921 0 -0.33512599087492562 0.1447950320020088 0 -0.36303104699726713 0.23570834844077809 0 -0.34244699517042121 0.23816418055786151 0 -0.36318679658289171 0.25196182354824148 0 -0.34244699517042121 0.23816418055786151 0 -0.36318679658289171 0.25196182354824148 0 -0.33952374355129727 0.25899057541505788 0 -0.37619177155740557 0.24036243622333081 0 -0.36303104699726713 0.23570834844077809 0 -0.36318679658289171 0.25196182354824148 0 -0.38435338999826391 0.22831720607051781 0 -0.37619177155740557 0.24036243622333081 0 -0.36303104699726713 0.23570834844077809 0 -0.38435338999826391 0.22831720607051781 0 -0.36303104699726713 0.23570834844077809 0 -0.36414166766971379 0.2074649771098355 0 -0.36303104699726713 0.23570834844077809 0 -0.36414166766971379 0.2074649771098355 0 -0.36303104699726713 0.23570834844077809 0 -0.35084793517488477 0.2210857468323085 0 -0.34244699517042121 0.23816418055786151 0 -0.36303104699726713 0.23570834844077809 0 -0.35084793517488477 0.2210857468323085 0 -0.36414166766971379 0.2074649771098355 0 -0.35084793517488477 0.2210857468323085 0 -0.36414166766971379 0.2074649771098355 0 -0.34654591437965571 0.19533490523866279 0 -0.36525228834216061 0.17922160577889321 0 -0.36414166766971379 0.2074649771098355 0 -0.38991122675871148 0.19784364296923759 0 -0.36525228834216061 0.17922160577889321 0 -0.36414166766971379 0.2074649771098355 0 -0.36525228834216061 0.17922160577889321 0 -0.36414166766971379 0.2074649771098355 0 -0.34654591437965571 0.19533490523866279 0 -0.32412519241006588 0.1878495682783011 0 -0.33328609379024349 0.2130068744180813 0 -0.34654591437965571 0.19533490523866279 0 -0.32412519241006588 0.1878495682783011 0 -0.33328609379024349 0.2130068744180813 0 -0.32412519241006588 0.1878495682783011 0 -0.33328609379024349 0.2130068744180813 0 -0.31080006153106382 0.20197173666100501 0 -0.32412519241006588 0.1878495682783011 0 -0.31080006153106382 0.20197173666100501 0 -0.3108046026399135 0.18379038091696129 0 -0.33328609379024349 0.2130068744180813 0 -0.31873218963182409 0.22654972870499029 0 -0.31080006153106382 0.20197173666100501 0 -0.35084793517488477 0.2210857468323085 0 -0.34654591437965571 0.19533490523866279 0 -0.33328609379024349 0.2130068744180813 0 -0.35084793517488477 0.2210857468323085 0 -0.33328609379024349 0.2130068744180813 0 -0.34244699517042121 0.23816418055786151 0 -0.33328609379024349 0.2130068744180813 0 -0.34244699517042121 0.23816418055786151 0 -0.33328609379024349 0.2130068744180813 0 -0.31873218963182409 0.22654972870499029 0 -0.34244699517042121 0.23816418055786151 0 -0.31873218963182409 0.22654972870499029 0 -0.32200613725511351 0.24850726385495631 0 -0.34244699517042121 0.23816418055786151 0 -0.31873218963182409 0.22654972870499029 0 -0.32200613725511351 0.24850726385495631 0 -0.30672251365844311 0.23743048015470111 0 -0.32200613725511351 0.24850726385495631 0 -0.34244699517042121 0.23816418055786151 0 -0.33952374355129727 0.25899057541505788 0 -0.29125564533142001 0.24067530578368901 0 -0.30672251365844311 0.23743048015470111 0 -0.30640548876467488 0.25787073169030861 0 -0.32200613725511351 0.24850726385495631 0 -0.30672251365844311 0.23743048015470111 0 -0.30640548876467488 0.25787073169030861 0 -0.29125564533142001 0.24067530578368901 0 -0.30672251365844311 0.23743048015470111 0 -0.29521310730918271 0.21354937073956171 0 -0.31873218963182409 0.22654972870499029 0 -0.30672251365844311 0.23743048015470111 0 -0.29521310730918271 0.21354937073956171 0 -0.29125564533142001 0.24067530578368901 0 -0.29521310730918271 0.21354937073956171 0 -0.29125564533142001 0.24067530578368901 0 -0.29521310730918271 0.21354937073956171 0 -0.27258595833473342 0.22149207507906341 0 -0.29521310730918271 0.21354937073956171 0 -0.28878760701375322 0.1984352968903606 0 -0.27490594785389072 0.20112241201531189 0 -0.31873218963182409 0.22654972870499029 0 -0.29521310730918271 0.21354937073956171 0 -0.31080006153106382 0.20197173666100501 0 -0.29521310730918271 0.21354937073956171 0 -0.29917056928694541 0.1864234356954344 0 -0.29521310730918271 0.21354937073956171 0 -0.31080006153106382 0.20197173666100501 0 -0.29917056928694541 0.1864234356954344 0 -0.31080006153106382 0.20197173666100501 0 -0.3108046026399135 0.18379038091696129 0 -0.29917056928694541 0.1864234356954344 0 -0.28878760701375322 0.1984352968903606 0 -0.29917056928694541 0.1864234356954344 0 -0.28955343229492791 0.1852490896997587 0 -0.29521310730918271 0.21354937073956171 0 -0.28878760701375322 0.1984352968903606 0 -0.29917056928694541 0.1864234356954344 0 -0.28878760701375322 0.1984352968903606 0 -0.27938784373491388 0.18917199981814359 0 -0.28955343229492791 0.1852490896997587 0 -0.27938784373491388 0.18917199981814359 0 -0.27490594785389072 0.20112241201531189 0 -0.26439180367967152 0.18225540552070321 0 -0.28878760701375322 0.1984352968903606 0 -0.27938784373491388 0.18917199981814359 0 -0.27490594785389072 0.20112241201531189 0 -0.27490594785389072 0.20112241201531189 0 -0.25370102580463139 0.2052288024824625 0 -0.26439180367967152 0.18225540552070321 0 -0.25370102580463139 0.2052288024824625 0 -0.26439180367967152 0.18225540552070321 0 -0.23359887481107691 0.1809086922627815 0 -0.27490594785389072 0.20112241201531189 0 -0.25370102580463139 0.2052288024824625 0 -0.27258595833473342 0.22149207507906341 0 -0.29521310730918271 0.21354937073956171 0 -0.27490594785389072 0.20112241201531189 0 -0.27258595833473342 0.22149207507906341 0 -0.29125564533142001 0.24067530578368901 0 -0.27258595833473342 0.22149207507906341 0 -0.26834113505385238 0.23837358332174549 0 -0.27258595833473342 0.22149207507906341 0 -0.25272375818517617 0.22994970808158929 0 -0.26834113505385238 0.23837358332174549 0 -0.25370102580463139 0.2052288024824625 0 -0.27258595833473342 0.22149207507906341 0 -0.25272375818517617 0.22994970808158929 0 -0.25272375818517617 0.22994970808158929 0 -0.25621817608628389 0.2460965770837312 0 -0.26834113505385238 0.23837358332174549 0 -0.25621817608628389 0.2460965770837312 0 -0.26834113505385238 0.23837358332174549 0 -0.26892213733164849 0.25365425058065472 0 -0.29125564533142001 0.24067530578368901 0 -0.26834113505385238 0.23837358332174549 0 -0.26892213733164849 0.25365425058065472 0 -0.29370567785695612 0.15770531643225719 0 -0.28412418886142132 0.16518528890623771 0 -0.28065913062351988 0.14575155473079041 0 -0.30159211447790629 0.14759241864651959 0 -0.29370567785695612 0.15770531643225719 0 -0.28065913062351988 0.14575155473079041 0 -0.29682817834931757 0.13068013418198679 0 -0.30159211447790629 0.14759241864651959 0 -0.28065913062351988 0.14575155473079041 0 -0.29682817834931757 0.13068013418198679 0 -0.28065913062351988 0.14575155473079041 0 -0.28285123447775751 0.1183560919224374 0 -0.31354631638020197 0.13395604467094269 0 -0.29682817834931757 0.13068013418198679 0 -0.30159211447790629 0.14759241864651959 0 -0.31354631638020197 0.13395604467094269 0 -0.3122891553291075 0.14635758184588041 0 -0.30159211447790629 0.14759241864651959 0 -0.31353256245119709 0.1587605055712967 0 -0.3122891553291075 0.14635758184588041 0 -0.30159211447790629 0.14759241864651959 0 -0.31496429102988749 0.16269226213852109 0 -0.31353256245119709 0.1587605055712967 0 -0.30488677357152572 0.1641353808659653 0 -0.30159211447790629 0.14759241864651959 0 -0.30488677357152572 0.1641353808659653 0 -0.29370567785695612 0.15770531643225719 0 -0.31353256245119709 0.1587605055712967 0 -0.30159211447790629 0.14759241864651959 0 -0.30488677357152572 0.1641353808659653 0 -0.31496429102988749 0.16269226213852109 0 -0.30225886166240762 0.17397067591913981 0 -0.31303823693556859 0.17707572181323081 0 -0.31496429102988749 0.16269226213852109 0 -0.30225886166240762 0.17397067591913981 0 -0.31496429102988749 0.16269226213852109 0 -0.30488677357152572 0.1641353808659653 0 -0.30225886166240762 0.17397067591913981 0 -0.30488677357152572 0.1641353808659653 0 -0.30225886166240762 0.17397067591913981 0 -0.29597535979189887 0.1670989905046398 0 -0.30488677357152572 0.1641353808659653 0 -0.29370567785695612 0.15770531643225719 0 -0.29597535979189887 0.1670989905046398 0 -0.31303823693556859 0.17707572181323081 0 -0.3108046026399135 0.18379038091696129 0 -0.30225886166240762 0.17397067591913981 0 -0.30225886166240762 0.17397067591913981 0 -0.29917056928694541 0.1864234356954344 0 -0.28955343229492791 0.1852490896997587 0 -0.3108046026399135 0.18379038091696129 0 -0.30225886166240762 0.17397067591913981 0 -0.29917056928694541 0.1864234356954344 0 -0.30225886166240762 0.17397067591913981 0 -0.28955343229492791 0.1852490896997587 0 -0.30225886166240762 0.17397067591913981 0 -0.28955343229492791 0.1852490896997587 0 -0.29024545837739651 0.173916500811098 0 -0.28955343229492791 0.1852490896997587 0 -0.29024545837739651 0.173916500811098 0 -0.27889874324695868 0.17762520371433099 0 -0.29024545837739651 0.173916500811098 0 -0.28412418886142132 0.16518528890623771 0 -0.27889874324695868 0.17762520371433099 0 -0.27938784373491388 0.18917199981814359 0 -0.28955343229492791 0.1852490896997587 0 -0.27889874324695868 0.17762520371433099 0 -0.29370567785695612 0.15770531643225719 0 -0.29597535979189887 0.1670989905046398 0 -0.28412418886142132 0.16518528890623771 0 -0.30225886166240762 0.17397067591913981 0 -0.29024545837739651 0.173916500811098 0 -0.29597535979189887 0.1670989905046398 0 -0.29024545837739651 0.173916500811098 0 -0.29597535979189887 0.1670989905046398 0 -0.28412418886142132 0.16518528890623771 0 -0.28412418886142132 0.16518528890623771 0 -0.26844272787379447 0.16268744982768751 0 -0.27889874324695868 0.17762520371433099 0 -0.28412418886142132 0.16518528890623771 0 -0.26844272787379447 0.16268744982768751 0 -0.28065913062351988 0.14575155473079041 0 -0.26844272787379447 0.16268744982768751 0 -0.27889874324695868 0.17762520371433099 0 -0.26439180367967152 0.18225540552070321 0 -0.27938784373491388 0.18917199981814359 0 -0.27889874324695868 0.17762520371433099 0 -0.26439180367967152 0.18225540552070321 0 -0.26844272787379447 0.16268744982768751 0 -0.26439180367967152 0.18225540552070321 0 -0.247018622616726 0.15992587597476091 0 -0.26844272787379447 0.16268744982768751 0 -0.25846103874104392 0.14702121199507179 0 -0.247018622616726 0.15992587597476091 0 -0.26844272787379447 0.16268744982768751 0 -0.25846103874104392 0.14702121199507179 0 -0.28065913062351988 0.14575155473079041 0 -0.25846103874104392 0.14702121199507179 0 -0.28065913062351988 0.14575155473079041 0 -0.25922316449870308 0.12628093809151891 0 -0.28065913062351988 0.14575155473079041 0 -0.25922316449870308 0.12628093809151891 0 -0.28285123447775751 0.1183560919224374 0 -0.25846103874104392 0.14702121199507179 0 -0.25922316449870308 0.12628093809151891 0 -0.2369615480924761 0.1404602413506009 0 -0.25922316449870308 0.12628093809151891 0 -0.25136603029008331 0.1103208693098497 0 -0.26687835675477128 0.1014348965859585 0 -0.25136603029008331 0.1103208693098497 0 -0.26687835675477128 0.1014348965859585 0 -0.24377998071086901 0.096378574065869249 0 -0.26687835675477128 0.1014348965859585 0 -0.28737892951993471 0.098967158637655914 0 -0.27569457229827071 0.081243623470509244 0 -0.26687835675477128 0.1014348965859585 0 -0.28285123447775751 0.1183560919224374 0 -0.28737892951993471 0.098967158637655914 0 -0.25922316449870308 0.12628093809151891 0 -0.26687835675477128 0.1014348965859585 0 -0.28285123447775751 0.1183560919224374 0 -0.29682817834931757 0.13068013418198679 0 -0.28285123447775751 0.1183560919224374 0 -0.30549209578720232 0.10774456093924389 0 -0.28285123447775751 0.1183560919224374 0 -0.28737892951993471 0.098967158637655914 0 -0.30549209578720232 0.10774456093924389 0 -0.28737892951993471 0.098967158637655914 0 -0.30549209578720232 0.10774456093924389 0 -0.29743787519420251 0.08153307720754506 0 -0.30549209578720232 0.10774456093924389 0 -0.29743787519420251 0.08153307720754506 0 -0.31354631638020197 0.13395604467094269 0 -0.29682817834931757 0.13068013418198679 0 -0.30549209578720232 0.10774456093924389 0 -0.31354631638020197 0.13395604467094269 0 -0.30549209578720232 0.10774456093924389 0 -0.29926204670725021 0.066629363318123747 0 -0.30931237829482389 0.073252958087475881 0 -0.31697319293959142 0.061410437985649477 0 -0.29926204670725021 0.066629363318123747 0 -0.30931237829482389 0.073252958087475881 0 -0.29743787519420251 0.08153307720754506 0 -0.30549209578720232 0.10774456093924389 0 -0.29743787519420251 0.08153307720754506 0 -0.31312795334666071 0.083579729522452809 0 -0.30931237829482389 0.073252958087475881 0 -0.29743787519420251 0.08153307720754506 0 -0.31312795334666071 0.083579729522452809 0 -0.28737892951993471 0.098967158637655914 0 -0.29743787519420251 0.08153307720754506 0 -0.27569457229827071 0.081243623470509244 0 -0.29743787519420251 0.08153307720754506 0 -0.28743776060402371 0.060458689408765323 0 -0.28938365460120269 0.05532159347584624 0 -0.29743787519420251 0.08153307720754506 0 -0.28938365460120269 0.05532159347584624 0 -0.29926204670725021 0.066629363318123747 0 -0.29743787519420251 0.08153307720754506 0 -0.28938365460120269 0.05532159347584624 0 -0.29743787519420251 0.08153307720754506 0 -0.27569457229827071 0.081243623470509244 0 -0.28743776060402371 0.060458689408765323 0 -0.27569457229827071 0.081243623470509244 0 -0.26257114212692878 0.06573449919026883 0 -0.28743776060402371 0.060458689408765323 0 -0.26257114212692878 0.06573449919026883 0 -0.28743776060402371 0.060458689408765323 0 -0.26687835675477128 0.1014348965859585 0 -0.25261226255175379 0.080423606239198905 0 -0.24377998071086901 0.096378574065869249 0 -0.26687835675477128 0.1014348965859585 0 -0.27569457229827071 0.081243623470509244 0 -0.25261226255175379 0.080423606239198905 0 -0.26257114212692878 0.06573449919026883 0 -0.23770452364983391 0.071010308971772351 0 -0.25261226255175379 0.080423606239198905 0 -0.26257114212692878 0.06573449919026883 0 -0.23770452364983391 0.071010308971772351 0 -0.27569457229827071 0.081243623470509244 0 -0.25261226255175379 0.080423606239198905 0 -0.26257114212692878 0.06573449919026883 0 -0.2522816967992324 0.037264740289820159 0 -0.27263172987273521 0.051913181220590639 0 -0.24906194248509719 0.058488871325365822 0 -0.26257114212692878 0.06573449919026883 0 -0.27263172987273521 0.051913181220590639 0 -0.24906194248509719 0.058488871325365822 0 -0.2522816967992324 0.037264740289820159 0 -0.2684979789729644 0.03593820420606865 0 -0.27263172987273521 0.051913181220590639 0 -0.2684979789729644 0.03593820420606865 0 -0.27263172987273521 0.051913181220590639 0 -0.28132943400820298 0.02911010974414751 0 -0.27263172987273521 0.051913181220590639 0 -0.28132943400820298 0.02911010974414751 0 -0.28938365460120269 0.05532159347584624 0 -0.26257114212692878 0.06573449919026883 0 -0.27263172987273521 0.051913181220590639 0 -0.28743776060402371 0.060458689408765323 0 -0.25267499080189931 -0.0034516002120552492 0 -0.26909988492935111 -0.0018655285383734981 0 -0.25157722050270093 0.012682655753942951 0 -0.26909988492935111 -0.0018655285383734981 0 -0.25157722050270093 0.012682655753942951 0 -0.27200359261247947 0.017754051058092819 0 -0.2522816967992324 0.037264740289820159 0 -0.25157722050270093 0.012682655753942951 0 -0.27200359261247947 0.017754051058092819 0 -0.2522816967992324 0.037264740289820159 0 -0.2684979789729644 0.03593820420606865 0 -0.27200359261247947 0.017754051058092819 0 -0.2522816967992324 0.037264740289820159 0 -0.27200359261247947 0.017754051058092819 0 -0.27200359261247947 0.017754051058092819 0 -0.28831373269731447 0.017122983851404761 0 -0.28132943400820298 0.02911010974414751 0 -0.2684979789729644 0.03593820420606865 0 -0.27200359261247947 0.017754051058092819 0 -0.28132943400820298 0.02911010974414751 0 -0.26909988492935111 -0.0018655285383734981 0 -0.2917254884257266 -0.0017566381736345419 0 -0.27200359261247947 0.017754051058092819 0 -0.2917254884257266 -0.0017566381736345419 0 -0.27200359261247947 0.017754051058092819 0 -0.28831373269731447 0.017122983851404761 0 -0.2917254884257266 -0.0017566381736345419 0 -0.28831373269731447 0.017122983851404761 0 -0.29997880334656019 0.01439552450637107 0 -0.2917254884257266 -0.0017566381736345419 0 -0.27200359261247947 0.017754051058092819 0 -0.28831373269731447 0.017122983851404761 0 -0.29656482898857922 0.02610767777843559 0 -0.29997880334656019 0.01439552450637107 0 -0.28831373269731447 0.017122983851404761 0 -0.28132943400820298 0.02911010974414751 0 -0.29656482898857922 0.02610767777843559 0 -0.28132943400820298 0.02911010974414751 0 -0.29656482898857922 0.02610767777843559 0 -0.29344050585463782 0.03493273697686209 0 -0.29656482898857922 0.02610767777843559 0 -0.31039051656375261 0.022327184027059441 0 -0.30541723396373921 0.038711125382435783 0 -0.31039051656375261 0.022327184027059441 0 -0.30541723396373921 0.038711125382435783 0 -0.32038394146944787 0.031620215762440292 0 -0.29656482898857922 0.02610767777843559 0 -0.31039051656375261 0.022327184027059441 0 -0.29997880334656019 0.01439552450637107 0 -0.31039051656375261 0.022327184027059441 0 -0.31177688145040278 0.0050359958776742568 0 -0.29997880334656019 0.01439552450637107 0 -0.2917254884257266 -0.0017566381736345419 0 -0.31177688145040278 0.0050359958776742568 0 -0.29997880334656019 0.01439552450637107 0 -0.27263172987273521 0.051913181220590639 0 -0.28743776060402371 0.060458689408765323 0 -0.28938365460120269 0.05532159347584624 0 -0.28938365460120269 0.05532159347584624 0 -0.29045052645802971 0.045802035002429492 0 -0.29738278035354182 0.050541329601553678 0 -0.28938365460120269 0.05532159347584624 0 -0.29738278035354182 0.050541329601553678 0 -0.29780899910201009 0.056562827273038227 0 -0.29926204670725021 0.066629363318123747 0 -0.28938365460120269 0.05532159347584624 0 -0.29780899910201009 0.056562827273038227 0 -0.28132943400820298 0.02911010974414751 0 -0.28938365460120269 0.05532159347584624 0 -0.29045052645802971 0.045802035002429492 0 -0.28132943400820298 0.02911010974414751 0 -0.28938365460120269 0.05532159347584624 0 -0.28132943400820298 0.02911010974414751 0 -0.29344050585463782 0.03493273697686209 0 -0.29045052645802971 0.045802035002429492 0 -0.29344050585463782 0.03493273697686209 0 -0.29045052645802971 0.045802035002429492 0 -0.30541723396373921 0.038711125382435783 0 -0.29045052645802971 0.045802035002429492 0 -0.30541723396373921 0.038711125382435783 0 -0.29738278035354182 0.050541329601553678 0 -0.29045052645802971 0.045802035002429492 0 -0.30541723396373921 0.038711125382435783 0 -0.29656482898857922 0.02610767777843559 0 -0.29344050585463782 0.03493273697686209 0 -0.30541723396373921 0.038711125382435783 0 -0.30541723396373921 0.038711125382435783 0 -0.30520751474604563 0.05375902269662923 0 -0.31780711793698518 0.045521831715634557 0 -0.29926204670725021 0.066629363318123747 0 -0.30520751474604563 0.05375902269662923 0 -0.31697319293959142 0.061410437985649477 0 -0.30541723396373921 0.038711125382435783 0 -0.30520751474604563 0.05375902269662923 0 -0.29738278035354182 0.050541329601553678 0 -0.30520751474604563 0.05375902269662923 0 -0.29738278035354182 0.050541329601553678 0 -0.29780899910201009 0.056562827273038227 0 -0.29926204670725021 0.066629363318123747 0 -0.30520751474604563 0.05375902269662923 0 -0.29780899910201009 0.056562827273038227 0 -0.32553678940662539 0.052415823907368687 0 -0.31780711793698518 0.045521831715634557 0 -0.33422422494732851 0.04449049745268327 0 -0.31697319293959142 0.061410437985649477 0 -0.32553678940662539 0.052415823907368687 0 -0.31780711793698518 0.045521831715634557 0 -0.30520751474604563 0.05375902269662923 0 -0.31697319293959142 0.061410437985649477 0 -0.31780711793698518 0.045521831715634557 0 -0.31697319293959142 0.061410437985649477 0 -0.32808937753058609 0.059947696530402161 0 -0.32553678940662539 0.052415823907368687 0 -0.31780711793698518 0.045521831715634557 0 -0.32038394146944787 0.031620215762440292 0 -0.33422422494732851 0.04449049745268327 0 -0.30541723396373921 0.038711125382435783 0 -0.31780711793698518 0.045521831715634557 0 -0.32038394146944787 0.031620215762440292 0 -0.30541723396373921 0.038711125382435783 0 -0.32038394146944787 0.031620215762440292 0 -0.32038394146944787 0.031620215762440292 0 -0.33422422494732851 0.04449049745268327 0 -0.33422422494732851 0.04449049745268327 0 -0.34051642268078958 0.02208187176518148 0 -0.34924074101412461 0.03711639968071382 0 -0.32038394146944787 0.031620215762440292 0 -0.33422422494732851 0.04449049745268327 0 -0.34051642268078958 0.02208187176518148 0 -0.33422422494732851 0.04449049745268327 0 -0.34715076893326918 0.04673829876922056 0 -0.34924074101412461 0.03711639968071382 0 -0.33422422494732851 0.04449049745268327 0 -0.34806450842520742 0.057360779142928031 0 -0.34715076893326918 0.04673829876922056 0 -0.33422422494732851 0.04449049745268327 0 -0.34806450842520742 0.057360779142928031 0 -0.33422422494732851 0.04449049745268327 0 -0.33482930480244999 0.055095026294593591 0 -0.34806450842520742 0.057360779142928031 0 -0.3407399656121517 0.06083029771636933 0 -0.33482930480244999 0.055095026294593591 0 -0.33440717105718593 0.063083878638897639 0 -0.3407399656121517 0.06083029771636933 0 -0.33482930480244999 0.055095026294593591 0 -0.34806450842520742 0.057360779142928031 0 -0.32808937753058609 0.059947696530402161 0 -0.33482930480244999 0.055095026294593591 0 -0.33440717105718593 0.063083878638897639 0 -0.32808937753058609 0.059947696530402161 0 -0.32553678940662539 0.052415823907368687 0 -0.33482930480244999 0.055095026294593591 0 -0.32553678940662539 0.052415823907368687 0 -0.33422422494732851 0.04449049745268327 0 -0.33482930480244999 0.055095026294593591 0 -0.31039051656375261 0.022327184027059441 0 -0.31177688145040278 0.0050359958776742568 0 -0.3261420213634148 0.01391490981329808 0 -0.32828291010712762 -0.0049346835118845543 0 -0.31177688145040278 0.0050359958776742568 0 -0.3261420213634148 0.01391490981329808 0 -0.31039051656375261 0.022327184027059441 0 -0.32038394146944787 0.031620215762440292 0 -0.3261420213634148 0.01391490981329808 0 -0.31039051656375261 0.022327184027059441 0 -0.32038394146944787 0.031620215762440292 0 -0.32038394146944787 0.031620215762440292 0 -0.34051642268078958 0.02208187176518148 0 -0.32038394146944787 0.031620215762440292 0 -0.3261420213634148 0.01391490981329808 0 -0.34051642268078958 0.02208187176518148 0 -0.3261420213634148 0.01391490981329808 0 -0.34051642268078958 0.02208187176518148 0 -0.34055428987364128 0.0059527955302196532 0 -0.32828291010712762 -0.0049346835118845543 0 -0.3261420213634148 0.01391490981329808 0 -0.34055428987364128 0.0059527955302196532 0 -0.34051642268078958 0.02208187176518148 0 -0.34055428987364128 0.0059527955302196532 0 -0.36064890389212972 0.0125435277679194 0 -0.34718119132474479 -0.01384164818341615 0 -0.34055428987364128 0.0059527955302196532 0 -0.36064890389212972 0.0125435277679194 0 -0.34051642268078958 0.02208187176518148 0 -0.36064890389212972 0.0125435277679194 0 -0.34051642268078958 0.02208187176518148 0 -0.35699945364537122 0.027147445145089769 0 -0.34924074101412461 0.03711639968071382 0 -0.34051642268078958 0.02208187176518148 0 -0.35699945364537122 0.027147445145089769 0 -0.36064890389212972 0.0125435277679194 0 -0.35699945364537122 0.027147445145089769 0 -0.36163302121541668 0.029781402687577421 0 -0.35940737946489582 0.035374977024224222 0 -0.37998819155715241 0.0057865511937031933 0 -0.36738966121720701 0.029980518529024301 0 -0.37123175334181557 0.027162262264614271 0 -0.37998819155715241 0.0057865511937031933 0 -0.36738966121720701 0.029980518529024301 0 -0.3645477689834325 0.020181962352102071 0 -0.37998819155715241 0.0057865511937031933 0 -0.36738966121720701 0.029980518529024301 0 -0.36273559053419291 0.026622670051971411 0 -0.36738966121720701 0.029980518529024301 0 -0.3645477689834325 0.020181962352102071 0 -0.35699945364537122 0.027147445145089769 0 -0.36163302121541668 0.029781402687577421 0 -0.36273559053419291 0.026622670051971411 0 -0.35699945364537122 0.027147445145089769 0 -0.36273559053419291 0.026622670051971411 0 -0.3645477689834325 0.020181962352102071 0 -0.36163302121541668 0.029781402687577421 0 -0.36273559053419291 0.026622670051971411 0 -0.36738966121720701 0.029980518529024301 0 -0.35699945364537122 0.027147445145089769 0 -0.3645477689834325 0.020181962352102071 0 -0.36064890389212972 0.0125435277679194 0 -0.3645477689834325 0.020181962352102071 0 -0.36064890389212972 0.0125435277679194 0 -0.37998819155715241 0.0057865511937031933 0 -0.3645477689834325 0.020181962352102071 0 -0.36064890389212972 0.0125435277679194 0 -0.38683543611469601 0.0001369023841863784 0 -0.36064890389212972 0.0125435277679194 0 -0.37474494217865062 -0.0022388935110706832 0 -0.38683543611469601 0.0001369023841863784 0 -0.36064890389212972 0.0125435277679194 0 -0.37474494217865062 -0.0022388935110706832 0 -0.36307869926690151 -0.00068504054922277494 0 -0.36064890389212972 0.0125435277679194 0 -0.35479113087726238 0.05417448586434577 0 -0.34715076893326918 0.04673829876922056 0 -0.35593663516940488 0.04278932274017315 0 -0.35479113087726238 0.05417448586434577 0 -0.35147867423579721 0.06053566178096708 0 -0.3622197730044176 0.060127746183944272 0 -0.35479113087726238 0.05417448586434577 0 -0.35147867423579721 0.06053566178096708 0 -0.35479113087726238 0.05417448586434577 0 -0.34806450842520742 0.057360779142928031 0 -0.35147867423579721 0.06053566178096708 0 -0.35479113087726238 0.05417448586434577 0 -0.34806450842520742 0.057360779142928031 0 -0.34806450842520742 0.057360779142928031 0 -0.35147867423579721 0.06053566178096708 0 -0.3447014191436914 0.063951910484466787 0 -0.34806450842520742 0.057360779142928031 0 -0.35147867423579721 0.06053566178096708 0 -0.3407399656121517 0.06083029771636933 0 -0.34806450842520742 0.057360779142928031 0 -0.3407399656121517 0.06083029771636933 0 -0.34806450842520742 0.057360779142928031 0 -0.3447014191436914 0.063951910484466787 0 -0.35479113087726238 0.05417448586434577 0 -0.34806450842520742 0.057360779142928031 0 -0.34715076893326918 0.04673829876922056 0 -0.34715076893326918 0.04673829876922056 0 -0.34924074101412461 0.03711639968071382 0 -0.35593663516940488 0.04278932274017315 0 -0.36738966121720701 0.029980518529024301 0 -0.35479113087726238 0.05417448586434577 0 -0.35593663516940488 0.04278932274017315 0 -0.35699945364537122 0.027147445145089769 0 -0.34924074101412461 0.03711639968071382 0 -0.35940737946489582 0.035374977024224222 0 -0.34924074101412461 0.03711639968071382 0 -0.35593663516940488 0.04278932274017315 0 -0.35940737946489582 0.035374977024224222 0 -0.36738966121720701 0.029980518529024301 0 -0.35479113087726238 0.05417448586434577 0 -0.36677646394688163 0.041367990420506082 0 -0.37123175334181557 0.027162262264614271 0 -0.37046143272875132 0.04675171495388801 0 -0.36738966121720701 0.029980518529024301 0 -0.35479113087726238 0.05417448586434577 0 -0.37123175334181557 0.027162262264614271 0 -0.36677646394688163 0.041367990420506082 0 -0.37046143272875132 0.04675171495388801 0 -0.3764786745208083 0.032098692741998169 0 -0.37123175334181557 0.027162262264614271 0 -0.37046143272875132 0.04675171495388801 0 -0.36163302121541668 0.029781402687577421 0 -0.36738966121720701 0.029980518529024301 0 -0.35940737946489582 0.035374977024224222 0 -0.36738966121720701 0.029980518529024301 0 -0.35593663516940488 0.04278932274017315 0 -0.35940737946489582 0.035374977024224222 0 -0.36738966121720701 0.029980518529024301 0 -0.37123175334181557 0.027162262264614271 0 -0.36677646394688163 0.041367990420506082 0 -0.36677646394688163 0.041367990420506082 0 -0.37046143272875132 0.04675171495388801 0 -0.36802302346639398 0.047906750352184523 0 -0.36677646394688163 0.041367990420506082 0 -0.36802302346639398 0.047906750352184523 0 -0.37046143272875132 0.04675171495388801 0 -0.37000681959492809 0.05831264468359916 0 -0.36802302346639398 0.047906750352184523 0 -0.37000681959492809 0.05831264468359916 0 -0.37046143272875132 0.04675171495388801 0 -0.36802302346639398 0.047906750352184523 0 -0.37000681959492809 0.05831264468359916 0 -0.37046143272875132 0.04675171495388801 0 -0.36802302346639398 0.047906750352184523 0 -0.35479113087726238 0.05417448586434577 0 -0.36802302346639398 0.047906750352184523 0 -0.35479113087726238 0.05417448586434577 0 -0.36802302346639398 0.047906750352184523 0 -0.3622197730044176 0.060127746183944272 0 -0.35479113087726238 0.05417448586434577 0 -0.36677646394688163 0.041367990420506082 0 -0.36802302346639398 0.047906750352184523 0 -0.36802302346639398 0.047906750352184523 0 -0.3622197730044176 0.060127746183944272 0 -0.37000681959492809 0.05831264468359916 0 -0.35147867423579721 0.06053566178096708 0 -0.36926886504626422 0.077079019973005369 0 -0.3622197730044176 0.060127746183944272 0 -0.37000681959492809 0.05831264468359916 0 -0.36926886504626422 0.077079019973005369 0 -0.37000681959492809 0.05831264468359916 0 -0.36926886504626422 0.077079019973005369 0 -0.37079498002478778 0.078498176574577722 0 -0.36926886504626422 0.077079019973005369 0 -0.34551673285671652 0.071984855543133663 0 -0.36912013352382872 0.080861301107253064 0 -0.37000681959492809 0.05831264468359916 0 -0.37079498002478778 0.078498176574577722 0 -0.37470600383380392 0.082961959162170973 0 -0.35147867423579721 0.06053566178096708 0 -0.3622197730044176 0.060127746183944272 0 -0.36926886504626422 0.077079019973005369 0 -0.37000681959492809 0.05831264468359916 0 -0.37470600383380392 0.082961959162170973 0 -0.37000681959492809 0.05831264468359916 0 -0.36926886504626422 0.077079019973005369 0 -0.36926886504626422 0.077079019973005369 0 -0.37079498002478778 0.078498176574577722 0 -0.34551673285671652 0.071984855543133663 0 -0.34763839367566191 0.079069075487607554 0 -0.36912013352382872 0.080861301107253064 0 -0.34551673285671652 0.071984855543133663 0 -0.36912013352382872 0.080861301107253064 0 -0.35147867423579721 0.06053566178096708 0 -0.36926886504626422 0.077079019973005369 0 -0.34551673285671652 0.071984855543133663 0 -0.34408269824063842 0.074738747125954852 0 -0.34763839367566191 0.079069075487607554 0 -0.34179116264722731 0.080399472229040897 0 -0.34408269824063842 0.074738747125954852 0 -0.34551673285671652 0.071984855543133663 0 -0.34763839367566191 0.079069075487607554 0 -0.34408269824063842 0.074738747125954852 0 -0.34551673285671652 0.071984855543133663 0 -0.35147867423579721 0.06053566178096708 0 -0.34551673285671652 0.071984855543133663 0 -0.3447014191436914 0.063951910484466787 0 -0.35147867423579721 0.06053566178096708 0 -0.34551673285671652 0.071984855543133663 0 -0.34763839367566191 0.079069075487607554 0 -0.36858415035949882 0.094491491786065696 0 -0.34763839367566191 0.079069075487607554 0 -0.36858415035949882 0.094491491786065696 0 -0.35198293914272999 0.094145145766245733 0 -0.34456144318064219 0.08667329674911145 0 -0.34763839367566191 0.079069075487607554 0 -0.35198293914272999 0.094145145766245733 0 -0.34456144318064219 0.08667329674911145 0 -0.35198293914272999 0.094145145766245733 0 -0.34431035454597703 0.093789606507308373 0 -0.34456144318064219 0.08667329674911145 0 -0.34763839367566191 0.079069075487607554 0 -0.34179116264722731 0.080399472229040897 0 -0.3782625711058698 0.101617738696854 0 -0.37470600383380392 0.082961959162170973 0 -0.36858415035949882 0.094491491786065696 0 -0.34763839367566191 0.079069075487607554 0 -0.36912013352382872 0.080861301107253064 0 -0.36858415035949882 0.094491491786065696 0 -0.36926886504626422 0.077079019973005369 0 -0.37079498002478778 0.078498176574577722 0 -0.36912013352382872 0.080861301107253064 0 -0.36926886504626422 0.077079019973005369 0 -0.36912013352382872 0.080861301107253064 0 -0.36912013352382872 0.080861301107253064 0 -0.37470600383380392 0.082961959162170973 0 -0.37079498002478778 0.078498176574577722 0 -0.36912013352382872 0.080861301107253064 0 -0.37470600383380392 0.082961959162170973 0 -0.36912013352382872 0.080861301107253064 0 -0.37470600383380392 0.082961959162170973 0 -0.36858415035949882 0.094491491786065696 0 -0.36912013352382872 0.080861301107253064 0 -0.36858415035949882 0.094491491786065696 0 -0.36858415035949882 0.094491491786065696 0 -0.36747352968705388 0.12273486311700831 0 -0.3782625711058698 0.101617738696854 0 -0.36858415035949882 0.094491491786065696 0 -0.36858415035949882 0.094491491786065696 0 -0.36006702585218792 0.10838608290929221 0 -0.35198293914272999 0.094145145766245733 0 -0.36858415035949882 0.094491491786065696 0 -0.36006702585218792 0.10838608290929221 0 -0.36747352968705388 0.12273486311700831 0 -0.3782625711058698 0.101617738696854 0 -0.36858415035949882 0.094491491786065696 0 -0.36747352968705388 0.12273486311700831 0 -0.36006702585218792 0.10838608290929221 0 -0.36747352968705388 0.12273486311700831 0 -0.35832203275528268 0.1183511860346923 0 -0.35528769071996391 0.12689780186549679 0 -0.36747352968705388 0.12273486311700831 0 -0.35832203275528268 0.1183511860346923 0 -0.35528769071996391 0.12689780186549679 0 -0.35832203275528268 0.1183511860346923 0 -0.35045988476192508 0.115385996246972 0 -0.36006702585218792 0.10838608290929221 0 -0.35832203275528268 0.1183511860346923 0 -0.35045988476192508 0.115385996246972 0 -0.35045988476192508 0.115385996246972 0 -0.34547580274860562 0.10394098399483009 0 -0.33570271963636877 0.11206429961599181 0 -0.35528769071996391 0.12689780186549679 0 -0.35045988476192508 0.115385996246972 0 -0.34115039425197219 0.12498493974687711 0 -0.36006702585218792 0.10838608290929221 0 -0.35198293914272999 0.094145145766245733 0 -0.34547580274860562 0.10394098399483009 0 -0.36006702585218792 0.10838608290929221 0 -0.35045988476192508 0.115385996246972 0 -0.34547580274860562 0.10394098399483009 0 -0.35198293914272999 0.094145145766245733 0 -0.34547580274860562 0.10394098399483009 0 -0.34431035454597703 0.093789606507308373 0 -0.34547580274860562 0.10394098399483009 0 -0.34431035454597703 0.093789606507308373 0 -0.335413749579693 0.097286071719103154 0 -0.34547580274860562 0.10394098399483009 0 -0.335413749579693 0.097286071719103154 0 -0.33570271963636877 0.11206429961599181 0 -0.335413749579693 0.097286071719103154 0 -0.33570271963636877 0.11206429961599181 0 -0.32444247844199348 0.1047035033472971 0 -0.35045988476192508 0.115385996246972 0 -0.34115039425197219 0.12498493974687711 0 -0.33570271963636877 0.11206429961599181 0 -0.32917568526667751 0.12578156900391591 0 -0.33570271963636877 0.11206429961599181 0 -0.32114709127587232 0.11611322513389059 0 -0.32917568526667751 0.12578156900391591 0 -0.34115039425197219 0.12498493974687711 0 -0.33570271963636877 0.11206429961599181 0 -0.31354631638020197 0.13395604467094269 0 -0.30549209578720232 0.10774456093924389 0 -0.32114709127587232 0.11611322513389059 0 -0.30549209578720232 0.10774456093924389 0 -0.32114709127587232 0.11611322513389059 0 -0.32444247844199348 0.1047035033472971 0 -0.33570271963636877 0.11206429961599181 0 -0.32114709127587232 0.11611322513389059 0 -0.32444247844199348 0.1047035033472971 0 -0.30549209578720232 0.10774456093924389 0 -0.32444247844199348 0.1047035033472971 0 -0.32445673593083119 0.090309359328255762 0 -0.30549209578720232 0.10774456093924389 0 -0.32445673593083119 0.090309359328255762 0 -0.31312795334666071 0.083579729522452809 0 -0.335413749579693 0.097286071719103154 0 -0.32444247844199348 0.1047035033472971 0 -0.32445673593083119 0.090309359328255762 0 -0.32445673593083119 0.090309359328255762 0 -0.3275606083710243 0.080211281293741998 0 -0.31312795334666071 0.083579729522452809 0 -0.3275606083710243 0.080211281293741998 0 -0.31312795334666071 0.083579729522452809 0 -0.31976082328641481 0.073112182403608325 0 -0.30931237829482389 0.073252958087475881 0 -0.31312795334666071 0.083579729522452809 0 -0.31976082328641481 0.073112182403608325 0 -0.30931237829482389 0.073252958087475881 0 -0.31697319293959142 0.061410437985649477 0 -0.31976082328641481 0.073112182403608325 0 -0.31697319293959142 0.061410437985649477 0 -0.31976082328641481 0.073112182403608325 0 -0.32886731949388731 0.069155273298144179 0 -0.31697319293959142 0.061410437985649477 0 -0.32808937753058609 0.059947696530402161 0 -0.32886731949388731 0.069155273298144179 0 -0.3275606083710243 0.080211281293741998 0 -0.31976082328641481 0.073112182403608325 0 -0.32886731949388731 0.069155273298144179 0 -0.32886731949388731 0.069155273298144179 0 -0.33770721458858299 0.069047958238937293 0 -0.336378655355973 0.076693290193422539 0 -0.3275606083710243 0.080211281293741998 0 -0.32886731949388731 0.069155273298144179 0 -0.336378655355973 0.076693290193422539 0 -0.33440717105718593 0.063083878638897639 0 -0.32886731949388731 0.069155273298144179 0 -0.33770721458858299 0.069047958238937293 0 -0.32808937753058609 0.059947696530402161 0 -0.33440717105718593 0.063083878638897639 0 -0.32886731949388731 0.069155273298144179 0 -0.3407399656121517 0.06083029771636933 0 -0.33440717105718593 0.063083878638897639 0 -0.33770721458858299 0.069047958238937293 0 -0.3407399656121517 0.06083029771636933 0 -0.3447014191436914 0.063951910484466787 0 -0.33770721458858299 0.069047958238937293 0 -0.34551673285671652 0.071984855543133663 0 -0.3447014191436914 0.063951910484466787 0 -0.33770721458858299 0.069047958238937293 0 -0.34408269824063842 0.074738747125954852 0 -0.33770721458858299 0.069047958238937293 0 -0.336378655355973 0.076693290193422539 0 -0.34408269824063842 0.074738747125954852 0 -0.34551673285671652 0.071984855543133663 0 -0.33770721458858299 0.069047958238937293 0 -0.34551673285671652 0.071984855543133663 0 -0.33770721458858299 0.069047958238937293 0 -0.34408269824063842 0.074738747125954852 0 -0.336378655355973 0.076693290193422539 0 -0.34179116264722731 0.080399472229040897 0 -0.336378655355973 0.076693290193422539 0 -0.34179116264722731 0.080399472229040897 0 -0.33708436589161489 0.085963183755354639 0 -0.34456144318064219 0.08667329674911145 0 -0.34179116264722731 0.080399472229040897 0 -0.33708436589161489 0.085963183755354639 0 -0.34456144318064219 0.08667329674911145 0 -0.34431035454597703 0.093789606507308373 0 -0.33708436589161489 0.085963183755354639 0 -0.34431035454597703 0.093789606507308373 0 -0.335413749579693 0.097286071719103154 0 -0.33708436589161489 0.085963183755354639 0 -0.335413749579693 0.097286071719103154 0 -0.32445673593083119 0.090309359328255762 0 -0.33708436589161489 0.085963183755354639 0 -0.32445673593083119 0.090309359328255762 0 -0.3275606083710243 0.080211281293741998 0 -0.33708436589161489 0.085963183755354639 0 -0.3275606083710243 0.080211281293741998 0 -0.336378655355973 0.076693290193422539 0 -0.33708436589161489 0.085963183755354639 0 -0.38891458820749281 0.47713565504117422 0 -0.42172655890518862 0.5 0 -0.3640375775585698 0.5 0 -0.38891458820749281 0.47713565504117422 0 -0.37103467036260362 0.45695891695805302 0 -0.36943712044780219 0.47475959506207249 0 -0.39694697642853649 0.45370639251272787 0 -0.37103467036260362 0.45695891695805302 0 -0.38891458820749281 0.47713565504117422 0 -0.39694697642853649 0.45370639251272787 0 -0.37103467036260362 0.45695891695805302 0 -0.38249991962136642 0.44345487931465249 0 -0.39694697642853649 0.45370639251272787 0 -0.37103467036260362 0.45695891695805302 0 -0.38249991962136642 0.44345487931465249 0 -0.39694697642853649 0.45370639251272787 0 -0.40464661760035381 0.43350824459614162 0 -0.38891458820749281 0.47713565504117422 0 -0.39694697642853649 0.45370639251272787 0 -0.41631826774707797 0.4711213942969617 0 -0.39694697642853649 0.45370639251272787 0 -0.42285928249446952 0.45045386806740279 0 -0.41631826774707797 0.4711213942969617 0 -0.42285928249446952 0.45045386806740279 0 -0.42501824733507809 0.43459816807542118 0 -0.40464661760035381 0.43350824459614162 0 -0.39694697642853649 0.45370639251272787 0 -0.42285928249446952 0.45045386806740279 0 -0.39694697642853649 0.45370639251272787 0 -0.42285928249446952 0.45045386806740279 0 -0.40464661760035381 0.43350824459614162 0 -0.42285928249446952 0.45045386806740279 0 -0.43521244088076849 0.46107148678855758 0 -0.44877158856040261 0.44720134362207808 0 -0.42285928249446952 0.45045386806740279 0 -0.44877158856040261 0.44720134362207808 0 -0.42285928249446952 0.45045386806740279 0 -0.43592409671607729 0.44045812782560079 0 -0.44877158856040261 0.44720134362207808 0 -0.42285928249446952 0.45045386806740279 0 -0.43592409671607729 0.44045812782560079 0 -0.42501824733507809 0.43459816807542118 0 -0.42285928249446952 0.45045386806740279 0 -0.43521244088076849 0.46107148678855758 0 -0.41631826774707797 0.4711213942969617 0 -0.41631826774707797 0.4711213942969617 0 -0.42172655890518862 0.5 0 -0.43935827984199688 0.47473889959161758 0 -0.43521244088076849 0.46107148678855758 0 -0.41631826774707797 0.4711213942969617 0 -0.43935827984199688 0.47473889959161758 0 -0.38891458820749281 0.47713565504117422 0 -0.41631826774707797 0.4711213942969617 0 -0.42172655890518862 0.5 0 -0.42172655890518862 0.5 0 -0.43935827984199688 0.47473889959161758 0 -0.47784082473980471 0.47626967285504462 0 -0.42172655890518862 0.5 0 -0.5 0.5 0 -0.47784082473980471 0.47626967285504462 0 -0.43935827984199688 0.47473889959161758 0 -0.47784082473980471 0.47626967285504462 0 -0.4487547857598953 0.46184192836472759 0 -0.5 0.5 0 -0.47784082473980471 0.47626967285504462 0 -0.49999999999999589 0.44077113011354369 0 -0.47784082473980471 0.47626967285504462 0 -0.47438579428019922 0.44398623686781052 0 -0.4627013265822788 0.4545376326069438 0 -0.47784082473980471 0.47626967285504462 0 -0.49999999999999589 0.44077113011354369 0 -0.47438579428019922 0.44398623686781052 0 -0.49999999999999589 0.44077113011354369 0 -0.47438579428019922 0.44398623686781052 0 -0.48180565015534738 0.42787197640755792 0 -0.49999999999999589 0.44077113011354369 0 -0.47438579428019922 0.44398623686781052 0 -0.47438579428019922 0.44398623686781052 0 -0.4627013265822788 0.4545376326069438 0 -0.44877158856040261 0.44720134362207808 0 -0.47438579428019922 0.44398623686781052 0 -0.44877158856040261 0.44720134362207808 0 -0.47438579428019922 0.44398623686781052 0 -0.44877158856040261 0.44720134362207808 0 -0.46289485375526918 0.43579199928955081 0 -0.44877158856040261 0.44720134362207808 0 -0.44878504691792248 0.43547483269414872 0 -0.46289485375526918 0.43579199928955081 0 -0.47784082473980471 0.47626967285504462 0 -0.4627013265822788 0.4545376326069438 0 -0.4487547857598953 0.46184192836472759 0 -0.4627013265822788 0.4545376326069438 0 -0.4487547857598953 0.46184192836472759 0 -0.44877158856040261 0.44720134362207808 0 -0.4487547857598953 0.46184192836472759 0 -0.44877158856040261 0.44720134362207808 0 -0.43521244088076849 0.46107148678855758 0 -0.4487547857598953 0.46184192836472759 0 -0.44877158856040261 0.44720134362207808 0 -0.43521244088076849 0.46107148678855758 0 -0.43935827984199688 0.47473889959161758 0 -0.4487547857598953 0.46184192836472759 0 -0.44877158856040261 0.44720134362207808 0 -0.44508566455651338 0.43839632914573512 0 -0.44878504691792248 0.43547483269414872 0 -0.44877158856040261 0.44720134362207808 0 -0.44878504691792248 0.43547483269414872 0 -0.43592409671607729 0.44045812782560079 0 -0.44877158856040261 0.44720134362207808 0 -0.44508566455651338 0.43839632914573512 0 -0.44531233658805403 0.42513554986162888 0 -0.44878504691792248 0.43547483269414872 0 -0.44880957839306629 0.41410011360809668 0 -0.44878504691792248 0.43547483269414872 0 -0.44880957839306629 0.41410011360809668 0 -0.43788570063392329 0.43164093021736671 0 -0.44531233658805403 0.42513554986162888 0 -0.44878504691792248 0.43547483269414872 0 -0.43592409671607729 0.44045812782560079 0 -0.44508566455651338 0.43839632914573512 0 -0.43788570063392329 0.43164093021736671 0 -0.44508566455651338 0.43839632914573512 0 -0.43788570063392329 0.43164093021736671 0 -0.44878504691792248 0.43547483269414872 0 -0.44508566455651338 0.43839632914573512 0 -0.44878504691792248 0.43547483269414872 0 -0.44531233658805403 0.42513554986162888 0 -0.44880957839306629 0.41410011360809668 0 -0.42391867717568832 0.41711337076656618 0 -0.44880957839306629 0.41410011360809668 0 -0.46585669794528167 0.42199291516666237 0 -0.4641229039382897 0.40091036417177778 0 -0.44878504691792248 0.43547483269414872 0 -0.46585669794528167 0.42199291516666237 0 -0.44878504691792248 0.43547483269414872 0 -0.44880957839306629 0.41410011360809668 0 -0.46585669794528167 0.42199291516666237 0 -0.44878504691792248 0.43547483269414872 0 -0.46585669794528167 0.42199291516666237 0 -0.46289485375526918 0.43579199928955081 0 -0.47438579428019922 0.44398623686781052 0 -0.46289485375526918 0.43579199928955081 0 -0.48180565015534738 0.42787197640755792 0 -0.46585669794528167 0.42199291516666237 0 -0.46289485375526918 0.43579199928955081 0 -0.48180565015534738 0.42787197640755792 0 -0.46585669794528167 0.42199291516666237 0 -0.48292834897264081 0.4085109976391762 0 -0.4641229039382897 0.40091036417177778 0 -0.46585669794528167 0.42199291516666237 0 -0.48292834897264081 0.4085109976391762 0 -0.46585669794528167 0.42199291516666237 0 -0.48180565015534738 0.42787197640755792 0 -0.48292834897264081 0.4085109976391762 0 -0.48292834897264081 0.4085109976391762 0 -0.5 0.41790010511261683 0 -0.5 0.39502908011169002 0 -0.48180565015534738 0.42787197640755792 0 -0.48292834897264081 0.4085109976391762 0 -0.5 0.41790010511261683 0 -0.49999999999999589 0.44077113011354369 0 -0.48180565015534738 0.42787197640755792 0 -0.5 0.41790010511261683 0 -0.48850556386005051 0.3766603246979251 0 -0.5 0.39502908011169002 0 -0.47832653283541199 0.38608194873200979 0 -0.48850556386005051 0.3766603246979251 0 -0.5 0.39502908011169002 0 -0.5 0.36887446842263683 0 -0.48292834897264081 0.4085109976391762 0 -0.5 0.39502908011169002 0 -0.47832653283541199 0.38608194873200979 0 -0.48292834897264081 0.4085109976391762 0 -0.5 0.39502908011169002 0 -0.48292834897264081 0.4085109976391762 0 -0.47832653283541199 0.38608194873200979 0 -0.4641229039382897 0.40091036417177778 0 -0.48850556386005051 0.3766603246979251 0 -0.47832653283541199 0.38608194873200979 0 -0.48259334700195489 0.36409898273387958 0 -0.47832653283541199 0.38608194873200979 0 -0.46059005399087027 0.38292215568240928 0 -0.4641229039382897 0.40091036417177778 0 -0.47832653283541199 0.38608194873200979 0 -0.46059005399087027 0.38292215568240928 0 -0.46572599417265398 0.36772482908493609 0 -0.44880957839306629 0.41410011360809668 0 -0.4641229039382897 0.40091036417177778 0 -0.44883410986820999 0.3927253945220448 0 -0.46059005399087027 0.38292215568240928 0 -0.4641229039382897 0.40091036417177778 0 -0.44883410986820999 0.3927253945220448 0 -0.44880957839306629 0.41410011360809668 0 -0.44883410986820999 0.3927253945220448 0 -0.43699833754743561 0.40294499431243458 0 -0.44880957839306629 0.41410011360809668 0 -0.44883410986820999 0.3927253945220448 0 -0.44883410986820999 0.3927253945220448 0 -0.43978391516082421 0.3912231797547942 0 -0.43699833754743561 0.40294499431243458 0 -0.44883410986820999 0.3927253945220448 0 -0.43978391516082421 0.3912231797547942 0 -0.44802713623065987 0.37645115623263098 0 -0.44883410986820999 0.3927253945220448 0 -0.44885864134335329 0.37135067543599282 0 -0.44883410986820999 0.3927253945220448 0 -0.44802713623065987 0.37645115623263098 0 -0.44885864134335329 0.37135067543599282 0 -0.43978391516082421 0.3912231797547942 0 -0.44802713623065987 0.37645115623263098 0 -0.42527607699699133 0.39277117395206662 0 -0.46059005399087027 0.38292215568240928 0 -0.44883410986820999 0.3927253945220448 0 -0.44885864134335329 0.37135067543599282 0 -0.44802713623065987 0.37645115623263098 0 -0.4250431626101242 0.37647010748543319 0 -0.42527607699699133 0.39277117395206662 0 -0.44802713623065987 0.37645115623263098 0 -0.42527607699699133 0.39277117395206662 0 -0.4250431626101242 0.37647010748543319 0 -0.4134887672477453 0.38574914578498593 0 -0.40122768387689522 0.38158953953487368 0 -0.4250431626101242 0.37647010748543319 0 -0.40122768387689522 0.38158953953487368 0 -0.4250431626101242 0.37647010748543319 0 -0.4134887672477453 0.38574914578498593 0 -0.42527607699699133 0.39277117395206662 0 -0.4250431626101242 0.37647010748543319 0 -0.40122768387689522 0.38158953953487368 0 -0.40086489287733429 0.37467411733839928 0 -0.4134887672477453 0.38574914578498593 0 -0.40798835104355652 0.39359067917546098 0 -0.40557429982823212 0.38794008425198068 0 -0.4134887672477453 0.38574914578498593 0 -0.40122768387689522 0.38158953953487368 0 -0.40557429982823212 0.38794008425198068 0 -0.40798835104355652 0.39359067917546098 0 -0.42527607699699133 0.39277117395206662 0 -0.40252501776332311 0.40909119167150271 0 -0.42527607699699133 0.39277117395206662 0 -0.40252501776332311 0.40909119167150271 0 -0.4134887672477453 0.38574914578498593 0 -0.40798835104355652 0.39359067917546098 0 -0.42527607699699133 0.39277117395206662 0 -0.42527607699699133 0.39277117395206662 0 -0.43699833754743561 0.40294499431243458 0 -0.42391867717568832 0.41711337076656618 0 -0.43978391516082421 0.3912231797547942 0 -0.42527607699699133 0.39277117395206662 0 -0.43699833754743561 0.40294499431243458 0 -0.44880957839306629 0.41410011360809668 0 -0.43699833754743561 0.40294499431243458 0 -0.42391867717568832 0.41711337076656618 0 -0.44531233658805403 0.42513554986162888 0 -0.42391867717568832 0.41711337076656618 0 -0.43788570063392329 0.43164093021736671 0 -0.44531233658805403 0.42513554986162888 0 -0.42391867717568832 0.41711337076656618 0 -0.43788570063392329 0.43164093021736671 0 -0.42391867717568832 0.41711337076656618 0 -0.42501824733507809 0.43459816807542118 0 -0.43592409671607729 0.44045812782560079 0 -0.43788570063392329 0.43164093021736671 0 -0.42501824733507809 0.43459816807542118 0 -0.42391867717568832 0.41711337076656618 0 -0.42501824733507809 0.43459816807542118 0 -0.40464661760035381 0.43350824459614162 0 -0.42527607699699133 0.39277117395206662 0 -0.42391867717568832 0.41711337076656618 0 -0.40252501776332311 0.40909119167150271 0 -0.42391867717568832 0.41711337076656618 0 -0.40252501776332311 0.40909119167150271 0 -0.40464661760035381 0.43350824459614162 0 -0.42391867717568832 0.41711337076656618 0 -0.40252501776332311 0.40909119167150271 0 -0.40252501776332311 0.40909119167150271 0 -0.37875820238401509 0.42613984176471847 0 -0.40252501776332311 0.40909119167150271 0 -0.40464661760035381 0.43350824459614162 0 -0.37875820238401509 0.42613984176471847 0 -0.38249991962136642 0.44345487931465249 0 -0.40464661760035381 0.43350824459614162 0 -0.37875820238401509 0.42613984176471847 0 -0.40252501776332311 0.40909119167150271 0 -0.37875820238401509 0.42613984176471847 0 -0.37769092578324193 0.39977892163450779 0 -0.37769092578324193 0.39977892163450779 0 -0.38963770449155072 0.39285491215608792 0 -0.37686086334024771 0.38257038446795849 0 -0.40252501776332311 0.40909119167150271 0 -0.37769092578324193 0.39977892163450779 0 -0.38963770449155072 0.39285491215608792 0 -0.40252501776332311 0.40909119167150271 0 -0.37769092578324193 0.39977892163450779 0 -0.37686086334024771 0.38257038446795849 0 -0.39363670834615189 0.38450398520198442 0 -0.40086489287733429 0.37467411733839928 0 -0.38963770449155072 0.39285491215608792 0 -0.37686086334024771 0.38257038446795849 0 -0.39363670834615189 0.38450398520198442 0 -0.37686086334024771 0.38257038446795849 0 -0.40086489287733429 0.37467411733839928 0 -0.37686086334024771 0.38257038446795849 0 -0.40086489287733429 0.37467411733839928 0 -0.39033592763893787 0.37070590072739279 0 -0.39363670834615189 0.38450398520198442 0 -0.40122768387689522 0.38158953953487368 0 -0.39959239714473138 0.39083097251260251 0 -0.38963770449155072 0.39285491215608792 0 -0.39363670834615189 0.38450398520198442 0 -0.39959239714473138 0.39083097251260251 0 -0.39363670834615189 0.38450398520198442 0 -0.40122768387689522 0.38158953953487368 0 -0.40086489287733429 0.37467411733839928 0 -0.40122768387689522 0.38158953953487368 0 -0.40557429982823212 0.38794008425198068 0 -0.39959239714473138 0.39083097251260251 0 -0.40798835104355652 0.39359067917546098 0 -0.40557429982823212 0.38794008425198068 0 -0.39959239714473138 0.39083097251260251 0 -0.40252501776332311 0.40909119167150271 0 -0.38963770449155072 0.39285491215608792 0 -0.39959239714473138 0.39083097251260251 0 -0.40798835104355652 0.39359067917546098 0 -0.40252501776332311 0.40909119167150271 0 -0.39959239714473138 0.39083097251260251 0 -0.3926828114571661 0.35541775914535301 0 -0.40105078960399698 0.34662517948293931 0 -0.40586906590548888 0.3393029225754271 0 -0.3926828114571661 0.35541775914535301 0 -0.39400561065841477 0.34382680172727831 0 -0.40586906590548888 0.3393029225754271 0 -0.3926828114571661 0.35541775914535301 0 -0.40586906590548888 0.3393029225754271 0 -0.3926828114571661 0.35541775914535301 0 -0.39969836615416421 0.35756427730283669 0 -0.39341808057325789 0.36431669671432632 0 -0.3926828114571661 0.35541775914535301 0 -0.40105078960399698 0.34662517948293931 0 -0.39969836615416421 0.35756427730283669 0 -0.3926828114571661 0.35541775914535301 0 -0.39400561065841477 0.34382680172727831 0 -0.38539473684528258 0.34837828204789067 0 -0.40105078960399698 0.34662517948293931 0 -0.40525205349158999 0.35429039595711992 0 -0.40888688292129022 0.34941903462410451 0 -0.40105078960399698 0.34662517948293931 0 -0.4080564418273247 0.34368885170405422 0 -0.40888688292129022 0.34941903462410451 0 -0.40105078960399698 0.34662517948293931 0 -0.40525205349158999 0.35429039595711992 0 -0.39969836615416421 0.35756427730283669 0 -0.40525205349158999 0.35429039595711992 0 -0.39969836615416421 0.35756427730283669 0 -0.40553625032349627 0.36037170931698131 0 -0.40553625032349627 0.36037170931698131 0 -0.40544017780568847 0.3661562974108753 0 -0.40025021147547779 0.36436392320030081 0 -0.40544017780568847 0.3661562974108753 0 -0.40025021147547779 0.36436392320030081 0 -0.397742957241214 0.36844985128713797 0 -0.39969836615416421 0.35756427730283669 0 -0.40553625032349627 0.36037170931698131 0 -0.40025021147547779 0.36436392320030081 0 -0.40544017780568847 0.3661562974108753 0 -0.40086489287733429 0.37467411733839928 0 -0.397742957241214 0.36844985128713797 0 -0.40086489287733429 0.37467411733839928 0 -0.397742957241214 0.36844985128713797 0 -0.39033592763893787 0.37070590072739279 0 -0.397742957241214 0.36844985128713797 0 -0.39341808057325789 0.36431669671432632 0 -0.39033592763893787 0.37070590072739279 0 -0.39969836615416421 0.35756427730283669 0 -0.40025021147547779 0.36436392320030081 0 -0.39341808057325789 0.36431669671432632 0 -0.40025021147547779 0.36436392320030081 0 -0.397742957241214 0.36844985128713797 0 -0.39341808057325789 0.36431669671432632 0 -0.3926828114571661 0.35541775914535301 0 -0.39341808057325789 0.36431669671432632 0 -0.37949655700884349 0.37153259571527891 0 -0.37949655700884349 0.37153259571527891 0 -0.37823932191431281 0.35548757599615399 0 -0.37024808467873749 0.36543132639488701 0 -0.3926828114571661 0.35541775914535301 0 -0.37949655700884349 0.37153259571527891 0 -0.37823932191431281 0.35548757599615399 0 -0.3926828114571661 0.35541775914535301 0 -0.37949655700884349 0.37153259571527891 0 -0.39341808057325789 0.36431669671432632 0 -0.39033592763893787 0.37070590072739279 0 -0.37949655700884349 0.37153259571527891 0 -0.37686086334024771 0.38257038446795849 0 -0.39033592763893787 0.37070590072739279 0 -0.37949655700884349 0.37153259571527891 0 -0.37823932191431281 0.35548757599615399 0 -0.38539473684528258 0.34837828204789067 0 -0.3787015959315434 0.33902802614693439 0 -0.3926828114571661 0.35541775914535301 0 -0.37823932191431281 0.35548757599615399 0 -0.38539473684528258 0.34837828204789067 0 -0.3787015959315434 0.33902802614693439 0 -0.37816355277066899 0.32985684687273281 0 -0.39158393304450312 0.32769252248945308 0 -0.39400561065841477 0.34382680172727831 0 -0.38539473684528258 0.34837828204789067 0 -0.3787015959315434 0.33902802614693439 0 -0.39158393304450312 0.32769252248945308 0 -0.37442838800096029 0.32044424157556423 0 -0.37816355277066899 0.32985684687273281 0 -0.39158393304450312 0.32769252248945308 0 -0.37442838800096029 0.32044424157556423 0 -0.38613629988198012 0.31665983269396758 0 -0.39158393304450312 0.32769252248945308 0 -0.37442838800096029 0.32044424157556423 0 -0.38613629988198012 0.31665983269396758 0 -0.37442838800096029 0.32044424157556423 0 -0.37415321332832258 0.31386652142517069 0 -0.39158393304450312 0.32769252248945308 0 -0.4039094095666334 0.320812311378052 0 -0.40925887999808552 0.33516025262174892 0 -0.38613629988198012 0.31665983269396758 0 -0.39830358576524327 0.31266849694114901 0 -0.39158393304450312 0.32769252248945308 0 -0.39830358576524327 0.31266849694114901 0 -0.39158393304450312 0.32769252248945308 0 -0.4039094095666334 0.320812311378052 0 -0.39830358576524327 0.31266849694114901 0 -0.4039094095666334 0.320812311378052 0 -0.40826549608127172 0.31275764886218971 0 -0.3787015959315434 0.33902802614693439 0 -0.40777024278950652 0.33697950655941222 0 -0.39158393304450312 0.32769252248945308 0 -0.40925887999808552 0.33516025262174892 0 -0.39158393304450312 0.32769252248945308 0 -0.40777024278950652 0.33697950655941222 0 -0.40925887999808552 0.33516025262174892 0 -0.3787015959315434 0.33902802614693439 0 -0.39158393304450312 0.32769252248945308 0 -0.40777024278950652 0.33697950655941222 0 -0.39400561065841477 0.34382680172727831 0 -0.3787015959315434 0.33902802614693439 0 -0.40777024278950652 0.33697950655941222 0 -0.39400561065841477 0.34382680172727831 0 -0.40586906590548888 0.3393029225754271 0 -0.40777024278950652 0.33697950655941222 0 -0.40105078960399698 0.34662517948293931 0 -0.40586906590548888 0.3393029225754271 0 -0.40105078960399698 0.34662517948293931 0 -0.40586906590548888 0.3393029225754271 0 -0.4080564418273247 0.34368885170405422 0 -0.4080564418273247 0.34368885170405422 0 -0.41125860555200922 0.34134685969384471 0 -0.40895905381070002 0.33957121871677393 0 -0.40586906590548888 0.3393029225754271 0 -0.4080564418273247 0.34368885170405422 0 -0.40895905381070002 0.33957121871677393 0 -0.4080564418273247 0.34368885170405422 0 -0.41125860555200922 0.34134685969384471 0 -0.41366919887348358 0.34576378073699821 0 -0.41125860555200922 0.34134685969384471 0 -0.41273643032526569 0.33662953043248711 0 -0.41433336845197538 0.3415594658204692 0 -0.41125860555200922 0.34134685969384471 0 -0.41433336845197538 0.3415594658204692 0 -0.41366919887348358 0.34576378073699821 0 -0.41125860555200922 0.34134685969384471 0 -0.41273643032526569 0.33662953043248711 0 -0.40895905381070002 0.33957121871677393 0 -0.41273643032526569 0.33662953043248711 0 -0.40777024278950652 0.33697950655941222 0 -0.41273643032526569 0.33662953043248711 0 -0.40895905381070002 0.33957121871677393 0 -0.40777024278950652 0.33697950655941222 0 -0.41273643032526569 0.33662953043248711 0 -0.40777024278950652 0.33697950655941222 0 -0.40925887999808552 0.33516025262174892 0 -0.40777024278950652 0.33697950655941222 0 -0.40925887999808552 0.33516025262174892 0 -0.40586906590548888 0.3393029225754271 0 -0.40895905381070002 0.33957121871677393 0 -0.40777024278950652 0.33697950655941222 0 -0.40586906590548888 0.3393029225754271 0 -0.40777024278950652 0.33697950655941222 0 -0.41273643032526569 0.33662953043248711 0 -0.40925887999808552 0.33516025262174892 0 -0.40925887999808552 0.33516025262174892 0 -0.42024067891477529 0.32173946694831868 0 -0.40925887999808552 0.33516025262174892 0 -0.42071708592719742 0.33131558094746122 0 -0.42024067891477529 0.32173946694831868 0 -0.41273643032526569 0.33662953043248711 0 -0.40925887999808552 0.33516025262174892 0 -0.42071708592719742 0.33131558094746122 0 -0.41273643032526569 0.33662953043248711 0 -0.4199209072431685 0.34318781838679219 0 -0.41433336845197538 0.3415594658204692 0 -0.4199209072431685 0.34318781838679219 0 -0.41433336845197538 0.3415594658204692 0 -0.41366919887348358 0.34576378073699821 0 -0.40925887999808552 0.33516025262174892 0 -0.41892768793075841 0.31754462100172592 0 -0.42141481873501418 0.31567829233095179 0 -0.40925887999808552 0.33516025262174892 0 -0.411263050936583 0.31954773430139438 0 -0.41892768793075841 0.31754462100172592 0 -0.40925887999808552 0.33516025262174892 0 -0.42141481873501418 0.31567829233095179 0 -0.40925887999808552 0.33516025262174892 0 -0.42024067891477529 0.32173946694831868 0 -0.42141481873501418 0.31567829233095179 0 -0.411263050936583 0.31954773430139438 0 -0.40826549608127172 0.31275764886218971 0 -0.41647318301620623 0.31168328686166002 0 -0.4039094095666334 0.320812311378052 0 -0.411263050936583 0.31954773430139438 0 -0.40826549608127172 0.31275764886218971 0 -0.4039094095666334 0.320812311378052 0 -0.40925887999808552 0.33516025262174892 0 -0.411263050936583 0.31954773430139438 0 -0.411263050936583 0.31954773430139438 0 -0.41892768793075841 0.31754462100172592 0 -0.41647318301620623 0.31168328686166002 0 -0.41892768793075841 0.31754462100172592 0 -0.42141481873501418 0.31567829233095179 0 -0.41892768793075841 0.31754462100172592 0 -0.42141481873501418 0.31567829233095179 0 -0.41647318301620623 0.31168328686166002 0 -0.42024067891477529 0.32173946694831868 0 -0.43790895006943947 0.32081412042189511 0 -0.43122247783146522 0.30831868127488848 0 -0.42024067891477529 0.32173946694831868 0 -0.42938605365092247 0.3272194948190838 0 -0.43790895006943947 0.32081412042189511 0 -0.42024067891477529 0.32173946694831868 0 -0.42141481873501418 0.31567829233095179 0 -0.43122247783146522 0.30831868127488848 0 -0.42024067891477529 0.32173946694831868 0 -0.43122247783146522 0.30831868127488848 0 -0.42071708592719742 0.33131558094746122 0 -0.42024067891477529 0.32173946694831868 0 -0.42938605365092247 0.3272194948190838 0 -0.42938605365092247 0.3272194948190838 0 -0.43674098495811231 0.33493788649063261 0 -0.43790895006943947 0.32081412042189511 0 -0.43790895006943947 0.32081412042189511 0 -0.4401847358662575 0.3127477530096977 0 -0.43122247783146522 0.30831868127488848 0 -0.41273643032526569 0.33662953043248711 0 -0.43674098495811231 0.33493788649063261 0 -0.42071708592719742 0.33131558094746122 0 -0.42938605365092247 0.3272194948190838 0 -0.43674098495811231 0.33493788649063261 0 -0.41273643032526569 0.33662953043248711 0 -0.4199209072431685 0.34318781838679219 0 -0.43385085243219867 0.34555045147446217 0 -0.41273643032526569 0.33662953043248711 0 -0.42071708592719742 0.33131558094746122 0 -0.43674098495811231 0.33493788649063261 0 -0.41273643032526569 0.33662953043248711 0 -0.43385085243219867 0.34555045147446217 0 -0.41273643032526569 0.33662953043248711 0 -0.43674098495811231 0.33493788649063261 0 -0.43385085243219867 0.34555045147446217 0 -0.43385085243219867 0.34555045147446217 0 -0.4302486007270056 0.35272204188882378 0 -0.42573384958437638 0.34916959158482058 0 -0.43385085243219867 0.34555045147446217 0 -0.43539550265875948 0.35741731211322858 0 -0.44110397924445488 0.35756373905142852 0 -0.43539550265875948 0.35741731211322858 0 -0.4302486007270056 0.35272204188882378 0 -0.42757171946388478 0.35850981688022993 0 -0.43385085243219867 0.34555045147446217 0 -0.43539550265875948 0.35741731211322858 0 -0.4302486007270056 0.35272204188882378 0 -0.4302486007270056 0.35272204188882378 0 -0.42480748600639012 0.35482075793933809 0 -0.42573384958437638 0.34916959158482058 0 -0.4302486007270056 0.35272204188882378 0 -0.42757171946388478 0.35850981688022993 0 -0.42480748600639012 0.35482075793933809 0 -0.42757171946388478 0.35850981688022993 0 -0.42480748600639012 0.35482075793933809 0 -0.42195212413097077 0.36043988011418487 0 -0.4199209072431685 0.34318781838679219 0 -0.43385085243219867 0.34555045147446217 0 -0.42573384958437638 0.34916959158482058 0 -0.42480748600639012 0.35482075793933809 0 -0.42573384958437638 0.34916959158482058 0 -0.41984140151311927 0.3495668882346864 0 -0.4199209072431685 0.34318781838679219 0 -0.42573384958437638 0.34916959158482058 0 -0.41984140151311927 0.3495668882346864 0 -0.4199209072431685 0.34318781838679219 0 -0.41984140151311927 0.3495668882346864 0 -0.41366919887348358 0.34576378073699821 0 -0.41984140151311927 0.3495668882346864 0 -0.41366919887348358 0.34576378073699821 0 -0.41404230344944593 0.35073751764187411 0 -0.42480748600639012 0.35482075793933809 0 -0.41984140151311927 0.3495668882346864 0 -0.41755863725870102 0.35684421707679032 0 -0.42480748600639012 0.35482075793933809 0 -0.41755863725870102 0.35684421707679032 0 -0.42195212413097077 0.36043988011418487 0 -0.41984140151311927 0.3495668882346864 0 -0.41755863725870102 0.35684421707679032 0 -0.41404230344944593 0.35073751764187411 0 -0.41755863725870102 0.35684421707679032 0 -0.41125051028190041 0.35540848222164118 0 -0.41404230344944593 0.35073751764187411 0 -0.41125051028190041 0.35540848222164118 0 -0.40888688292129022 0.34941903462410451 0 -0.41404230344944593 0.35073751764187411 0 -0.41755863725870102 0.35684421707679032 0 -0.41125051028190041 0.35540848222164118 0 -0.41142088061722581 0.36176204086772412 0 -0.40553625032349627 0.36037170931698131 0 -0.41125051028190041 0.35540848222164118 0 -0.41142088061722581 0.36176204086772412 0 -0.40525205349158999 0.35429039595711992 0 -0.40553625032349627 0.36037170931698131 0 -0.41125051028190041 0.35540848222164118 0 -0.40525205349158999 0.35429039595711992 0 -0.41125051028190041 0.35540848222164118 0 -0.40888688292129022 0.34941903462410451 0 -0.4080564418273247 0.34368885170405422 0 -0.40888688292129022 0.34941903462410451 0 -0.41366919887348358 0.34576378073699821 0 -0.40888688292129022 0.34941903462410451 0 -0.41366919887348358 0.34576378073699821 0 -0.41404230344944593 0.35073751764187411 0 -0.4250431626101242 0.37647010748543319 0 -0.40086489287733429 0.37467411733839928 0 -0.42486892241442098 0.36677785020884007 0 -0.40086489287733429 0.37467411733839928 0 -0.42486892241442098 0.36677785020884007 0 -0.40086489287733429 0.37467411733839928 0 -0.41378193274770297 0.36450427419225789 0 -0.42486892241442098 0.36677785020884007 0 -0.40544017780568847 0.3661562974108753 0 -0.40086489287733429 0.37467411733839928 0 -0.41378193274770297 0.36450427419225789 0 -0.40544017780568847 0.3661562974108753 0 -0.41142088061722581 0.36176204086772412 0 -0.41378193274770297 0.36450427419225789 0 -0.40553625032349627 0.36037170931698131 0 -0.40544017780568847 0.3661562974108753 0 -0.41142088061722581 0.36176204086772412 0 -0.41755863725870102 0.35684421707679032 0 -0.41378193274770297 0.36450427419225789 0 -0.42195212413097077 0.36043988011418487 0 -0.41378193274770297 0.36450427419225789 0 -0.42486892241442098 0.36677785020884007 0 -0.42195212413097077 0.36043988011418487 0 -0.41755863725870102 0.35684421707679032 0 -0.41142088061722581 0.36176204086772412 0 -0.41378193274770297 0.36450427419225789 0 -0.4250431626101242 0.37647010748543319 0 -0.44885864134335329 0.37135067543599282 0 -0.4250431626101242 0.37647010748543319 0 -0.42486892241442098 0.36677785020884007 0 -0.44885864134335329 0.37135067543599282 0 -0.42486892241442098 0.36677785020884007 0 -0.448872951951507 0.35888158307927881 0 -0.43539550265875948 0.35741731211322858 0 -0.42486892241442098 0.36677785020884007 0 -0.44110397924445488 0.35756373905142852 0 -0.43539550265875948 0.35741731211322858 0 -0.42757171946388478 0.35850981688022993 0 -0.42486892241442098 0.36677785020884007 0 -0.42757171946388478 0.35850981688022993 0 -0.42486892241442098 0.36677785020884007 0 -0.42195212413097077 0.36043988011418487 0 -0.42486892241442098 0.36677785020884007 0 -0.44885864134335329 0.37135067543599282 0 -0.448872951951507 0.35888158307927881 0 -0.44802713623065987 0.37645115623263098 0 -0.4250431626101242 0.37647010748543319 0 -0.44885864134335329 0.37135067543599282 0 -0.42486892241442098 0.36677785020884007 0 -0.44110397924445488 0.35756373905142852 0 -0.448872951951507 0.35888158307927881 0 -0.44885864134335329 0.37135067543599282 0 -0.448872951951507 0.35888158307927881 0 -0.44885864134335329 0.37135067543599282 0 -0.448872951951507 0.35888158307927881 0 -0.45634368000688869 0.36512471152292858 0 -0.43385085243219867 0.34555045147446217 0 -0.45496527453913199 0.35447137251643651 0 -0.44889299330712729 0.34242966823447613 0 -0.43385085243219867 0.34555045147446217 0 -0.45496527453913199 0.35447137251643651 0 -0.43385085243219867 0.34555045147446217 0 -0.44887533288597797 0.35680703170406669 0 -0.45496527453913199 0.35447137251643651 0 -0.43385085243219867 0.34555045147446217 0 -0.44110397924445488 0.35756373905142852 0 -0.44887533288597797 0.35680703170406669 0 -0.44110397924445488 0.35756373905142852 0 -0.44887533288597797 0.35680703170406669 0 -0.448872951951507 0.35888158307927881 0 -0.44887533288597797 0.35680703170406669 0 -0.448872951951507 0.35888158307927881 0 -0.44887533288597797 0.35680703170406669 0 -0.448872951951507 0.35888158307927881 0 -0.45496527453913199 0.35447137251643651 0 -0.448872951951507 0.35888158307927881 0 -0.45496527453913199 0.35447137251643651 0 -0.47186707529616939 0.3513175305497272 0 -0.448872951951507 0.35888158307927881 0 -0.47186707529616939 0.3513175305497272 0 -0.448872951951507 0.35888158307927881 0 -0.45634368000688869 0.36512471152292858 0 -0.47186707529616939 0.3513175305497272 0 -0.45911772068334677 0.34536620346235469 0 -0.45496527453913199 0.35447137251643651 0 -0.47186707529616939 0.3513175305497272 0 -0.45911772068334677 0.34536620346235469 0 -0.45496527453913199 0.35447137251643651 0 -0.44889299330712729 0.34242966823447613 0 -0.46572599417265398 0.36772482908493609 0 -0.45634368000688869 0.36512471152292858 0 -0.47186707529616939 0.3513175305497272 0 -0.46059005399087027 0.38292215568240928 0 -0.44885864134335329 0.37135067543599282 0 -0.46572599417265398 0.36772482908493609 0 -0.44885864134335329 0.37135067543599282 0 -0.46572599417265398 0.36772482908493609 0 -0.44885864134335329 0.37135067543599282 0 -0.46572599417265398 0.36772482908493609 0 -0.45634368000688869 0.36512471152292858 0 -0.47832653283541199 0.38608194873200979 0 -0.46572599417265398 0.36772482908493609 0 -0.48259334700195489 0.36409898273387958 0 -0.46572599417265398 0.36772482908493609 0 -0.48259334700195489 0.36409898273387958 0 -0.47186707529616939 0.3513175305497272 0 -0.46572599417265398 0.36772482908493609 0 -0.48259334700195489 0.36409898273387958 0 -0.47186707529616939 0.3513175305497272 0 -0.494861198640831 0.34375347802017348 0 -0.47186707529616939 0.3513175305497272 0 -0.48536711719674469 0.35339641184703091 0 -0.494861198640831 0.34375347802017348 0 -0.48259334700195489 0.36409898273387958 0 -0.47186707529616939 0.3513175305497272 0 -0.48536711719674469 0.35339641184703091 0 -0.48259334700195489 0.36409898273387958 0 -0.49214684784802371 0.35441565608434311 0 -0.48536711719674469 0.35339641184703091 0 -0.49214684784802371 0.35441565608434311 0 -0.5 0.36887446842263683 0 -0.5 0.34271985673358363 0 -0.49214684784802371 0.35441565608434311 0 -0.48536711719674469 0.35339641184703091 0 -0.494861198640831 0.34375347802017348 0 -0.49214684784802371 0.35441565608434311 0 -0.494861198640831 0.34375347802017348 0 -0.5 0.34271985673358363 0 -0.48850556386005051 0.3766603246979251 0 -0.48259334700195489 0.36409898273387958 0 -0.5 0.36887446842263683 0 -0.48259334700195489 0.36409898273387958 0 -0.49214684784802371 0.35441565608434311 0 -0.5 0.36887446842263683 0 -0.485708092488497 0.3189911195031831 0 -0.5 0.31656524504453032 0 -0.48475009422380527 0.3315545986069256 0 -0.485708092488497 0.3189911195031831 0 -0.5 0.31656524504453032 0 -0.48583489694974541 0.30845327583860088 0 -0.5 0.31656524504453032 0 -0.5 0.34271985673358363 0 -0.48475009422380527 0.3315545986069256 0 -0.494861198640831 0.34375347802017348 0 -0.5 0.34271985673358363 0 -0.48475009422380527 0.3315545986069256 0 -0.48475009422380527 0.3315545986069256 0 -0.46074553959095882 0.3332462425487791 0 -0.47186707529616939 0.3513175305497272 0 -0.494861198640831 0.34375347802017348 0 -0.48475009422380527 0.3315545986069256 0 -0.47186707529616939 0.3513175305497272 0 -0.48475009422380527 0.3315545986069256 0 -0.46074553959095882 0.3332462425487791 0 -0.48475009422380527 0.3315545986069256 0 -0.47224737878043732 0.31939135852267558 0 -0.46074553959095882 0.3332462425487791 0 -0.485708092488497 0.3189911195031831 0 -0.48475009422380527 0.3315545986069256 0 -0.47224737878043732 0.31939135852267558 0 -0.485708092488497 0.3189911195031831 0 -0.47224737878043732 0.31939135852267558 0 -0.48583489694974541 0.30845327583860088 0 -0.47224737878043732 0.31939135852267558 0 -0.46258830912673421 0.31343425170936878 0 -0.46074553959095882 0.3332462425487791 0 -0.46258830912673421 0.31343425170936878 0 -0.46074553959095882 0.3332462425487791 0 -0.45107709460752138 0.31557533431346357 0 -0.45911772068334677 0.34536620346235469 0 -0.47186707529616939 0.3513175305497272 0 -0.46074553959095882 0.3332462425487791 0 -0.45911772068334677 0.34536620346235469 0 -0.46074553959095882 0.3332462425487791 0 -0.44889299330712729 0.34242966823447613 0 -0.43674098495811231 0.33493788649063261 0 -0.46074553959095882 0.3332462425487791 0 -0.43674098495811231 0.33493788649063261 0 -0.46074553959095882 0.3332462425487791 0 -0.44889299330712729 0.34242966823447613 0 -0.43674098495811231 0.33493788649063261 0 -0.46074553959095882 0.3332462425487791 0 -0.43790895006943947 0.32081412042189511 0 -0.43674098495811231 0.33493788649063261 0 -0.43385085243219867 0.34555045147446217 0 -0.44889299330712729 0.34242966823447613 0 -0.46074553959095882 0.3332462425487791 0 -0.45107709460752138 0.31557533431346357 0 -0.43790895006943947 0.32081412042189511 0 -0.45107709460752138 0.31557533431346357 0 -0.43790895006943947 0.32081412042189511 0 -0.4401847358662575 0.3127477530096977 0 -0.44444415583193408 0.29216055381020578 0 -0.43122247783146522 0.30831868127488848 0 -0.44810052680614793 0.29565349026271098 0 -0.43122247783146522 0.30831868127488848 0 -0.44368336155109173 0.30649675881006838 0 -0.44810052680614793 0.29565349026271098 0 -0.43122247783146522 0.30831868127488848 0 -0.4401847358662575 0.3127477530096977 0 -0.44368336155109173 0.30649675881006838 0 -0.43122247783146522 0.30831868127488848 0 -0.44444415583193408 0.29216055381020578 0 -0.44810052680614793 0.29565349026271098 0 -0.43122247783146522 0.30831868127488848 0 -0.45107709460752138 0.31557533431346357 0 -0.4401847358662575 0.3127477530096977 0 -0.44368336155109173 0.30649675881006838 0 -0.44368336155109173 0.30649675881006838 0 -0.44996115485610377 0.3015940899144034 0 -0.4551770389262465 0.30483297142504889 0 -0.44368336155109173 0.30649675881006838 0 -0.44996115485610377 0.3015940899144034 0 -0.44810052680614793 0.29565349026271098 0 -0.45288369214092922 0.29939313915978533 0 -0.44996115485610377 0.3015940899144034 0 -0.44810052680614793 0.29565349026271098 0 -0.45288369214092922 0.29939313915978533 0 -0.44996115485610377 0.3015940899144034 0 -0.4551770389262465 0.30483297142504889 0 -0.45107709460752138 0.31557533431346357 0 -0.44368336155109173 0.30649675881006838 0 -0.4551770389262465 0.30483297142504889 0 -0.44702735364695217 0.27675533545947301 0 -0.43422108619098299 0.29621681389521232 0 -0.44444415583193408 0.29216055381020578 0 -0.44702735364695217 0.27675533545947301 0 -0.43422108619098299 0.29621681389521232 0 -0.44702735364695217 0.27675533545947301 0 -0.43274811138672559 0.28469846643612018 0 -0.43422108619098299 0.29621681389521232 0 -0.44810052680614793 0.29565349026271098 0 -0.4493542421043164 0.28919027156790111 0 -0.45395006383388498 0.28587005882998617 0 -0.44444415583193408 0.29216055381020578 0 -0.44810052680614793 0.29565349026271098 0 -0.4493542421043164 0.28919027156790111 0 -0.44444415583193408 0.29216055381020578 0 -0.4493542421043164 0.28919027156790111 0 -0.44702735364695217 0.27675533545947301 0 -0.4493542421043164 0.28919027156790111 0 -0.45395006383388498 0.28587005882998617 0 -0.44702735364695217 0.27675533545947301 0 -0.44810052680614793 0.29565349026271098 0 -0.45395006383388498 0.28587005882998617 0 -0.46497857578083068 0.28298829925053381 0 -0.44810052680614793 0.29565349026271098 0 -0.4593999708052337 0.29480301670676529 0 -0.46497857578083068 0.28298829925053381 0 -0.44810052680614793 0.29565349026271098 0 -0.46497857578083068 0.28298829925053381 0 -0.45288369214092922 0.29939313915978533 0 -0.44810052680614793 0.29565349026271098 0 -0.4593999708052337 0.29480301670676529 0 -0.4593999708052337 0.29480301670676529 0 -0.46827174088950307 0.29409138505043392 0 -0.46497857578083068 0.28298829925053381 0 -0.46258830912673421 0.31343425170936878 0 -0.45107709460752138 0.31557533431346357 0 -0.4551770389262465 0.30483297142504889 0 -0.45288369214092922 0.29939313915978533 0 -0.4593999708052337 0.29480301670676529 0 -0.4551770389262465 0.30483297142504889 0 -0.4593999708052337 0.29480301670676529 0 -0.4551770389262465 0.30483297142504889 0 -0.46625021185001803 0.30380681263807602 0 -0.4593999708052337 0.29480301670676529 0 -0.46827174088950307 0.29409138505043392 0 -0.46625021185001803 0.30380681263807602 0 -0.47224737878043732 0.31939135852267558 0 -0.46258830912673421 0.31343425170936878 0 -0.46625021185001803 0.30380681263807602 0 -0.46258830912673421 0.31343425170936878 0 -0.4551770389262465 0.30483297142504889 0 -0.46625021185001803 0.30380681263807602 0 -0.47551717359816043 0.30301602212345602 0 -0.4769183937012712 0.29196404103452073 0 -0.48583489694974541 0.30845327583860088 0 -0.47224737878043732 0.31939135852267558 0 -0.46625021185001803 0.30380681263807602 0 -0.47551717359816043 0.30301602212345602 0 -0.47224737878043732 0.31939135852267558 0 -0.47551717359816043 0.30301602212345602 0 -0.48583489694974541 0.30845327583860088 0 -0.46827174088950307 0.29409138505043392 0 -0.46625021185001803 0.30380681263807602 0 -0.47551717359816043 0.30301602212345602 0 -0.46827174088950307 0.29409138505043392 0 -0.46497857578083068 0.28298829925053381 0 -0.4769183937012712 0.29196404103452073 0 -0.4769183937012712 0.29196404103452073 0 -0.48757792524538679 0.2814999319082685 0 -0.48583489694974541 0.30845327583860088 0 -0.46827174088950307 0.29409138505043392 0 -0.47551717359816043 0.30301602212345602 0 -0.4769183937012712 0.29196404103452073 0 -0.46497857578083068 0.28298829925053381 0 -0.47783287987075052 0.28169384510791978 0 -0.4769183937012712 0.29196404103452073 0 -0.47783287987075052 0.28169384510791978 0 -0.4769183937012712 0.29196404103452073 0 -0.48757792524538679 0.2814999319082685 0 -0.5 0.29041063335547701 0 -0.48757792524538679 0.2814999319082685 0 -0.48583489694974541 0.30845327583860088 0 -0.48757792524538679 0.2814999319082685 0 -0.48583489694974541 0.30845327583860088 0 -0.5 0.31656524504453032 0 -0.5 0.29041063335547701 0 -0.48583489694974541 0.30845327583860088 0 -0.5 0.23810140997737081 0 -0.5 0.26425602166642381 0 -0.48932095354102823 0.25454658797793611 0 -0.48757792524538679 0.2814999319082685 0 -0.48932095354102823 0.25454658797793611 0 -0.48366697684514259 0.26703881783025729 0 -0.48757792524538679 0.2814999319082685 0 -0.5 0.26425602166642381 0 -0.48932095354102823 0.25454658797793611 0 -0.48757792524538679 0.2814999319082685 0 -0.48932095354102823 0.25454658797793611 0 -0.5 0.29041063335547701 0 -0.48757792524538679 0.2814999319082685 0 -0.5 0.26425602166642381 0 -0.46497857578083068 0.28298829925053381 0 -0.48185662475551339 0.27032310823835648 0 -0.46497857578083068 0.28298829925053381 0 -0.47783287987075052 0.28169384510791978 0 -0.48185662475551339 0.27032310823835648 0 -0.48366697684514259 0.26703881783025729 0 -0.45893043448094739 0.2699305570534084 0 -0.48757792524538679 0.2814999319082685 0 -0.48366697684514259 0.26703881783025729 0 -0.48185662475551339 0.27032310823835648 0 -0.48366697684514259 0.26703881783025729 0 -0.48185662475551339 0.27032310823835648 0 -0.47235815296560851 0.27257019559313889 0 -0.46497857578083068 0.28298829925053381 0 -0.48185662475551339 0.27032310823835648 0 -0.47235815296560851 0.27257019559313889 0 -0.48366697684514259 0.26703881783025729 0 -0.46959483388743167 0.25994315597580908 0 -0.45893043448094739 0.2699305570534084 0 -0.48366697684514259 0.26703881783025729 0 -0.47235815296560851 0.27257019559313889 0 -0.45893043448094739 0.2699305570534084 0 -0.47783287987075052 0.28169384510791978 0 -0.48757792524538679 0.2814999319082685 0 -0.48185662475551339 0.27032310823835648 0 -0.48932095354102823 0.25454658797793611 0 -0.48366697684514259 0.26703881783025729 0 -0.47792533453874358 0.25606878273296479 0 -0.48366697684514259 0.26703881783025729 0 -0.46959483388743167 0.25994315597580908 0 -0.47792533453874358 0.25606878273296479 0 -0.47864167104372218 0.246590621409366 0 -0.48932095354102823 0.25454658797793611 0 -0.47792533453874358 0.25606878273296479 0 -0.47864167104372218 0.246590621409366 0 -0.47792533453874358 0.25606878273296479 0 -0.46938038244821267 0.25133041049185839 0 -0.46959483388743167 0.25994315597580908 0 -0.47792533453874358 0.25606878273296479 0 -0.46938038244821267 0.25133041049185839 0 -0.46959483388743167 0.25994315597580908 0 -0.46938038244821267 0.25133041049185839 0 -0.45807104112411212 0.25534721177055669 0 -0.46959483388743167 0.25994315597580908 0 -0.45807104112411212 0.25534721177055669 0 -0.45893043448094739 0.2699305570534084 0 -0.45807104112411212 0.25534721177055669 0 -0.45893043448094739 0.2699305570534084 0 -0.44442574262614493 0.25832327296872359 0 -0.45395006383388498 0.28587005882998617 0 -0.46497857578083068 0.28298829925053381 0 -0.45893043448094739 0.2699305570534084 0 -0.45395006383388498 0.28587005882998617 0 -0.45893043448094739 0.2699305570534084 0 -0.44702735364695217 0.27675533545947301 0 -0.46497857578083068 0.28298829925053381 0 -0.47235815296560851 0.27257019559313889 0 -0.45893043448094739 0.2699305570534084 0 -0.45893043448094739 0.2699305570534084 0 -0.43419389211675241 0.27282229627655952 0 -0.45893043448094739 0.2699305570534084 0 -0.44442574262614493 0.25832327296872359 0 -0.43419389211675241 0.27282229627655952 0 -0.45893043448094739 0.2699305570534084 0 -0.44702735364695217 0.27675533545947301 0 -0.43419389211675241 0.27282229627655952 0 -0.44702735364695217 0.27675533545947301 0 -0.43419389211675241 0.27282229627655952 0 -0.43274811138672559 0.28469846643612018 0 -0.45046339488490522 0.249057113070103 0 -0.45807104112411212 0.25534721177055669 0 -0.44442574262614493 0.25832327296872359 0 -0.44062222049055039 0.24203477259657111 0 -0.44442574262614493 0.25832327296872359 0 -0.42503978512155383 0.25887440404814072 0 -0.44062222049055039 0.24203477259657111 0 -0.42503978512155383 0.25887440404814072 0 -0.44442574262614493 0.25832327296872359 0 -0.42503978512155383 0.25887440404814072 0 -0.43419389211675241 0.27282229627655952 0 -0.42503978512155383 0.25887440404814072 0 -0.40945734975255721 0.27571403549971041 0 -0.40585136056822319 0.25674789398696107 0 -0.4198454647722451 0.23985190764030939 0 -0.42503978512155383 0.25887440404814072 0 -0.40585136056822319 0.25674789398696107 0 -0.40945734975255721 0.27571403549971041 0 -0.43419389211675241 0.27282229627655952 0 -0.42503978512155383 0.25887440404814072 0 -0.40945734975255721 0.27571403549971041 0 -0.42503978512155383 0.25887440404814072 0 -0.40945734975255721 0.27571403549971041 0 -0.43419389211675241 0.27282229627655952 0 -0.40945734975255721 0.27571403549971041 0 -0.43419389211675241 0.27282229627655952 0 -0.4229835889384117 0.28415291652507912 0 -0.43419389211675241 0.27282229627655952 0 -0.43274811138672559 0.28469846643612018 0 -0.4229835889384117 0.28415291652507912 0 -0.43274811138672559 0.28469846643612018 0 -0.43422108619098299 0.29621681389521232 0 -0.42519236151645012 0.29288975242762622 0 -0.43274811138672559 0.28469846643612018 0 -0.42519236151645012 0.29288975242762622 0 -0.4229835889384117 0.28415291652507912 0 -0.42141481873501418 0.31567829233095179 0 -0.43422108619098299 0.29621681389521232 0 -0.42141481873501418 0.31567829233095179 0 -0.43422108619098299 0.29621681389521232 0 -0.42237726971740519 0.30236741203524931 0 -0.44444415583193408 0.29216055381020578 0 -0.43422108619098299 0.29621681389521232 0 -0.43122247783146522 0.30831868127488848 0 -0.42141481873501418 0.31567829233095179 0 -0.43422108619098299 0.29621681389521232 0 -0.43122247783146522 0.30831868127488848 0 -0.43422108619098299 0.29621681389521232 0 -0.42519236151645012 0.29288975242762622 0 -0.42237726971740519 0.30236741203524931 0 -0.42141481873501418 0.31567829233095179 0 -0.43122247783146522 0.30831868127488848 0 -0.42237726971740519 0.30236741203524931 0 -0.41647318301620623 0.31168328686166002 0 -0.40812109447663159 0.30329838776079099 0 -0.42141481873501418 0.31567829233095179 0 -0.42237726971740519 0.30236741203524931 0 -0.41647318301620623 0.31168328686166002 0 -0.42237726971740519 0.30236741203524931 0 -0.40812109447663159 0.30329838776079099 0 -0.41256551749876041 0.29129965580367562 0 -0.40826549608127172 0.31275764886218971 0 -0.41647318301620623 0.31168328686166002 0 -0.40812109447663159 0.30329838776079099 0 -0.40945734975255721 0.27571403549971041 0 -0.4229835889384117 0.28415291652507912 0 -0.41256551749876041 0.29129965580367562 0 -0.42519236151645012 0.29288975242762622 0 -0.4229835889384117 0.28415291652507912 0 -0.41256551749876041 0.29129965580367562 0 -0.42519236151645012 0.29288975242762622 0 -0.42237726971740519 0.30236741203524931 0 -0.41256551749876041 0.29129965580367562 0 -0.40945734975255721 0.27571403549971041 0 -0.39180528154043992 0.29479027846244049 0 -0.39350738277932218 0.27757861076756318 0 -0.40945734975255721 0.27571403549971041 0 -0.39180528154043992 0.29479027846244049 0 -0.40812109447663159 0.30329838776079099 0 -0.41256551749876041 0.29129965580367562 0 -0.39180528154043992 0.29479027846244049 0 -0.40945734975255721 0.27571403549971041 0 -0.41256551749876041 0.29129965580367562 0 -0.39180528154043992 0.29479027846244049 0 -0.38613629988198012 0.31665983269396758 0 -0.39830358576524327 0.31266849694114901 0 -0.39180528154043992 0.29479027846244049 0 -0.39830358576524327 0.31266849694114901 0 -0.40812109447663159 0.30329838776079099 0 -0.39180528154043992 0.29479027846244049 0 -0.39830358576524327 0.31266849694114901 0 -0.40826549608127172 0.31275764886218971 0 -0.40812109447663159 0.30329838776079099 0 -0.39180528154043992 0.29479027846244049 0 -0.37819889022761238 0.29924868842846319 0 -0.37415321332832258 0.31386652142517069 0 -0.38613629988198012 0.31665983269396758 0 -0.39180528154043992 0.29479027846244049 0 -0.37415321332832258 0.31386652142517069 0 -0.39180528154043992 0.29479027846244049 0 -0.37415321332832258 0.31386652142517069 0 -0.39180528154043992 0.29479027846244049 0 -0.37819889022761238 0.29924868842846319 0 -0.37870614451813112 0.28175948497688769 0 -0.39180528154043992 0.29479027846244049 0 -0.37870614451813112 0.28175948497688769 0 -0.39350738277932218 0.27757861076756318 0 -0.37870614451813112 0.28175948497688769 0 -0.37647038179830861 0.26645711442365799 0 -0.39350738277932218 0.27757861076756318 0 -0.37647038179830861 0.26645711442365799 0 -0.39336972403141229 0.26369738761855421 0 -0.39350738277932218 0.27757861076756318 0 -0.38790582398472923 0.24962922847932231 0 -0.37647038179830861 0.26645711442365799 0 -0.39336972403141229 0.26369738761855421 0 -0.38790582398472923 0.24962922847932231 0 -0.37647038179830861 0.26645711442365799 0 -0.36318679658289171 0.25196182354824148 0 -0.40945734975255721 0.27571403549971041 0 -0.40585136056822319 0.25674789398696107 0 -0.39336972403141229 0.26369738761855421 0 -0.38790582398472923 0.24962922847932231 0 -0.40585136056822319 0.25674789398696107 0 -0.39336972403141229 0.26369738761855421 0 -0.40945734975255721 0.27571403549971041 0 -0.39336972403141229 0.26369738761855421 0 -0.39350738277932218 0.27757861076756318 0 -0.40945734975255721 0.27571403549971041 0 -0.39350738277932218 0.27757861076756318 0 -0.35583614606747688 0.27501819518035592 0 -0.36318679658289171 0.25196182354824148 0 -0.33952374355129727 0.25899057541505788 0 -0.37647038179830861 0.26645711442365799 0 -0.35583614606747688 0.27501819518035592 0 -0.36318679658289171 0.25196182354824148 0 -0.37870614451813112 0.28175948497688769 0 -0.37647038179830861 0.26645711442365799 0 -0.35583614606747688 0.27501819518035592 0 -0.37819889022761238 0.29924868842846319 0 -0.37870614451813112 0.28175948497688769 0 -0.36775571630023218 0.2927315942663431 0 -0.37870614451813112 0.28175948497688769 0 -0.35583614606747688 0.27501819518035592 0 -0.36775571630023218 0.2927315942663431 0 -0.37819889022761238 0.29924868842846319 0 -0.36899777432263853 0.30469822459034263 0 -0.37415321332832258 0.31386652142517069 0 -0.36899777432263853 0.30469822459034263 0 -0.36272901898995358 0.31473918551029578 0 -0.37415321332832258 0.31386652142517069 0 -0.37819889022761238 0.29924868842846319 0 -0.36775571630023218 0.2927315942663431 0 -0.36899777432263853 0.30469822459034263 0 -0.36775571630023218 0.2927315942663431 0 -0.36899777432263853 0.30469822459034263 0 -0.35931620367806588 0.30475084950198522 0 -0.36775571630023218 0.2927315942663431 0 -0.35931620367806588 0.30475084950198522 0 -0.35261706249820868 0.29381533636168528 0 -0.36899777432263853 0.30469822459034263 0 -0.35931620367806588 0.30475084950198522 0 -0.36272901898995358 0.31473918551029578 0 -0.35931620367806588 0.30475084950198522 0 -0.35261706249820868 0.29381533636168528 0 -0.34344143829887858 0.30736403781452232 0 -0.35931620367806588 0.30475084950198522 0 -0.34344143829887858 0.30736403781452232 0 -0.35467675850453528 0.31743756764607989 0 -0.35931620367806588 0.30475084950198522 0 -0.35467675850453528 0.31743756764607989 0 -0.36272901898995358 0.31473918551029578 0 -0.35583614606747688 0.27501819518035592 0 -0.36775571630023218 0.2927315942663431 0 -0.35261706249820868 0.29381533636168528 0 -0.35583614606747688 0.27501819518035592 0 -0.35261706249820868 0.29381533636168528 0 -0.33673580814638959 0.28921200504521999 0 -0.35261706249820868 0.29381533636168528 0 -0.33673580814638959 0.28921200504521999 0 -0.34344143829887858 0.30736403781452232 0 -0.33673580814638959 0.28921200504521999 0 -0.32075162894010661 0.28280614760534989 0 -0.33379142081270979 0.2734424933293601 0 -0.34344143829887858 0.30736403781452232 0 -0.31699951866320542 0.30755322334125379 0 -0.34344143829887858 0.30736403781452232 0 -0.31699951866320542 0.30755322334125379 0 -0.33459812393413729 0.32207732583041709 0 -0.33673580814638959 0.28921200504521999 0 -0.34344143829887858 0.30736403781452232 0 -0.31699951866320542 0.30755322334125379 0 -0.33673580814638959 0.28921200504521999 0 -0.31699951866320542 0.30755322334125379 0 -0.32075162894010661 0.28280614760534989 0 -0.31699951866320542 0.30755322334125379 0 -0.32075162894010661 0.28280614760534989 0 -0.30493521127791462 0.28695781074044469 0 -0.32075162894010661 0.28280614760534989 0 -0.31931282352829687 0.26617321261290411 0 -0.33379142081270979 0.2734424933293601 0 -0.32075162894010661 0.28280614760534989 0 -0.31931282352829687 0.26617321261290411 0 -0.30493521127791462 0.28695781074044469 0 -0.35583614606747688 0.27501819518035592 0 -0.33673580814638959 0.28921200504521999 0 -0.33379142081270979 0.2734424933293601 0 -0.35583614606747688 0.27501819518035592 0 -0.33379142081270979 0.2734424933293601 0 -0.33952374355129727 0.25899057541505788 0 -0.31931282352829687 0.26617321261290411 0 -0.33379142081270979 0.2734424933293601 0 -0.33952374355129727 0.25899057541505788 0 -0.32200613725511351 0.24850726385495631 0 -0.31931282352829687 0.26617321261290411 0 -0.33952374355129727 0.25899057541505788 0 -0.32200613725511351 0.24850726385495631 0 -0.31931282352829687 0.26617321261290411 0 -0.30640548876467488 0.25787073169030861 0 -0.31931282352829687 0.26617321261290411 0 -0.30640548876467488 0.25787073169030861 0 -0.3010630097917536 0.27273037638764702 0 -0.31931282352829687 0.26617321261290411 0 -0.3010630097917536 0.27273037638764702 0 -0.30493521127791462 0.28695781074044469 0 -0.31931282352829687 0.26617321261290411 0 -0.30493521127791462 0.28695781074044469 0 -0.3010630097917536 0.27273037638764702 0 -0.29309283898050847 0.28048055459605348 0 -0.30493521127791462 0.28695781074044469 0 -0.3010630097917536 0.27273037638764702 0 -0.29309283898050847 0.28048055459605348 0 -0.28156868640737281 0.27216957229852412 0 -0.30640548876467488 0.25787073169030861 0 -0.3010630097917536 0.27273037638764702 0 -0.28156868640737281 0.27216957229852412 0 -0.30640548876467488 0.25787073169030861 0 -0.28156868640737281 0.27216957229852412 0 -0.28729818335365731 0.26780124082781631 0 -0.28156868640737281 0.27216957229852412 0 -0.28729818335365731 0.26780124082781631 0 -0.27880962639343299 0.26078065685839158 0 -0.29309283898050847 0.28048055459605348 0 -0.28156868640737281 0.27216957229852412 0 -0.28401529333418091 0.28255904946725641 0 -0.30640548876467488 0.25787073169030861 0 -0.28156868640737281 0.27216957229852412 0 -0.29125564533142001 0.24067530578368901 0 -0.30640548876467488 0.25787073169030861 0 -0.28729818335365731 0.26780124082781631 0 -0.29125564533142001 0.24067530578368901 0 -0.28729818335365731 0.26780124082781631 0 -0.27880962639343299 0.26078065685839158 0 -0.29125564533142001 0.24067530578368901 0 -0.28729818335365731 0.26780124082781631 0 -0.29125564533142001 0.24067530578368901 0 -0.26892213733164849 0.25365425058065472 0 -0.27880962639343299 0.26078065685839158 0 -0.26892213733164849 0.25365425058065472 0 -0.27880962639343299 0.26078065685839158 0 -0.26500347954306669 0.26960291480127369 0 -0.28156868640737281 0.27216957229852412 0 -0.25673188405007052 0.28646841290673969 0 -0.28156868640737281 0.27216957229852412 0 -0.26500347954306669 0.26960291480127369 0 -0.25673188405007052 0.28646841290673969 0 -0.28156868640737281 0.27216957229852412 0 -0.27880962639343299 0.26078065685839158 0 -0.26500347954306669 0.26960291480127369 0 -0.28156868640737281 0.27216957229852412 0 -0.27479408276187339 0.28687287199942368 0 -0.28401529333418091 0.28255904946725641 0 -0.26500347954306669 0.26960291480127369 0 -0.25265925142613249 0.26128234508680298 0 -0.25673188405007052 0.28646841290673969 0 -0.26892213733164849 0.25365425058065472 0 -0.26500347954306669 0.26960291480127369 0 -0.25265925142613249 0.26128234508680298 0 -0.25621817608628389 0.2460965770837312 0 -0.26892213733164849 0.25365425058065472 0 -0.25265925142613249 0.26128234508680298 0 -0.25505401324638421 0.30366623925853881 0 -0.26661761067819428 0.2958317928062858 0 -0.26721257633701828 0.30790943684761429 0 -0.25505401324638421 0.30366623925853881 0 -0.26721257633701828 0.30790943684761429 0 -0.25901197930261888 0.31383205914145501 0 -0.26721257633701828 0.30790943684761429 0 -0.25901197930261888 0.31383205914145501 0 -0.26528599585519008 0.31471464054907522 0 -0.25505401324638421 0.30366623925853881 0 -0.25901197930261888 0.31383205914145501 0 -0.24885494741763489 0.31718848033418301 0 -0.25505401324638421 0.30366623925853881 0 -0.25673188405007052 0.28646841290673969 0 -0.26661761067819428 0.2958317928062858 0 -0.26661761067819428 0.2958317928062858 0 -0.27573637841232751 0.29432500902679382 0 -0.27326763327687947 0.30016750757533939 0 -0.28156868640737281 0.27216957229852412 0 -0.25673188405007052 0.28646841290673969 0 -0.27479408276187339 0.28687287199942368 0 -0.26661761067819428 0.2958317928062858 0 -0.27479408276187339 0.28687287199942368 0 -0.27573637841232751 0.29432500902679382 0 -0.25673188405007052 0.28646841290673969 0 -0.26661761067819428 0.2958317928062858 0 -0.27479408276187339 0.28687287199942368 0 -0.27479408276187339 0.28687287199942368 0 -0.28401529333418091 0.28255904946725641 0 -0.28313816676434478 0.29069510378855717 0 -0.27479408276187339 0.28687287199942368 0 -0.27573637841232751 0.29432500902679382 0 -0.28313816676434478 0.29069510378855717 0 -0.27573637841232751 0.29432500902679382 0 -0.28086439858034518 0.29805776896436298 0 -0.28313816676434478 0.29069510378855717 0 -0.28086439858034518 0.29805776896436298 0 -0.27753065875984329 0.30327410754998058 0 -0.28274061889410179 0.30278083970340541 0 -0.27753065875984329 0.30327410754998058 0 -0.27514776209796898 0.30785266251660498 0 -0.28274061889410179 0.30278083970340541 0 -0.27753065875984329 0.30327410754998058 0 -0.27326763327687947 0.30016750757533939 0 -0.27348155140824082 0.30658246875079598 0 -0.28086439858034518 0.29805776896436298 0 -0.27753065875984329 0.30327410754998058 0 -0.27326763327687947 0.30016750757533939 0 -0.27573637841232751 0.29432500902679382 0 -0.28086439858034518 0.29805776896436298 0 -0.27326763327687947 0.30016750757533939 0 -0.26661761067819428 0.2958317928062858 0 -0.27326763327687947 0.30016750757533939 0 -0.26721257633701828 0.30790943684761429 0 -0.26721257633701828 0.30790943684761429 0 -0.27514776209796898 0.30785266251660498 0 -0.27123720609067609 0.3158529302113221 0 -0.26721257633701828 0.30790943684761429 0 -0.27348155140824082 0.30658246875079598 0 -0.27514776209796898 0.30785266251660498 0 -0.26721257633701828 0.30790943684761429 0 -0.27514776209796898 0.30785266251660498 0 -0.27326763327687947 0.30016750757533939 0 -0.26721257633701828 0.30790943684761429 0 -0.27348155140824082 0.30658246875079598 0 -0.27514776209796898 0.30785266251660498 0 -0.2851872012256097 0.31550597615259851 0 -0.27753065875984329 0.30327410754998058 0 -0.27348155140824082 0.30658246875079598 0 -0.27514776209796898 0.30785266251660498 0 -0.27348155140824082 0.30658246875079598 0 -0.27514776209796898 0.30785266251660498 0 -0.27514776209796898 0.30785266251660498 0 -0.2905575990275322 0.30774240886798532 0 -0.27514776209796898 0.30785266251660498 0 -0.2905575990275322 0.30774240886798532 0 -0.2851872012256097 0.31550597615259851 0 -0.2896026760048197 0.2969772506180926 0 -0.2905575990275322 0.30774240886798532 0 -0.30493521127791462 0.28695781074044469 0 -0.27514776209796898 0.30785266251660498 0 -0.28274061889410179 0.30278083970340541 0 -0.2905575990275322 0.30774240886798532 0 -0.2905575990275322 0.30774240886798532 0 -0.2851872012256097 0.31550597615259851 0 -0.28274061889410179 0.30278083970340541 0 -0.2896026760048197 0.2969772506180926 0 -0.2905575990275322 0.30774240886798532 0 -0.28086439858034518 0.29805776896436298 0 -0.28274061889410179 0.30278083970340541 0 -0.2896026760048197 0.2969772506180926 0 -0.28401529333418091 0.28255904946725641 0 -0.28313816676434478 0.29069510378855717 0 -0.29095683727235372 0.28753395384208091 0 -0.28086439858034518 0.29805776896436298 0 -0.2896026760048197 0.2969772506180926 0 -0.28313816676434478 0.29069510378855717 0 -0.2896026760048197 0.2969772506180926 0 -0.28313816676434478 0.29069510378855717 0 -0.29095683727235372 0.28753395384208091 0 -0.2896026760048197 0.2969772506180926 0 -0.29095683727235372 0.28753395384208091 0 -0.30493521127791462 0.28695781074044469 0 -0.29309283898050847 0.28048055459605348 0 -0.29095683727235372 0.28753395384208091 0 -0.30493521127791462 0.28695781074044469 0 -0.29309283898050847 0.28048055459605348 0 -0.28401529333418091 0.28255904946725641 0 -0.29095683727235372 0.28753395384208091 0 -0.31699951866320542 0.30755322334125379 0 -0.2905575990275322 0.30774240886798532 0 -0.30563014257680821 0.31779627416788381 0 -0.31699951866320542 0.30755322334125379 0 -0.2905575990275322 0.30774240886798532 0 -0.2905575990275322 0.30774240886798532 0 -0.30493521127791462 0.28695781074044469 0 -0.31699951866320542 0.30755322334125379 0 -0.2905575990275322 0.30774240886798532 0 -0.30493521127791462 0.28695781074044469 0 -0.30538608464820588 0.33090408634228141 0 -0.28942706780696309 0.31873813168532672 0 -0.30563014257680821 0.31779627416788381 0 -0.30538608464820588 0.33090408634228141 0 -0.31811651498789978 0.32488887006413791 0 -0.30563014257680821 0.31779627416788381 0 -0.30538608464820588 0.33090408634228141 0 -0.2937791937433501 0.31637108240395312 0 -0.30538608464820588 0.33090408634228141 0 -0.3017933608705089 0.344447887165377 0 -0.32134510148944728 0.34307004099923799 0 -0.30538608464820588 0.33090408634228141 0 -0.29093013722955491 0.33661105704622479 0 -0.3017933608705089 0.344447887165377 0 -0.30538608464820588 0.33090408634228141 0 -0.29093013722955491 0.33661105704622479 0 -0.2885751077852815 0.32830696870384862 0 -0.29093013722955491 0.33661105704622479 0 -0.28224162025157051 0.34582573333151501 0 -0.3017933608705089 0.344447887165377 0 -0.2885751077852815 0.32830696870384862 0 -0.28146834572906437 0.33465123959114113 0 -0.2790455690922089 0.3243844570517187 0 -0.29093013722955491 0.33661105704622479 0 -0.2885751077852815 0.32830696870384862 0 -0.28146834572906437 0.33465123959114113 0 -0.29093013722955491 0.33661105704622479 0 -0.28146834572906437 0.33465123959114113 0 -0.28224162025157051 0.34582573333151501 0 -0.30538608464820588 0.33090408634228141 0 -0.2885751077852815 0.32830696870384862 0 -0.28942706780696309 0.31873813168532672 0 -0.30538608464820588 0.33090408634228141 0 -0.28942706780696309 0.31873813168532672 0 -0.2937791937433501 0.31637108240395312 0 -0.28942706780696309 0.31873813168532672 0 -0.2937791937433501 0.31637108240395312 0 -0.2851872012256097 0.31550597615259851 0 -0.2905575990275322 0.30774240886798532 0 -0.30563014257680821 0.31779627416788381 0 -0.2937791937433501 0.31637108240395312 0 -0.2905575990275322 0.30774240886798532 0 -0.2937791937433501 0.31637108240395312 0 -0.2851872012256097 0.31550597615259851 0 -0.28942706780696309 0.31873813168532672 0 -0.2937791937433501 0.31637108240395312 0 -0.2885751077852815 0.32830696870384862 0 -0.28942706780696309 0.31873813168532672 0 -0.2790455690922089 0.3243844570517187 0 -0.28942706780696309 0.31873813168532672 0 -0.2790455690922089 0.3243844570517187 0 -0.2851872012256097 0.31550597615259851 0 -0.2790455690922089 0.3243844570517187 0 -0.28942706780696309 0.31873813168532672 0 -0.2851872012256097 0.31550597615259851 0 -0.2790455690922089 0.3243844570517187 0 -0.28942706780696309 0.31873813168532672 0 -0.2851872012256097 0.31550597615259851 0 -0.27514776209796898 0.30785266251660498 0 -0.2851872012256097 0.31550597615259851 0 -0.27699557949655113 0.31645322234696882 0 -0.2851872012256097 0.31550597615259851 0 -0.27699557949655113 0.31645322234696882 0 -0.2790455690922089 0.3243844570517187 0 -0.27514776209796898 0.30785266251660498 0 -0.27699557949655113 0.31645322234696882 0 -0.27123720609067609 0.3158529302113221 0 -0.27001263578126711 0.32263717043347712 0 -0.2790455690922089 0.3243844570517187 0 -0.25910260253645218 0.33523110656146687 0 -0.26721257633701828 0.30790943684761429 0 -0.27123720609067609 0.3158529302113221 0 -0.26528599585519008 0.31471464054907522 0 -0.27699557949655113 0.31645322234696882 0 -0.27123720609067609 0.3158529302113221 0 -0.27001263578126711 0.32263717043347712 0 -0.27123720609067609 0.3158529302113221 0 -0.26528599585519008 0.31471464054907522 0 -0.26368222169044719 0.32126413599590953 0 -0.27123720609067609 0.3158529302113221 0 -0.27001263578126711 0.32263717043347712 0 -0.26368222169044719 0.32126413599590953 0 -0.27699557949655113 0.31645322234696882 0 -0.27001263578126711 0.32263717043347712 0 -0.2790455690922089 0.3243844570517187 0 -0.2790455690922089 0.3243844570517187 0 -0.25910260253645218 0.33523110656146687 0 -0.2790455690922089 0.3243844570517187 0 -0.26824012707650141 0.34000504592112352 0 -0.28146834572906437 0.33465123959114113 0 -0.2790455690922089 0.3243844570517187 0 -0.26824012707650141 0.34000504592112352 0 -0.2790455690922089 0.3243844570517187 0 -0.26824012707650141 0.34000504592112352 0 -0.25910260253645218 0.33523110656146687 0 -0.28146834572906437 0.33465123959114113 0 -0.26824012707650141 0.34000504592112352 0 -0.28224162025157051 0.34582573333151501 0 -0.25910260253645218 0.33523110656146687 0 -0.25407523553642281 0.3497448278934856 0 -0.23915963598069589 0.34607775607121571 0 -0.25910260253645218 0.33523110656146687 0 -0.25407523553642281 0.3497448278934856 0 -0.26309588156361569 0.34576168367824162 0 -0.26824012707650141 0.34000504592112352 0 -0.25910260253645218 0.33523110656146687 0 -0.26309588156361569 0.34576168367824162 0 -0.25910260253645218 0.33523110656146687 0 -0.25451497659773847 0.32559442806853028 0 -0.24843663428782739 0.33758714710907461 0 -0.25451497659773847 0.32559442806853028 0 -0.25901197930261888 0.31383205914145501 0 -0.24885494741763489 0.31718848033418301 0 -0.25451497659773847 0.32559442806853028 0 -0.25901197930261888 0.31383205914145501 0 -0.26368222169044719 0.32126413599590953 0 -0.25901197930261888 0.31383205914145501 0 -0.26528599585519008 0.31471464054907522 0 -0.26368222169044719 0.32126413599590953 0 -0.27001263578126711 0.32263717043347712 0 -0.25910260253645218 0.33523110656146687 0 -0.26368222169044719 0.32126413599590953 0 -0.25910260253645218 0.33523110656146687 0 -0.25451497659773847 0.32559442806853028 0 -0.26368222169044719 0.32126413599590953 0 -0.26470209097228098 0.37140351159401941 0 -0.25562758441007077 0.36194187249828802 0 -0.266880351992417 0.3582272519812631 0 -0.26470209097228098 0.37140351159401941 0 -0.25213085833087667 0.37355178257669552 0 -0.25562758441007077 0.36194187249828802 0 -0.25213085833087667 0.37355178257669552 0 -0.25562758441007077 0.36194187249828802 0 -0.24329038266145239 0.36134909741814653 0 -0.25562758441007077 0.36194187249828802 0 -0.25407523553642281 0.3497448278934856 0 -0.24329038266145239 0.36134909741814653 0 -0.25407523553642281 0.3497448278934856 0 -0.26309588156361569 0.34576168367824162 0 -0.266880351992417 0.3582272519812631 0 -0.25562758441007077 0.36194187249828802 0 -0.25407523553642281 0.3497448278934856 0 -0.266880351992417 0.3582272519812631 0 -0.266880351992417 0.3582272519812631 0 -0.27640009279511962 0.35155878343443242 0 -0.28837447244510311 0.36628710188532532 0 -0.26309588156361569 0.34576168367824162 0 -0.266880351992417 0.3582272519812631 0 -0.27640009279511962 0.35155878343443242 0 -0.26824012707650141 0.34000504592112352 0 -0.26309588156361569 0.34576168367824162 0 -0.27640009279511962 0.35155878343443242 0 -0.26824012707650141 0.34000504592112352 0 -0.27640009279511962 0.35155878343443242 0 -0.28224162025157051 0.34582573333151501 0 -0.266880351992417 0.3582272519812631 0 -0.28837447244510311 0.36628710188532532 0 -0.266880351992417 0.3582272519812631 0 -0.28837447244510311 0.36628710188532532 0 -0.27747916353329311 0.37529003384729942 0 -0.26470209097228098 0.37140351159401941 0 -0.266880351992417 0.3582272519812631 0 -0.27747916353329311 0.37529003384729942 0 -0.28837447244510311 0.36628710188532532 0 -0.28714059247178902 0.37543321948423419 0 -0.27747916353329311 0.37529003384729942 0 -0.28837447244510311 0.36628710188532532 0 -0.28956810344150979 0.35324588380912608 0 -0.30292150033679799 0.36018321991941088 0 -0.28837447244510311 0.36628710188532532 0 -0.29874239202075642 0.37528196759933868 0 -0.28714059247178902 0.37543321948423419 0 -0.28224162025157051 0.34582573333151501 0 -0.3017933608705089 0.344447887165377 0 -0.28224162025157051 0.34582573333151501 0 -0.28956810344150979 0.35324588380912608 0 -0.3017933608705089 0.344447887165377 0 -0.27640009279511962 0.35155878343443242 0 -0.28224162025157051 0.34582573333151501 0 -0.28956810344150979 0.35324588380912608 0 -0.27640009279511962 0.35155878343443242 0 -0.28837447244510311 0.36628710188532532 0 -0.28956810344150979 0.35324588380912608 0 -0.3017933608705089 0.344447887165377 0 -0.31193410579265052 0.3536039280541286 0 -0.30292150033679799 0.36018321991941088 0 -0.28956810344150979 0.35324588380912608 0 -0.3017933608705089 0.344447887165377 0 -0.30292150033679799 0.36018321991941088 0 -0.3017933608705089 0.344447887165377 0 -0.32134510148944728 0.34307004099923799 0 -0.3017933608705089 0.344447887165377 0 -0.31193410579265052 0.3536039280541286 0 -0.32134510148944728 0.34307004099923799 0 -0.31193410579265052 0.3536039280541286 0 -0.30292150033679799 0.36018321991941088 0 -0.31340485972314069 0.36375751913665871 0 -0.28837447244510311 0.36628710188532532 0 -0.30292150033679799 0.36018321991941088 0 -0.30986859289778912 0.37434695178938759 0 -0.28837447244510311 0.36628710188532532 0 -0.30986859289778912 0.37434695178938759 0 -0.28837447244510311 0.36628710188532532 0 -0.30986859289778912 0.37434695178938759 0 -0.29874239202075642 0.37528196759933868 0 -0.30292150033679799 0.36018321991941088 0 -0.30986859289778912 0.37434695178938759 0 -0.31340485972314069 0.36375751913665871 0 -0.30986859289778912 0.37434695178938759 0 -0.31340485972314069 0.36375751913665871 0 -0.32167824364597858 0.36970754211250728 0 -0.31340485972314069 0.36375751913665871 0 -0.32243327870136801 0.35950699838777223 0 -0.32167824364597858 0.36970754211250728 0 -0.32243327870136801 0.35950699838777223 0 -0.32167824364597858 0.36970754211250728 0 -0.33132177355711989 0.36851943955526861 0 -0.32167824364597858 0.36970754211250728 0 -0.33132177355711989 0.36851943955526861 0 -0.33136271335047512 0.38240680169344993 0 -0.32243327870136801 0.35950699838777223 0 -0.33132177355711989 0.36851943955526861 0 -0.33989838930305449 0.35721367281084643 0 -0.33132177355711989 0.36851943955526861 0 -0.34304766554360439 0.37232322735168022 0 -0.33136271335047512 0.38240680169344993 0 -0.33132177355711989 0.36851943955526861 0 -0.34304766554360439 0.37232322735168022 0 -0.33989838930305449 0.35721367281084643 0 -0.33989838930305449 0.35721367281084643 0 -0.32134510148944728 0.34307004099923799 0 -0.33989838930305449 0.35721367281084643 0 -0.32134510148944728 0.34307004099923799 0 -0.3500233487104954 0.34104903357308669 0 -0.32243327870136801 0.35950699838777223 0 -0.33989838930305449 0.35721367281084643 0 -0.32134510148944728 0.34307004099923799 0 -0.31193410579265052 0.3536039280541286 0 -0.32243327870136801 0.35950699838777223 0 -0.32134510148944728 0.34307004099923799 0 -0.31193410579265052 0.3536039280541286 0 -0.31340485972314069 0.36375751913665871 0 -0.32243327870136801 0.35950699838777223 0 -0.30538608464820588 0.33090408634228141 0 -0.32134510148944728 0.34307004099923799 0 -0.30538608464820588 0.33090408634228141 0 -0.32134510148944728 0.34307004099923799 0 -0.31811651498789978 0.32488887006413791 0 -0.32134510148944728 0.34307004099923799 0 -0.31811651498789978 0.32488887006413791 0 -0.33459812393413729 0.32207732583041709 0 -0.31699951866320542 0.30755322334125379 0 -0.30563014257680821 0.31779627416788381 0 -0.31811651498789978 0.32488887006413791 0 -0.31699951866320542 0.30755322334125379 0 -0.31811651498789978 0.32488887006413791 0 -0.33459812393413729 0.32207732583041709 0 -0.32134510148944728 0.34307004099923799 0 -0.34342889555096417 0.33131534648734451 0 -0.3500233487104954 0.34104903357308669 0 -0.32134510148944728 0.34307004099923799 0 -0.33459812393413729 0.32207732583041709 0 -0.34342889555096417 0.33131534648734451 0 -0.32134510148944728 0.34307004099923799 0 -0.3500233487104954 0.34104903357308669 0 -0.3500233487104954 0.34104903357308669 0 -0.35650114511620551 0.33294276438790088 0 -0.36794029410566942 0.33226259727897972 0 -0.34342889555096417 0.33131534648734451 0 -0.3500233487104954 0.34104903357308669 0 -0.35650114511620551 0.33294276438790088 0 -0.33459812393413729 0.32207732583041709 0 -0.34342889555096417 0.33131534648734451 0 -0.35467675850453528 0.31743756764607989 0 -0.34344143829887858 0.30736403781452232 0 -0.33459812393413729 0.32207732583041709 0 -0.35467675850453528 0.31743756764607989 0 -0.35650114511620551 0.33294276438790088 0 -0.35467675850453528 0.31743756764607989 0 -0.36272901898995358 0.31473918551029578 0 -0.34342889555096417 0.33131534648734451 0 -0.35650114511620551 0.33294276438790088 0 -0.35467675850453528 0.31743756764607989 0 -0.35650114511620551 0.33294276438790088 0 -0.36272901898995358 0.31473918551029578 0 -0.37415321332832258 0.31386652142517069 0 -0.35650114511620551 0.33294276438790088 0 -0.37415321332832258 0.31386652142517069 0 -0.35650114511620551 0.33294276438790088 0 -0.37442838800096029 0.32044424157556423 0 -0.37415321332832258 0.31386652142517069 0 -0.37816355277066899 0.32985684687273281 0 -0.37442838800096029 0.32044424157556423 0 -0.36794029410566942 0.33226259727897972 0 -0.3787015959315434 0.33902802614693439 0 -0.3500233487104954 0.34104903357308669 0 -0.36794029410566942 0.33226259727897972 0 -0.35650114511620551 0.33294276438790088 0 -0.37442838800096029 0.32044424157556423 0 -0.36794029410566942 0.33226259727897972 0 -0.3787015959315434 0.33902802614693439 0 -0.3500233487104954 0.34104903357308669 0 -0.3787015959315434 0.33902802614693439 0 -0.37816355277066899 0.32985684687273281 0 -0.36794029410566942 0.33226259727897972 0 -0.3787015959315434 0.33902802614693439 0 -0.3500233487104954 0.34104903357308669 0 -0.36501658974902518 0.35367198233662939 0 -0.37823932191431281 0.35548757599615399 0 -0.3787015959315434 0.33902802614693439 0 -0.36501658974902518 0.35367198233662939 0 -0.37823932191431281 0.35548757599615399 0 -0.36501658974902518 0.35367198233662939 0 -0.37024808467873749 0.36543132639488701 0 -0.36501658974902518 0.35367198233662939 0 -0.37024808467873749 0.36543132639488701 0 -0.35845167711666143 0.37135730462245548 0 -0.37949655700884349 0.37153259571527891 0 -0.37024808467873749 0.36543132639488701 0 -0.36758280318953013 0.37627165255961892 0 -0.37024808467873749 0.36543132639488701 0 -0.35845167711666143 0.37135730462245548 0 -0.36758280318953013 0.37627165255961892 0 -0.36501658974902518 0.35367198233662939 0 -0.35845167711666143 0.37135730462245548 0 -0.35334750121980912 0.35582299833575448 0 -0.34304766554360439 0.37232322735168022 0 -0.33989838930305449 0.35721367281084643 0 -0.35845167711666143 0.37135730462245548 0 -0.33989838930305449 0.35721367281084643 0 -0.35845167711666143 0.37135730462245548 0 -0.35334750121980912 0.35582299833575448 0 -0.33989838930305449 0.35721367281084643 0 -0.35845167711666143 0.37135730462245548 0 -0.33989838930305449 0.35721367281084643 0 -0.3500233487104954 0.34104903357308669 0 -0.35334750121980912 0.35582299833575448 0 -0.3500233487104954 0.34104903357308669 0 -0.36501658974902518 0.35367198233662939 0 -0.35334750121980912 0.35582299833575448 0 -0.35285683380316007 0.39046665159751448 0 -0.36027192889352422 0.40897543894708011 0 -0.34270265381785459 0.40768080501023862 0 -0.34304766554360439 0.37232322735168022 0 -0.35845167711666143 0.37135730462245548 0 -0.35285683380316007 0.39046665159751448 0 -0.37686086334024771 0.38257038446795849 0 -0.35285683380316007 0.39046665159751448 0 -0.37686086334024771 0.38257038446795849 0 -0.35285683380316007 0.39046665159751448 0 -0.36758280318953013 0.37627165255961892 0 -0.35845167711666143 0.37135730462245548 0 -0.35285683380316007 0.39046665159751448 0 -0.36758280318953013 0.37627165255961892 0 -0.37686086334024771 0.38257038446795849 0 -0.37949655700884349 0.37153259571527891 0 -0.36758280318953013 0.37627165255961892 0 -0.37769092578324193 0.39977892163450779 0 -0.35285683380316007 0.39046665159751448 0 -0.37769092578324193 0.39977892163450779 0 -0.37686086334024771 0.38257038446795849 0 -0.35285683380316007 0.39046665159751448 0 -0.37769092578324193 0.39977892163450779 0 -0.35285683380316007 0.39046665159751448 0 -0.36027192889352422 0.40897543894708011 0 -0.37875820238401509 0.42613984176471847 0 -0.37769092578324193 0.39977892163450779 0 -0.36027192889352422 0.40897543894708011 0 -0.37875820238401509 0.42613984176471847 0 -0.36027192889352422 0.40897543894708011 0 -0.36048507512927641 0.42545129427310208 0 -0.37875820238401509 0.42613984176471847 0 -0.36048507512927641 0.42545129427310208 0 -0.35499138700470761 0.44318849185793469 0 -0.37875820238401509 0.42613984176471847 0 -0.35499138700470761 0.44318849185793469 0 -0.34691622899781399 0.42161541908905831 0 -0.33223168701086447 0.43660936806356893 0 -0.35499138700470761 0.44318849185793469 0 -0.36048507512927641 0.42545129427310208 0 -0.34691622899781399 0.42161541908905831 0 -0.35499138700470761 0.44318849185793469 0 -0.36027192889352422 0.40897543894708011 0 -0.34691622899781399 0.42161541908905831 0 -0.34270265381785459 0.40768080501023862 0 -0.36027192889352422 0.40897543894708011 0 -0.36048507512927641 0.42545129427310208 0 -0.34691622899781399 0.42161541908905831 0 -0.34270265381785459 0.40768080501023862 0 -0.32841174735063311 0.41773478988879181 0 -0.32505653004414181 0.39961172552874852 0 -0.34691622899781399 0.42161541908905831 0 -0.34270265381785459 0.40768080501023862 0 -0.32841174735063311 0.41773478988879181 0 -0.34691622899781399 0.42161541908905831 0 -0.32841174735063311 0.41773478988879181 0 -0.33223168701086447 0.43660936806356893 0 -0.32841174735063311 0.41773478988879181 0 -0.33223168701086447 0.43660936806356893 0 -0.31148998866141242 0.43181261152586448 0 -0.32841174735063311 0.41773478988879181 0 -0.31441363705571701 0.41408607272300291 0 -0.32505653004414181 0.39961172552874852 0 -0.32841174735063311 0.41773478988879181 0 -0.31441363705571701 0.41408607272300291 0 -0.31148998866141242 0.43181261152586448 0 -0.32505653004414181 0.39961172552874852 0 -0.31219235154091651 0.39185403334122892 0 -0.30619500853749271 0.39725637532293351 0 -0.32505653004414181 0.39961172552874852 0 -0.31778050989885959 0.38527433798844479 0 -0.31219235154091651 0.39185403334122892 0 -0.35285683380316007 0.39046665159751448 0 -0.32505653004414181 0.39961172552874852 0 -0.33136271335047512 0.38240680169344993 0 -0.35285683380316007 0.39046665159751448 0 -0.34270265381785459 0.40768080501023862 0 -0.32505653004414181 0.39961172552874852 0 -0.35285683380316007 0.39046665159751448 0 -0.32505653004414181 0.39961172552874852 0 -0.35285683380316007 0.39046665159751448 0 -0.33136271335047512 0.38240680169344993 0 -0.34304766554360439 0.37232322735168022 0 -0.35285683380316007 0.39046665159751448 0 -0.33136271335047512 0.38240680169344993 0 -0.30986859289778912 0.37434695178938759 0 -0.32167824364597858 0.36970754211250728 0 -0.33136271335047512 0.38240680169344993 0 -0.30986859289778912 0.37434695178938759 0 -0.33136271335047512 0.38240680169344993 0 -0.32505653004414181 0.39961172552874852 0 -0.33136271335047512 0.38240680169344993 0 -0.31778050989885959 0.38527433798844479 0 -0.30986859289778912 0.37434695178938759 0 -0.33136271335047512 0.38240680169344993 0 -0.31778050989885959 0.38527433798844479 0 -0.30986859289778912 0.37434695178938759 0 -0.31778050989885959 0.38527433798844479 0 -0.30574515252343709 0.38648905476423068 0 -0.30986859289778912 0.37434695178938759 0 -0.30574515252343709 0.38648905476423068 0 -0.29874239202075642 0.37528196759933868 0 -0.30574515252343709 0.38648905476423068 0 -0.29874239202075642 0.37528196759933868 0 -0.29146244090030071 0.40289140707507309 0 -0.31778050989885959 0.38527433798844479 0 -0.30574515252343709 0.38648905476423068 0 -0.31219235154091651 0.39185403334122892 0 -0.32505653004414181 0.39961172552874852 0 -0.30619500853749271 0.39725637532293351 0 -0.29725622628512233 0.40875679945997928 0 -0.32505653004414181 0.39961172552874852 0 -0.29725622628512233 0.40875679945997928 0 -0.30574515252343709 0.38648905476423068 0 -0.30619500853749271 0.39725637532293351 0 -0.29146244090030071 0.40289140707507309 0 -0.30574515252343709 0.38648905476423068 0 -0.31219235154091651 0.39185403334122892 0 -0.30619500853749271 0.39725637532293351 0 -0.30619500853749271 0.39725637532293351 0 -0.29146244090030071 0.40289140707507309 0 -0.29725622628512233 0.40875679945997928 0 -0.29146244090030071 0.40289140707507309 0 -0.2882496590958894 0.39023794275143442 0 -0.278827461574497 0.39790462172635238 0 -0.28396634188800352 0.38487377460497352 0 -0.2882496590958894 0.39023794275143442 0 -0.278827461574497 0.39790462172635238 0 -0.29146244090030071 0.40289140707507309 0 -0.278827461574497 0.39790462172635238 0 -0.27940045790464241 0.41220012044695847 0 -0.29874239202075642 0.37528196759933868 0 -0.29146244090030071 0.40289140707507309 0 -0.29874239202075642 0.37528196759933868 0 -0.29146244090030071 0.40289140707507309 0 -0.2882496590958894 0.39023794275143442 0 -0.29874239202075642 0.37528196759933868 0 -0.28396634188800352 0.38487377460497352 0 -0.28714059247178902 0.37543321948423419 0 -0.29874239202075642 0.37528196759933868 0 -0.28396634188800352 0.38487377460497352 0 -0.2882496590958894 0.39023794275143442 0 -0.28396634188800352 0.38487377460497352 0 -0.28714059247178902 0.37543321948423419 0 -0.27747916353329311 0.37529003384729942 0 -0.28396634188800352 0.38487377460497352 0 -0.27747916353329311 0.37529003384729942 0 -0.26775424033426293 0.38456849691175748 0 -0.28396634188800352 0.38487377460497352 0 -0.26775424033426293 0.38456849691175748 0 -0.278827461574497 0.39790462172635238 0 -0.26470209097228098 0.37140351159401941 0 -0.27747916353329311 0.37529003384729942 0 -0.26775424033426293 0.38456849691175748 0 -0.278827461574497 0.39790462172635238 0 -0.26298604578065232 0.3973558675440883 0 -0.2677584473194361 0.40899541659639099 0 -0.26775424033426293 0.38456849691175748 0 -0.278827461574497 0.39790462172635238 0 -0.26298604578065232 0.3973558675440883 0 -0.26298604578065232 0.3973558675440883 0 -0.25152819264859128 0.38883491631829081 0 -0.2490618870264745 0.40647588616764979 0 -0.26298604578065232 0.3973558675440883 0 -0.2677584473194361 0.40899541659639099 0 -0.2490618870264745 0.40647588616764979 0 -0.25213085833087667 0.37355178257669552 0 -0.26775424033426293 0.38456849691175748 0 -0.25152819264859128 0.38883491631829081 0 -0.26775424033426293 0.38456849691175748 0 -0.26298604578065232 0.3973558675440883 0 -0.25152819264859128 0.38883491631829081 0 -0.26470209097228098 0.37140351159401941 0 -0.25213085833087667 0.37355178257669552 0 -0.26775424033426293 0.38456849691175748 0 -0.2572482915111563 0.42152384209731297 0 -0.26330490497154813 0.43976041958731371 0 -0.24092688658692171 0.43286849171069308 0 -0.2572482915111563 0.42152384209731297 0 -0.27163392734069919 0.42205675226444578 0 -0.26330490497154813 0.43976041958731371 0 -0.2572482915111563 0.42152384209731297 0 -0.2677584473194361 0.40899541659639099 0 -0.2490618870264745 0.40647588616764979 0 -0.2572482915111563 0.42152384209731297 0 -0.2677584473194361 0.40899541659639099 0 -0.27163392734069919 0.42205675226444578 0 -0.27940045790464241 0.41220012044695847 0 -0.27163392734069919 0.42205675226444578 0 -0.28418248977984512 0.43050084655080739 0 -0.2677584473194361 0.40899541659639099 0 -0.27940045790464241 0.41220012044695847 0 -0.27163392734069919 0.42205675226444578 0 -0.278827461574497 0.39790462172635238 0 -0.2677584473194361 0.40899541659639099 0 -0.27940045790464241 0.41220012044695847 0 -0.27163392734069919 0.42205675226444578 0 -0.28418248977984512 0.43050084655080739 0 -0.26330490497154813 0.43976041958731371 0 -0.28418248977984512 0.43050084655080739 0 -0.29943060469912958 0.42576946359573847 0 -0.28981068171355151 0.44369098771903792 0 -0.29146244090030071 0.40289140707507309 0 -0.28418248977984512 0.43050084655080739 0 -0.29146244090030071 0.40289140707507309 0 -0.27940045790464241 0.41220012044695847 0 -0.28418248977984512 0.43050084655080739 0 -0.28418248977984512 0.43050084655080739 0 -0.29725622628512233 0.40875679945997928 0 -0.29943060469912958 0.42576946359573847 0 -0.29146244090030071 0.40289140707507309 0 -0.28418248977984512 0.43050084655080739 0 -0.29725622628512233 0.40875679945997928 0 -0.31441363705571701 0.41408607272300291 0 -0.32505653004414181 0.39961172552874852 0 -0.29725622628512233 0.40875679945997928 0 -0.31441363705571701 0.41408607272300291 0 -0.29725622628512233 0.40875679945997928 0 -0.29943060469912958 0.42576946359573847 0 -0.31441363705571701 0.41408607272300291 0 -0.29943060469912958 0.42576946359573847 0 -0.31148998866141242 0.43181261152586448 0 -0.29943060469912958 0.42576946359573847 0 -0.31148998866141242 0.43181261152586448 0 -0.28981068171355151 0.44369098771903792 0 -0.31148998866141242 0.43181261152586448 0 -0.30120616623050861 0.45239726712555162 0 -0.31718999816658727 0.45065056632578487 0 -0.31148998866141242 0.43181261152586448 0 -0.30120616623050861 0.45239726712555162 0 -0.31148998866141242 0.43181261152586448 0 -0.30120616623050861 0.45239726712555162 0 -0.28981068171355151 0.44369098771903792 0 -0.30120616623050861 0.45239726712555162 0 -0.29092234379960469 0.47298192272523881 0 -0.30745775624609217 0.47728579204436761 0 -0.30120616623050861 0.45239726712555162 0 -0.30745775624609217 0.47728579204436761 0 -0.31718999816658727 0.45065056632578487 0 -0.2852957606144535 0.45730244818253718 0 -0.28186649269177161 0.46567885888970018 0 -0.29092234379960469 0.47298192272523881 0 -0.30120616623050861 0.45239726712555162 0 -0.29092234379960469 0.47298192272523881 0 -0.30120616623050861 0.45239726712555162 0 -0.2852957606144535 0.45730244818253718 0 -0.29092234379960469 0.47298192272523881 0 -0.2852957606144535 0.45730244818253718 0 -0.28186649269177161 0.46567885888970018 0 -0.27690253865938408 0.45811028602654041 0 -0.28418248977984512 0.43050084655080739 0 -0.28981068171355151 0.44369098771903792 0 -0.27690253865938408 0.45811028602654041 0 -0.30120616623050861 0.45239726712555162 0 -0.2852957606144535 0.45730244818253718 0 -0.28981068171355151 0.44369098771903792 0 -0.2852957606144535 0.45730244818253718 0 -0.28981068171355151 0.44369098771903792 0 -0.27690253865938408 0.45811028602654041 0 -0.28418248977984512 0.43050084655080739 0 -0.27690253865938408 0.45811028602654041 0 -0.28418248977984512 0.43050084655080739 0 -0.27690253865938408 0.45811028602654041 0 -0.26330490497154813 0.43976041958731371 0 -0.2852957606144535 0.45730244818253718 0 -0.27690253865938408 0.45811028602654041 0 -0.28186649269177161 0.46567885888970018 0 -0.27690253865938408 0.45811028602654041 0 -0.27835780074514338 0.47366975871288508 0 -0.27690253865938408 0.45811028602654041 0 -0.25345677561811758 0.46036691342989022 0 -0.27690253865938408 0.45811028602654041 0 -0.25345677561811758 0.46036691342989022 0 -0.26590293397843329 0.47057525233348851 0 -0.25345677561811758 0.46036691342989022 0 -0.25315469521642581 0.4750486889203015 0 -0.26590293397843329 0.47057525233348851 0 -0.25345677561811758 0.46036691342989022 0 -0.26330490497154813 0.43976041958731371 0 -0.24129970279445639 0.44943490890582899 0 -0.27690253865938408 0.45811028602654041 0 -0.25345677561811758 0.46036691342989022 0 -0.26330490497154813 0.43976041958731371 0 -0.26169037092037989 0.4910190989046625 0 -0.25397816739109252 0.5 0 -0.27113802145370669 0.49283981386083792 0 -0.26169037092037989 0.4910190989046625 0 -0.25474868654415728 0.48692894813519849 0 -0.26689660829256312 0.48430763362261348 0 -0.26169037092037989 0.4910190989046625 0 -0.25397816739109252 0.5 0 -0.25474868654415728 0.48692894813519849 0 -0.25315469521642581 0.4750486889203015 0 -0.26689660829256312 0.48430763362261348 0 -0.25315469521642581 0.4750486889203015 0 -0.26689660829256312 0.48430763362261348 0 -0.26590293397843329 0.47057525233348851 0 -0.25474868654415728 0.48692894813519849 0 -0.25315469521642581 0.4750486889203015 0 -0.26689660829256312 0.48430763362261348 0 -0.27690253865938408 0.45811028602654041 0 -0.26590293397843329 0.47057525233348851 0 -0.26946370716205509 0.4860372782758946 0 -0.27690253865938408 0.45811028602654041 0 -0.26946370716205509 0.4860372782758946 0 -0.27690253865938408 0.45811028602654041 0 -0.27835780074514338 0.47366975871288508 0 -0.26946370716205509 0.4860372782758946 0 -0.26689660829256312 0.48430763362261348 0 -0.26590293397843329 0.47057525233348851 0 -0.26946370716205509 0.4860372782758946 0 -0.28186649269177161 0.46567885888970018 0 -0.27835780074514338 0.47366975871288508 0 -0.28298297564177088 0.4743823417855309 0 -0.27835780074514338 0.47366975871288508 0 -0.2798907507987049 0.48286402398659151 0 -0.28298297564177088 0.4743823417855309 0 -0.27835780074514338 0.47366975871288508 0 -0.2798907507987049 0.48286402398659151 0 -0.26946370716205509 0.4860372782758946 0 -0.26946370716205509 0.4860372782758946 0 -0.28063852136870049 0.49356657832492562 0 -0.26946370716205509 0.4860372782758946 0 -0.27113802145370669 0.49283981386083792 0 -0.28063852136870049 0.49356657832492562 0 -0.2798907507987049 0.48286402398659151 0 -0.26946370716205509 0.4860372782758946 0 -0.28063852136870049 0.49356657832492562 0 -0.25397816739109252 0.5 0 -0.27113802145370669 0.49283981386083792 0 -0.27742446875513049 0.50000000000000155 0 -0.26689660829256312 0.48430763362261348 0 -0.26946370716205509 0.4860372782758946 0 -0.27113802145370669 0.49283981386083792 0 -0.26169037092037989 0.4910190989046625 0 -0.26689660829256312 0.48430763362261348 0 -0.27113802145370669 0.49283981386083792 0 -0.26689660829256312 0.48430763362261348 0 -0.26946370716205509 0.4860372782758946 0 -0.27113802145370669 0.49283981386083792 0 -0.28063852136870049 0.49356657832492562 0 -0.27742446875513049 0.50000000000000155 0 -0.28063852136870049 0.49356657832492562 0 -0.27742446875513049 0.50000000000000155 0 -0.28063852136870049 0.49356657832492562 0 -0.27742446875513049 0.50000000000000155 0 -0.29018685806186229 0.50000000000000122 0 -0.28063852136870049 0.49356657832492562 0 -0.29018685806186229 0.50000000000000122 0 -0.29092234379960469 0.47298192272523881 0 -0.28063852136870049 0.49356657832492562 0 -0.29018685806186229 0.50000000000000122 0 -0.29018685806186229 0.50000000000000122 0 -0.29092234379960469 0.47298192272523881 0 -0.30745775624609217 0.47728579204436761 0 -0.28063852136870049 0.49356657832492562 0 -0.29092234379960469 0.47298192272523881 0 -0.2798907507987049 0.48286402398659151 0 -0.28063852136870049 0.49356657832492562 0 -0.29092234379960469 0.47298192272523881 0 -0.28186649269177161 0.46567885888970018 0 -0.28298297564177088 0.4743823417855309 0 -0.29092234379960469 0.47298192272523881 0 -0.2798907507987049 0.48286402398659151 0 -0.28298297564177088 0.4743823417855309 0 -0.29092234379960469 0.47298192272523881 0 -0.29018685806186229 0.50000000000000122 0 -0.30745775624609217 0.47728579204436761 0 -0.3640375775585698 0.5 0 -0.30745775624609217 0.47728579204436761 0 -0.33122457162539992 0.46023714195115112 0 -0.3640375775585698 0.5 0 -0.30745775624609217 0.47728579204436761 0 -0.33122457162539992 0.46023714195115112 0 -0.30745775624609217 0.47728579204436761 0 -0.31718999816658727 0.45065056632578487 0 -0.33122457162539992 0.46023714195115112 0 -0.33223168701086447 0.43660936806356893 0 -0.31148998866141242 0.43181261152586448 0 -0.31718999816658727 0.45065056632578487 0 -0.33223168701086447 0.43660936806356893 0 -0.31718999816658727 0.45065056632578487 0 -0.33122457162539992 0.46023714195115112 0 -0.33122457162539992 0.46023714195115112 0 -0.35499138700470761 0.44318849185793469 0 -0.33223168701086447 0.43660936806356893 0 -0.33122457162539992 0.46023714195115112 0 -0.35499138700470761 0.44318849185793469 0 -0.33122457162539992 0.46023714195115112 0 -0.35376164566254242 0.46494380824906301 0 -0.35499138700470761 0.44318849185793469 0 -0.38249991962136642 0.44345487931465249 0 -0.35499138700470761 0.44318849185793469 0 -0.37103467036260362 0.45695891695805302 0 -0.38249991962136642 0.44345487931465249 0 -0.37875820238401509 0.42613984176471847 0 -0.35499138700470761 0.44318849185793469 0 -0.35376164566254242 0.46494380824906301 0 -0.35499138700470761 0.44318849185793469 0 -0.37103467036260362 0.45695891695805302 0 -0.35376164566254242 0.46494380824906301 0 -0.37103467036260362 0.45695891695805302 0 -0.36943712044780219 0.47475959506207249 0 -0.33122457162539992 0.46023714195115112 0 -0.35376164566254242 0.46494380824906301 0 -0.3640375775585698 0.5 0 -0.38891458820749281 0.47713565504117422 0 -0.36943712044780219 0.47475959506207249 0 -0.3640375775585698 0.5 0 -0.35376164566254242 0.46494380824906301 0 -0.36943712044780219 0.47475959506207249 0 -0.3640375775585698 0.5 0 -0.1410608215807003 0.47118489318428192 0 -0.1506389915883973 0.47451242435581331 0 -0.15779819732271971 0.4695739402503486 0 -0.1410608215807003 0.47118489318428192 0 -0.15779819732271971 0.4695739402503486 0 -0.1455325599989582 0.47665965757352818 0 -0.14983465253105441 0.48099067897208148 0 -0.1405957742956809 0.47995063378193648 0 -0.14983465253105441 0.48099067897208148 0 -0.14427471349546869 0.48965289008050411 0 -0.1405957742956809 0.47995063378193648 0 -0.1455325599989582 0.47665965757352818 0 -0.1410608215807003 0.47118489318428192 0 -0.1506389915883973 0.47451242435581331 0 -0.1455325599989582 0.47665965757352818 0 -0.1410608215807003 0.47118489318428192 0 -0.1405957742956809 0.47995063378193648 0 -0.1506389915883973 0.47451242435581331 0 -0.15682389603308189 0.47748605108520858 0 -0.15779819732271971 0.4695739402503486 0 -0.1506389915883973 0.47451242435581331 0 -0.14983465253105441 0.48099067897208148 0 -0.15682389603308189 0.47748605108520858 0 -0.1455325599989582 0.47665965757352818 0 -0.1506389915883973 0.47451242435581331 0 -0.14983465253105441 0.48099067897208148 0 -0.14983465253105441 0.48099067897208148 0 -0.1558122254133027 0.48316327461493752 0 -0.15682389603308189 0.47748605108520858 0 -0.14983465253105441 0.48099067897208148 0 -0.1558122254133027 0.48316327461493752 0 -0.15140604362779489 0.486968875654338 0 -0.1558122254133027 0.48316327461493752 0 -0.15140604362779489 0.486968875654338 0 -0.15545271364459581 0.49281799385228547 0 -0.14983465253105441 0.48099067897208148 0 -0.15140604362779489 0.486968875654338 0 -0.14427471349546869 0.48965289008050411 0 -0.15140604362779489 0.486968875654338 0 -0.15545271364459581 0.49281799385228547 0 -0.14427471349546869 0.48965289008050411 0 -0.15453849507163009 0.5 0 -0.14427471349546869 0.48965289008050411 0 -0.12543772684428189 0.5 0 -0.15453849507163009 0.5 0 -0.15545271364459581 0.49281799385228547 0 -0.14427471349546869 0.48965289008050411 0 -0.14427471349546869 0.48965289008050411 0 -0.12543772684428189 0.5 0 -0.13178312884530541 0.48627570230508688 0 -0.14427471349546869 0.48965289008050411 0 -0.13178312884530541 0.48627570230508688 0 -0.1405957742956809 0.47995063378193648 0 -0.13178312884530541 0.48627570230508688 0 -0.1317912103042716 0.47600940211286807 0 -0.11642361318749669 0.48420448820259387 0 -0.1317912103042716 0.47600940211286807 0 -0.14083201439797821 0.46516349611765162 0 -0.12052644250191399 0.4682622397032008 0 -0.13178312884530541 0.48627570230508688 0 -0.1405957742956809 0.47995063378193648 0 -0.1317912103042716 0.47600940211286807 0 -0.1410608215807003 0.47118489318428192 0 -0.1405957742956809 0.47995063378193648 0 -0.1317912103042716 0.47600940211286807 0 -0.1410608215807003 0.47118489318428192 0 -0.1317912103042716 0.47600940211286807 0 -0.14083201439797821 0.46516349611765162 0 -0.12618187852634369 0.45882241462805679 0 -0.14083201439797821 0.46516349611765162 0 -0.12052644250191399 0.4682622397032008 0 -0.14083201439797821 0.46516349611765162 0 -0.12052644250191399 0.4682622397032008 0 -0.12618187852634369 0.45882241462805679 0 -0.13621980461969219 0.45775649261309698 0 -0.13482926781972801 0.45201676164804122 0 -0.13621980461969219 0.45775649261309698 0 -0.13482926781972801 0.45201676164804122 0 -0.1430360577347192 0.45502329805863873 0 -0.13621980461969219 0.45775649261309698 0 -0.14083201439797821 0.46516349611765162 0 -0.1430360577347192 0.45502329805863873 0 -0.12618187852634369 0.45882241462805679 0 -0.13621980461969219 0.45775649261309698 0 -0.14083201439797821 0.46516349611765162 0 -0.12618187852634369 0.45882241462805679 0 -0.13482926781972801 0.45201676164804122 0 -0.1248743097581413 0.44162978393037222 0 -0.13482926781972801 0.45201676164804122 0 -0.13973201497409549 0.44099892737807922 0 -0.1415241139788854 0.4488412036993919 0 -0.13482926781972801 0.45201676164804122 0 -0.1415241139788854 0.4488412036993919 0 -0.1430360577347192 0.45502329805863873 0 -0.13973201497409549 0.44099892737807922 0 -0.13491063247587859 0.43073185275000708 0 -0.1248743097581413 0.44162978393037222 0 -0.13482926781972801 0.45201676164804122 0 -0.13973201497409549 0.44099892737807922 0 -0.1248743097581413 0.44162978393037222 0 -0.13973201497409549 0.44099892737807922 0 -0.14849911538699881 0.44732582771280882 0 -0.14949031039727409 0.43903968606904947 0 -0.14849911538699881 0.44732582771280882 0 -0.1430360577347192 0.45502329805863873 0 -0.15230793746503779 0.45507497120342549 0 -0.13973201497409549 0.44099892737807922 0 -0.1415241139788854 0.4488412036993919 0 -0.14849911538699881 0.44732582771280882 0 -0.1415241139788854 0.4488412036993919 0 -0.14849911538699881 0.44732582771280882 0 -0.1430360577347192 0.45502329805863873 0 -0.14849911538699881 0.44732582771280882 0 -0.15230793746503779 0.45507497120342549 0 -0.15767924869329919 0.44641741059368378 0 -0.14949031039727409 0.43903968606904947 0 -0.15767924869329919 0.44641741059368378 0 -0.15912083936695831 0.4347249498771325 0 -0.14849911538699881 0.44732582771280882 0 -0.14949031039727409 0.43903968606904947 0 -0.15767924869329919 0.44641741059368378 0 -0.14083201439797821 0.46516349611765162 0 -0.16113758629404229 0.46206475253210239 0 -0.15779819732271971 0.4695739402503486 0 -0.1410608215807003 0.47118489318428192 0 -0.14083201439797821 0.46516349611765162 0 -0.15779819732271971 0.4695739402503486 0 -0.14083201439797821 0.46516349611765162 0 -0.16113758629404229 0.46206475253210239 0 -0.14083201439797821 0.46516349611765162 0 -0.15230793746503779 0.45507497120342549 0 -0.16113758629404229 0.46206475253210239 0 -0.14083201439797821 0.46516349611765162 0 -0.1430360577347192 0.45502329805863873 0 -0.15230793746503779 0.45507497120342549 0 -0.16113758629404229 0.46206475253210239 0 -0.16940388650370539 0.44815354093755089 0 -0.18144315819010631 0.45896600894655282 0 -0.16113758629404229 0.46206475253210239 0 -0.18144315819010631 0.45896600894655282 0 -0.16113758629404229 0.46206475253210239 0 -0.17453557306473899 0.46796298731641428 0 -0.15779819732271971 0.4695739402503486 0 -0.15230793746503779 0.45507497120342549 0 -0.16113758629404229 0.46206475253210239 0 -0.16013216473902109 0.45292766881669072 0 -0.16113758629404229 0.46206475253210239 0 -0.16013216473902109 0.45292766881669072 0 -0.16940388650370539 0.44815354093755089 0 -0.15767924869329919 0.44641741059368378 0 -0.16940388650370539 0.44815354093755089 0 -0.15912083936695831 0.4347249498771325 0 -0.15230793746503779 0.45507497120342549 0 -0.16013216473902109 0.45292766881669072 0 -0.15767924869329919 0.44641741059368378 0 -0.16013216473902109 0.45292766881669072 0 -0.15767924869329919 0.44641741059368378 0 -0.16940388650370539 0.44815354093755089 0 -0.1829590266345629 0.45699162349075462 0 -0.18255950863604661 0.43173185523385532 0 -0.1829590266345629 0.45699162349075462 0 -0.19557533522393281 0.44055915781337712 0 -0.18255950863604661 0.43173185523385532 0 -0.16940388650370539 0.44815354093755089 0 -0.1829590266345629 0.45699162349075462 0 -0.18255950863604661 0.43173185523385532 0 -0.16113758629404229 0.46206475253210239 0 -0.17453557306473899 0.46796298731641428 0 -0.18144315819010631 0.45896600894655282 0 -0.17453557306473899 0.46796298731641428 0 -0.18144315819010631 0.45896600894655282 0 -0.17453557306473899 0.46796298731641428 0 -0.18311948649431831 0.46713679563994498 0 -0.16940388650370539 0.44815354093755089 0 -0.18144315819010631 0.45896600894655282 0 -0.1829590266345629 0.45699162349075462 0 -0.18144315819010631 0.45896600894655282 0 -0.1829590266345629 0.45699162349075462 0 -0.18144315819010631 0.45896600894655282 0 -0.1829865290739871 0.45873048193697258 0 -0.1829590266345629 0.45699162349075462 0 -0.18144315819010631 0.45896600894655282 0 -0.1829865290739871 0.45873048193697258 0 -0.1829865290739871 0.45873048193697258 0 -0.1829590266345629 0.45699162349075462 0 -0.17453557306473899 0.46796298731641428 0 -0.18144315819010631 0.45896600894655282 0 -0.18311948649431831 0.46713679563994498 0 -0.1829865290739871 0.45873048193697258 0 -0.18311948649431831 0.46713679563994498 0 -0.18144315819010631 0.45896600894655282 0 -0.1829865290739871 0.45873048193697258 0 -0.18311948649431831 0.46713679563994498 0 -0.18311948649431831 0.46713679563994498 0 -0.18337937489664821 0.48356839781997168 0 -0.19511197543601369 0.47606725323690458 0 -0.18311948649431831 0.46713679563994498 0 -0.18337937489664821 0.48356839781997168 0 -0.18311948649431831 0.46713679563994498 0 -0.18337937489664821 0.48356839781997168 0 -0.17485937494801759 0.47808814193434568 0 -0.17453557306473899 0.46796298731641428 0 -0.18311948649431831 0.46713679563994498 0 -0.17485937494801759 0.47808814193434568 0 -0.17453557306473899 0.46796298731641428 0 -0.15779819732271971 0.4695739402503486 0 -0.17453557306473899 0.46796298731641428 0 -0.16499414335466689 0.48039049058434952 0 -0.17453557306473899 0.46796298731641428 0 -0.16499414335466689 0.48039049058434952 0 -0.15779819732271971 0.4695739402503486 0 -0.17453557306473899 0.46796298731641428 0 -0.17485937494801759 0.47808814193434568 0 -0.16499414335466689 0.48039049058434952 0 -0.17485937494801759 0.47808814193434568 0 -0.16499414335466689 0.48039049058434952 0 -0.1699453859209171 0.49288017845899518 0 -0.1558122254133027 0.48316327461493752 0 -0.16499414335466689 0.48039049058434952 0 -0.15682389603308189 0.47748605108520858 0 -0.16499414335466689 0.48039049058434952 0 -0.15682389603308189 0.47748605108520858 0 -0.15779819732271971 0.4695739402503486 0 -0.15453849507163009 0.5 0 -0.1699453859209171 0.49288017845899518 0 -0.18363926329897839 0.49999999999999828 0 -0.15453849507163009 0.5 0 -0.15545271364459581 0.49281799385228547 0 -0.1699453859209171 0.49288017845899518 0 -0.15545271364459581 0.49281799385228547 0 -0.16499414335466689 0.48039049058434952 0 -0.1699453859209171 0.49288017845899518 0 -0.15545271364459581 0.49281799385228547 0 -0.16499414335466689 0.48039049058434952 0 -0.1558122254133027 0.48316327461493752 0 -0.15545271364459581 0.49281799385228547 0 -0.16499414335466689 0.48039049058434952 0 -0.18337937489664821 0.48356839781997168 0 -0.18363926329897839 0.49999999999999828 0 -0.18337937489664821 0.48356839781997168 0 -0.1699453859209171 0.49288017845899518 0 -0.18363926329897839 0.49999999999999828 0 -0.18337937489664821 0.48356839781997168 0 -0.17485937494801759 0.47808814193434568 0 -0.1699453859209171 0.49288017845899518 0 -0.18337937489664821 0.48356839781997168 0 -0.18363926329897839 0.49999999999999828 0 -0.19848883175809501 0.48685236178056529 0 -0.18363926329897839 0.49999999999999828 0 -0.19848883175809501 0.48685236178056529 0 -0.20708556466301639 0.5 0 -0.18311948649431831 0.46713679563994498 0 -0.19511197543601369 0.47606725323690458 0 -0.20656524953558469 0.46488016823659339 0 -0.18337937489664821 0.48356839781997168 0 -0.19848883175809501 0.48685236178056529 0 -0.19511197543601369 0.47606725323690458 0 -0.19848883175809501 0.48685236178056529 0 -0.19511197543601369 0.47606725323690458 0 -0.206747867840962 0.47700509082497228 0 -0.19511197543601369 0.47606725323690458 0 -0.206747867840962 0.47700509082497228 0 -0.20656524953558469 0.46488016823659339 0 -0.19848883175809501 0.48685236178056529 0 -0.206747867840962 0.47700509082497228 0 -0.21585796601610141 0.48648558657266339 0 -0.206747867840962 0.47700509082497228 0 -0.21852396914967101 0.47285401242330122 0 -0.20656524953558469 0.46488016823659339 0 -0.206747867840962 0.47700509082497228 0 -0.21852396914967101 0.47285401242330122 0 -0.21585796601610141 0.48648558657266339 0 -0.20708556466301639 0.5 0 -0.21585796601610141 0.48648558657266339 0 -0.23053186602705439 0.5 0 -0.19848883175809501 0.48685236178056529 0 -0.20708556466301639 0.5 0 -0.21585796601610141 0.48648558657266339 0 -0.21585796601610141 0.48648558657266339 0 -0.23053186602705439 0.5 0 -0.2373192826940049 0.48342253064983348 0 -0.21852396914967101 0.47285401242330122 0 -0.2373192826940049 0.48342253064983348 0 -0.23001101257685119 0.46262354083324181 0 -0.21852396914967101 0.47285401242330122 0 -0.21585796601610141 0.48648558657266339 0 -0.2373192826940049 0.48342253064983348 0 -0.25474868654415728 0.48692894813519849 0 -0.25315469521642581 0.4750486889203015 0 -0.2373192826940049 0.48342253064983348 0 -0.25315469521642581 0.4750486889203015 0 -0.2373192826940049 0.48342253064983348 0 -0.23001101257685119 0.46262354083324181 0 -0.25397816739109252 0.5 0 -0.23053186602705439 0.5 0 -0.2373192826940049 0.48342253064983348 0 -0.25397816739109252 0.5 0 -0.25474868654415728 0.48692894813519849 0 -0.2373192826940049 0.48342253064983348 0 -0.26330490497154813 0.43976041958731371 0 -0.24129970279445639 0.44943490890582899 0 -0.24092688658692171 0.43286849171069308 0 -0.24129970279445639 0.44943490890582899 0 -0.2242493546558077 0.44235471361969553 0 -0.24092688658692171 0.43286849171069308 0 -0.25345677561811758 0.46036691342989022 0 -0.23001101257685119 0.46262354083324181 0 -0.25345677561811758 0.46036691342989022 0 -0.24129970279445639 0.44943490890582899 0 -0.23001101257685119 0.46262354083324181 0 -0.25345677561811758 0.46036691342989022 0 -0.25315469521642581 0.4750486889203015 0 -0.23001101257685119 0.46262354083324181 0 -0.24129970279445639 0.44943490890582899 0 -0.23001101257685119 0.46262354083324181 0 -0.2242493546558077 0.44235471361969553 0 -0.23001101257685119 0.46262354083324181 0 -0.2242493546558077 0.44235471361969553 0 -0.2144914677851314 0.45380351874251162 0 -0.2242493546558077 0.44235471361969553 0 -0.20880164963731279 0.443380440886459 0 -0.2144914677851314 0.45380351874251162 0 -0.20880164963731279 0.443380440886459 0 -0.2144914677851314 0.45380351874251162 0 -0.20415969833182021 0.45549933815243238 0 -0.23001101257685119 0.46262354083324181 0 -0.2144914677851314 0.45380351874251162 0 -0.20656524953558469 0.46488016823659339 0 -0.21852396914967101 0.47285401242330122 0 -0.23001101257685119 0.46262354083324181 0 -0.20656524953558469 0.46488016823659339 0 -0.23001101257685119 0.46262354083324181 0 -0.20656524953558469 0.46488016823659339 0 -0.2144914677851314 0.45380351874251162 0 -0.20415969833182021 0.45549933815243238 0 -0.20656524953558469 0.46488016823659339 0 -0.1829865290739871 0.45873048193697258 0 -0.1829590266345629 0.45699162349075462 0 -0.20415969833182021 0.45549933815243238 0 -0.1829865290739871 0.45873048193697258 0 -0.20415969833182021 0.45549933815243238 0 -0.18311948649431831 0.46713679563994498 0 -0.20415969833182021 0.45549933815243238 0 -0.20656524953558469 0.46488016823659339 0 -0.1829865290739871 0.45873048193697258 0 -0.18311948649431831 0.46713679563994498 0 -0.20415969833182021 0.45549933815243238 0 -0.18311948649431831 0.46713679563994498 0 -0.20656524953558469 0.46488016823659339 0 -0.1829590266345629 0.45699162349075462 0 -0.19557533522393281 0.44055915781337712 0 -0.1829590266345629 0.45699162349075462 0 -0.20415969833182021 0.45549933815243238 0 -0.19557533522393281 0.44055915781337712 0 -0.20880164963731279 0.443380440886459 0 -0.20415969833182021 0.45549933815243238 0 -0.19557533522393281 0.44055915781337712 0 -0.19557533522393281 0.44055915781337712 0 -0.20819164381331129 0.42412669213600601 0 -0.19557533522393281 0.44055915781337712 0 -0.19413142888046839 0.4217351031076268 0 -0.18255950863604661 0.43173185523385532 0 -0.19557533522393281 0.44055915781337712 0 -0.19413142888046839 0.4217351031076268 0 -0.20819164381331129 0.42412669213600601 0 -0.19413142888046839 0.4217351031076268 0 -0.20819164381331129 0.42412669213600601 0 -0.2021706660915297 0.40578572337793972 0 -0.19413142888046839 0.4217351031076268 0 -0.2021706660915297 0.40578572337793972 0 -0.18215999063752189 0.40647208697695608 0 -0.20819164381331129 0.42412669213600601 0 -0.22405449890785839 0.40643558214578251 0 -0.2021706660915297 0.40578572337793972 0 -0.20880164963731279 0.443380440886459 0 -0.19557533522393281 0.44055915781337712 0 -0.20819164381331129 0.42412669213600601 0 -0.2242493546558077 0.44235471361969553 0 -0.20880164963731279 0.443380440886459 0 -0.20819164381331129 0.42412669213600601 0 -0.2242493546558077 0.44235471361969553 0 -0.20819164381331129 0.42412669213600601 0 -0.22600929792909111 0.42518400498706249 0 -0.2242493546558077 0.44235471361969553 0 -0.22600929792909111 0.42518400498706249 0 -0.24092688658692171 0.43286849171069308 0 -0.20819164381331129 0.42412669213600601 0 -0.22600929792909111 0.42518400498706249 0 -0.22405449890785839 0.40643558214578251 0 -0.22600929792909111 0.42518400498706249 0 -0.22405449890785839 0.40643558214578251 0 -0.2382988550227183 0.41778448946306668 0 -0.2572482915111563 0.42152384209731297 0 -0.2382988550227183 0.41778448946306668 0 -0.2490618870264745 0.40647588616764979 0 -0.22405449890785839 0.40643558214578251 0 -0.2382988550227183 0.41778448946306668 0 -0.2490618870264745 0.40647588616764979 0 -0.2572482915111563 0.42152384209731297 0 -0.2382988550227183 0.41778448946306668 0 -0.24092688658692171 0.43286849171069308 0 -0.22600929792909111 0.42518400498706249 0 -0.2382988550227183 0.41778448946306668 0 -0.24092688658692171 0.43286849171069308 0 -0.24000210142933509 0.37809552861286783 0 -0.23801773827758249 0.39392053259368742 0 -0.22567210936962789 0.38582584627882549 0 -0.25152819264859128 0.38883491631829081 0 -0.24000210142933509 0.37809552861286783 0 -0.23801773827758249 0.39392053259368742 0 -0.25213085833087667 0.37355178257669552 0 -0.25152819264859128 0.38883491631829081 0 -0.24000210142933509 0.37809552861286783 0 -0.25152819264859128 0.38883491631829081 0 -0.2490618870264745 0.40647588616764979 0 -0.23801773827758249 0.39392053259368742 0 -0.22405449890785839 0.40643558214578251 0 -0.2490618870264745 0.40647588616764979 0 -0.23801773827758249 0.39392053259368742 0 -0.22405449890785839 0.40643558214578251 0 -0.22567210936962789 0.38582584627882549 0 -0.2099895612515065 0.38861519238670661 0 -0.22405449890785839 0.40643558214578251 0 -0.23801773827758249 0.39392053259368742 0 -0.22567210936962789 0.38582584627882549 0 -0.22567210936962789 0.38582584627882549 0 -0.21752164111765379 0.37637519474985792 0 -0.23054114355980421 0.3681661286558337 0 -0.24000210142933509 0.37809552861286783 0 -0.22567210936962789 0.38582584627882549 0 -0.23054114355980421 0.3681661286558337 0 -0.22567210936962789 0.38582584627882549 0 -0.21752164111765379 0.37637519474985792 0 -0.2099895612515065 0.38861519238670661 0 -0.21752164111765379 0.37637519474985792 0 -0.2099895612515065 0.38861519238670661 0 -0.20825127389149589 0.37038948781896619 0 -0.2099895612515065 0.38861519238670661 0 -0.1956253707180633 0.37355818799515828 0 -0.20825127389149589 0.37038948781896619 0 -0.22405449890785839 0.40643558214578251 0 -0.2099895612515065 0.38861519238670661 0 -0.2021706660915297 0.40578572337793972 0 -0.2021706660915297 0.40578572337793972 0 -0.19434121226752371 0.39112870189136351 0 -0.18215999063752189 0.40647208697695608 0 -0.2099895612515065 0.38861519238670661 0 -0.2021706660915297 0.40578572337793972 0 -0.19434121226752371 0.39112870189136351 0 -0.2099895612515065 0.38861519238670661 0 -0.19434121226752371 0.39112870189136351 0 -0.1956253707180633 0.37355818799515828 0 -0.19434121226752371 0.39112870189136351 0 -0.18176047263899719 0.38121231872005679 0 -0.1956253707180633 0.37355818799515828 0 -0.18176047263899719 0.38121231872005679 0 -0.16585623702428451 0.39107516703040651 0 -0.16689278400863089 0.37048631692620287 0 -0.16585623702428451 0.39107516703040651 0 -0.1532541744773912 0.375434017343177 0 -0.15169756500005979 0.38990146883471011 0 -0.16585623702428451 0.39107516703040651 0 -0.1532541744773912 0.375434017343177 0 -0.16689278400863089 0.37048631692620287 0 -0.16585623702428451 0.39107516703040651 0 -0.1665369108918931 0.40914444316194981 0 -0.1556916669008335 0.40278409093046019 0 -0.16585623702428451 0.39107516703040651 0 -0.18215999063752189 0.40647208697695608 0 -0.1665369108918931 0.40914444316194981 0 -0.16585623702428451 0.39107516703040651 0 -0.15169756500005979 0.38990146883471011 0 -0.1556916669008335 0.40278409093046019 0 -0.18176047263899719 0.38121231872005679 0 -0.16585623702428451 0.39107516703040651 0 -0.18215999063752189 0.40647208697695608 0 -0.18176047263899719 0.38121231872005679 0 -0.18215999063752189 0.40647208697695608 0 -0.19434121226752371 0.39112870189136351 0 -0.18176047263899719 0.38121231872005679 0 -0.18215999063752189 0.40647208697695608 0 -0.18215999063752189 0.40647208697695608 0 -0.18255950863604661 0.43173185523385532 0 -0.18215999063752189 0.40647208697695608 0 -0.16958367679162159 0.42493542776846188 0 -0.1665369108918931 0.40914444316194981 0 -0.19413142888046839 0.4217351031076268 0 -0.18215999063752189 0.40647208697695608 0 -0.18255950863604661 0.43173185523385532 0 -0.18215999063752189 0.40647208697695608 0 -0.18255950863604661 0.43173185523385532 0 -0.16958367679162159 0.42493542776846188 0 -0.16940388650370539 0.44815354093755089 0 -0.18255950863604661 0.43173185523385532 0 -0.16958367679162159 0.42493542776846188 0 -0.16940388650370539 0.44815354093755089 0 -0.16958367679162159 0.42493542776846188 0 -0.15912083936695831 0.4347249498771325 0 -0.16958367679162159 0.42493542776846188 0 -0.15912083936695831 0.4347249498771325 0 -0.15604886632200479 0.41831593774319042 0 -0.16958367679162159 0.42493542776846188 0 -0.1665369108918931 0.40914444316194981 0 -0.15604886632200479 0.41831593774319042 0 -0.1665369108918931 0.40914444316194981 0 -0.15604886632200479 0.41831593774319042 0 -0.1556916669008335 0.40278409093046019 0 -0.15604886632200479 0.41831593774319042 0 -0.14768726638806501 0.40958107086639878 0 -0.1556916669008335 0.40278409093046019 0 -0.15604886632200479 0.41831593774319042 0 -0.1455440964649429 0.41771164433310332 0 -0.14575226394851429 0.42876386523653243 0 -0.15604886632200479 0.41831593774319042 0 -0.1455440964649429 0.41771164433310332 0 -0.14768726638806501 0.40958107086639878 0 -0.1455440964649429 0.41771164433310332 0 -0.14768726638806501 0.40958107086639878 0 -0.13820848934052041 0.41088683445876423 0 -0.15912083936695831 0.4347249498771325 0 -0.15604886632200479 0.41831593774319042 0 -0.14575226394851429 0.42876386523653243 0 -0.14949031039727409 0.43903968606904947 0 -0.15912083936695831 0.4347249498771325 0 -0.14575226394851429 0.42876386523653243 0 -0.1455440964649429 0.41771164433310332 0 -0.14575226394851429 0.42876386523653243 0 -0.13557398954387551 0.42076075412316039 0 -0.13973201497409549 0.44099892737807922 0 -0.14949031039727409 0.43903968606904947 0 -0.14575226394851429 0.42876386523653243 0 -0.13491063247587859 0.43073185275000708 0 -0.1242188050129694 0.42501783294758849 0 -0.1248743097581413 0.44162978393037222 0 -0.13973201497409549 0.44099892737807922 0 -0.14575226394851429 0.42876386523653243 0 -0.13491063247587859 0.43073185275000708 0 -0.14575226394851429 0.42876386523653243 0 -0.13491063247587859 0.43073185275000708 0 -0.13557398954387551 0.42076075412316039 0 -0.13491063247587859 0.43073185275000708 0 -0.13557398954387551 0.42076075412316039 0 -0.1242188050129694 0.42501783294758849 0 -0.13820848934052041 0.41088683445876423 0 -0.13557398954387551 0.42076075412316039 0 -0.12623023605756489 0.41143854881348008 0 -0.1455440964649429 0.41771164433310332 0 -0.13820848934052041 0.41088683445876423 0 -0.13557398954387551 0.42076075412316039 0 -0.13557398954387551 0.42076075412316039 0 -0.12623023605756489 0.41143854881348008 0 -0.1242188050129694 0.42501783294758849 0 -0.13820848934052041 0.41088683445876423 0 -0.12623023605756489 0.41143854881348008 0 -0.13398515235888339 0.40371564514020769 0 -0.12997925716256209 0.39431640422262348 0 -0.14074253368576661 0.38200722200303072 0 -0.1429432129120235 0.39820684686647628 0 -0.12623023605756489 0.41143854881348008 0 -0.13398515235888339 0.40371564514020769 0 -0.12997925716256209 0.39431640422262348 0 -0.13398515235888339 0.40371564514020769 0 -0.12997925716256209 0.39431640422262348 0 -0.1429432129120235 0.39820684686647628 0 -0.13820848934052041 0.41088683445876423 0 -0.13398515235888339 0.40371564514020769 0 -0.1429432129120235 0.39820684686647628 0 -0.12997925716256209 0.39431640422262348 0 -0.14074253368576661 0.38200722200303072 0 -0.12523428666698541 0.37069662222368049 0 -0.12997925716256209 0.39431640422262348 0 -0.12523428666698541 0.37069662222368049 0 -0.12103247972044499 0.39311621374447298 0 -0.14074253368576661 0.38200722200303072 0 -0.15169756500005979 0.38990146883471011 0 -0.1429432129120235 0.39820684686647628 0 -0.14074253368576661 0.38200722200303072 0 -0.1532541744773912 0.375434017343177 0 -0.15169756500005979 0.38990146883471011 0 -0.15169756500005979 0.38990146883471011 0 -0.1556916669008335 0.40278409093046019 0 -0.1429432129120235 0.39820684686647628 0 -0.14768726638806501 0.40958107086639878 0 -0.1556916669008335 0.40278409093046019 0 -0.1429432129120235 0.39820684686647628 0 -0.14768726638806501 0.40958107086639878 0 -0.13820848934052041 0.41088683445876423 0 -0.1429432129120235 0.39820684686647628 0 -0.14407255521749979 0.34403263722221961 0 -0.15504053286571459 0.3545366000593369 0 -0.14129669608781389 0.36249735492572199 0 -0.14407255521749979 0.34403263722221961 0 -0.15504053286571459 0.3545366000593369 0 -0.1549481930100888 0.34056708499864929 0 -0.14074253368576661 0.38200722200303072 0 -0.1532541744773912 0.375434017343177 0 -0.14129669608781389 0.36249735492572199 0 -0.1532541744773912 0.375434017343177 0 -0.15504053286571459 0.3545366000593369 0 -0.14129669608781389 0.36249735492572199 0 -0.14129669608781389 0.36249735492572199 0 -0.12523428666698541 0.37069662222368049 0 -0.1294360936135257 0.3482770307028879 0 -0.12523428666698541 0.37069662222368049 0 -0.1294360936135257 0.3482770307028879 0 -0.14074253368576661 0.38200722200303072 0 -0.14129669608781389 0.36249735492572199 0 -0.12523428666698541 0.37069662222368049 0 -0.14407255521749979 0.34403263722221961 0 -0.14129669608781389 0.36249735492572199 0 -0.1294360936135257 0.3482770307028879 0 -0.1294360936135257 0.3482770307028879 0 -0.13363790056006589 0.32585743918209531 0 -0.14407255521749979 0.34403263722221961 0 -0.1294360936135257 0.3482770307028879 0 -0.13363790056006589 0.32585743918209531 0 -0.1294360936135257 0.3482770307028879 0 -0.13363790056006589 0.32585743918209531 0 -0.1154499742120704 0.34086754873962172 0 -0.12722248981549561 0.3181430308760943 0 -0.13363790056006589 0.32585743918209531 0 -0.1360408951285694 0.3130357752318072 0 -0.12722248981549561 0.3181430308760943 0 -0.1360408951285694 0.3130357752318072 0 -0.12136448477009221 0.30951812845445109 0 -0.12722248981549561 0.3181430308760943 0 -0.13363790056006589 0.32585743918209531 0 -0.12142985306419619 0.32461006626398298 0 -0.13363790056006589 0.32585743918209531 0 -0.12142985306419619 0.32461006626398298 0 -0.13363790056006589 0.32585743918209531 0 -0.1360408951285694 0.3130357752318072 0 -0.14290423209994971 0.32095809222069871 0 -0.13363790056006589 0.32585743918209531 0 -0.1360408951285694 0.3130357752318072 0 -0.14290423209994971 0.32095809222069871 0 -0.1532404752523272 0.32269894785805692 0 -0.1464174014568787 0.29836992735667278 0 -0.13363790056006589 0.32585743918209531 0 -0.14290423209994971 0.32095809222069871 0 -0.15729966860100811 0.32827511069417059 0 -0.13363790056006589 0.32585743918209531 0 -0.15729966860100811 0.32827511069417059 0 -0.14290423209994971 0.32095809222069871 0 -0.1532404752523272 0.32269894785805692 0 -0.15729966860100811 0.32827511069417059 0 -0.1532404752523272 0.32269894785805692 0 -0.15943794807189979 0.31595908059817063 0 -0.1547819877644892 0.3091453549012102 0 -0.14407255521749979 0.34403263722221961 0 -0.13363790056006589 0.32585743918209531 0 -0.14748957934716561 0.33468306802428371 0 -0.13363790056006589 0.32585743918209531 0 -0.14748957934716561 0.33468306802428371 0 -0.15729966860100811 0.32827511069417059 0 -0.14748957934716561 0.33468306802428371 0 -0.1549481930100888 0.34056708499864929 0 -0.15729966860100811 0.32827511069417059 0 -0.14407255521749979 0.34403263722221961 0 -0.14748957934716561 0.33468306802428371 0 -0.1549481930100888 0.34056708499864929 0 -0.15729966860100811 0.32827511069417059 0 -0.18096143664194889 0.33069278220625808 0 -0.1549481930100888 0.34056708499864929 0 -0.15729966860100811 0.32827511069417059 0 -0.16781010436956259 0.34240718275037813 0 -0.15729966860100811 0.32827511069417059 0 -0.16781010436956259 0.34240718275037813 0 -0.18096143664194889 0.33069278220625808 0 -0.15729966860100811 0.32827511069417059 0 -0.17028988351433311 0.32233995817617028 0 -0.18096143664194889 0.33069278220625808 0 -0.15943794807189979 0.31595908059817063 0 -0.16495134068588049 0.31685297469802859 0 -0.1638395481514221 0.30983277085387728 0 -0.1532404752523272 0.32269894785805692 0 -0.15943794807189979 0.31595908059817063 0 -0.16037638850537991 0.32126535467967993 0 -0.15943794807189979 0.31595908059817063 0 -0.16037638850537991 0.32126535467967993 0 -0.16495134068588049 0.31685297469802859 0 -0.15729966860100811 0.32827511069417059 0 -0.16037638850537991 0.32126535467967993 0 -0.17028988351433311 0.32233995817617028 0 -0.1532404752523272 0.32269894785805692 0 -0.15729966860100811 0.32827511069417059 0 -0.16037638850537991 0.32126535467967993 0 -0.16495134068588049 0.31685297469802859 0 -0.17285953122972289 0.31090601179704258 0 -0.1638395481514221 0.30983277085387728 0 -0.17028988351433311 0.32233995817617028 0 -0.16495134068588049 0.31685297469802859 0 -0.17285953122972289 0.31090601179704258 0 -0.16037638850537991 0.32126535467967993 0 -0.17028988351433311 0.32233995817617028 0 -0.16495134068588049 0.31685297469802859 0 -0.18077272512400111 0.31876138179813301 0 -0.17285953122972289 0.31090601179704258 0 -0.17028988351433311 0.32233995817617028 0 -0.18077272512400111 0.31876138179813301 0 -0.17285953122972289 0.31090601179704258 0 -0.17028988351433311 0.32233995817617028 0 -0.18077272512400111 0.31876138179813301 0 -0.18096143664194889 0.33069278220625808 0 -0.18077272512400111 0.31876138179813301 0 -0.19386790912735871 0.33176087567547108 0 -0.18077272512400111 0.31876138179813301 0 -0.18096143664194889 0.33069278220625808 0 -0.18077272512400111 0.31876138179813301 0 -0.18096143664194889 0.33069278220625808 0 -0.19386790912735871 0.33176087567547108 0 -0.18096143664194889 0.33069278220625808 0 -0.1813609546404725 0.35595255046315749 0 -0.18096143664194889 0.33069278220625808 0 -0.1813609546404725 0.35595255046315749 0 -0.19258948339875709 0.33633707034479371 0 -0.16781010436956259 0.34240718275037813 0 -0.18096143664194889 0.33069278220625808 0 -0.1813609546404725 0.35595255046315749 0 -0.18096143664194889 0.33069278220625808 0 -0.19386790912735871 0.33176087567547108 0 -0.15504053286571459 0.3545366000593369 0 -0.16781010436956259 0.34240718275037813 0 -0.1813609546404725 0.35595255046315749 0 -0.15504053286571459 0.3545366000593369 0 -0.1549481930100888 0.34056708499864929 0 -0.16781010436956259 0.34240718275037813 0 -0.1532541744773912 0.375434017343177 0 -0.15504053286571459 0.3545366000593369 0 -0.16689278400863089 0.37048631692620287 0 -0.15504053286571459 0.3545366000593369 0 -0.1813609546404725 0.35595255046315749 0 -0.16689278400863089 0.37048631692620287 0 -0.18176047263899719 0.38121231872005679 0 -0.1813609546404725 0.35595255046315749 0 -0.18176047263899719 0.38121231872005679 0 -0.1813609546404725 0.35595255046315749 0 -0.1956253707180633 0.37355818799515828 0 -0.18176047263899719 0.38121231872005679 0 -0.1813609546404725 0.35595255046315749 0 -0.16689278400863089 0.37048631692620287 0 -0.1813609546404725 0.35595255046315749 0 -0.1956253707180633 0.37355818799515828 0 -0.2000380028121157 0.35856944723279938 0 -0.1956253707180633 0.37355818799515828 0 -0.2000380028121157 0.35856944723279938 0 -0.20825127389149589 0.37038948781896619 0 -0.1813609546404725 0.35595255046315749 0 -0.1951678646333711 0.34883535218340811 0 -0.19258948339875709 0.33633707034479371 0 -0.1813609546404725 0.35595255046315749 0 -0.1951678646333711 0.34883535218340811 0 -0.2000380028121157 0.35856944723279938 0 -0.1951678646333711 0.34883535218340811 0 -0.2000380028121157 0.35856944723279938 0 -0.20668301768213909 0.34448234069288158 0 -0.20668301768213909 0.34448234069288158 0 -0.2120127789660084 0.36084248239747968 0 -0.21921666942493959 0.3569244055809645 0 -0.2000380028121157 0.35856944723279938 0 -0.20668301768213909 0.34448234069288158 0 -0.2120127789660084 0.36084248239747968 0 -0.2120127789660084 0.36084248239747968 0 -0.21921666942493959 0.3569244055809645 0 -0.20668301768213909 0.34448234069288158 0 -0.21921666942493959 0.3569244055809645 0 -0.22158808080033929 0.34557455345049992 0 -0.20668301768213909 0.34448234069288158 0 -0.21921666942493959 0.3569244055809645 0 -0.2000380028121157 0.35856944723279938 0 -0.20825127389149589 0.37038948781896619 0 -0.2120127789660084 0.36084248239747968 0 -0.2120127789660084 0.36084248239747968 0 -0.2199937556016836 0.36693485901855288 0 -0.21921666942493959 0.3569244055809645 0 -0.20825127389149589 0.37038948781896619 0 -0.2120127789660084 0.36084248239747968 0 -0.2199937556016836 0.36693485901855288 0 -0.21752164111765379 0.37637519474985792 0 -0.20825127389149589 0.37038948781896619 0 -0.2199937556016836 0.36693485901855288 0 -0.21752164111765379 0.37637519474985792 0 -0.23054114355980421 0.3681661286558337 0 -0.2199937556016836 0.36693485901855288 0 -0.23054114355980421 0.3681661286558337 0 -0.21921666942493959 0.3569244055809645 0 -0.23305195790672301 0.35812934693154008 0 -0.23054114355980421 0.3681661286558337 0 -0.2199937556016836 0.36693485901855288 0 -0.21921666942493959 0.3569244055809645 0 -0.23054114355980421 0.3681661286558337 0 -0.21921666942493959 0.3569244055809645 0 -0.21921666942493959 0.3569244055809645 0 -0.22158808080033929 0.34557455345049992 0 -0.23915963598069589 0.34607775607121571 0 -0.21921666942493959 0.3569244055809645 0 -0.23915963598069589 0.34607775607121571 0 -0.21921666942493959 0.3569244055809645 0 -0.23305195790672301 0.35812934693154008 0 -0.23915963598069589 0.34607775607121571 0 -0.23305195790672301 0.35812934693154008 0 -0.23915963598069589 0.34607775607121571 0 -0.24329038266145239 0.36134909741814653 0 -0.25407523553642281 0.3497448278934856 0 -0.23915963598069589 0.34607775607121571 0 -0.24329038266145239 0.36134909741814653 0 -0.25213085833087667 0.37355178257669552 0 -0.24000210142933509 0.37809552861286783 0 -0.24329038266145239 0.36134909741814653 0 -0.24000210142933509 0.37809552861286783 0 -0.23054114355980421 0.3681661286558337 0 -0.24329038266145239 0.36134909741814653 0 -0.23054114355980421 0.3681661286558337 0 -0.23305195790672301 0.35812934693154008 0 -0.24329038266145239 0.36134909741814653 0 -0.23582541811145999 0.32679902143390172 0 -0.24885494741763489 0.31718848033418301 0 -0.23189508169276829 0.30076725351495531 0 -0.23582541811145999 0.32679902143390172 0 -0.24885494741763489 0.31718848033418301 0 -0.24633099797708269 0.32737693631841108 0 -0.25451497659773847 0.32559442806853028 0 -0.24885494741763489 0.31718848033418301 0 -0.24633099797708269 0.32737693631841108 0 -0.24843663428782739 0.33758714710907461 0 -0.22129300011358269 0.33481371145693772 0 -0.25451497659773847 0.32559442806853028 0 -0.24633099797708269 0.32737693631841108 0 -0.24843663428782739 0.33758714710907461 0 -0.25910260253645218 0.33523110656146687 0 -0.23915963598069589 0.34607775607121571 0 -0.23582541811145999 0.32679902143390172 0 -0.24633099797708269 0.32737693631841108 0 -0.24843663428782739 0.33758714710907461 0 -0.25910260253645218 0.33523110656146687 0 -0.23915963598069589 0.34607775607121571 0 -0.24843663428782739 0.33758714710907461 0 -0.23582541811145999 0.32679902143390172 0 -0.24843663428782739 0.33758714710907461 0 -0.22129300011358269 0.33481371145693772 0 -0.23915963598069589 0.34607775607121571 0 -0.24843663428782739 0.33758714710907461 0 -0.22129300011358269 0.33481371145693772 0 -0.22158808080033929 0.34557455345049992 0 -0.23915963598069589 0.34607775607121571 0 -0.22129300011358269 0.33481371145693772 0 -0.23582541811145999 0.32679902143390172 0 -0.21954464392232159 0.31820766509236142 0 -0.23189508169276829 0.30076725351495531 0 -0.23582541811145999 0.32679902143390172 0 -0.22129300011358269 0.33481371145693772 0 -0.21954464392232159 0.31820766509236142 0 -0.21954464392232159 0.31820766509236142 0 -0.20492818889453221 0.32276220977772679 0 -0.20060783596013981 0.3076349397264902 0 -0.22129300011358269 0.33481371145693772 0 -0.21954464392232159 0.31820766509236142 0 -0.20492818889453221 0.32276220977772679 0 -0.22129300011358269 0.33481371145693772 0 -0.20492818889453221 0.32276220977772679 0 -0.19386790912735871 0.33176087567547108 0 -0.22129300011358269 0.33481371145693772 0 -0.19386790912735871 0.33176087567547108 0 -0.20668301768213909 0.34448234069288158 0 -0.22129300011358269 0.33481371145693772 0 -0.19386790912735871 0.33176087567547108 0 -0.20668301768213909 0.34448234069288158 0 -0.22158808080033929 0.34557455345049992 0 -0.22129300011358269 0.33481371145693772 0 -0.20668301768213909 0.34448234069288158 0 -0.19386790912735871 0.33176087567547108 0 -0.19258948339875709 0.33633707034479371 0 -0.20668301768213909 0.34448234069288158 0 -0.19386790912735871 0.33176087567547108 0 -0.1951678646333711 0.34883535218340811 0 -0.20668301768213909 0.34448234069288158 0 -0.19258948339875709 0.33633707034479371 0 -0.18096143664194889 0.33069278220625808 0 -0.19386790912735871 0.33176087567547108 0 -0.19258948339875709 0.33633707034479371 0 -0.19386790912735871 0.33176087567547108 0 -0.19258948339875709 0.33633707034479371 0 -0.18077272512400111 0.31876138179813301 0 -0.19386790912735871 0.33176087567547108 0 -0.20060783596013981 0.3076349397264902 0 -0.20492818889453221 0.32276220977772679 0 -0.19386790912735871 0.33176087567547108 0 -0.20060783596013981 0.3076349397264902 0 -0.19386790912735871 0.33176087567547108 0 -0.20060783596013981 0.3076349397264902 0 -0.20060783596013981 0.3076349397264902 0 -0.20734776279292019 0.28350900377750898 0 -0.23189508169276829 0.30076725351495531 0 -0.21954464392232159 0.31820766509236142 0 -0.20060783596013981 0.3076349397264902 0 -0.23189508169276829 0.30076725351495531 0 -0.20060783596013981 0.3076349397264902 0 -0.20734776279292019 0.28350900377750898 0 -0.18034630435624241 0.29180066960649809 0 -0.20734776279292019 0.28350900377750898 0 -0.19375927737912041 0.2730469699042487 0 -0.18034630435624241 0.29180066960649809 0 -0.20060783596013981 0.3076349397264902 0 -0.20734776279292019 0.28350900377750898 0 -0.20734776279292019 0.28350900377750898 0 -0.23189508169276829 0.30076725351495531 0 -0.22396762922540969 0.27514125130055722 0 -0.23189508169276829 0.30076725351495531 0 -0.2378434694439332 0.28391349183279069 0 -0.22396762922540969 0.27514125130055722 0 -0.25673188405007052 0.28646841290673969 0 -0.23189508169276829 0.30076725351495531 0 -0.2378434694439332 0.28391349183279069 0 -0.25673188405007052 0.28646841290673969 0 -0.23189508169276829 0.30076725351495531 0 -0.25505401324638421 0.30366623925853881 0 -0.25673188405007052 0.28646841290673969 0 -0.23189508169276829 0.30076725351495531 0 -0.25505401324638421 0.30366623925853881 0 -0.24885494741763489 0.31718848033418301 0 -0.23189508169276829 0.30076725351495531 0 -0.25265925142613249 0.26128234508680298 0 -0.23885305679183191 0.2684477152547543 0 -0.23951274761537589 0.2474853768326048 0 -0.23885305679183191 0.2684477152547543 0 -0.22811192938500721 0.25829645972706228 0 -0.23951274761537589 0.2474853768326048 0 -0.25621817608628389 0.2460965770837312 0 -0.25265925142613249 0.26128234508680298 0 -0.23951274761537589 0.2474853768326048 0 -0.25673188405007052 0.28646841290673969 0 -0.2378434694439332 0.28391349183279069 0 -0.23885305679183191 0.2684477152547543 0 -0.25265925142613249 0.26128234508680298 0 -0.25673188405007052 0.28646841290673969 0 -0.23885305679183191 0.2684477152547543 0 -0.23885305679183191 0.2684477152547543 0 -0.22396762922540969 0.27514125130055722 0 -0.22811192938500721 0.25829645972706228 0 -0.2378434694439332 0.28391349183279069 0 -0.23885305679183191 0.2684477152547543 0 -0.22396762922540969 0.27514125130055722 0 -0.22811192938500721 0.25829645972706228 0 -0.22371849106378741 0.2462845034026982 0 -0.23951274761537589 0.2474853768326048 0 -0.22396762922540969 0.27514125130055722 0 -0.22811192938500721 0.25829645972706228 0 -0.21408768962570049 0.25938306782852782 0 -0.22811192938500721 0.25829645972706228 0 -0.21408768962570049 0.25938306782852782 0 -0.22371849106378741 0.2462845034026982 0 -0.21408768962570049 0.25938306782852782 0 -0.19928355658839081 0.25766712263582692 0 -0.2066863838603582 0.24242880758937649 0 -0.21408768962570049 0.25938306782852782 0 -0.20163280817849061 0.26608937016207479 0 -0.19928355658839081 0.25766712263582692 0 -0.20734776279292019 0.28350900377750898 0 -0.21408768962570049 0.25938306782852782 0 -0.20734776279292019 0.28350900377750898 0 -0.22396762922540969 0.27514125130055722 0 -0.21408768962570049 0.25938306782852782 0 -0.20734776279292019 0.28350900377750898 0 -0.21408768962570049 0.25938306782852782 0 -0.20163280817849061 0.26608937016207479 0 -0.20734776279292019 0.28350900377750898 0 -0.20163280817849061 0.26608937016207479 0 -0.19375927737912041 0.2730469699042487 0 -0.20163280817849061 0.26608937016207479 0 -0.19375927737912041 0.2730469699042487 0 -0.19160269433399771 0.26436194023610149 0 -0.19375927737912041 0.2730469699042487 0 -0.19160269433399771 0.26436194023610149 0 -0.17991988358848049 0.26483995741486333 0 -0.19928355658839081 0.25766712263582692 0 -0.18259587964237009 0.2606558300825601 0 -0.2066863838603582 0.24242880758937649 0 -0.18259587964237009 0.2606558300825601 0 -0.19333963139412971 0.24385714112684301 0 -0.19928355658839081 0.25766712263582692 0 -0.19160269433399771 0.26436194023610149 0 -0.18259587964237009 0.2606558300825601 0 -0.18259587964237009 0.2606558300825601 0 -0.2066863838603582 0.24242880758937649 0 -0.20163280817849061 0.26608937016207479 0 -0.19928355658839081 0.25766712263582692 0 -0.19160269433399771 0.26436194023610149 0 -0.17991988358848049 0.26483995741486333 0 -0.17951502337729761 0.2392424245160312 0 -0.17991988358848049 0.26483995741486333 0 -0.17042143569771079 0.26099360542817968 0 -0.17951502337729761 0.2392424245160312 0 -0.18259587964237009 0.2606558300825601 0 -0.17991988358848049 0.26483995741486333 0 -0.17951502337729761 0.2392424245160312 0 -0.19160269433399771 0.26436194023610149 0 -0.18259587964237009 0.2606558300825601 0 -0.17991988358848049 0.26483995741486333 0 -0.18259587964237009 0.2606558300825601 0 -0.17991988358848049 0.26483995741486333 0 -0.17991988358848049 0.26483995741486333 0 -0.17042143569771079 0.26099360542817968 0 -0.17716480609589361 0.26914773470870201 0 -0.17042143569771079 0.26099360542817968 0 -0.1627301728603629 0.26968240911070368 0 -0.1532221513837192 0.25419418888983192 0 -0.17042143569771079 0.26099360542817968 0 -0.1532221513837192 0.25419418888983192 0 -0.17951502337729761 0.2392424245160312 0 -0.1627301728603629 0.26968240911070368 0 -0.1620479085915319 0.28265904931380531 0 -0.15271877240598841 0.27446820953958367 0 -0.17042143569771079 0.26099360542817968 0 -0.1627301728603629 0.26968240911070368 0 -0.1699765768805111 0.26885491792894611 0 -0.1627301728603629 0.26968240911070368 0 -0.1699765768805111 0.26885491792894611 0 -0.16860704672851359 0.27535934789532951 0 -0.1627301728603629 0.26968240911070368 0 -0.16860704672851359 0.27535934789532951 0 -0.1620479085915319 0.28265904931380531 0 -0.16860704672851359 0.27535934789532951 0 -0.17077339862397739 0.28423195702734899 0 -0.1620479085915319 0.28265904931380531 0 -0.17991988358848049 0.26483995741486333 0 -0.18034630435624241 0.29180066960649809 0 -0.17991988358848049 0.26483995741486333 0 -0.17716480609589361 0.26914773470870201 0 -0.18034630435624241 0.29180066960649809 0 -0.16860704672851359 0.27535934789532951 0 -0.17716480609589361 0.26914773470870201 0 -0.17077339862397739 0.28423195702734899 0 -0.19375927737912041 0.2730469699042487 0 -0.17991988358848049 0.26483995741486333 0 -0.18034630435624241 0.29180066960649809 0 -0.17042143569771079 0.26099360542817968 0 -0.1699765768805111 0.26885491792894611 0 -0.17716480609589361 0.26914773470870201 0 -0.1699765768805111 0.26885491792894611 0 -0.16860704672851359 0.27535934789532951 0 -0.17716480609589361 0.26914773470870201 0 -0.17991988358848049 0.26483995741486333 0 -0.17716480609589361 0.26914773470870201 0 -0.17716480609589361 0.26914773470870201 0 -0.18034630435624241 0.29180066960649809 0 -0.17077339862397739 0.28423195702734899 0 -0.18034630435624241 0.29180066960649809 0 -0.16501618616712291 0.29775164083812761 0 -0.17077339862397739 0.28423195702734899 0 -0.18077272512400111 0.31876138179813301 0 -0.18034630435624241 0.29180066960649809 0 -0.18077272512400111 0.31876138179813301 0 -0.18034630435624241 0.29180066960649809 0 -0.17285953122972289 0.31090601179704258 0 -0.18034630435624241 0.29180066960649809 0 -0.17285953122972289 0.31090601179704258 0 -0.16501618616712291 0.29775164083812761 0 -0.18077272512400111 0.31876138179813301 0 -0.20060783596013981 0.3076349397264902 0 -0.18034630435624241 0.29180066960649809 0 -0.16501618616712291 0.29775164083812761 0 -0.15329008091572741 0.28945008379417048 0 -0.1547819877644892 0.3091453549012102 0 -0.17285953122972289 0.31090601179704258 0 -0.16501618616712291 0.29775164083812761 0 -0.1638395481514221 0.30983277085387728 0 -0.16501618616712291 0.29775164083812761 0 -0.1638395481514221 0.30983277085387728 0 -0.1547819877644892 0.3091453549012102 0 -0.15943794807189979 0.31595908059817063 0 -0.1638395481514221 0.30983277085387728 0 -0.1547819877644892 0.3091453549012102 0 -0.16501618616712291 0.29775164083812761 0 -0.17077339862397739 0.28423195702734899 0 -0.1620479085915319 0.28265904931380531 0 -0.16501618616712291 0.29775164083812761 0 -0.1620479085915319 0.28265904931380531 0 -0.15329008091572741 0.28945008379417048 0 -0.1464174014568787 0.29836992735667278 0 -0.13959432766143021 0.2740409068552887 0 -0.1620479085915319 0.28265904931380531 0 -0.15329008091572741 0.28945008379417048 0 -0.15271877240598841 0.27446820953958367 0 -0.15329008091572741 0.28945008379417048 0 -0.1464174014568787 0.29836992735667278 0 -0.13959432766143021 0.2740409068552887 0 -0.15329008091572741 0.28945008379417048 0 -0.1464174014568787 0.29836992735667278 0 -0.1547819877644892 0.3091453549012102 0 -0.1532404752523272 0.32269894785805692 0 -0.1464174014568787 0.29836992735667278 0 -0.1360408951285694 0.3130357752318072 0 -0.14290423209994971 0.32095809222069871 0 -0.1464174014568787 0.29836992735667278 0 -0.1532404752523272 0.32269894785805692 0 -0.1464174014568787 0.29836992735667278 0 -0.1547819877644892 0.3091453549012102 0 -0.1360408951285694 0.3130357752318072 0 -0.1264253840414637 0.29528772621663357 0 -0.12136448477009221 0.30951812845445109 0 -0.1360408951285694 0.3130357752318072 0 -0.1464174014568787 0.29836992735667278 0 -0.1264253840414637 0.29528772621663357 0 -0.1464174014568787 0.29836992735667278 0 -0.1264253840414637 0.29528772621663357 0 -0.13959432766143021 0.2740409068552887 0 -0.1264253840414637 0.29528772621663357 0 -0.13959432766143021 0.2740409068552887 0 -0.1185373796182298 0.27837978510360878 0 -0.13959432766143021 0.2740409068552887 0 -0.1327712538659816 0.24971188635390451 0 -0.13959432766143021 0.2740409068552887 0 -0.116744543106582 0.25728181003509248 0 -0.1327712538659816 0.24971188635390451 0 -0.13959432766143021 0.2740409068552887 0 -0.1532221513837192 0.25419418888983192 0 -0.1327712538659816 0.24971188635390451 0 -0.1627301728603629 0.26968240911070368 0 -0.1532221513837192 0.25419418888983192 0 -0.15271877240598841 0.27446820953958367 0 -0.13959432766143021 0.2740409068552887 0 -0.1532221513837192 0.25419418888983192 0 -0.15271877240598841 0.27446820953958367 0 -0.15329008091572741 0.28945008379417048 0 -0.13959432766143021 0.2740409068552887 0 -0.15271877240598841 0.27446820953958367 0 -0.1061606963602142 0.26761343855331338 0 -0.1001789302111205 0.27974269320078388 0 -0.1185373796182298 0.27837978510360878 0 -0.1061606963602142 0.26761343855331338 0 -0.1001789302111205 0.27974269320078388 0 -0.092613028744971265 0.26767711662392979 0 -0.1061606963602142 0.26761343855331338 0 -0.10005120432924321 0.25626016583208688 0 -0.116744543106582 0.25728181003509248 0 -0.1061606963602142 0.26761343855331338 0 -0.10005120432924321 0.25626016583208688 0 -0.092613028744971265 0.26767711662392979 0 -0.10005120432924321 0.25626016583208688 0 -0.116744543106582 0.25728181003509248 0 -0.1045487088169635 0.24438495162540061 0 -0.13959432766143021 0.2740409068552887 0 -0.116744543106582 0.25728181003509248 0 -0.1185373796182298 0.27837978510360878 0 -0.1061606963602142 0.26761343855331338 0 -0.116744543106582 0.25728181003509248 0 -0.1185373796182298 0.27837978510360878 0 -0.1264253840414637 0.29528772621663357 0 -0.1127724140037699 0.30190213115774378 0 -0.1091517300735869 0.29135078386346752 0 -0.1264253840414637 0.29528772621663357 0 -0.1185373796182298 0.27837978510360878 0 -0.1091517300735869 0.29135078386346752 0 -0.1264253840414637 0.29528772621663357 0 -0.12136448477009221 0.30951812845445109 0 -0.1127724140037699 0.30190213115774378 0 -0.12136448477009221 0.30951812845445109 0 -0.1127724140037699 0.30190213115774378 0 -0.1061991548417472 0.31213959050036899 0 -0.1127724140037699 0.30190213115774378 0 -0.1061991548417472 0.31213959050036899 0 -0.1005146973405663 0.30141191014932889 0 -0.1127724140037699 0.30190213115774378 0 -0.1005146973405663 0.30141191014932889 0 -0.1091517300735869 0.29135078386346752 0 -0.1005146973405663 0.30141191014932889 0 -0.094430836728355921 0.29177030977787999 0 -0.089068024122243669 0.30112896568664949 0 -0.1061991548417472 0.31213959050036899 0 -0.1005146973405663 0.30141191014932889 0 -0.090928135519314904 0.31087631578889069 0 -0.1001789302111205 0.27974269320078388 0 -0.1185373796182298 0.27837978510360878 0 -0.1091517300735869 0.29135078386346752 0 -0.1005146973405663 0.30141191014932889 0 -0.1091517300735869 0.29135078386346752 0 -0.094430836728355921 0.29177030977787999 0 -0.1001789302111205 0.27974269320078388 0 -0.1091517300735869 0.29135078386346752 0 -0.094430836728355921 0.29177030977787999 0 -0.1001789302111205 0.27974269320078388 0 -0.094430836728355921 0.29177030977787999 0 -0.086145563619835275 0.2816538088019015 0 -0.094430836728355921 0.29177030977787999 0 -0.086145563619835275 0.2816538088019015 0 -0.081526075002782958 0.29533369696514911 0 -0.094430836728355921 0.29177030977787999 0 -0.081526075002782958 0.29533369696514911 0 -0.089068024122243669 0.30112896568664949 0 -0.086145563619835275 0.2816538088019015 0 -0.081526075002782958 0.29533369696514911 0 -0.070830210313899522 0.29195808219782299 0 -0.090928135519314904 0.31087631578889069 0 -0.079482369404140468 0.30560554845979909 0 -0.074915307566508993 0.31649039264194578 0 -0.090928135519314904 0.31087631578889069 0 -0.089068024122243669 0.30112896568664949 0 -0.079482369404140468 0.30560554845979909 0 -0.1005146973405663 0.30141191014932889 0 -0.090928135519314904 0.31087631578889069 0 -0.089068024122243669 0.30112896568664949 0 -0.081526075002782958 0.29533369696514911 0 -0.089068024122243669 0.30112896568664949 0 -0.079482369404140468 0.30560554845979909 0 -0.054647974243728172 0.30430181459310768 0 -0.074915307566508993 0.31649039264194578 0 -0.079482369404140468 0.30560554845979909 0 -0.068661557073843291 0.3005821027458685 0 -0.074915307566508993 0.31649039264194578 0 -0.068661557073843291 0.3005821027458685 0 -0.054647974243728172 0.30430181459310768 0 -0.074915307566508993 0.31649039264194578 0 -0.081526075002782958 0.29533369696514911 0 -0.079482369404140468 0.30560554845979909 0 -0.068661557073843291 0.3005821027458685 0 -0.070830210313899522 0.29195808219782299 0 -0.067453711470644842 0.27023673344429472 0 -0.052574645638654917 0.28480468584225688 0 -0.081526075002782958 0.29533369696514911 0 -0.068661557073843291 0.3005821027458685 0 -0.070830210313899522 0.29195808219782299 0 -0.068661557073843291 0.3005821027458685 0 -0.070830210313899522 0.29195808219782299 0 -0.068661557073843291 0.3005821027458685 0 -0.070830210313899522 0.29195808219782299 0 -0.059610011597539182 0.29372125904316332 0 -0.086145563619835275 0.2816538088019015 0 -0.070830210313899522 0.29195808219782299 0 -0.077256670317037021 0.26667642926106078 0 -0.070830210313899522 0.29195808219782299 0 -0.067453711470644842 0.27023673344429472 0 -0.070830210313899522 0.29195808219782299 0 -0.077256670317037021 0.26667642926106078 0 -0.070830210313899522 0.29195808219782299 0 -0.067453711470644842 0.27023673344429472 0 -0.077256670317037021 0.26667642926106078 0 -0.086145563619835275 0.2816538088019015 0 -0.077256670317037021 0.26667642926106078 0 -0.092613028744971265 0.26767711662392979 0 -0.1001789302111205 0.27974269320078388 0 -0.086145563619835275 0.2816538088019015 0 -0.092613028744971265 0.26767711662392979 0 -0.077256670317037021 0.26667642926106078 0 -0.086302411784292182 0.25447467192259482 0 -0.083666647235009842 0.24139059785004849 0 -0.077256670317037021 0.26667642926106078 0 -0.083666647235009842 0.24139059785004849 0 -0.10005120432924321 0.25626016583208688 0 -0.086302411784292182 0.25447467192259482 0 -0.094679029848152713 0.24609146959404629 0 -0.10005120432924321 0.25626016583208688 0 -0.092613028744971265 0.26767711662392979 0 -0.086302411784292182 0.25447467192259482 0 -0.077256670317037021 0.26667642926106078 0 -0.092613028744971265 0.26767711662392979 0 -0.086302411784292182 0.25447467192259482 0 -0.077256670317037021 0.26667642926106078 0 -0.064077212627390134 0.24851538469076631 0 -0.083666647235009842 0.24139059785004849 0 -0.067453711470644842 0.27023673344429472 0 -0.077256670317037021 0.26667642926106078 0 -0.064077212627390134 0.24851538469076631 0 -0.067453711470644842 0.27023673344429472 0 -0.064077212627390134 0.24851538469076631 0 -0.067453711470644842 0.27023673344429472 0 -0.04634179854296408 0.26632715615711849 0 -0.064077212627390134 0.24851538469076631 0 -0.04634179854296408 0.26632715615711849 0 -0.064077212627390134 0.24851538469076631 0 -0.046578861792199937 0.24361118962503389 0 -0.067453711470644842 0.27023673344429472 0 -0.04634179854296408 0.26632715615711849 0 -0.052574645638654917 0.28480468584225688 0 -0.04634179854296408 0.26632715615711849 0 -0.034380640920947357 0.29211323654426968 0 -0.052574645638654917 0.28480468584225688 0 -0.04634179854296408 0.26632715615711849 0 -0.022607631921228569 0.27169805167723737 0 -0.034380640920947357 0.29211323654426968 0 -0.04634179854296408 0.26632715615711849 0 -0.03068766995985707 0.25286978792993342 0 -0.022607631921228569 0.27169805167723737 0 -0.04634179854296408 0.26632715615711849 0 -0.03068766995985707 0.25286978792993342 0 -0.046578861792199937 0.24361118962503389 0 -0.03068766995985707 0.25286978792993342 0 -0.022607631921228569 0.27169805167723737 0 -0.0098044441781452579 0.25473951632571468 0 -0.022607631921228569 0.27169805167723737 0 -0.015153941911089409 0.29208252597919021 0 3.3590645499582607e-05 0.27236849017123349 0 -0.022607631921228569 0.27169805167723737 0 -0.0098044441781452579 0.25473951632571468 0 3.3590645499582607e-05 0.27236849017123349 0 -0.0098044441781452579 0.25473951632571468 0 0.0073806355134042019 0.25529449578482938 0 3.3590645499582607e-05 0.27236849017123349 0 -0.0088759444352828343 0.31092800175718183 0 -0.015153941911089409 0.29208252597919021 0 0.0083336089875100904 0.29343585490586271 0 -0.015153941911089409 0.29208252597919021 0 0.0083336089875100904 0.29343585490586271 0 3.3590645499582607e-05 0.27236849017123349 0 -0.022607631921228569 0.27169805167723737 0 -0.015153941911089409 0.29208252597919021 0 -0.034380640920947357 0.29211323654426968 0 -0.0088759444352828343 0.31092800175718183 0 -0.015153941911089409 0.29208252597919021 0 -0.03508050583840458 0.3127012881250415 0 -0.015153941911089409 0.29208252597919021 0 -0.034380640920947357 0.29211323654426968 0 -0.03508050583840458 0.3127012881250415 0 -0.034380640920947357 0.29211323654426968 0 -0.054647974243728172 0.30430181459310768 0 -0.034380640920947357 0.29211323654426968 0 -0.054647974243728172 0.30430181459310768 0 -0.03508050583840458 0.3127012881250415 0 -0.034380640920947357 0.29211323654426968 0 -0.052574645638654917 0.28480468584225688 0 -0.054647974243728172 0.30430181459310768 0 -0.052574645638654917 0.28480468584225688 0 -0.059610011597539182 0.29372125904316332 0 -0.054647974243728172 0.30430181459310768 0 -0.070830210313899522 0.29195808219782299 0 -0.052574645638654917 0.28480468584225688 0 -0.059610011597539182 0.29372125904316332 0 -0.068661557073843291 0.3005821027458685 0 -0.059610011597539182 0.29372125904316332 0 -0.054647974243728172 0.30430181459310768 0 -0.058679851530075752 0.32054224196392622 0 -0.045885169747561752 0.33132665820789581 0 -0.073191842414501496 0.33174208285196288 0 -0.054647974243728172 0.30430181459310768 0 -0.058679851530075752 0.32054224196392622 0 -0.03508050583840458 0.3127012881250415 0 -0.045885169747561752 0.33132665820789581 0 -0.067541502003893042 0.3482616942848048 0 -0.073191842414501496 0.33174208285196288 0 -0.045885169747561752 0.33132665820789581 0 -0.073191842414501496 0.33174208285196288 0 -0.045885169747561752 0.33132665820789581 0 -0.018578497080621779 0.33091123356382868 0 -0.045885169747561752 0.33132665820789581 0 -0.03508050583840458 0.3127012881250415 0 -0.018578497080621779 0.33091123356382868 0 -0.058679851530075752 0.32054224196392622 0 -0.045885169747561752 0.33132665820789581 0 -0.03508050583840458 0.3127012881250415 0 -0.0088759444352828343 0.31092800175718183 0 -0.03508050583840458 0.3127012881250415 0 -0.018578497080621779 0.33091123356382868 0 -0.018578497080621779 0.33091123356382868 0 -0.0050552824635438226 0.34569829691311771 0 -0.02749858990914332 0.35301881799134821 0 -0.045885169747561752 0.33132665820789581 0 -0.018578497080621779 0.33091123356382868 0 -0.02749858990914332 0.35301881799134821 0 -0.018578497080621779 0.33091123356382868 0 -0.0050552824635438226 0.34569829691311771 0 0.0064742168078369342 0.3347740657525386 0 -0.018578497080621779 0.33091123356382868 0 0.0087281755863181168 0.33049580891976171 0 -0.018578497080621779 0.33091123356382868 0 0.0064742168078369342 0.3347740657525386 0 0.0087281755863181168 0.33049580891976171 0 -0.018578497080621779 0.33091123356382868 0 -0.003280447873963227 0.32161399115684158 0 0.0087281755863181168 0.33049580891976171 0 -0.0088759444352828343 0.31092800175718183 0 -0.018578497080621779 0.33091123356382868 0 -0.003280447873963227 0.32161399115684158 0 -0.0088759444352828343 0.31092800175718183 0 -0.003280447873963227 0.32161399115684158 0 0.0056044744337335906 0.31412092038659428 0 -0.0052616759920083916 0.36132776784546622 0 -0.0045342830833226501 0.3863935686212247 0 -0.0052616759920083916 0.36132776784546622 0 -0.024169526760701381 0.37267007813580277 0 -0.0045342830833226501 0.3863935686212247 0 -0.0052616759920083916 0.36132776784546622 0 -0.0045342830833226501 0.3863935686212247 0 0.0079023355216259559 0.37348921158265391 0 -0.0052616759920083916 0.36132776784546622 0 -0.0050552824635438226 0.34569829691311771 0 0.0061318462344260851 0.35417601161121459 0 -0.0052616759920083916 0.36132776784546622 0 -0.0050552824635438226 0.34569829691311771 0 -0.02749858990914332 0.35301881799134821 0 -0.02749858990914332 0.35301881799134821 0 -0.024169526760701381 0.37267007813580277 0 -0.04149310004589906 0.37124785083274592 0 -0.0052616759920083916 0.36132776784546622 0 -0.02749858990914332 0.35301881799134821 0 -0.024169526760701381 0.37267007813580277 0 -0.02749858990914332 0.35301881799134821 0 -0.04149310004589906 0.37124785083274592 0 -0.051818441616049399 0.35735321764765782 0 -0.045885169747561752 0.33132665820789581 0 -0.02749858990914332 0.35301881799134821 0 -0.051818441616049399 0.35735321764765782 0 -0.045885169747561752 0.33132665820789581 0 -0.051818441616049399 0.35735321764765782 0 -0.067541502003893042 0.3482616942848048 0 -0.04149310004589906 0.37124785083274592 0 -0.051818441616049399 0.35735321764765782 0 -0.056875823715872062 0.37631267096962301 0 -0.051818441616049399 0.35735321764765782 0 -0.069616273344600341 0.3650636543096733 0 -0.056875823715872062 0.37631267096962301 0 -0.069616273344600341 0.3650636543096733 0 -0.085055645225370236 0.37193713089684588 0 -0.071788917171084016 0.3809272333041443 0 -0.069616273344600341 0.3650636543096733 0 -0.071788917171084016 0.3809272333041443 0 -0.056875823715872062 0.37631267096962301 0 -0.069616273344600341 0.3650636543096733 0 -0.085055645225370236 0.37193713089684588 0 -0.084100884505446297 0.3554636863979832 0 -0.085055645225370236 0.37193713089684588 0 -0.084100884505446297 0.3554636863979832 0 -0.1008292236537022 0.36036332390371462 0 -0.084100884505446297 0.3554636863979832 0 -0.067541502003893042 0.3482616942848048 0 -0.085709514220790303 0.34113927750747819 0 -0.084100884505446297 0.3554636863979832 0 -0.085709514220790303 0.34113927750747819 0 -0.099722393067727538 0.34687368244968458 0 -0.069616273344600341 0.3650636543096733 0 -0.084100884505446297 0.3554636863979832 0 -0.067541502003893042 0.3482616942848048 0 -0.051818441616049399 0.35735321764765782 0 -0.069616273344600341 0.3650636543096733 0 -0.067541502003893042 0.3482616942848048 0 -0.067541502003893042 0.3482616942848048 0 -0.073191842414501496 0.33174208285196288 0 -0.085709514220790303 0.34113927750747819 0 -0.058679851530075752 0.32054224196392622 0 -0.073191842414501496 0.33174208285196288 0 -0.074915307566508993 0.31649039264194578 0 -0.054647974243728172 0.30430181459310768 0 -0.058679851530075752 0.32054224196392622 0 -0.074915307566508993 0.31649039264194578 0 -0.073191842414501496 0.33174208285196288 0 -0.074915307566508993 0.31649039264194578 0 -0.095182640889289766 0.32867897069078372 0 -0.090928135519314904 0.31087631578889069 0 -0.074915307566508993 0.31649039264194578 0 -0.095182640889289766 0.32867897069078372 0 -0.074915307566508993 0.31649039264194578 0 -0.095182640889289766 0.32867897069078372 0 -0.073191842414501496 0.33174208285196288 0 -0.085709514220790303 0.34113927750747819 0 -0.095182640889289766 0.32867897069078372 0 -0.085709514220790303 0.34113927750747819 0 -0.095182640889289766 0.32867897069078372 0 -0.099722393067727538 0.34687368244968458 0 -0.095182640889289766 0.32867897069078372 0 -0.1154499742120704 0.34086754873962172 0 -0.095182640889289766 0.32867897069078372 0 -0.1098512680755149 0.32470257897991811 0 -0.1154499742120704 0.34086754873962172 0 -0.095182640889289766 0.32867897069078372 0 -0.1154499742120704 0.34086754873962172 0 -0.099722393067727538 0.34687368244968458 0 -0.1061991548417472 0.31213959050036899 0 -0.090928135519314904 0.31087631578889069 0 -0.095182640889289766 0.32867897069078372 0 -0.1061991548417472 0.31213959050036899 0 -0.095182640889289766 0.32867897069078372 0 -0.1098512680755149 0.32470257897991811 0 -0.1061991548417472 0.31213959050036899 0 -0.115330384384618 0.31728312261503783 0 -0.1098512680755149 0.32470257897991811 0 -0.12136448477009221 0.30951812845445109 0 -0.1061991548417472 0.31213959050036899 0 -0.115330384384618 0.31728312261503783 0 -0.115330384384618 0.31728312261503783 0 -0.1098512680755149 0.32470257897991811 0 -0.12142985306419619 0.32461006626398298 0 -0.12722248981549561 0.3181430308760943 0 -0.115330384384618 0.31728312261503783 0 -0.12142985306419619 0.32461006626398298 0 -0.12722248981549561 0.3181430308760943 0 -0.12136448477009221 0.30951812845445109 0 -0.115330384384618 0.31728312261503783 0 -0.1098512680755149 0.32470257897991811 0 -0.12142985306419619 0.32461006626398298 0 -0.1154499742120704 0.34086754873962172 0 -0.13363790056006589 0.32585743918209531 0 -0.12142985306419619 0.32461006626398298 0 -0.1154499742120704 0.34086754873962172 0 -0.12523428666698541 0.37069662222368049 0 -0.1294360936135257 0.3482770307028879 0 -0.1154159689866658 0.35521970897278921 0 -0.1154499742120704 0.34086754873962172 0 -0.1154159689866658 0.35521970897278921 0 -0.099722393067727538 0.34687368244968458 0 -0.1294360936135257 0.3482770307028879 0 -0.1154499742120704 0.34086754873962172 0 -0.1154159689866658 0.35521970897278921 0 -0.12523428666698541 0.37069662222368049 0 -0.1154159689866658 0.35521970897278921 0 -0.11117961403065831 0.36839673047223442 0 -0.12523428666698541 0.37069662222368049 0 -0.11117961403065831 0.36839673047223442 0 -0.1123930043347208 0.38073562172137532 0 -0.11117961403065831 0.36839673047223442 0 -0.1008292236537022 0.36036332390371462 0 -0.09970079949094271 0.37763208900548878 0 -0.1154159689866658 0.35521970897278921 0 -0.11117961403065831 0.36839673047223442 0 -0.1008292236537022 0.36036332390371462 0 -0.085055645225370236 0.37193713089684588 0 -0.1008292236537022 0.36036332390371462 0 -0.09970079949094271 0.37763208900548878 0 -0.084100884505446297 0.3554636863979832 0 -0.1008292236537022 0.36036332390371462 0 -0.099722393067727538 0.34687368244968458 0 -0.1154159689866658 0.35521970897278921 0 -0.1008292236537022 0.36036332390371462 0 -0.099722393067727538 0.34687368244968458 0 -0.1036554482544351 0.39516830989393792 0 -0.1102807352191843 0.41378788895710661 0 -0.09259379641793411 0.40948313349934218 0 -0.1036554482544351 0.39516830989393792 0 -0.09970079949094271 0.37763208900548878 0 -0.1123930043347208 0.38073562172137532 0 -0.1036554482544351 0.39516830989393792 0 -0.09970079949094271 0.37763208900548878 0 -0.084297773186445962 0.39217279846007119 0 -0.11117961403065831 0.36839673047223442 0 -0.09970079949094271 0.37763208900548878 0 -0.1123930043347208 0.38073562172137532 0 -0.12523428666698541 0.37069662222368049 0 -0.1123930043347208 0.38073562172137532 0 -0.12103247972044499 0.39311621374447298 0 -0.1036554482544351 0.39516830989393792 0 -0.1123930043347208 0.38073562172137532 0 -0.12103247972044499 0.39311621374447298 0 -0.12523428666698541 0.37069662222368049 0 -0.12103247972044499 0.39311621374447298 0 -0.1036554482544351 0.39516830989393792 0 -0.12103247972044499 0.39311621374447298 0 -0.1102807352191843 0.41378788895710661 0 -0.12997925716256209 0.39431640422262348 0 -0.1102807352191843 0.41378788895710661 0 -0.12997925716256209 0.39431640422262348 0 -0.12103247972044499 0.39311621374447298 0 -0.1102807352191843 0.41378788895710661 0 -0.12623023605756489 0.41143854881348008 0 -0.1102807352191843 0.41378788895710661 0 -0.1242188050129694 0.42501783294758849 0 -0.12623023605756489 0.41143854881348008 0 -0.12997925716256209 0.39431640422262348 0 -0.1102807352191843 0.41378788895710661 0 -0.1102807352191843 0.41378788895710661 0 -0.1104760497445479 0.43296770510105842 0 -0.1242188050129694 0.42501783294758849 0 -0.1104760497445479 0.43296770510105842 0 -0.1242188050129694 0.42501783294758849 0 -0.1248743097581413 0.44162978393037222 0 -0.1102807352191843 0.41378788895710661 0 -0.090582213275806372 0.43325937369158968 0 -0.1102807352191843 0.41378788895710661 0 -0.1104760497445479 0.43296770510105842 0 -0.090582213275806372 0.43325937369158968 0 -0.1102807352191843 0.41378788895710661 0 -0.09259379641793411 0.40948313349934218 0 -0.090582213275806372 0.43325937369158968 0 -0.09259379641793411 0.40948313349934218 0 -0.090582213275806372 0.43325937369158968 0 -0.074152812153798875 0.41302729649400538 0 -0.090582213275806372 0.43325937369158968 0 -0.066022972602334681 0.42956105407568013 0 -0.074152812153798875 0.41302729649400538 0 -0.066022972602334681 0.42956105407568013 0 -0.074152812153798875 0.41302729649400538 0 -0.049329429094603867 0.41198700835812702 0 -0.074152812153798875 0.41302729649400538 0 -0.063154715464804681 0.39516467689365731 0 -0.084297773186445962 0.39217279846007119 0 -0.09259379641793411 0.40948313349934218 0 -0.074152812153798875 0.41302729649400538 0 -0.084297773186445962 0.39217279846007119 0 -0.1036554482544351 0.39516830989393792 0 -0.09259379641793411 0.40948313349934218 0 -0.084297773186445962 0.39217279846007119 0 -0.085055645225370236 0.37193713089684588 0 -0.09970079949094271 0.37763208900548878 0 -0.084297773186445962 0.39217279846007119 0 -0.085055645225370236 0.37193713089684588 0 -0.084297773186445962 0.39217279846007119 0 -0.071788917171084016 0.3809272333041443 0 -0.063154715464804681 0.39516467689365731 0 -0.084297773186445962 0.39217279846007119 0 -0.071788917171084016 0.3809272333041443 0 -0.063154715464804681 0.39516467689365731 0 -0.071788917171084016 0.3809272333041443 0 -0.056875823715872062 0.37631267096962301 0 -0.04149310004589906 0.37124785083274592 0 -0.056875823715872062 0.37631267096962301 0 -0.04338349465279491 0.38811939282985902 0 -0.063154715464804681 0.39516467689365731 0 -0.056875823715872062 0.37631267096962301 0 -0.04338349465279491 0.38811939282985902 0 -0.063154715464804681 0.39516467689365731 0 -0.04338349465279491 0.38811939282985902 0 -0.049329429094603867 0.41198700835812702 0 -0.04338349465279491 0.38811939282985902 0 -0.024844401122877391 0.39948633252540261 0 -0.049329429094603867 0.41198700835812702 0 -0.024169526760701381 0.37267007813580277 0 -0.04149310004589906 0.37124785083274592 0 -0.04338349465279491 0.38811939282985902 0 -0.024169526760701381 0.37267007813580277 0 -0.04338349465279491 0.38811939282985902 0 -0.024844401122877391 0.39948633252540261 0 -0.024169526760701381 0.37267007813580277 0 -0.024844401122877391 0.39948633252540261 0 -0.0045342830833226501 0.3863935686212247 0 -0.024844401122877391 0.39948633252540261 0 -0.0045342830833226501 0.3863935686212247 0 -0.0038092142255275289 0.41137928311071797 0 -0.0045342830833226501 0.3863935686212247 0 -0.0038092142255275289 0.41137928311071797 0 -0.024169526760701381 0.37267007813580277 0 -0.0045342830833226501 0.3863935686212247 0 -0.0030841453677343121 0.43636499760021141 0 -0.0038092142255275289 0.41137928311071797 0 -0.026324668085478481 0.42779129271708288 0 -0.0030841453677343121 0.43636499760021141 0 -0.0038092142255275289 0.41137928311071797 0 -0.024844401122877391 0.39948633252540261 0 -0.0038092142255275289 0.41137928311071797 0 -0.026324668085478481 0.42779129271708288 0 -0.026324668085478481 0.42779129271708288 0 -0.049329429094603867 0.41198700835812702 0 -0.049413859365407042 0.43472239834070731 0 -0.024844401122877391 0.39948633252540261 0 -0.026324668085478481 0.42779129271708288 0 -0.049329429094603867 0.41198700835812702 0 -0.074152812153798875 0.41302729649400538 0 -0.063154715464804681 0.39516467689365731 0 -0.049329429094603867 0.41198700835812702 0 -0.066022972602334681 0.42956105407568013 0 -0.049329429094603867 0.41198700835812702 0 -0.049413859365407042 0.43472239834070731 0 -0.066022972602334681 0.42956105407568013 0 -0.049413859365407042 0.43472239834070731 0 -0.0708836913324285 0.45273085842607269 0 -0.0393713920190637 0.45112048084748302 0 -0.052402143273794041 0.47435943831340011 0 -0.0708836913324285 0.45273085842607269 0 -0.049413859365407042 0.43472239834070731 0 -0.0393713920190637 0.45112048084748302 0 -0.0708836913324285 0.45273085842607269 0 -0.0393713920190637 0.45112048084748302 0 -0.02876560419008364 0.47203163756026523 0 -0.052402143273794041 0.47435943831340011 0 -0.026324668085478481 0.42779129271708288 0 -0.049413859365407042 0.43472239834070731 0 -0.0393713920190637 0.45112048084748302 0 -0.0030841453677343121 0.43636499760021141 0 -0.026324668085478481 0.42779129271708288 0 -0.01888650882967766 0.45329231687868837 0 -0.026324668085478481 0.42779129271708288 0 -0.0393713920190637 0.45112048084748302 0 -0.01888650882967766 0.45329231687868837 0 -0.0393713920190637 0.45112048084748302 0 -0.01888650882967766 0.45329231687868837 0 -0.02876560419008364 0.47203163756026523 0 -0.01888650882967766 0.45329231687868837 0 -0.01341416680576474 0.47109478045738301 0 -0.02876560419008364 0.47203163756026523 0 -0.01888650882967766 0.45329231687868837 0 -0.002359076509941094 0.46135071208970457 0 -0.01341416680576474 0.47109478045738301 0 -0.0030841453677343121 0.43636499760021141 0 -0.01888650882967766 0.45329231687868837 0 -0.002359076509941094 0.46135071208970457 0 -0.0030841453677343121 0.43636499760021141 0 -0.002359076509941094 0.46135071208970457 0 -0.0090346539348886701 0.5 0 -0.0016340076521478781 0.48633642657919801 0 -0.017460482120078509 0.48648722646036041 0 -0.0016340076521478781 0.48633642657919801 0 -0.01341416680576474 0.47109478045738301 0 -0.017460482120078509 0.48648722646036041 0 -0.002359076509941094 0.46135071208970457 0 -0.0016340076521478781 0.48633642657919801 0 -0.01341416680576474 0.47109478045738301 0 -0.002359076509941094 0.46135071208970457 0 -0.0016340076521478781 0.48633642657919801 0 -0.002359076509941094 0.46135071208970457 0 -0.0016340076521478781 0.48633642657919801 0 0.0036787250480955699 0.47408322248379448 0 -0.01341416680576474 0.47109478045738301 0 -0.02876560419008364 0.47203163756026523 0 -0.017460482120078509 0.48648722646036041 0 -0.02876560419008364 0.47203163756026523 0 -0.017460482120078509 0.48648722646036041 0 -0.038135422162237087 0.5 0 -0.0090346539348886701 0.5 0 -0.017460482120078509 0.48648722646036041 0 -0.038135422162237087 0.5 0 -0.02876560419008364 0.47203163756026523 0 -0.038135422162237087 0.5 0 -0.052402143273794041 0.47435943831340011 0 -0.038135422162237087 0.5 0 -0.052402143273794041 0.47435943831340011 0 -0.067236190389585393 0.5 0 -0.052402143273794041 0.47435943831340011 0 -0.067236190389585393 0.5 0 -0.073349005429332273 0.47921852398434828 0 -0.067236190389585393 0.5 0 -0.073349005429332273 0.47921852398434828 0 -0.096336958616933588 0.5 0 -0.073349005429332273 0.47921852398434828 0 -0.096336958616933588 0.5 0 -0.093805091172543903 0.47224368257650851 0 -0.052402143273794041 0.47435943831340011 0 -0.073349005429332273 0.47921852398434828 0 -0.0708836913324285 0.45273085842607269 0 -0.0708836913324285 0.45273085842607269 0 -0.1043361340672995 0.45358667135048331 0 -0.093805091172543903 0.47224368257650851 0 -0.090582213275806372 0.43325937369158968 0 -0.0708836913324285 0.45273085842607269 0 -0.1043361340672995 0.45358667135048331 0 -0.090582213275806372 0.43325937369158968 0 -0.066022972602334681 0.42956105407568013 0 -0.0708836913324285 0.45273085842607269 0 -0.090582213275806372 0.43325937369158968 0 -0.0708836913324285 0.45273085842607269 0 -0.073349005429332273 0.47921852398434828 0 -0.0708836913324285 0.45273085842607269 0 -0.093805091172543903 0.47224368257650851 0 -0.1043361340672995 0.45358667135048331 0 -0.12052644250191399 0.4682622397032008 0 -0.093805091172543903 0.47224368257650851 0 -0.1104760497445479 0.43296770510105842 0 -0.090582213275806372 0.43325937369158968 0 -0.1043361340672995 0.45358667135048331 0 -0.12618187852634369 0.45882241462805679 0 -0.1043361340672995 0.45358667135048331 0 -0.1248743097581413 0.44162978393037222 0 -0.1104760497445479 0.43296770510105842 0 -0.1043361340672995 0.45358667135048331 0 -0.1248743097581413 0.44162978393037222 0 -0.12618187852634369 0.45882241462805679 0 -0.1043361340672995 0.45358667135048331 0 -0.12052644250191399 0.4682622397032008 0 -0.1317912103042716 0.47600940211286807 0 -0.12052644250191399 0.4682622397032008 0 -0.11642361318749669 0.48420448820259387 0 -0.12052644250191399 0.4682622397032008 0 -0.11642361318749669 0.48420448820259387 0 -0.093805091172543903 0.47224368257650851 0 -0.12543772684428189 0.5 0 -0.11642361318749669 0.48420448820259387 0 -0.096336958616933588 0.5 0 -0.12543772684428189 0.5 0 -0.13178312884530541 0.48627570230508688 0 -0.11642361318749669 0.48420448820259387 0 -0.11642361318749669 0.48420448820259387 0 -0.096336958616933588 0.5 0 -0.093805091172543903 0.47224368257650851 0 -0.1693268494853358 0.079538523923443544 0 -0.16945340910355561 0.089496265134995978 0 -0.1618062267740645 0.07958177760614682 0 -0.16945340910355561 0.089496265134995978 0 -0.1618062267740645 0.07958177760614682 0 -0.1616157516695074 0.095139316102685473 0 -0.1618062267740645 0.07958177760614682 0 -0.1616157516695074 0.095139316102685473 0 -0.14767322655010931 0.084806545451415583 0 -0.1618062267740645 0.07958177760614682 0 -0.16640070467345031 0.07104807823334372 0 -0.15517576509654349 0.068304766057398533 0 -0.16640070467345031 0.07104807823334372 0 -0.15517576509654349 0.068304766057398533 0 -0.16451238623864939 0.061110077383343737 0 -0.16640070467345031 0.07104807823334372 0 -0.17354141001077031 0.063798093567348918 0 -0.16451238623864939 0.061110077383343737 0 -0.17157411485926041 0.074087910936242465 0 -0.16640070467345031 0.07104807823334372 0 -0.17354141001077031 0.063798093567348918 0 -0.1693268494853358 0.079538523923443544 0 -0.17157411485926041 0.074087910936242465 0 -0.16640070467345031 0.07104807823334372 0 -0.1693268494853358 0.079538523923443544 0 -0.1618062267740645 0.07958177760614682 0 -0.16640070467345031 0.07104807823334372 0 -0.17354141001077031 0.063798093567348918 0 -0.17702749526748529 0.081966948020833708 0 -0.17656426821359539 0.052679136019797047 0 -0.18185637422210199 0.067243003367259677 0 -0.17702749526748529 0.081966948020833708 0 -0.17656426821359539 0.052679136019797047 0 -0.17702749526748529 0.081966948020833708 0 -0.17656426821359539 0.052679136019797047 0 -0.17157411485926041 0.074087910936242465 0 -0.17354141001077031 0.063798093567348918 0 -0.17702749526748529 0.081966948020833708 0 -0.18185637422210199 0.067243003367259677 0 -0.1853153676200878 0.058850167416455039 0 -0.18892740292417859 0.064703221589215376 0 -0.18185637422210199 0.067243003367259677 0 -0.19050021368002351 0.072419239531055349 0 -0.18892740292417859 0.064703221589215376 0 -0.18185637422210199 0.067243003367259677 0 -0.18141962227324601 0.075216957450553817 0 -0.17702749526748529 0.081966948020833708 0 -0.18185637422210199 0.067243003367259677 0 -0.18141962227324601 0.075216957450553817 0 -0.19050021368002351 0.072419239531055349 0 -0.18141962227324601 0.075216957450553817 0 -0.1867192510276118 0.077748512173410014 0 -0.19050021368002351 0.072419239531055349 0 -0.18141962227324601 0.075216957450553817 0 -0.1867192510276118 0.077748512173410014 0 -0.1819129998543452 0.079414551687582866 0 -0.18248563084903771 0.082725789105533951 0 -0.17702749526748529 0.081966948020833708 0 -0.17749072232138041 0.1112547600218704 0 -0.1867192510276118 0.077748512173410014 0 -0.18248563084903771 0.082725789105533951 0 -0.1819129998543452 0.079414551687582866 0 -0.18141962227324601 0.075216957450553817 0 -0.1819129998543452 0.079414551687582866 0 -0.17702749526748529 0.081966948020833708 0 -0.18248563084903771 0.082725789105533951 0 -0.1819129998543452 0.079414551687582866 0 -0.17702749526748529 0.081966948020833708 0 -0.1693268494853358 0.079538523923443544 0 -0.16945340910355561 0.089496265134995978 0 -0.17702749526748529 0.081966948020833708 0 -0.1693268494853358 0.079538523923443544 0 -0.17157411485926041 0.074087910936242465 0 -0.17702749526748529 0.081966948020833708 0 -0.17702749526748529 0.081966948020833708 0 -0.17749072232138041 0.1112547600218704 0 -0.16945340910355561 0.089496265134995978 0 -0.17702749526748529 0.081966948020833708 0 -0.17749072232138041 0.1112547600218704 0 -0.17749072232138041 0.1112547600218704 0 -0.1951643137470572 0.093770439387570487 0 -0.18248563084903771 0.082725789105533951 0 -0.17749072232138041 0.1112547600218704 0 -0.1951643137470572 0.093770439387570487 0 -0.17749072232138041 0.1112547600218704 0 -0.19150979458678249 0.1243728737611647 0 -0.17789558253256721 0.1368522929207025 0 -0.17749072232138041 0.1112547600218704 0 -0.17789558253256721 0.1368522929207025 0 -0.17749072232138041 0.1112547600218704 0 -0.16113979031376621 0.12743058591966341 0 -0.17749072232138041 0.1112547600218704 0 -0.15084139672814201 0.110160429760413 0 -0.16113979031376621 0.12743058591966341 0 -0.17749072232138041 0.1112547600218704 0 -0.1616157516695074 0.095139316102685473 0 -0.15084139672814201 0.110160429760413 0 -0.16945340910355561 0.089496265134995978 0 -0.17749072232138041 0.1112547600218704 0 -0.1616157516695074 0.095139316102685473 0 -0.1616157516695074 0.095139316102685473 0 -0.15084139672814201 0.110160429760413 0 -0.14767322655010931 0.084806545451415583 0 -0.15084139672814201 0.110160429760413 0 -0.1348328660863515 0.097215266237156234 0 -0.14767322655010931 0.084806545451415583 0 -0.15084139672814201 0.110160429760413 0 -0.13137241316615089 0.11357835761918721 0 -0.14300315410871919 0.1253406317882016 0 -0.15084139672814201 0.110160429760413 0 -0.16113979031376621 0.12743058591966341 0 -0.14300315410871919 0.1253406317882016 0 -0.13137241316615089 0.11357835761918721 0 -0.14300315410871919 0.1253406317882016 0 -0.12687331202938101 0.13192737382428379 0 -0.13137241316615089 0.11357835761918721 0 -0.1348328660863515 0.097215266237156234 0 -0.1198812247159142 0.095002477965890675 0 -0.15084139672814201 0.110160429760413 0 -0.13137241316615089 0.11357835761918721 0 -0.1348328660863515 0.097215266237156234 0 -0.1348328660863515 0.097215266237156234 0 -0.12533951967512769 0.078274991835817334 0 -0.1198812247159142 0.095002477965890675 0 -0.1348328660863515 0.097215266237156234 0 -0.12533951967512769 0.078274991835817334 0 -0.14767322655010931 0.084806545451415583 0 -0.1618062267740645 0.07958177760614682 0 -0.14767322655010931 0.084806545451415583 0 -0.15517576509654349 0.068304766057398533 0 -0.14767322655010931 0.084806545451415583 0 -0.15517576509654349 0.068304766057398533 0 -0.14001017723872511 0.063978020277280875 0 -0.12533951967512769 0.078274991835817334 0 -0.14767322655010931 0.084806545451415583 0 -0.14001017723872511 0.063978020277280875 0 -0.12533951967512769 0.078274991835817334 0 -0.14001017723872511 0.063978020277280875 0 -0.1248745965026067 0.059896082918310993 0 -0.14001017723872511 0.063978020277280875 0 -0.13626681081840961 0.042829268155062397 0 -0.1248745965026067 0.059896082918310993 0 -0.13626681081840961 0.042829268155062397 0 -0.1339340902388827 0.022300844741854581 0 -0.1180188049733784 0.030804183747700629 0 -0.13626681081840961 0.042829268155062397 0 -0.1339340902388827 0.022300844741854581 0 -0.15968783393996419 0.037567277286728401 0 -0.13626681081840961 0.042829268155062397 0 -0.15351002702878311 0.053877414325468623 0 -0.15968783393996419 0.037567277286728401 0 -0.13626681081840961 0.042829268155062397 0 -0.15968783393996419 0.037567277286728401 0 -0.14001017723872511 0.063978020277280875 0 -0.13626681081840961 0.042829268155062397 0 -0.15351002702878311 0.053877414325468623 0 -0.15517576509654349 0.068304766057398533 0 -0.14001017723872511 0.063978020277280875 0 -0.15351002702878311 0.053877414325468623 0 -0.12735709500343681 0.004015926865657337 0 -0.15177498865293759 0.016606981474429749 0 -0.12735709500343681 0.004015926865657337 0 -0.1339340902388827 0.022300844741854581 0 -0.15177498865293759 0.016606981474429749 0 -0.12735709500343681 0.004015926865657337 0 -0.1339340902388827 0.022300844741854581 0 -0.11835839359799651 0.016938700943610479 0 -0.1339340902388827 0.022300844741854581 0 -0.15177498865293759 0.016606981474429749 0 -0.15968783393996419 0.037567277286728401 0 -0.1339340902388827 0.022300844741854581 0 -0.15968783393996419 0.037567277286728401 0 -0.12735709500343681 0.004015926865657337 0 -0.15177498865293759 0.016606981474429749 0 -0.14801408494475049 0.0031182785745780331 0 -0.15177498865293759 0.016606981474429749 0 -0.14801408494475049 0.0031182785745780331 0 -0.1619193683370386 0.0066468078375689294 0 -0.15773416148281841 -0.0035868741371463562 0 -0.14801408494475049 0.0031182785745780331 0 -0.1619193683370386 0.0066468078375689294 0 -0.15177498865293759 0.016606981474429749 0 -0.1619193683370386 0.0066468078375689294 0 -0.16760309597538539 0.015861310899326669 0 -0.16716832075785379 -0.0032078365625175 0 -0.1619193683370386 0.0066468078375689294 0 -0.17584419881677341 0.0071523107965592754 0 -0.1619193683370386 0.0066468078375689294 0 -0.16760309597538539 0.015861310899326669 0 -0.17584419881677341 0.0071523107965592754 0 -0.15177498865293759 0.016606981474429749 0 -0.17619288230243149 0.029198036083215671 0 -0.15177498865293759 0.016606981474429749 0 -0.17619288230243149 0.029198036083215671 0 -0.15968783393996419 0.037567277286728401 0 -0.15177498865293759 0.016606981474429749 0 -0.16760309597538539 0.015861310899326669 0 -0.17619288230243149 0.029198036083215671 0 -0.17619288230243149 0.029198036083215671 0 -0.1852069371874478 0.015311100034367831 0 -0.17584419881677341 0.0071523107965592754 0 -0.17619288230243149 0.029198036083215671 0 -0.17584419881677341 0.0071523107965592754 0 -0.16760309597538539 0.015861310899326669 0 -0.17619288230243149 0.029198036083215671 0 -0.17584419881677341 0.0071523107965592754 0 -0.17619288230243149 0.029198036083215671 0 -0.19572946351785711 0.039272048382664133 0 -0.19029700863621521 0.024089069561314659 0 -0.17619288230243149 0.029198036083215671 0 -0.1852069371874478 0.015311100034367831 0 -0.19029700863621521 0.024089069561314659 0 -0.1852069371874478 0.015311100034367831 0 -0.18717715497560061 0.0062623078557712403 0 -0.17584419881677341 0.0071523107965592754 0 -0.18154179604087481 -0.0036104187285780349 0 -0.18717715497560061 0.0062623078557712403 0 -0.17584419881677341 0.0071523107965592754 0 -0.15351002702878311 0.053877414325468623 0 -0.1659033968134131 0.050269055427132232 0 -0.15968783393996419 0.037567277286728401 0 -0.1659033968134131 0.050269055427132232 0 -0.16451238623864939 0.061110077383343737 0 -0.17656426821359539 0.052679136019797047 0 -0.17354141001077031 0.063798093567348918 0 -0.16451238623864939 0.061110077383343737 0 -0.17656426821359539 0.052679136019797047 0 -0.16451238623864939 0.061110077383343737 0 -0.17656426821359539 0.052679136019797047 0 -0.15351002702878311 0.053877414325468623 0 -0.1659033968134131 0.050269055427132232 0 -0.16451238623864939 0.061110077383343737 0 -0.15517576509654349 0.068304766057398533 0 -0.15351002702878311 0.053877414325468623 0 -0.16451238623864939 0.061110077383343737 0 -0.15968783393996419 0.037567277286728401 0 -0.1762663423330757 0.033842591165095401 0 -0.1659033968134131 0.050269055427132232 0 -0.15968783393996419 0.037567277286728401 0 -0.1764827173319595 0.047523031967639129 0 -0.17619288230243149 0.029198036083215671 0 -0.15968783393996419 0.037567277286728401 0 -0.1762663423330757 0.033842591165095401 0 -0.15968783393996419 0.037567277286728401 0 -0.1764827173319595 0.047523031967639129 0 -0.15968783393996419 0.037567277286728401 0 -0.1762663423330757 0.033842591165095401 0 -0.1764827173319595 0.047523031967639129 0 -0.17619288230243149 0.029198036083215671 0 -0.19572946351785711 0.039272048382664133 0 -0.181281627628781 0.040827380692469641 0 -0.18051660755046151 0.049914261515807259 0 -0.1764827173319595 0.047523031967639129 0 -0.17619288230243149 0.029198036083215671 0 -0.1762663423330757 0.033842591165095401 0 -0.19572946351785711 0.039272048382664133 0 -0.1762663423330757 0.033842591165095401 0 -0.181281627628781 0.040827380692469641 0 -0.19572946351785711 0.039272048382664133 0 -0.1762663423330757 0.033842591165095401 0 -0.181281627628781 0.040827380692469641 0 -0.1764827173319595 0.047523031967639129 0 -0.1762663423330757 0.033842591165095401 0 -0.1764827173319595 0.047523031967639129 0 -0.17619288230243149 0.029198036083215671 0 -0.1762663423330757 0.033842591165095401 0 -0.181281627628781 0.040827380692469641 0 -0.18051660755046151 0.049914261515807259 0 -0.19572946351785711 0.039272048382664133 0 -0.18051660755046151 0.049914261515807259 0 -0.17656426821359539 0.052679136019797047 0 -0.1853153676200878 0.058850167416455039 0 -0.18051660755046151 0.049914261515807259 0 -0.1764827173319595 0.047523031967639129 0 -0.1764827173319595 0.047523031967639129 0 -0.17656426821359539 0.052679136019797047 0 -0.1659033968134131 0.050269055427132232 0 -0.1764827173319595 0.047523031967639129 0 -0.17656426821359539 0.052679136019797047 0 -0.18051660755046151 0.049914261515807259 0 -0.1764827173319595 0.047523031967639129 0 -0.17656426821359539 0.052679136019797047 0 -0.18051660755046151 0.049914261515807259 0 -0.17656426821359539 0.052679136019797047 0 -0.18185637422210199 0.067243003367259677 0 -0.17656426821359539 0.052679136019797047 0 -0.1853153676200878 0.058850167416455039 0 -0.1853153676200878 0.058850167416455039 0 -0.19803765617450109 0.060300476042091433 0 -0.18892740292417859 0.064703221589215376 0 -0.18051660755046151 0.049914261515807259 0 -0.19803765617450109 0.060300476042091433 0 -0.1977866825790292 0.05007637869738242 0 -0.18051660755046151 0.049914261515807259 0 -0.1853153676200878 0.058850167416455039 0 -0.19803765617450109 0.060300476042091433 0 -0.18051660755046151 0.049914261515807259 0 -0.19803765617450109 0.060300476042091433 0 -0.19803765617450109 0.060300476042091433 0 -0.1977866825790292 0.05007637869738242 0 -0.2066297839190599 0.054855205218219752 0 -0.18051660755046151 0.049914261515807259 0 -0.1977866825790292 0.05007637869738242 0 -0.19572946351785711 0.039272048382664133 0 -0.18051660755046151 0.049914261515807259 0 -0.19572946351785711 0.039272048382664133 0 -0.19572946351785711 0.039272048382664133 0 -0.2098237389609823 0.029412342647955388 0 -0.1977866825790292 0.05007637869738242 0 -0.19572946351785711 0.039272048382664133 0 -0.2073344650466164 0.045256152092875389 0 -0.19572946351785711 0.039272048382664133 0 -0.2073344650466164 0.045256152092875389 0 -0.2073344650466164 0.045256152092875389 0 -0.21702036639386221 0.038769314305699548 0 -0.2098237389609823 0.029412342647955388 0 -0.19572946351785711 0.039272048382664133 0 -0.2073344650466164 0.045256152092875389 0 -0.2098237389609823 0.029412342647955388 0 -0.21702036639386221 0.038769314305699548 0 -0.2098237389609823 0.029412342647955388 0 -0.2284051488343061 0.035137669629428533 0 -0.2073344650466164 0.045256152092875389 0 -0.21702036639386221 0.038769314305699548 0 -0.22251811273354419 0.045271092852538893 0 -0.2073344650466164 0.045256152092875389 0 -0.21769334509658461 0.055951218203848879 0 -0.22251811273354419 0.045271092852538893 0 -0.21769334509658461 0.055951218203848879 0 -0.20947987249717179 0.060448397508133619 0 -0.2066297839190599 0.054855205218219752 0 -0.21769334509658461 0.055951218203848879 0 -0.20947987249717179 0.060448397508133619 0 -0.2155587047985415 0.070686690568374386 0 -0.19803765617450109 0.060300476042091433 0 -0.20947987249717179 0.060448397508133619 0 -0.2066297839190599 0.054855205218219752 0 -0.1977866825790292 0.05007637869738242 0 -0.2073344650466164 0.045256152092875389 0 -0.2066297839190599 0.054855205218219752 0 -0.2073344650466164 0.045256152092875389 0 -0.21769334509658461 0.055951218203848879 0 -0.2066297839190599 0.054855205218219752 0 -0.1989264366345522 -0.0080023544535597537 0 -0.1965234412062255 0.0098537758749781944 0 -0.20713549204565579 6.5395444916274768e-05 0 -0.19066530249761049 -0.0041303576494283751 0 -0.18717715497560061 0.0062623078557712403 0 -0.1965234412062255 0.0098537758749781944 0 -0.1852069371874478 0.015311100034367831 0 -0.18717715497560061 0.0062623078557712403 0 -0.1965234412062255 0.0098537758749781944 0 -0.1965234412062255 0.0098537758749781944 0 -0.20113962024173071 0.02227838771243261 0 -0.2107847094499361 0.011405203725301251 0 -0.19572946351785711 0.039272048382664133 0 -0.20113962024173071 0.02227838771243261 0 -0.2098237389609823 0.029412342647955388 0 -0.19572946351785711 0.039272048382664133 0 -0.20113962024173071 0.02227838771243261 0 -0.19029700863621521 0.024089069561314659 0 -0.1965234412062255 0.0098537758749781944 0 -0.20113962024173071 0.02227838771243261 0 -0.19029700863621521 0.024089069561314659 0 -0.1852069371874478 0.015311100034367831 0 -0.1965234412062255 0.0098537758749781944 0 -0.19029700863621521 0.024089069561314659 0 -0.2098237389609823 0.029412342647955388 0 -0.2107847094499361 0.011405203725301251 0 -0.22391801440410891 0.019552636913248388 0 -0.20113962024173071 0.02227838771243261 0 -0.2098237389609823 0.029412342647955388 0 -0.2107847094499361 0.011405203725301251 0 -0.2098237389609823 0.029412342647955388 0 -0.22391801440410891 0.019552636913248388 0 -0.21702438745170211 -0.0043907958627755336 0 -0.2107847094499361 0.011405203725301251 0 -0.20713549204565579 6.5395444916274768e-05 0 -0.21702438745170211 -0.0043907958627755336 0 -0.2107847094499361 0.011405203725301251 0 -0.22391801440410891 0.019552636913248388 0 -0.1965234412062255 0.0098537758749781944 0 -0.2107847094499361 0.011405203725301251 0 -0.20713549204565579 6.5395444916274768e-05 0 -0.22867745033346079 0.0038692188645070222 0 -0.22391801440410891 0.019552636913248388 0 -0.2344599051246074 0.012178015861532989 0 -0.21702438745170211 -0.0043907958627755336 0 -0.22391801440410891 0.019552636913248388 0 -0.21702438745170211 -0.0043907958627755336 0 -0.22867745033346079 0.0038692188645070222 0 -0.22391801440410891 0.019552636913248388 0 -0.22391801440410891 0.019552636913248388 0 -0.2403792472176362 0.02548084658656756 0 -0.2344599051246074 0.012178015861532989 0 -0.2098237389609823 0.029412342647955388 0 -0.22391801440410891 0.019552636913248388 0 -0.2284051488343061 0.035137669629428533 0 -0.22391801440410891 0.019552636913248388 0 -0.2403792472176362 0.02548084658656756 0 -0.2284051488343061 0.035137669629428533 0 -0.22391801440410891 0.019552636913248388 0 -0.2344599051246074 0.012178015861532989 0 -0.22391801440410891 0.019552636913248388 0 -0.2284051488343061 0.035137669629428533 0 -0.2522816967992324 0.037264740289820159 0 -0.25157722050270093 0.012682655753942951 0 -0.2403792472176362 0.02548084658656756 0 -0.25157722050270093 0.012682655753942951 0 -0.2403792472176362 0.02548084658656756 0 -0.2344599051246074 0.012178015861532989 0 -0.25267499080189931 -0.0034516002120552492 0 -0.25157722050270093 0.012682655753942951 0 -0.2401015516947359 0.00075261550232862703 0 -0.25157722050270093 0.012682655753942951 0 -0.2344599051246074 0.012178015861532989 0 -0.2401015516947359 0.00075261550232862703 0 -0.22867745033346079 0.0038692188645070222 0 -0.2344599051246074 0.012178015861532989 0 -0.2401015516947359 0.00075261550232862703 0 -0.21769334509658461 0.055951218203848879 0 -0.23255980098598539 0.056775429521547523 0 -0.2155587047985415 0.070686690568374386 0 -0.23289228326450309 0.050722702345608793 0 -0.22641588552015429 0.052180110730886013 0 -0.22251811273354419 0.045271092852538893 0 -0.23289228326450309 0.050722702345608793 0 -0.23255980098598539 0.056775429521547523 0 -0.22641588552015429 0.052180110730886013 0 -0.21769334509658461 0.055951218203848879 0 -0.23255980098598539 0.056775429521547523 0 -0.22641588552015429 0.052180110730886013 0 -0.21769334509658461 0.055951218203848879 0 -0.22641588552015429 0.052180110730886013 0 -0.22251811273354419 0.045271092852538893 0 -0.21702036639386221 0.038769314305699548 0 -0.22251811273354419 0.045271092852538893 0 -0.2284051488343061 0.035137669629428533 0 -0.23289228326450309 0.050722702345608793 0 -0.22251811273354419 0.045271092852538893 0 -0.2284051488343061 0.035137669629428533 0 -0.23289228326450309 0.050722702345608793 0 -0.2284051488343061 0.035137669629428533 0 -0.2522816967992324 0.037264740289820159 0 -0.2403792472176362 0.02548084658656756 0 -0.2284051488343061 0.035137669629428533 0 -0.2522816967992324 0.037264740289820159 0 -0.23289228326450309 0.050722702345608793 0 -0.2284051488343061 0.035137669629428533 0 -0.2522816967992324 0.037264740289820159 0 -0.23289228326450309 0.050722702345608793 0 -0.23255980098598539 0.056775429521547523 0 -0.2522816967992324 0.037264740289820159 0 -0.23255980098598539 0.056775429521547523 0 -0.2522816967992324 0.037264740289820159 0 -0.23255980098598539 0.056775429521547523 0 -0.24906194248509719 0.058488871325365822 0 -0.23255980098598539 0.056775429521547523 0 -0.24906194248509719 0.058488871325365822 0 -0.23770452364983391 0.071010308971772351 0 -0.26257114212692878 0.06573449919026883 0 -0.24906194248509719 0.058488871325365822 0 -0.23770452364983391 0.071010308971772351 0 -0.25261226255175379 0.080423606239198905 0 -0.23770452364983391 0.071010308971772351 0 -0.23158356521460469 0.085326977986282804 0 -0.25261226255175379 0.080423606239198905 0 -0.23158356521460469 0.085326977986282804 0 -0.24377998071086901 0.096378574065869249 0 -0.23158356521460469 0.085326977986282804 0 -0.21283790517273879 0.076286118753275345 0 -0.22135706029896429 0.097751395037259853 0 -0.23158356521460469 0.085326977986282804 0 -0.22135706029896429 0.097751395037259853 0 -0.24377998071086901 0.096378574065869249 0 -0.23255980098598539 0.056775429521547523 0 -0.21283790517273879 0.076286118753275345 0 -0.23770452364983391 0.071010308971772351 0 -0.23158356521460469 0.085326977986282804 0 -0.21283790517273879 0.076286118753275345 0 -0.23255980098598539 0.056775429521547523 0 -0.23770452364983391 0.071010308971772351 0 -0.21283790517273879 0.076286118753275345 0 -0.23255980098598539 0.056775429521547523 0 -0.21283790517273879 0.076286118753275345 0 -0.2155587047985415 0.070686690568374386 0 -0.23770452364983391 0.071010308971772351 0 -0.21283790517273879 0.076286118753275345 0 -0.19803765617450109 0.060300476042091433 0 -0.20947987249717179 0.060448397508133619 0 -0.2155587047985415 0.070686690568374386 0 -0.19803765617450109 0.060300476042091433 0 -0.20333782300263301 0.070680183335342567 0 -0.2155587047985415 0.070686690568374386 0 -0.19803765617450109 0.060300476042091433 0 -0.2155587047985415 0.070686690568374386 0 -0.21283790517273879 0.076286118753275345 0 -0.19766176801088831 0.079505953929404904 0 -0.20333782300263301 0.070680183335342567 0 -0.21283790517273879 0.076286118753275345 0 -0.19766176801088831 0.079505953929404904 0 -0.20333782300263301 0.070680183335342567 0 -0.21283790517273879 0.076286118753275345 0 -0.2155587047985415 0.070686690568374386 0 -0.21283790517273879 0.076286118753275345 0 -0.1951643137470572 0.093770439387570487 0 -0.22135706029896429 0.097751395037259853 0 -0.21283790517273879 0.076286118753275345 0 -0.1951643137470572 0.093770439387570487 0 -0.21283790517273879 0.076286118753275345 0 -0.19766176801088831 0.079505953929404904 0 -0.1951643137470572 0.093770439387570487 0 -0.18248563084903771 0.082725789105533951 0 -0.19766176801088831 0.079505953929404904 0 -0.1951643137470572 0.093770439387570487 0 -0.1867192510276118 0.077748512173410014 0 -0.18248563084903771 0.082725789105533951 0 -0.19766176801088831 0.079505953929404904 0 -0.18248563084903771 0.082725789105533951 0 -0.19766176801088831 0.079505953929404904 0 -0.1867192510276118 0.077748512173410014 0 -0.19766176801088831 0.079505953929404904 0 -0.19050021368002351 0.072419239531055349 0 -0.19803765617450109 0.060300476042091433 0 -0.19050021368002351 0.072419239531055349 0 -0.18892740292417859 0.064703221589215376 0 -0.19803765617450109 0.060300476042091433 0 -0.20333782300263301 0.070680183335342567 0 -0.19050021368002351 0.072419239531055349 0 -0.20333782300263301 0.070680183335342567 0 -0.19766176801088831 0.079505953929404904 0 -0.19050021368002351 0.072419239531055349 0 -0.17749072232138041 0.1112547600218704 0 -0.19150979458678249 0.1243728737611647 0 -0.1951643137470572 0.093770439387570487 0 -0.19150979458678249 0.1243728737611647 0 -0.1951643137470572 0.093770439387570487 0 -0.20994497012605751 0.11823125198409511 0 -0.1951643137470572 0.093770439387570487 0 -0.20994497012605751 0.11823125198409511 0 -0.22135706029896429 0.097751395037259853 0 -0.20994497012605751 0.11823125198409511 0 -0.2348316268224595 0.11651500804646669 0 -0.2235388627286797 0.12965651036182041 0 -0.20994497012605751 0.11823125198409511 0 -0.22135706029896429 0.097751395037259853 0 -0.2348316268224595 0.11651500804646669 0 -0.22135706029896429 0.097751395037259853 0 -0.24377998071086901 0.096378574065869249 0 -0.2348316268224595 0.11651500804646669 0 -0.25136603029008331 0.1103208693098497 0 -0.24377998071086901 0.096378574065869249 0 -0.2348316268224595 0.11651500804646669 0 -0.25922316449870308 0.12628093809151891 0 -0.25136603029008331 0.1103208693098497 0 -0.2348316268224595 0.11651500804646669 0 -0.25922316449870308 0.12628093809151891 0 -0.2348316268224595 0.11651500804646669 0 -0.2369615480924761 0.1404602413506009 0 -0.2369615480924761 0.1404602413506009 0 -0.2235388627286797 0.12965651036182041 0 -0.2124173058737257 0.14341954006611901 0 -0.2348316268224595 0.11651500804646669 0 -0.2369615480924761 0.1404602413506009 0 -0.2235388627286797 0.12965651036182041 0 -0.2369615480924761 0.1404602413506009 0 -0.22679867445049531 0.16064067306310431 0 -0.2124173058737257 0.14341954006611901 0 -0.2369615480924761 0.1404602413506009 0 -0.247018622616726 0.15992587597476091 0 -0.22679867445049531 0.16064067306310431 0 -0.25846103874104392 0.14702121199507179 0 -0.2369615480924761 0.1404602413506009 0 -0.247018622616726 0.15992587597476091 0 -0.247018622616726 0.15992587597476091 0 -0.23359887481107691 0.1809086922627815 0 -0.247018622616726 0.15992587597476091 0 -0.23359887481107691 0.1809086922627815 0 -0.22679867445049531 0.16064067306310431 0 -0.26439180367967152 0.18225540552070321 0 -0.247018622616726 0.15992587597476091 0 -0.23359887481107691 0.1809086922627815 0 -0.23359887481107691 0.1809086922627815 0 -0.20517995294037331 0.17379218369948349 0 -0.2201791270054278 0.2018915085508021 0 -0.23359887481107691 0.1809086922627815 0 -0.22679867445049531 0.16064067306310431 0 -0.20517995294037331 0.17379218369948349 0 -0.22679867445049531 0.16064067306310431 0 -0.20517995294037331 0.17379218369948349 0 -0.2124173058737257 0.14341954006611901 0 -0.20517995294037331 0.17379218369948349 0 -0.19274338499996449 0.14807478539393409 0 -0.17830044274374979 0.16244982581953471 0 -0.19150979458678249 0.1243728737611647 0 -0.19274338499996449 0.14807478539393409 0 -0.2124173058737257 0.14341954006611901 0 -0.20994497012605751 0.11823125198409511 0 -0.2235388627286797 0.12965651036182041 0 -0.2124173058737257 0.14341954006611901 0 -0.19150979458678249 0.1243728737611647 0 -0.20994497012605751 0.11823125198409511 0 -0.2124173058737257 0.14341954006611901 0 -0.20517995294037331 0.17379218369948349 0 -0.19274338499996449 0.14807478539393409 0 -0.2124173058737257 0.14341954006611901 0 -0.22371849106378741 0.2462845034026982 0 -0.23019370483249479 0.22382880503591951 0 -0.2066863838603582 0.24242880758937649 0 -0.22371849106378741 0.2462845034026982 0 -0.23951274761537589 0.2474853768326048 0 -0.23019370483249479 0.22382880503591951 0 -0.25272375818517617 0.22994970808158929 0 -0.25621817608628389 0.2460965770837312 0 -0.23951274761537589 0.2474853768326048 0 -0.25370102580463139 0.2052288024824625 0 -0.25272375818517617 0.22994970808158929 0 -0.23019370483249479 0.22382880503591951 0 -0.25272375818517617 0.22994970808158929 0 -0.23951274761537589 0.2474853768326048 0 -0.23019370483249479 0.22382880503591951 0 -0.25370102580463139 0.2052288024824625 0 -0.23359887481107691 0.1809086922627815 0 -0.2201791270054278 0.2018915085508021 0 -0.25370102580463139 0.2052288024824625 0 -0.23019370483249479 0.22382880503591951 0 -0.2201791270054278 0.2018915085508021 0 -0.23019370483249479 0.22382880503591951 0 -0.2201791270054278 0.2018915085508021 0 -0.20675937919977869 0.22287432483882261 0 -0.25370102580463139 0.2052288024824625 0 -0.23019370483249479 0.22382880503591951 0 -0.23359887481107691 0.1809086922627815 0 -0.2201791270054278 0.2018915085508021 0 -0.20517995294037331 0.17379218369948349 0 -0.2201791270054278 0.2018915085508021 0 -0.19686056424972551 0.20437535499954981 0 -0.20517995294037331 0.17379218369948349 0 -0.19686056424972551 0.20437535499954981 0 -0.17870530295493239 0.18804735871836689 0 -0.19686056424972551 0.20437535499954981 0 -0.20675937919977869 0.22287432483882261 0 -0.19122946023172571 0.22600186257262461 0 -0.19686056424972551 0.20437535499954981 0 -0.19122946023172571 0.22600186257262461 0 -0.179110163166115 0.21364489161719899 0 -0.2201791270054278 0.2018915085508021 0 -0.19686056424972551 0.20437535499954981 0 -0.20675937919977869 0.22287432483882261 0 -0.2201791270054278 0.2018915085508021 0 -0.20675937919977869 0.22287432483882261 0 -0.23019370483249479 0.22382880503591951 0 -0.2066863838603582 0.24242880758937649 0 -0.23019370483249479 0.22382880503591951 0 -0.20675937919977869 0.22287432483882261 0 -0.2066863838603582 0.24242880758937649 0 -0.20675937919977869 0.22287432483882261 0 -0.19333963139412971 0.24385714112684301 0 -0.20675937919977869 0.22287432483882261 0 -0.19122946023172571 0.22600186257262461 0 -0.19333963139412971 0.24385714112684301 0 -0.19122946023172571 0.22600186257262461 0 -0.19333963139412971 0.24385714112684301 0 -0.17951502337729761 0.2392424245160312 0 -0.20675937919977869 0.22287432483882261 0 -0.19333963139412971 0.24385714112684301 0 -0.2066863838603582 0.24242880758937649 0 -0.18259587964237009 0.2606558300825601 0 -0.19333963139412971 0.24385714112684301 0 -0.2066863838603582 0.24242880758937649 0 -0.21408768962570049 0.25938306782852782 0 -0.22371849106378741 0.2462845034026982 0 -0.2066863838603582 0.24242880758937649 0 -0.1532221513837192 0.25419418888983192 0 -0.17951502337729761 0.2392424245160312 0 -0.15110003921584569 0.22881829817408891 0 -0.18259587964237009 0.2606558300825601 0 -0.19333963139412971 0.24385714112684301 0 -0.17951502337729761 0.2392424245160312 0 -0.17951502337729761 0.2392424245160312 0 -0.1619547442009632 0.2162214427956837 0 -0.179110163166115 0.21364489161719899 0 -0.19122946023172571 0.22600186257262461 0 -0.17951502337729761 0.2392424245160312 0 -0.179110163166115 0.21364489161719899 0 -0.17951502337729761 0.2392424245160312 0 -0.179110163166115 0.21364489161719899 0 -0.17951502337729761 0.2392424245160312 0 -0.1619547442009632 0.2162214427956837 0 -0.15110003921584569 0.22881829817408891 0 -0.1619547442009632 0.2162214427956837 0 -0.179110163166115 0.21364489161719899 0 -0.17870530295493239 0.18804735871836689 0 -0.19686056424972551 0.20437535499954981 0 -0.179110163166115 0.21364489161719899 0 -0.17870530295493239 0.18804735871836689 0 -0.179110163166115 0.21364489161719899 0 -0.17870530295493239 0.18804735871836689 0 -0.1619547442009632 0.2162214427956837 0 -0.17870530295493239 0.18804735871836689 0 -0.15775407484820861 0.18727827749961631 0 -0.14804225966403101 0.20585853828705919 0 -0.15775407484820861 0.18727827749961631 0 -0.13876353146598761 0.18223131465273959 0 -0.1619547442009632 0.2162214427956837 0 -0.14804225966403101 0.20585853828705919 0 -0.15775407484820861 0.18727827749961631 0 -0.13876353146598761 0.18223131465273959 0 -0.1245765098090509 0.17966052017845999 0 -0.1190175871807343 0.20067046473278771 0 -0.14804225966403101 0.20585853828705919 0 -0.13876353146598761 0.18223131465273959 0 -0.1190175871807343 0.20067046473278771 0 -0.14804225966403101 0.20585853828705919 0 -0.13479108425045189 0.2189379304695287 0 -0.1190175871807343 0.20067046473278771 0 -0.13479108425045189 0.2189379304695287 0 -0.12594818007053379 0.2253828658525201 0 -0.1190175871807343 0.20067046473278771 0 -0.1619547442009632 0.2162214427956837 0 -0.14804225966403101 0.20585853828705919 0 -0.15110003921584569 0.22881829817408891 0 -0.14804225966403101 0.20585853828705919 0 -0.15110003921584569 0.22881829817408891 0 -0.13479108425045189 0.2189379304695287 0 -0.15110003921584569 0.22881829817408891 0 -0.13479108425045189 0.2189379304695287 0 -0.1378537507735782 0.22769286600650679 0 -0.15110003921584569 0.22881829817408891 0 -0.1378537507735782 0.22769286600650679 0 -0.13827307027013019 0.2362506378269415 0 -0.13479108425045189 0.2189379304695287 0 -0.12594818007053379 0.2253828658525201 0 -0.1378537507735782 0.22769286600650679 0 -0.12594818007053379 0.2253828658525201 0 -0.1378537507735782 0.22769286600650679 0 -0.13827307027013019 0.2362506378269415 0 -0.12594818007053379 0.2253828658525201 0 -0.13827307027013019 0.2362506378269415 0 -0.1327712538659816 0.24971188635390451 0 -0.12594818007053379 0.2253828658525201 0 -0.1327712538659816 0.24971188635390451 0 -0.1532221513837192 0.25419418888983192 0 -0.15110003921584569 0.22881829817408891 0 -0.13827307027013019 0.2362506378269415 0 -0.1532221513837192 0.25419418888983192 0 -0.13827307027013019 0.2362506378269415 0 -0.1327712538659816 0.24971188635390451 0 -0.16317411874061041 0.14897554401654969 0 -0.16113979031376621 0.12743058591966341 0 -0.1447888583061562 0.1436064118174607 0 -0.16317411874061041 0.14897554401654969 0 -0.16113979031376621 0.12743058591966341 0 -0.17789558253256721 0.1368522929207025 0 -0.17749072232138041 0.1112547600218704 0 -0.16113979031376621 0.12743058591966341 0 -0.17789558253256721 0.1368522929207025 0 -0.19150979458678249 0.1243728737611647 0 -0.19274338499996449 0.14807478539393409 0 -0.17789558253256721 0.1368522929207025 0 -0.16317411874061041 0.14897554401654969 0 -0.17789558253256721 0.1368522929207025 0 -0.17830044274374979 0.16244982581953471 0 -0.17789558253256721 0.1368522929207025 0 -0.17830044274374979 0.16244982581953471 0 -0.19274338499996449 0.14807478539393409 0 -0.17789558253256721 0.1368522929207025 0 -0.17830044274374979 0.16244982581953471 0 -0.20517995294037331 0.17379218369948349 0 -0.17870530295493239 0.18804735871836689 0 -0.17830044274374979 0.16244982581953471 0 -0.17870530295493239 0.18804735871836689 0 -0.17830044274374979 0.16244982581953471 0 -0.17870530295493239 0.18804735871836689 0 -0.17830044274374979 0.16244982581953471 0 -0.15775407484820861 0.18727827749961631 0 -0.17830044274374979 0.16244982581953471 0 -0.15775407484820861 0.18727827749961631 0 -0.15245232938168229 0.1648839185887534 0 -0.16317411874061041 0.14897554401654969 0 -0.17830044274374979 0.16244982581953471 0 -0.15245232938168229 0.1648839185887534 0 -0.15775407484820861 0.18727827749961631 0 -0.15245232938168229 0.1648839185887534 0 -0.13876353146598761 0.18223131465273959 0 -0.13876353146598761 0.18223131465273959 0 -0.12843792629854631 0.15978223771525801 0 -0.1245765098090509 0.17966052017845999 0 -0.15245232938168229 0.1648839185887534 0 -0.13876353146598761 0.18223131465273959 0 -0.12843792629854631 0.15978223771525801 0 -0.12843792629854631 0.15978223771525801 0 -0.1447888583061562 0.1436064118174607 0 -0.12843792629854631 0.15978223771525801 0 -0.1447888583061562 0.1436064118174607 0 -0.1204435081575875 0.14623213693654391 0 -0.16317411874061041 0.14897554401654969 0 -0.15245232938168229 0.1648839185887534 0 -0.1447888583061562 0.1436064118174607 0 -0.15245232938168229 0.1648839185887534 0 -0.12843792629854631 0.15978223771525801 0 -0.1447888583061562 0.1436064118174607 0 -0.16113979031376621 0.12743058591966341 0 -0.1447888583061562 0.1436064118174607 0 -0.14300315410871919 0.1253406317882016 0 -0.16113979031376621 0.12743058591966341 0 -0.1447888583061562 0.1436064118174607 0 -0.1447888583061562 0.1436064118174607 0 -0.12687331202938101 0.13192737382428379 0 -0.1204435081575875 0.14623213693654391 0 -0.1447888583061562 0.1436064118174607 0 -0.14300315410871919 0.1253406317882016 0 -0.12687331202938101 0.13192737382428379 0 -0.12687331202938101 0.13192737382428379 0 -0.1130049083687871 0.13722853083192951 0 -0.10667563132183119 0.1260080396076822 0 -0.12687331202938101 0.13192737382428379 0 -0.1130049083687871 0.13722853083192951 0 -0.1204435081575875 0.14623213693654391 0 -0.10667563132183119 0.1260080396076822 0 -0.081978849477511453 0.1384377215961772 0 -0.096577670607123245 0.1239972751083621 0 -0.10667563132183119 0.1260080396076822 0 -0.1008242758955458 0.1385116675773613 0 -0.081978849477511453 0.1384377215961772 0 -0.10667563132183119 0.1260080396076822 0 -0.081978849477511453 0.1384377215961772 0 -0.1130049083687871 0.13722853083192951 0 -0.10667563132183119 0.1260080396076822 0 -0.1008242758955458 0.1385116675773613 0 -0.1130049083687871 0.13722853083192951 0 -0.1008242758955458 0.1385116675773613 0 -0.1078791741402548 0.14587794917826699 0 -0.094422293866394627 0.1556947047027778 0 -0.094582816169344081 0.14500609667275041 0 -0.1078791741402548 0.14587794917826699 0 -0.1008242758955458 0.1385116675773613 0 -0.094582816169344081 0.14500609667275041 0 -0.1078791741402548 0.14587794917826699 0 -0.12843792629854631 0.15978223771525801 0 -0.1204435081575875 0.14623213693654391 0 -0.1073217141416921 0.15896651377475199 0 -0.1078791741402548 0.14587794917826699 0 -0.1204435081575875 0.14623213693654391 0 -0.1073217141416921 0.15896651377475199 0 -0.1130049083687871 0.13722853083192951 0 -0.1078791741402548 0.14587794917826699 0 -0.1204435081575875 0.14623213693654391 0 -0.12843792629854631 0.15978223771525801 0 -0.1245765098090509 0.17966052017845999 0 -0.1120869942909358 0.17595806361305491 0 -0.1120869942909358 0.17595806361305491 0 -0.1073217141416921 0.15896651377475199 0 -0.12843792629854631 0.15978223771525801 0 -0.1120869942909358 0.17595806361305491 0 -0.12843792629854631 0.15978223771525801 0 -0.1120869942909358 0.17595806361305491 0 -0.1073217141416921 0.15896651377475199 0 -0.1245765098090509 0.17966052017845999 0 -0.1120869942909358 0.17595806361305491 0 -0.1190175871807343 0.20067046473278771 0 -0.1120869942909358 0.17595806361305491 0 -0.1020860412129876 0.1687304780430319 0 -0.095149617161195271 0.19271405424946009 0 -0.1020860412129876 0.1687304780430319 0 -0.095149617161195271 0.19271405424946009 0 -0.1120869942909358 0.17595806361305491 0 -0.095149617161195271 0.19271405424946009 0 -0.1020860412129876 0.1687304780430319 0 -0.093279947424905002 0.17994671451597891 0 -0.095149617161195271 0.19271405424946009 0 -0.1020860412129876 0.1687304780430319 0 -0.089956478385260899 0.16811851343374709 0 -0.093279947424905002 0.17994671451597891 0 -0.094422293866394627 0.1556947047027778 0 -0.1078791741402548 0.14587794917826699 0 -0.1020860412129876 0.1687304780430319 0 -0.1078791741402548 0.14587794917826699 0 -0.1073217141416921 0.15896651377475199 0 -0.1020860412129876 0.1687304780430319 0 -0.1120869942909358 0.17595806361305491 0 -0.1073217141416921 0.15896651377475199 0 -0.1020860412129876 0.1687304780430319 0 -0.1078791741402548 0.14587794917826699 0 -0.1020860412129876 0.1687304780430319 0 -0.094422293866394627 0.1556947047027778 0 -0.1020860412129876 0.1687304780430319 0 -0.089956478385260899 0.16811851343374709 0 -0.094422293866394627 0.1556947047027778 0 -0.089956478385260899 0.16811851343374709 0 -0.084742563178951485 0.15922574422532609 0 -0.089956478385260899 0.16811851343374709 0 -0.080023232193096983 0.1657260639694961 0 -0.084742563178951485 0.15922574422532609 0 -0.089956478385260899 0.16811851343374709 0 -0.080023232193096983 0.1657260639694961 0 -0.081293191825158789 0.17801619480298669 0 -0.080023232193096983 0.1657260639694961 0 -0.084742563178951485 0.15922574422532609 0 -0.074930767296401246 0.15918989644816289 0 -0.081293191825158789 0.17801619480298669 0 -0.095149617161195271 0.19271405424946009 0 -0.073474196407973841 0.19079473501472519 0 -0.081293191825158789 0.17801619480298669 0 -0.095149617161195271 0.19271405424946009 0 -0.093279947424905002 0.17994671451597891 0 -0.081293191825158789 0.17801619480298669 0 -0.095149617161195271 0.19271405424946009 0 -0.089956478385260899 0.16811851343374709 0 -0.093279947424905002 0.17994671451597891 0 -0.081293191825158789 0.17801619480298669 0 -0.064604308801312821 0.18244611143699499 0 -0.069549912031587807 0.17131438064227461 0 -0.073474196407973841 0.19079473501472519 0 -0.081293191825158789 0.17801619480298669 0 -0.069549912031587807 0.17131438064227461 0 -0.073474196407973841 0.19079473501472519 0 -0.069549912031587807 0.17131438064227461 0 -0.073474196407973841 0.19079473501472519 0 -0.064604308801312821 0.18244611143699499 0 -0.069549912031587807 0.17131438064227461 0 -0.062041409668937363 0.1723934095439342 0 -0.084742563178951485 0.15922574422532609 0 -0.074930767296401246 0.15918989644816289 0 -0.074588176879671189 0.15080810715310269 0 -0.080023232193096983 0.1657260639694961 0 -0.074930767296401246 0.15918989644816289 0 -0.06743676648912228 0.16331833535651319 0 -0.081293191825158789 0.17801619480298669 0 -0.069549912031587807 0.17131438064227461 0 -0.06743676648912228 0.16331833535651319 0 -0.080023232193096983 0.1657260639694961 0 -0.081293191825158789 0.17801619480298669 0 -0.06743676648912228 0.16331833535651319 0 -0.081293191825158789 0.17801619480298669 0 -0.06743676648912228 0.16331833535651319 0 -0.069549912031587807 0.17131438064227461 0 -0.062031688412593149 0.16441565219234799 0 -0.062041409668937363 0.1723934095439342 0 -0.069549912031587807 0.17131438064227461 0 -0.06743676648912228 0.16331833535651319 0 -0.062031688412593149 0.16441565219234799 0 -0.06743676648912228 0.16331833535651319 0 -0.06725389334219653 0.15771987894696021 0 -0.062031688412593149 0.16441565219234799 0 -0.074930767296401246 0.15918989644816289 0 -0.06743676648912228 0.16331833535651319 0 -0.06725389334219653 0.15771987894696021 0 -0.081978849477511453 0.1384377215961772 0 -0.05728206763319247 0.1508674035846734 0 -0.06725389334219653 0.15771987894696021 0 -0.074588176879671189 0.15080810715310269 0 -0.05728206763319247 0.1508674035846734 0 -0.074588176879671189 0.15080810715310269 0 -0.081978849477511453 0.1384377215961772 0 -0.05728206763319247 0.1508674035846734 0 -0.081978849477511453 0.1384377215961772 0 -0.06070043620975589 0.134524720015781 0 -0.05728206763319247 0.1508674035846734 0 -0.074930767296401246 0.15918989644816289 0 -0.06725389334219653 0.15771987894696021 0 -0.074588176879671189 0.15080810715310269 0 -0.071786582042575819 0.1280585334591178 0 -0.081978849477511453 0.1384377215961772 0 -0.08034823769671974 0.121089655777625 0 -0.071786582042575819 0.1280585334591178 0 -0.081978849477511453 0.1384377215961772 0 -0.06070043620975589 0.134524720015781 0 -0.071786582042575819 0.1280585334591178 0 -0.06070043620975589 0.134524720015781 0 -0.06411880478631618 0.11818203644688791 0 -0.081978849477511453 0.1384377215961772 0 -0.08034823769671974 0.121089655777625 0 -0.096577670607123245 0.1239972751083621 0 -0.1008242758955458 0.1385116675773613 0 -0.094582816169344081 0.14500609667275041 0 -0.081978849477511453 0.1384377215961772 0 -0.094582816169344081 0.14500609667275041 0 -0.081978849477511453 0.1384377215961772 0 -0.0854808471676783 0.14892295327365951 0 -0.094422293866394627 0.1556947047027778 0 -0.084742563178951485 0.15922574422532609 0 -0.0854808471676783 0.14892295327365951 0 -0.094422293866394627 0.1556947047027778 0 -0.094582816169344081 0.14500609667275041 0 -0.0854808471676783 0.14892295327365951 0 -0.084742563178951485 0.15922574422532609 0 -0.074588176879671189 0.15080810715310269 0 -0.0854808471676783 0.14892295327365951 0 -0.074588176879671189 0.15080810715310269 0 -0.081978849477511453 0.1384377215961772 0 -0.0854808471676783 0.14892295327365951 0 -0.1045487088169635 0.24438495162540061 0 -0.11455994162881621 0.23631135170566109 0 -0.098826177075254387 0.23394696074010041 0 -0.10005120432924321 0.25626016583208688 0 -0.094679029848152713 0.24609146959404629 0 -0.1045487088169635 0.24438495162540061 0 -0.094679029848152713 0.24609146959404629 0 -0.1045487088169635 0.24438495162540061 0 -0.098826177075254387 0.23394696074010041 0 -0.116744543106582 0.25728181003509248 0 -0.1045487088169635 0.24438495162540061 0 -0.11455994162881621 0.23631135170566109 0 -0.116744543106582 0.25728181003509248 0 -0.1327712538659816 0.24971188635390451 0 -0.11455994162881621 0.23631135170566109 0 -0.12594818007053379 0.2253828658525201 0 -0.1327712538659816 0.24971188635390451 0 -0.11455994162881621 0.23631135170566109 0 -0.11455994162881621 0.23631135170566109 0 -0.1144435087069731 0.2232582902708152 0 -0.1063794885369051 0.22193246116811141 0 -0.12594818007053379 0.2253828658525201 0 -0.1144435087069731 0.2232582902708152 0 -0.1108864245916369 0.20940648235696879 0 -0.12594818007053379 0.2253828658525201 0 -0.11455994162881621 0.23631135170566109 0 -0.1144435087069731 0.2232582902708152 0 -0.11455994162881621 0.23631135170566109 0 -0.1063794885369051 0.22193246116811141 0 -0.098826177075254387 0.23394696074010041 0 -0.1063794885369051 0.22193246116811141 0 -0.098826177075254387 0.23394696074010041 0 -0.089950704149474564 0.21660149084549701 0 -0.1063794885369051 0.22193246116811141 0 -0.089950704149474564 0.21660149084549701 0 -0.10053720550511509 0.21148400771379949 0 -0.095149617161195271 0.19271405424946009 0 -0.089950704149474564 0.21660149084549701 0 -0.1063794885369051 0.22193246116811141 0 -0.10053720550511509 0.21148400771379949 0 -0.089950704149474564 0.21660149084549701 0 -0.10053720550511509 0.21148400771379949 0 -0.1108864245916369 0.20940648235696879 0 -0.095149617161195271 0.19271405424946009 0 -0.1063794885369051 0.22193246116811141 0 -0.10053720550511509 0.21148400771379949 0 -0.1108864245916369 0.20940648235696879 0 -0.12594818007053379 0.2253828658525201 0 -0.1190175871807343 0.20067046473278771 0 -0.12594818007053379 0.2253828658525201 0 -0.1108864245916369 0.20940648235696879 0 -0.1190175871807343 0.20067046473278771 0 -0.12594818007053379 0.2253828658525201 0 -0.1108864245916369 0.20940648235696879 0 -0.1144435087069731 0.2232582902708152 0 -0.1063794885369051 0.22193246116811141 0 -0.1108864245916369 0.20940648235696879 0 -0.1120869942909358 0.17595806361305491 0 -0.1190175871807343 0.20067046473278771 0 -0.1108864245916369 0.20940648235696879 0 -0.1190175871807343 0.20067046473278771 0 -0.10682171669235439 0.1942096232944058 0 -0.1120869942909358 0.17595806361305491 0 -0.1190175871807343 0.20067046473278771 0 -0.10682171669235439 0.1942096232944058 0 -0.1108864245916369 0.20940648235696879 0 -0.095149617161195271 0.19271405424946009 0 -0.1108864245916369 0.20940648235696879 0 -0.10682171669235439 0.1942096232944058 0 -0.095149617161195271 0.19271405424946009 0 -0.1120869942909358 0.17595806361305491 0 -0.10682171669235439 0.1942096232944058 0 -0.095149617161195271 0.19271405424946009 0 -0.095149617161195271 0.19271405424946009 0 -0.077398480784349299 0.2102750893871779 0 -0.095149617161195271 0.19271405424946009 0 -0.073474196407973841 0.19079473501472519 0 -0.077398480784349299 0.2102750893871779 0 -0.095149617161195271 0.19271405424946009 0 -0.077398480784349299 0.2102750893871779 0 -0.087241526055590657 0.20514135106535239 0 -0.073474196407973841 0.19079473501472519 0 -0.077398480784349299 0.2102750893871779 0 -0.073474196407973841 0.19079473501472519 0 -0.077398480784349299 0.2102750893871779 0 -0.068984895145132993 0.20348567813270921 0 -0.064604308801312821 0.18244611143699499 0 -0.073474196407973841 0.19079473501472519 0 -0.062951628171730722 0.19451437844324071 0 -0.073474196407973841 0.19079473501472519 0 -0.062951628171730722 0.19451437844324071 0 -0.068984895145132993 0.20348567813270921 0 -0.062951628171730722 0.19451437844324071 0 -0.068984895145132993 0.20348567813270921 0 -0.057478398324341332 0.20606456403591589 0 -0.068984895145132993 0.20348567813270921 0 -0.075683327299925024 0.21197187487555791 0 -0.057478398324341332 0.20606456403591589 0 -0.075683327299925024 0.21197187487555791 0 -0.060700713784132942 0.2267940359372384 0 -0.057478398324341332 0.20606456403591589 0 -0.075683327299925024 0.21197187487555791 0 -0.057478398324341332 0.20606456403591589 0 -0.077398480784349299 0.2102750893871779 0 -0.068984895145132993 0.20348567813270921 0 -0.075683327299925024 0.21197187487555791 0 -0.075683327299925024 0.21197187487555791 0 -0.077884159070199604 0.2126860219832131 0 -0.060700713784132942 0.2267940359372384 0 -0.075683327299925024 0.21197187487555791 0 -0.077884159070199604 0.2126860219832131 0 -0.077398480784349299 0.2102750893871779 0 -0.075683327299925024 0.21197187487555791 0 -0.077884159070199604 0.2126860219832131 0 -0.077398480784349299 0.2102750893871779 0 -0.077884159070199604 0.2126860219832131 0 -0.077398480784349299 0.2102750893871779 0 -0.075683327299925024 0.21197187487555791 0 -0.077884159070199604 0.2126860219832131 0 -0.089950704149474564 0.21660149084549701 0 -0.077884159070199604 0.2126860219832131 0 -0.087241526055590657 0.20514135106535239 0 -0.089950704149474564 0.21660149084549701 0 -0.095149617161195271 0.19271405424946009 0 -0.087241526055590657 0.20514135106535239 0 -0.089950704149474564 0.21660149084549701 0 -0.095149617161195271 0.19271405424946009 0 -0.089950704149474564 0.21660149084549701 0 -0.077398480784349299 0.2102750893871779 0 -0.077884159070199604 0.2126860219832131 0 -0.087241526055590657 0.20514135106535239 0 -0.077884159070199604 0.2126860219832131 0 -0.083666647235009842 0.24139059785004849 0 -0.089950704149474564 0.21660149084549701 0 -0.083666647235009842 0.24139059785004849 0 -0.077884159070199604 0.2126860219832131 0 -0.089950704149474564 0.21660149084549701 0 -0.083666647235009842 0.24139059785004849 0 -0.098826177075254387 0.23394696074010041 0 -0.089950704149474564 0.21660149084549701 0 -0.083666647235009842 0.24139059785004849 0 -0.077884159070199604 0.2126860219832131 0 -0.083666647235009842 0.24139059785004849 0 -0.060700713784132942 0.2267940359372384 0 -0.075683327299925024 0.21197187487555791 0 -0.060700713784132942 0.2267940359372384 0 -0.064077212627390134 0.24851538469076631 0 -0.083666647235009842 0.24139059785004849 0 -0.060700713784132942 0.2267940359372384 0 -0.086302411784292182 0.25447467192259482 0 -0.083666647235009842 0.24139059785004849 0 -0.094679029848152713 0.24609146959404629 0 -0.098826177075254387 0.23394696074010041 0 -0.083666647235009842 0.24139059785004849 0 -0.086302411784292182 0.25447467192259482 0 -0.094679029848152713 0.24609146959404629 0 -0.083666647235009842 0.24139059785004849 0 -0.03068766995985707 0.25286978792993342 0 -0.034335222642673788 0.23481172099035691 0 -0.046578861792199937 0.24361118962503389 0 -0.034335222642673788 0.23481172099035691 0 -0.046578861792199937 0.24361118962503389 0 -0.045510089746351297 0.2289623102588538 0 -0.064077212627390134 0.24851538469076631 0 -0.046578861792199937 0.24361118962503389 0 -0.055802081643016588 0.23164020743468811 0 -0.064077212627390134 0.24851538469076631 0 -0.055802081643016588 0.23164020743468811 0 -0.060700713784132942 0.2267940359372384 0 -0.064077212627390134 0.24851538469076631 0 -0.060700713784132942 0.2267940359372384 0 -0.046578861792199937 0.24361118962503389 0 -0.055802081643016588 0.23164020743468811 0 -0.045510089746351297 0.2289623102588538 0 -0.055802081643016588 0.23164020743468811 0 -0.053252725762674542 0.2222055350902031 0 -0.045510089746351297 0.2289623102588538 0 -0.055802081643016588 0.23164020743468811 0 -0.060700713784132942 0.2267940359372384 0 -0.053252725762674542 0.2222055350902031 0 -0.055802081643016588 0.23164020743468811 0 -0.060700713784132942 0.2267940359372384 0 -0.053252725762674542 0.2222055350902031 0 -0.045510089746351297 0.2289623102588538 0 -0.046772345315528908 0.21756655778431969 0 -0.045510089746351297 0.2289623102588538 0 -0.036443083940353373 0.22210497005765251 0 -0.046772345315528908 0.21756655778431969 0 -0.034335222642673788 0.23481172099035691 0 -0.045510089746351297 0.2289623102588538 0 -0.036443083940353373 0.22210497005765251 0 -0.034335222642673788 0.23481172099035691 0 -0.036443083940353373 0.22210497005765251 0 -0.024866254401544021 0.22078734426404351 0 -0.036443083940353373 0.22210497005765251 0 -0.046772345315528908 0.21756655778431969 0 -0.031637039445344017 0.19767931081015269 0 -0.046772345315528908 0.21756655778431969 0 -0.057478398324341332 0.20606456403591589 0 -0.031637039445344017 0.19767931081015269 0 -0.060700713784132942 0.2267940359372384 0 -0.053252725762674542 0.2222055350902031 0 -0.057478398324341332 0.20606456403591589 0 -0.060700713784132942 0.2267940359372384 0 -0.057478398324341332 0.20606456403591589 0 -0.053252725762674542 0.2222055350902031 0 -0.046772345315528908 0.21756655778431969 0 -0.057478398324341332 0.20606456403591589 0 -0.062951628171730722 0.19451437844324071 0 -0.057478398324341332 0.20606456403591589 0 -0.054948738746262903 0.1897910154656581 0 -0.057478398324341332 0.20606456403591589 0 -0.054948738746262903 0.1897910154656581 0 -0.031637039445344017 0.19767931081015269 0 -0.057478398324341332 0.20606456403591589 0 -0.054948738746262903 0.1897910154656581 0 -0.054948738746262903 0.1897910154656581 0 -0.031637039445344017 0.19767931081015269 0 -0.039999697082172873 0.18418677263352329 0 -0.057478398324341332 0.20606456403591589 0 -0.031637039445344017 0.19767931081015269 0 -0.031637039445344017 0.19767931081015269 0 -0.0057956805663459468 0.1892940575843915 0 -0.031637039445344017 0.19767931081015269 0 -0.0057956805663459468 0.1892940575843915 0 -0.024775833668462071 0.17590936267321361 0 -0.031637039445344017 0.19767931081015269 0 -0.0057956805663459468 0.1892940575843915 0 -0.01019634689217482 0.20814994011246479 0 -0.0057956805663459468 0.1892940575843915 0 -0.01019634689217482 0.20814994011246479 0 0.0090806704795409685 0.20996839310177981 0 -0.01019634689217482 0.20814994011246479 0 0.00014186162909880781 0.2338185852574263 0 0.0090806704795409685 0.20996839310177981 0 -0.036443083940353373 0.22210497005765251 0 -0.031637039445344017 0.19767931081015269 0 -0.024866254401544021 0.22078734426404351 0 -0.031637039445344017 0.19767931081015269 0 -0.01019634689217482 0.20814994011246479 0 -0.024866254401544021 0.22078734426404351 0 -0.034335222642673788 0.23481172099035691 0 -0.024866254401544021 0.22078734426404351 0 -0.01991034591062427 0.239405390953495 0 -0.024866254401544021 0.22078734426404351 0 0.00014186162909880781 0.2338185852574263 0 -0.024866254401544021 0.22078734426404351 0 -0.01991034591062427 0.239405390953495 0 0.00014186162909880781 0.2338185852574263 0 -0.01019634689217482 0.20814994011246479 0 -0.024866254401544021 0.22078734426404351 0 0.00014186162909880781 0.2338185852574263 0 -0.0098044441781452579 0.25473951632571468 0 0.00014186162909880781 0.2338185852574263 0 0.0073806355134042019 0.25529449578482938 0 -0.0098044441781452579 0.25473951632571468 0 -0.01991034591062427 0.239405390953495 0 0.00014186162909880781 0.2338185852574263 0 -0.03068766995985707 0.25286978792993342 0 -0.034335222642673788 0.23481172099035691 0 -0.01991034591062427 0.239405390953495 0 -0.03068766995985707 0.25286978792993342 0 -0.0098044441781452579 0.25473951632571468 0 -0.01991034591062427 0.239405390953495 0 -0.045513089216113363 0.1481501368583191 0 -0.039963318838929777 0.1583549670989208 0 -0.028048700007850699 0.14601834090005769 0 -0.045513089216113363 0.1481501368583191 0 -0.037584816749385713 0.12707105787504261 0 -0.028048700007850699 0.14601834090005769 0 -0.037584816749385713 0.12707105787504261 0 -0.028048700007850699 0.14601834090005769 0 -0.045513089216113363 0.1481501368583191 0 -0.037584816749385713 0.12707105787504261 0 -0.045513089216113363 0.1481501368583191 0 -0.037584816749385713 0.12707105787504261 0 -0.049753839012929922 0.13582205838018921 0 -0.037584816749385713 0.12707105787504261 0 -0.049753839012929922 0.13582205838018921 0 -0.051208231868337763 0.1260313133231428 0 -0.049753839012929922 0.13582205838018921 0 -0.06070043620975589 0.134524720015781 0 -0.052276118599972977 0.1457036522838337 0 -0.051208231868337763 0.1260313133231428 0 -0.06070043620975589 0.134524720015781 0 -0.06411880478631618 0.11818203644688791 0 -0.06070043620975589 0.134524720015781 0 -0.06411880478631618 0.11818203644688791 0 -0.049753839012929922 0.13582205838018921 0 -0.051208231868337763 0.1260313133231428 0 -0.06070043620975589 0.134524720015781 0 -0.06070043620975589 0.134524720015781 0 -0.052276118599972977 0.1457036522838337 0 -0.05728206763319247 0.1508674035846734 0 -0.06070043620975589 0.134524720015781 0 -0.05728206763319247 0.1508674035846734 0 -0.045513089216113363 0.1481501368583191 0 -0.049753839012929922 0.13582205838018921 0 -0.052276118599972977 0.1457036522838337 0 -0.045513089216113363 0.1481501368583191 0 -0.052276118599972977 0.1457036522838337 0 -0.053440893212920608 0.15280063427064891 0 -0.052276118599972977 0.1457036522838337 0 -0.053440893212920608 0.15280063427064891 0 -0.05728206763319247 0.1508674035846734 0 -0.053440893212920608 0.15280063427064891 0 -0.05728206763319247 0.1508674035846734 0 -0.05728206763319247 0.1508674035846734 0 -0.062031688412593149 0.16441565219234799 0 -0.053441361682841117 0.16922921584159559 0 -0.053440893212920608 0.15280063427064891 0 -0.05728206763319247 0.1508674035846734 0 -0.053441361682841117 0.16922921584159559 0 -0.045513089216113363 0.1481501368583191 0 -0.053440893212920608 0.15280063427064891 0 -0.053441361682841117 0.16922921584159559 0 -0.045513089216113363 0.1481501368583191 0 -0.053441361682841117 0.16922921584159559 0 -0.05728206763319247 0.1508674035846734 0 -0.053441361682841117 0.16922921584159559 0 -0.06725389334219653 0.15771987894696021 0 -0.05728206763319247 0.1508674035846734 0 -0.062031688412593149 0.16441565219234799 0 -0.062031688412593149 0.16441565219234799 0 -0.053441361682841117 0.16922921584159559 0 -0.062041409668937363 0.1723934095439342 0 -0.053441361682841117 0.16922921584159559 0 -0.047633738945979477 0.17108968717192211 0 -0.039963318838929777 0.1583549670989208 0 -0.052991971448818453 0.17137768000779441 0 -0.053441361682841117 0.16922921584159559 0 -0.047633738945979477 0.17108968717192211 0 -0.052991971448818453 0.17137768000779441 0 -0.053441361682841117 0.16922921584159559 0 -0.054948738746262903 0.1897910154656581 0 -0.052419079168185397 0.17351746689540021 0 -0.046888846475854867 0.17837904804597579 0 -0.062951628171730722 0.19451437844324071 0 -0.054948738746262903 0.1897910154656581 0 -0.052419079168185397 0.17351746689540021 0 -0.062951628171730722 0.19451437844324071 0 -0.052991971448818453 0.17137768000779441 0 -0.052419079168185397 0.17351746689540021 0 -0.064604308801312821 0.18244611143699499 0 -0.062951628171730722 0.19451437844324071 0 -0.053441361682841117 0.16922921584159559 0 -0.062951628171730722 0.19451437844324071 0 -0.052991971448818453 0.17137768000779441 0 -0.053441361682841117 0.16922921584159559 0 -0.054948738746262903 0.1897910154656581 0 -0.052419079168185397 0.17351746689540021 0 -0.062951628171730722 0.19451437844324071 0 -0.053441361682841117 0.16922921584159559 0 -0.064604308801312821 0.18244611143699499 0 -0.053441361682841117 0.16922921584159559 0 -0.062041409668937363 0.1723934095439342 0 -0.052991971448818453 0.17137768000779441 0 -0.047633738945979477 0.17108968717192211 0 -0.052419079168185397 0.17351746689540021 0 -0.047633738945979477 0.17108968717192211 0 -0.052419079168185397 0.17351746689540021 0 -0.046888846475854867 0.17837904804597579 0 -0.054948738746262903 0.1897910154656581 0 -0.046888846475854867 0.17837904804597579 0 -0.039999697082172873 0.18418677263352329 0 -0.031637039445344017 0.19767931081015269 0 -0.039999697082172873 0.18418677263352329 0 -0.024775833668462071 0.17590936267321361 0 -0.046888846475854867 0.17837904804597579 0 -0.039999697082172873 0.18418677263352329 0 -0.039442978436673673 0.17331029806337539 0 -0.047633738945979477 0.17108968717192211 0 -0.046888846475854867 0.17837904804597579 0 -0.039442978436673673 0.17331029806337539 0 -0.039442978436673673 0.17331029806337539 0 -0.032139483942643897 0.16694135859911591 0 -0.024775833668462071 0.17590936267321361 0 -0.039999697082172873 0.18418677263352329 0 -0.039442978436673673 0.17331029806337539 0 -0.024775833668462071 0.17590936267321361 0 -0.045513089216113363 0.1481501368583191 0 -0.053441361682841117 0.16922921584159559 0 -0.039963318838929777 0.1583549670989208 0 -0.039963318838929777 0.1583549670989208 0 -0.032139483942643897 0.16694135859911591 0 -0.02343924065842673 0.15869802647678349 0 -0.047633738945979477 0.17108968717192211 0 -0.039442978436673673 0.17331029806337539 0 -0.039963318838929777 0.1583549670989208 0 -0.039442978436673673 0.17331029806337539 0 -0.039963318838929777 0.1583549670989208 0 -0.032139483942643897 0.16694135859911591 0 -0.032139483942643897 0.16694135859911591 0 -0.02343924065842673 0.15869802647678349 0 -0.024775833668462071 0.17590936267321361 0 -0.02343924065842673 0.15869802647678349 0 -0.024775833668462071 0.17590936267321361 0 -0.0048034666842798916 0.1614245706846468 0 -0.0057956805663459468 0.1892940575843915 0 -0.024775833668462071 0.17590936267321361 0 -0.0048034666842798916 0.1614245706846468 0 -0.0048034666842798916 0.1614245706846468 0 -0.01090464080839405 0.14353955890474629 0 0.011098566836083609 0.13484946890849181 0 -0.02343924065842673 0.15869802647678349 0 -0.0048034666842798916 0.1614245706846468 0 -0.01090464080839405 0.14353955890474629 0 -0.039963318838929777 0.1583549670989208 0 -0.02343924065842673 0.15869802647678349 0 -0.028048700007850699 0.14601834090005769 0 -0.02343924065842673 0.15869802647678349 0 -0.01090464080839405 0.14353955890474629 0 -0.028048700007850699 0.14601834090005769 0 -0.037584816749385713 0.12707105787504261 0 -0.0187932077553963 0.1304023687453105 0 -0.02482114599867602 0.1199028763409456 0 -0.01090464080839405 0.14353955890474629 0 -0.028048700007850699 0.14601834090005769 0 -0.0187932077553963 0.1304023687453105 0 -0.037584816749385713 0.12707105787504261 0 -0.028048700007850699 0.14601834090005769 0 -0.0187932077553963 0.1304023687453105 0 -0.0064436606074630637 0.13109611639504981 0 -0.007175360702145514 0.1155930690216506 0 0.011098566836083609 0.13484946890849181 0 -0.01090464080839405 0.14353955890474629 0 -0.0064436606074630637 0.13109611639504981 0 0.011098566836083609 0.13484946890849181 0 -0.0187932077553963 0.1304023687453105 0 -0.0064436606074630637 0.13109611639504981 0 -0.007175360702145514 0.1155930690216506 0 -0.01090464080839405 0.14353955890474629 0 -0.0187932077553963 0.1304023687453105 0 -0.0064436606074630637 0.13109611639504981 0 -0.007175360702145514 0.1155930690216506 0 -0.0040088977147468936 0.097024336429998151 0 -0.013655752966245171 0.094180689311720855 0 -0.007175360702145514 0.1155930690216506 0 -0.0040088977147468936 0.097024336429998151 0 0.0025937760044158291 0.1064596481343341 0 -0.007175360702145514 0.1155930690216506 0 -0.013655752966245171 0.094180689311720855 0 -0.02544928824037461 0.096336669134809427 0 -0.029459919491476121 0.1011230655410132 0 -0.021580178673492881 0.1105609364200745 0 -0.037915498494119543 0.10215930426450601 0 -0.007175360702145514 0.1155930690216506 0 -0.02544928824037461 0.096336669134809427 0 -0.007175360702145514 0.1155930690216506 0 -0.02544928824037461 0.096336669134809427 0 -0.0241566231860777 0.1021061234229471 0 -0.02544928824037461 0.096336669134809427 0 -0.029459919491476121 0.1011230655410132 0 -0.035034026511796899 0.0954599165668297 0 -0.02544928824037461 0.096336669134809427 0 -0.029459919491476121 0.1011230655410132 0 -0.0241566231860777 0.1021061234229471 0 -0.02544928824037461 0.096336669134809427 0 -0.0241566231860777 0.1021061234229471 0 -0.029459919491476121 0.1011230655410132 0 -0.0241566231860777 0.1021061234229471 0 -0.021580178673492881 0.1105609364200745 0 -0.02482114599867602 0.1199028763409456 0 -0.021580178673492881 0.1105609364200745 0 -0.032585978911933711 0.11378053360982859 0 -0.007175360702145514 0.1155930690216506 0 -0.0241566231860777 0.1021061234229471 0 -0.021580178673492881 0.1105609364200745 0 -0.0187932077553963 0.1304023687453105 0 -0.007175360702145514 0.1155930690216506 0 -0.02482114599867602 0.1199028763409456 0 -0.007175360702145514 0.1155930690216506 0 -0.02482114599867602 0.1199028763409456 0 -0.021580178673492881 0.1105609364200745 0 -0.01109578586274463 0.07592966442077155 0 -0.01963881101933795 0.057650575484614511 0 -0.0089029190745683329 0.062319161291970238 0 -0.0031702267477386531 0.067180855403790804 0 -0.01109578586274463 0.07592966442077155 0 0.0065236609159091173 0.071671444604676282 0 -0.0031702267477386531 0.067180855403790804 0 -0.0089029190745683329 0.062319161291970238 0 0.00079413703044923156 0.058803151297745167 0 -0.0031702267477386531 0.067180855403790804 0 -0.01109578586274463 0.07592966442077155 0 -0.0089029190745683329 0.062319161291970238 0 -0.0040088977147468936 0.097024336429998151 0 -0.01109578586274463 0.07592966442077155 0 0.011643404763696401 0.092949868607662828 0 -0.0040088977147468936 0.097024336429998151 0 -0.013655752966245171 0.094180689311720855 0 -0.01109578586274463 0.07592966442077155 0 -0.013655752966245171 0.094180689311720855 0 -0.01109578586274463 0.07592966442077155 0 -0.02054943231121421 0.086019707551374502 0 -0.02544928824037461 0.096336669134809427 0 -0.02054943231121421 0.086019707551374502 0 -0.029642132364781061 0.077623064684345475 0 -0.02544928824037461 0.096336669134809427 0 -0.029642132364781061 0.077623064684345475 0 -0.036673455980692451 0.084509049595857907 0 -0.01109578586274463 0.07592966442077155 0 -0.02054943231121421 0.086019707551374502 0 -0.029642132364781061 0.077623064684345475 0 -0.02544928824037461 0.096336669134809427 0 -0.029642132364781061 0.077623064684345475 0 -0.013655752966245171 0.094180689311720855 0 -0.02544928824037461 0.096336669134809427 0 -0.02054943231121421 0.086019707551374502 0 -0.02544928824037461 0.096336669134809427 0 -0.036673455980692451 0.084509049595857907 0 -0.01109578586274463 0.07592966442077155 0 -0.033834976489186493 0.058909460233881362 0 -0.01109578586274463 0.07592966442077155 0 -0.029642132364781061 0.077623064684345475 0 -0.033834976489186493 0.058909460233881362 0 -0.01109578586274463 0.07592966442077155 0 -0.033834976489186493 0.058909460233881362 0 -0.01963881101933795 0.057650575484614511 0 -0.029642132364781061 0.077623064684345475 0 -0.033834976489186493 0.058909460233881362 0 -0.029642132364781061 0.077623064684345475 0 -0.036732086871232597 0.066761861307427367 0 -0.033834976489186493 0.058909460233881362 0 -0.042969512877196837 0.063698159366550891 0 -0.036732086871232597 0.066761861307427367 0 -0.038306240480512441 0.072768089837317376 0 -0.042969512877196837 0.063698159366550891 0 -0.038306240480512441 0.072768089837317376 0 -0.046136221960229658 0.070392563092827029 0 -0.042969512877196837 0.063698159366550891 0 -0.036732086871232597 0.066761861307427367 0 -0.038907572144486188 0.060810532415041758 0 -0.029642132364781061 0.077623064684345475 0 -0.036732086871232597 0.066761861307427367 0 -0.038306240480512441 0.072768089837317376 0 -0.038306240480512441 0.072768089837317376 0 -0.046136221960229658 0.070392563092827029 0 -0.043586306971417507 0.077534071189344175 0 -0.038306240480512441 0.072768089837317376 0 -0.043586306971417507 0.077534071189344175 0 -0.036673455980692451 0.084509049595857907 0 -0.043586306971417507 0.077534071189344175 0 -0.036673455980692451 0.084509049595857907 0 -0.046978765451358998 0.084182386091036676 0 -0.029642132364781061 0.077623064684345475 0 -0.038306240480512441 0.072768089837317376 0 -0.036673455980692451 0.084509049595857907 0 -0.02544928824037461 0.096336669134809427 0 -0.036673455980692451 0.084509049595857907 0 -0.035034026511796899 0.0954599165668297 0 -0.036673455980692451 0.084509049595857907 0 -0.044089979176562301 0.093675305350012283 0 -0.035034026511796899 0.0954599165668297 0 -0.036673455980692451 0.084509049595857907 0 -0.044089979176562301 0.093675305350012283 0 -0.046978765451358998 0.084182386091036676 0 -0.044089979176562301 0.093675305350012283 0 -0.057144835734191893 0.088207312209507505 0 -0.046978765451358998 0.084182386091036676 0 -0.057144835734191893 0.088207312209507505 0 -0.046978765451358998 0.084182386091036676 0 -0.053399249393930842 0.076986192110461482 0 -0.043586306971417507 0.077534071189344175 0 -0.046978765451358998 0.084182386091036676 0 -0.053399249393930842 0.076986192110461482 0 -0.053399249393930842 0.076986192110461482 0 -0.070406408885084593 0.061857930521202607 0 -0.059815066152941319 0.061788281472960463 0 -0.057144835734191893 0.088207312209507505 0 -0.053399249393930842 0.076986192110461482 0 -0.070406408885084593 0.061857930521202607 0 -0.046136221960229658 0.070392563092827029 0 -0.043586306971417507 0.077534071189344175 0 -0.053399249393930842 0.076986192110461482 0 -0.046136221960229658 0.070392563092827029 0 -0.053399249393930842 0.076986192110461482 0 -0.05257832837313995 0.068950164376806455 0 -0.053399249393930842 0.076986192110461482 0 -0.05257832837313995 0.068950164376806455 0 -0.059815066152941319 0.061788281472960463 0 -0.05257832837313995 0.068950164376806455 0 -0.052166049838275927 0.062310195238599278 0 -0.059815066152941319 0.061788281472960463 0 -0.046136221960229658 0.070392563092827029 0 -0.05257832837313995 0.068950164376806455 0 -0.052166049838275927 0.062310195238599278 0 -0.042969512877196837 0.063698159366550891 0 -0.046136221960229658 0.070392563092827029 0 -0.052166049838275927 0.062310195238599278 0 -0.021580178673492881 0.1105609364200745 0 -0.043883262583300407 0.11455669389781301 0 -0.021580178673492881 0.1105609364200745 0 -0.043883262583300407 0.11455669389781301 0 -0.032585978911933711 0.11378053360982859 0 -0.037584816749385713 0.12707105787504261 0 -0.051208231868337763 0.1260313133231428 0 -0.043883262583300407 0.11455669389781301 0 -0.037584816749385713 0.12707105787504261 0 -0.043883262583300407 0.11455669389781301 0 -0.037584816749385713 0.12707105787504261 0 -0.032585978911933711 0.11378053360982859 0 -0.037584816749385713 0.12707105787504261 0 -0.043883262583300407 0.11455669389781301 0 -0.032585978911933711 0.11378053360982859 0 -0.037584816749385713 0.12707105787504261 0 -0.02482114599867602 0.1199028763409456 0 -0.032585978911933711 0.11378053360982859 0 -0.021580178673492881 0.1105609364200745 0 -0.043883262583300407 0.11455669389781301 0 -0.037915498494119543 0.10215930426450601 0 -0.044089979176562301 0.093675305350012283 0 -0.043883262583300407 0.11455669389781301 0 -0.037915498494119543 0.10215930426450601 0 -0.044089979176562301 0.093675305350012283 0 -0.037915498494119543 0.10215930426450601 0 -0.035034026511796899 0.0954599165668297 0 -0.029459919491476121 0.1011230655410132 0 -0.037915498494119543 0.10215930426450601 0 -0.035034026511796899 0.0954599165668297 0 -0.044089979176562301 0.093675305350012283 0 -0.057144835734191893 0.088207312209507505 0 -0.043883262583300407 0.11455669389781301 0 -0.057144835734191893 0.088207312209507505 0 -0.043883262583300407 0.11455669389781301 0 -0.057144835734191893 0.088207312209507505 0 -0.043883262583300407 0.11455669389781301 0 -0.056175626513735713 0.104231459755559 0 -0.056175626513735713 0.104231459755559 0 -0.061770267295803899 0.1005995653590098 0 -0.06411880478631618 0.11818203644688791 0 -0.057144835734191893 0.088207312209507505 0 -0.056175626513735713 0.104231459755559 0 -0.061770267295803899 0.1005995653590098 0 -0.043883262583300407 0.11455669389781301 0 -0.06411880478631618 0.11818203644688791 0 -0.051208231868337763 0.1260313133231428 0 -0.043883262583300407 0.11455669389781301 0 -0.06411880478631618 0.11818203644688791 0 -0.043883262583300407 0.11455669389781301 0 -0.056175626513735713 0.104231459755559 0 -0.06411880478631618 0.11818203644688791 0 -0.071786582042575819 0.1280585334591178 0 -0.06411880478631618 0.11818203644688791 0 -0.08034823769671974 0.121089655777625 0 -0.06411880478631618 0.11818203644688791 0 -0.08034823769671974 0.121089655777625 0 -0.075381325115152609 0.106019298300689 0 -0.06411880478631618 0.11818203644688791 0 -0.08034823769671974 0.121089655777625 0 -0.08034823769671974 0.121089655777625 0 -0.096577670607123245 0.1239972751083621 0 -0.08034823769671974 0.121089655777625 0 -0.092569001324263961 0.1124699312803344 0 -0.096577670607123245 0.1239972751083621 0 -0.08034823769671974 0.121089655777625 0 -0.083967771981719092 0.1102844810624737 0 -0.092569001324263961 0.1124699312803344 0 -0.08034823769671974 0.121089655777625 0 -0.083967771981719092 0.1102844810624737 0 -0.075381325115152609 0.106019298300689 0 -0.087572523790740042 0.10155903889124659 0 -0.082071947835387321 0.094412947715560025 0 -0.09233625647768956 0.091651488650119919 0 -0.083967771981719092 0.1102844810624737 0 -0.092569001324263961 0.1124699312803344 0 -0.087572523790740042 0.10155903889124659 0 -0.083967771981719092 0.1102844810624737 0 -0.087572523790740042 0.10155903889124659 0 -0.075381325115152609 0.106019298300689 0 -0.087572523790740042 0.10155903889124659 0 -0.082071947835387321 0.094412947715560025 0 -0.075381325115152609 0.106019298300689 0 -0.06411880478631618 0.11818203644688791 0 -0.06964180214897181 0.091777453024084701 0 -0.082071947835387321 0.094412947715560025 0 -0.075381325115152609 0.106019298300689 0 -0.06964180214897181 0.091777453024084701 0 -0.06411880478631618 0.11818203644688791 0 -0.075381325115152609 0.106019298300689 0 -0.06964180214897181 0.091777453024084701 0 -0.061770267295803899 0.1005995653590098 0 -0.06411880478631618 0.11818203644688791 0 -0.06964180214897181 0.091777453024084701 0 -0.057144835734191893 0.088207312209507505 0 -0.061770267295803899 0.1005995653590098 0 -0.06964180214897181 0.091777453024084701 0 -0.06964180214897181 0.091777453024084701 0 -0.075164799511626648 0.065372869601281192 0 -0.057144835734191893 0.088207312209507505 0 -0.06964180214897181 0.091777453024084701 0 -0.068089461569968729 0.076803891339018993 0 -0.06964180214897181 0.091777453024084701 0 -0.068089461569968729 0.076803891339018993 0 -0.075164799511626648 0.065372869601281192 0 -0.057144835734191893 0.088207312209507505 0 -0.068089461569968729 0.076803891339018993 0 -0.070406408885084593 0.061857930521202607 0 -0.06964180214897181 0.091777453024084701 0 -0.075164799511626648 0.065372869601281192 0 -0.08073347634316104 0.073575546631144614 0 -0.057144835734191893 0.088207312209507505 0 -0.070406408885084593 0.061857930521202607 0 -0.068089461569968729 0.076803891339018993 0 -0.075164799511626648 0.065372869601281192 0 -0.070406408885084593 0.061857930521202607 0 -0.089923560922876636 0.068178037636278263 0 -0.08578586832533959 0.082170087930996366 0 -0.103675070998617 0.083967309240415983 0 -0.08073347634316104 0.073575546631144614 0 -0.089923560922876636 0.068178037636278263 0 -0.083186879645449088 0.059889597987781727 0 -0.075164799511626648 0.065372869601281192 0 -0.08073347634316104 0.073575546631144614 0 -0.083186879645449088 0.059889597987781727 0 -0.08073347634316104 0.073575546631144614 0 -0.089923560922876636 0.068178037636278263 0 -0.08578586832533959 0.082170087930996366 0 -0.06964180214897181 0.091777453024084701 0 -0.08073347634316104 0.073575546631144614 0 -0.08578586832533959 0.082170087930996366 0 -0.082071947835387321 0.094412947715560025 0 -0.06964180214897181 0.091777453024084701 0 -0.08578586832533959 0.082170087930996366 0 -0.082071947835387321 0.094412947715560025 0 -0.08578586832533959 0.082170087930996366 0 -0.09233625647768956 0.091651488650119919 0 -0.09233625647768956 0.091651488650119919 0 -0.103675070998617 0.083967309240415983 0 -0.10429444750695741 0.1014886749251958 0 -0.08578586832533959 0.082170087930996366 0 -0.09233625647768956 0.091651488650119919 0 -0.103675070998617 0.083967309240415983 0 -0.103675070998617 0.083967309240415983 0 -0.1198812247159142 0.095002477965890675 0 -0.10429444750695741 0.1014886749251958 0 -0.089923560922876636 0.068178037636278263 0 -0.103675070998617 0.083967309240415983 0 -0.10785209906359081 0.065371441260914459 0 -0.12533951967512769 0.078274991835817334 0 -0.103675070998617 0.083967309240415983 0 -0.10785209906359081 0.065371441260914459 0 -0.12533951967512769 0.078274991835817334 0 -0.10785209906359081 0.065371441260914459 0 -0.1248745965026067 0.059896082918310993 0 -0.12533951967512769 0.078274991835817334 0 -0.103675070998617 0.083967309240415983 0 -0.1198812247159142 0.095002477965890675 0 -0.13137241316615089 0.11357835761918721 0 -0.1198812247159142 0.095002477965890675 0 -0.10429444750695741 0.1014886749251958 0 -0.13137241316615089 0.11357835761918721 0 -0.12687331202938101 0.13192737382428379 0 -0.10667563132183119 0.1260080396076822 0 -0.13137241316615089 0.11357835761918721 0 -0.10667563132183119 0.1260080396076822 0 -0.1062978327852654 0.11550845570815239 0 -0.13137241316615089 0.11357835761918721 0 -0.1062978327852654 0.11550845570815239 0 -0.10429444750695741 0.1014886749251958 0 -0.13137241316615089 0.11357835761918721 0 -0.10667563132183119 0.1260080396076822 0 -0.10667563132183119 0.1260080396076822 0 -0.1062978327852654 0.11550845570815239 0 -0.096577670607123245 0.1239972751083621 0 -0.092569001324263961 0.1124699312803344 0 -0.1062978327852654 0.11550845570815239 0 -0.096577670607123245 0.1239972751083621 0 -0.092569001324263961 0.1124699312803344 0 -0.1062978327852654 0.11550845570815239 0 -0.10429444750695741 0.1014886749251958 0 -0.092569001324263961 0.1124699312803344 0 -0.087572523790740042 0.10155903889124659 0 -0.10429444750695741 0.1014886749251958 0 -0.087572523790740042 0.10155903889124659 0 -0.09233625647768956 0.091651488650119919 0 -0.10429444750695741 0.1014886749251958 0 -0.10370969952600501 0.019997694726909911 0 -0.098524362227562057 0.035744340183224317 0 -0.08645931971955316 0.02325136753113614 0 -0.10370969952600501 0.019997694726909911 0 -0.08645931971955316 0.02325136753113614 0 -0.091682611010439896 0.0063963380850077774 0 -0.10370969952600501 0.019997694726909911 0 -0.1180188049733784 0.030804183747700629 0 -0.098524362227562057 0.035744340183224317 0 -0.10370969952600501 0.019997694726909911 0 -0.10877227824827949 0.0075748546359299482 0 -0.091682611010439896 0.0063963380850077774 0 -0.1029392013539359 -0.0085751277431150782 0 -0.10877227824827949 0.0075748546359299482 0 -0.091682611010439896 0.0063963380850077774 0 -0.10370969952600501 0.019997694726909911 0 -0.10877227824827949 0.0075748546359299482 0 -0.11835839359799651 0.016938700943610479 0 -0.1029392013539359 -0.0085751277431150782 0 -0.12735709500343681 0.004015926865657337 0 -0.10877227824827949 0.0075748546359299482 0 -0.12735709500343681 0.004015926865657337 0 -0.10877227824827949 0.0075748546359299482 0 -0.11835839359799651 0.016938700943610479 0 -0.1339340902388827 0.022300844741854581 0 -0.11835839359799651 0.016938700943610479 0 -0.1180188049733784 0.030804183747700629 0 -0.10370969952600501 0.019997694726909911 0 -0.11835839359799651 0.016938700943610479 0 -0.1180188049733784 0.030804183747700629 0 -0.1180188049733784 0.030804183747700629 0 -0.1128457876968547 0.048091259023394652 0 -0.098524362227562057 0.035744340183224317 0 -0.13626681081840961 0.042829268155062397 0 -0.1128457876968547 0.048091259023394652 0 -0.13626681081840961 0.042829268155062397 0 -0.1180188049733784 0.030804183747700629 0 -0.1128457876968547 0.048091259023394652 0 -0.13626681081840961 0.042829268155062397 0 -0.1128457876968547 0.048091259023394652 0 -0.1248745965026067 0.059896082918310993 0 -0.10785209906359081 0.065371441260914459 0 -0.1128457876968547 0.048091259023394652 0 -0.1248745965026067 0.059896082918310993 0 -0.1128457876968547 0.048091259023394652 0 -0.089424764575299687 0.053353249891726941 0 -0.089923560922876636 0.068178037636278263 0 -0.10785209906359081 0.065371441260914459 0 -0.089424764575299687 0.053353249891726941 0 -0.10785209906359081 0.065371441260914459 0 -0.1128457876968547 0.048091259023394652 0 -0.089424764575299687 0.053353249891726941 0 -0.1128457876968547 0.048091259023394652 0 -0.098524362227562057 0.035744340183224317 0 -0.089424764575299687 0.053353249891726941 0 -0.098524362227562057 0.035744340183224317 0 -0.080687796874281473 0.038968286178477703 0 -0.08645931971955316 0.02325136753113614 0 -0.098524362227562057 0.035744340183224317 0 -0.080687796874281473 0.038968286178477703 0 -0.089424764575299687 0.053353249891726941 0 -0.080687796874281473 0.038968286178477703 0 -0.089424764575299687 0.053353249891726941 0 -0.083186879645449088 0.059889597987781727 0 -0.075164799511626648 0.065372869601281192 0 -0.080687796874281473 0.038968286178477703 0 -0.083186879645449088 0.059889597987781727 0 -0.089923560922876636 0.068178037636278263 0 -0.089424764575299687 0.053353249891726941 0 -0.083186879645449088 0.059889597987781727 0 -0.075164799511626648 0.065372869601281192 0 -0.080687796874281473 0.038968286178477703 0 -0.071303082845968715 0.053347503409362687 0 -0.075164799511626648 0.065372869601281192 0 -0.080687796874281473 0.038968286178477703 0 -0.075164799511626648 0.065372869601281192 0 -0.070406408885084593 0.061857930521202607 0 -0.071303082845968715 0.053347503409362687 0 -0.071303082845968715 0.053347503409362687 0 -0.064856269609628314 0.055117702274744398 0 -0.065400139349222536 0.045420728471107522 0 -0.070406408885084593 0.061857930521202607 0 -0.071303082845968715 0.053347503409362687 0 -0.064856269609628314 0.055117702274744398 0 -0.070406408885084593 0.061857930521202607 0 -0.064856269609628314 0.055117702274744398 0 -0.059815066152941319 0.061788281472960463 0 -0.080687796874281473 0.038968286178477703 0 -0.065400139349222536 0.045420728471107522 0 -0.063264057366842208 0.031259222641012697 0 -0.080687796874281473 0.038968286178477703 0 -0.063264057366842208 0.031259222641012697 0 -0.073460039823911166 0.024685388153665749 0 -0.080687796874281473 0.038968286178477703 0 -0.071303082845968715 0.053347503409362687 0 -0.065400139349222536 0.045420728471107522 0 -0.063264057366842208 0.031259222641012697 0 -0.073460039823911166 0.024685388153665749 0 -0.061440697951084179 0.017621877449499421 0 -0.073460039823911166 0.024685388153665749 0 -0.076769634387976737 0.01135693610240161 0 -0.061440697951084179 0.017621877449499421 0 -0.080687796874281473 0.038968286178477703 0 -0.073460039823911166 0.024685388153665749 0 -0.08645931971955316 0.02325136753113614 0 -0.073460039823911166 0.024685388153665749 0 -0.08645931971955316 0.02325136753113614 0 -0.076769634387976737 0.01135693610240161 0 -0.08645931971955316 0.02325136753113614 0 -0.091682611010439896 0.0063963380850077774 0 -0.076769634387976737 0.01135693610240161 0 -0.091682611010439896 0.0063963380850077774 0 -0.078933949510919491 0.00072378658541613432 0 -0.076769634387976737 0.01135693610240161 0 -0.086097875964997059 -0.0058870606910941042 0 -0.091682611010439896 0.0063963380850077774 0 -0.078933949510919491 0.00072378658541613432 0 -0.078933949510919491 0.00072378658541613432 0 -0.076769634387976737 0.01135693610240161 0 -0.068462160169621672 0.0025537029525893409 0 -0.068462160169621672 0.0025537029525893409 0 -0.057836245250817257 0.0062936453779614283 0 -0.061440697951084179 0.017621877449499421 0 -0.076769634387976737 0.01135693610240161 0 -0.068462160169621672 0.0025537029525893409 0 -0.061440697951084179 0.017621877449499421 0 -0.057836245250817257 0.0062936453779614283 0 -0.061440697951084179 0.017621877449499421 0 -0.042678209040760022 0.019440128409622049 0 -0.057836245250817257 0.0062936453779614283 0 -0.042678209040760022 0.019440128409622049 0 -0.044352522143416888 0.0050416822031405977 0 -0.063264057366842208 0.031259222641012697 0 -0.042678209040760022 0.019440128409622049 0 -0.05195897498334151 0.039592758420259042 0 -0.063264057366842208 0.031259222641012697 0 -0.061440697951084179 0.017621877449499421 0 -0.042678209040760022 0.019440128409622049 0 -0.042678209040760022 0.019440128409622049 0 -0.038256592764973757 0.039174794321751791 0 -0.042678209040760022 0.019440128409622049 0 -0.038256592764973757 0.039174794321751791 0 -0.027511467414372541 0.03001296694831072 0 -0.042678209040760022 0.019440128409622049 0 -0.028180513839983729 0.018098474401369 0 -0.027511467414372541 0.03001296694831072 0 -0.042678209040760022 0.019440128409622049 0 -0.032770024037711037 0.0084985419153508525 0 -0.028180513839983729 0.018098474401369 0 -0.032770024037711037 0.0084985419153508525 0 -0.03614709390981162 0.0015378833132510439 0 -0.044352522143416888 0.0050416822031405977 0 -0.029539197120254941 -0.00051038393964639519 0 -0.032770024037711037 0.0084985419153508525 0 -0.03614709390981162 0.0015378833132510439 0 -0.042678209040760022 0.019440128409622049 0 -0.032770024037711037 0.0084985419153508525 0 -0.044352522143416888 0.0050416822031405977 0 -0.042969512877196837 0.063698159366550891 0 -0.047980875447113908 0.056604040506729722 0 -0.052166049838275927 0.062310195238599278 0 -0.047980875447113908 0.056604040506729722 0 -0.052166049838275927 0.062310195238599278 0 -0.055804220694704088 0.051985500715961808 0 -0.064856269609628314 0.055117702274744398 0 -0.059815066152941319 0.061788281472960463 0 -0.055804220694704088 0.051985500715961808 0 -0.052166049838275927 0.062310195238599278 0 -0.059815066152941319 0.061788281472960463 0 -0.055804220694704088 0.051985500715961808 0 -0.064856269609628314 0.055117702274744398 0 -0.065400139349222536 0.045420728471107522 0 -0.055804220694704088 0.051985500715961808 0 -0.047980875447113908 0.056604040506729722 0 -0.055804220694704088 0.051985500715961808 0 -0.046350630683546529 0.050276175962098407 0 -0.055804220694704088 0.051985500715961808 0 -0.05195897498334151 0.039592758420259042 0 -0.046350630683546529 0.050276175962098407 0 -0.065400139349222536 0.045420728471107522 0 -0.055804220694704088 0.051985500715961808 0 -0.05195897498334151 0.039592758420259042 0 -0.065400139349222536 0.045420728471107522 0 -0.063264057366842208 0.031259222641012697 0 -0.05195897498334151 0.039592758420259042 0 -0.042678209040760022 0.019440128409622049 0 -0.05195897498334151 0.039592758420259042 0 -0.038256592764973757 0.039174794321751791 0 -0.05195897498334151 0.039592758420259042 0 -0.038256592764973757 0.039174794321751791 0 -0.046350630683546529 0.050276175962098407 0 -0.038256592764973757 0.039174794321751791 0 -0.033834976489186493 0.058909460233881362 0 -0.038256592764973757 0.039174794321751791 0 -0.038513274033404883 0.055407770980391423 0 -0.033834976489186493 0.058909460233881362 0 -0.038256592764973757 0.039174794321751791 0 -0.046350630683546529 0.050276175962098407 0 -0.038513274033404883 0.055407770980391423 0 -0.038256592764973757 0.039174794321751791 0 -0.033834976489186493 0.058909460233881362 0 -0.02879531395286377 0.050132256585483953 0 -0.046350630683546529 0.050276175962098407 0 -0.038513274033404883 0.055407770980391423 0 -0.042914570065583427 0.057802329486214707 0 -0.036732086871232597 0.066761861307427367 0 -0.033834976489186493 0.058909460233881362 0 -0.038907572144486188 0.060810532415041758 0 -0.038513274033404883 0.055407770980391423 0 -0.033834976489186493 0.058909460233881362 0 -0.038513274033404883 0.055407770980391423 0 -0.033834976489186493 0.058909460233881362 0 -0.038907572144486188 0.060810532415041758 0 -0.042969512877196837 0.063698159366550891 0 -0.038907572144486188 0.060810532415041758 0 -0.042914570065583427 0.057802329486214707 0 -0.038513274033404883 0.055407770980391423 0 -0.038907572144486188 0.060810532415041758 0 -0.042914570065583427 0.057802329486214707 0 -0.047980875447113908 0.056604040506729722 0 -0.046350630683546529 0.050276175962098407 0 -0.042914570065583427 0.057802329486214707 0 -0.042969512877196837 0.063698159366550891 0 -0.047980875447113908 0.056604040506729722 0 -0.042914570065583427 0.057802329486214707 0 -0.033834976489186493 0.058909460233881362 0 -0.01963881101933795 0.057650575484614511 0 -0.02879531395286377 0.050132256585483953 0 -0.01963881101933795 0.057650575484614511 0 -0.02879531395286377 0.050132256585483953 0 -0.02345087553795689 0.044794196301688183 0 -0.01963881101933795 0.057650575484614511 0 -0.02345087553795689 0.044794196301688183 0 -0.012175026131353321 0.050402421608982242 0 -0.02345087553795689 0.044794196301688183 0 -0.014695186475719159 0.0359408453649432 0 -0.012175026131353321 0.050402421608982242 0 -0.038256592764973757 0.039174794321751791 0 -0.02879531395286377 0.050132256585483953 0 -0.02345087553795689 0.044794196301688183 0 -0.038256592764973757 0.039174794321751791 0 -0.02345087553795689 0.044794196301688183 0 -0.027511467414372541 0.03001296694831072 0 -0.02345087553795689 0.044794196301688183 0 -0.014695186475719159 0.0359408453649432 0 -0.027511467414372541 0.03001296694831072 0 -0.014695186475719159 0.0359408453649432 0 -0.0023331541944977092 0.045311556235899067 0 0.00074240361007229996 0.028778475488121531 0 -0.014695186475719159 0.0359408453649432 0 -0.0023331541944977092 0.045311556235899067 0 -0.012175026131353321 0.050402421608982242 0 -0.0023331541944977092 0.045311556235899067 0 -0.012175026131353321 0.050402421608982242 0 0.00079413703044923156 0.058803151297745167 0 -0.012175026131353321 0.050402421608982242 0 -0.0089029190745683329 0.062319161291970238 0 0.00079413703044923156 0.058803151297745167 0 -0.01963881101933795 0.057650575484614511 0 -0.012175026131353321 0.050402421608982242 0 -0.0089029190745683329 0.062319161291970238 0 -0.021996997598287969 0.010981086364913869 0 -0.02112675760807068 0.0030512678310729521 0 -0.0083058662928979787 0.012079608812324741 0 -0.021996997598287969 0.010981086364913869 0 -0.01661374249992489 0.02103319015209278 0 -0.0083058662928979787 0.012079608812324741 0 -0.021996997598287969 0.010981086364913869 0 -0.02112675760807068 0.0030512678310729521 0 -0.02631380729169577 0.0053104208567875946 0 -0.029539197120254941 -0.00051038393964639519 0 -0.02112675760807068 0.0030512678310729521 0 -0.02631380729169577 0.0053104208567875946 0 -0.029539197120254941 -0.00051038393964639519 0 -0.032770024037711037 0.0084985419153508525 0 -0.02631380729169577 0.0053104208567875946 0 -0.032770024037711037 0.0084985419153508525 0 -0.021996997598287969 0.010981086364913869 0 -0.02631380729169577 0.0053104208567875946 0 -0.032770024037711037 0.0084985419153508525 0 -0.021996997598287969 0.010981086364913869 0 -0.028180513839983729 0.018098474401369 0 -0.028180513839983729 0.018098474401369 0 -0.027511467414372541 0.03001296694831072 0 -0.01661374249992489 0.02103319015209278 0 -0.014695186475719159 0.0359408453649432 0 -0.027511467414372541 0.03001296694831072 0 -0.01661374249992489 0.02103319015209278 0 -0.021996997598287969 0.010981086364913869 0 -0.028180513839983729 0.018098474401369 0 -0.01661374249992489 0.02103319015209278 0 -0.01661374249992489 0.02103319015209278 0 0.00074240361007229996 0.028778475488121531 0 -0.0083058662928979787 0.012079608812324741 0 0.0060294939382754481 0.01286563290641534 0 0.00074240361007229996 0.028778475488121531 0 -0.014695186475719159 0.0359408453649432 0 -0.01661374249992489 0.02103319015209278 0 0.00074240361007229996 0.028778475488121531 0 -0.0083058662928979787 0.012079608812324741 0 0.00074240361007229996 0.028778475488121531 0 -0.01661374249992489 0.02103319015209278 0 -0.0083058662928979787 0.012079608812324741 0 0.00074240361007229996 0.028778475488121531 0 -0.0072764121498596901 -0.0036325873431357339 0 -0.0083058662928979787 0.012079608812324741 0 0.0012074066645448821 -0.00065723147797176382 0 -0.0072764121498596901 -0.0036325873431357339 0 -0.013607688627124061 -0.00178224205395049 0 -0.0083058662928979787 0.012079608812324741 0 -0.017354136195868258 -0.0046192578634720229 0 -0.0083058662928979787 0.012079608812324741 0 -0.017354136195868258 -0.0046192578634720229 0 -0.013607688627124061 -0.00178224205395049 0 -0.0083058662928979787 0.012079608812324741 0 -0.0083058662928979787 0.012079608812324741 0 0.0060294939382754481 0.01286563290641534 0 0.0012074066645448821 -0.00065723147797176382 0 -0.017354136195868258 -0.0046192578634720229 0 -0.02112675760807068 0.0030512678310729521 0 -0.0083058662928979787 0.012079608812324741 0 0.0060294939382754481 0.01286563290641534 0 0.0012074066645448821 -0.00065723147797176382 0 0.01265631079038235 -0.01012693536007268 0 0.0060294939382754481 0.01286563290641534 0 0.020311547060899309 0.014329649790385431 0 0.01265631079038235 -0.01012693536007268 0 0.00074240361007229996 0.028778475488121531 0 0.015746539320639769 0.024046632949657649 0 0.022626785018342459 0.038544513255683338 0 0.0060294939382754481 0.01286563290641534 0 0.00074240361007229996 0.028778475488121531 0 0.015746539320639769 0.024046632949657649 0 0.0060294939382754481 0.01286563290641534 0 0.015746539320639769 0.024046632949657649 0 0.020311547060899309 0.014329649790385431 0 0.015746539320639769 0.024046632949657649 0 0.029022466975609298 0.02571489330768258 0 0.020311547060899309 0.014329649790385431 0 0.015746539320639769 0.024046632949657649 0 0.029022466975609298 0.02571489330768258 0 0.022626785018342459 0.038544513255683338 0 0.020311547060899309 0.014329649790385431 0 0.034885408484197772 0.0062912350017927032 0 0.01265631079038235 -0.01012693536007268 0 0.029022466975609298 0.02571489330768258 0 0.020311547060899309 0.014329649790385431 0 0.034885408484197772 0.0062912350017927032 0 0.00079413703044923156 0.058803151297745167 0 0.01366790099406239 0.052632887419703241 0 0.0065236609159091173 0.071671444604676282 0 -0.0023331541944977092 0.045311556235899067 0 0.00079413703044923156 0.058803151297745167 0 0.01366790099406239 0.052632887419703241 0 0.00074240361007229996 0.028778475488121531 0 0.01366790099406239 0.052632887419703241 0 0.022626785018342459 0.038544513255683338 0 0.00074240361007229996 0.028778475488121531 0 0.022626785018342459 0.038544513255683338 0 -0.0023331541944977092 0.045311556235899067 0 0.00074240361007229996 0.028778475488121531 0 0.01366790099406239 0.052632887419703241 0 0.00074240361007229996 0.028778475488121531 0 0.01366790099406239 0.052632887419703241 0 0.029022466975609298 0.02571489330768258 0 0.022626785018342459 0.038544513255683338 0 0.037630953216902623 0.033668105561091018 0 0.01366790099406239 0.052632887419703241 0 0.022626785018342459 0.038544513255683338 0 0.025434983742737761 0.055249644843112657 0 0.022626785018342459 0.038544513255683338 0 0.025434983742737761 0.055249644843112657 0 0.034616451435572633 0.051242168749322393 0 0.025434983742737761 0.055249644843112657 0 0.034062632092931817 0.061255223706808547 0 0.02703491536905472 0.067401080742933134 0 0.01366790099406239 0.052632887419703241 0 0.025434983742737761 0.055249644843112657 0 0.02703491536905472 0.067401080742933134 0 0.034616451435572633 0.051242168749322393 0 0.044511166426612833 0.04831055102324476 0 0.060132464308973767 0.062986029428160187 0 0.034616451435572633 0.051242168749322393 0 0.060132464308973767 0.062986029428160187 0 0.044258496001147778 0.063884183083345675 0 0.034062632092931817 0.061255223706808547 0 0.034616451435572633 0.051242168749322393 0 0.044258496001147778 0.063884183083345675 0 0.025434983742737761 0.055249644843112657 0 0.034062632092931817 0.061255223706808547 0 0.034616451435572633 0.051242168749322393 0 0.022626785018342459 0.038544513255683338 0 0.044511166426612833 0.04831055102324476 0 0.022626785018342459 0.038544513255683338 0 0.034616451435572633 0.051242168749322393 0 0.044511166426612833 0.04831055102324476 0 0.022626785018342459 0.038544513255683338 0 0.044511166426612833 0.04831055102324476 0 0.037630953216902623 0.033668105561091018 0 0.044511166426612833 0.04831055102324476 0 0.037630953216902623 0.033668105561091018 0 0.0484135161167236 0.034205204957136963 0 0.0484135161167236 0.034205204957136963 0 0.060669767880595721 0.038134724015348051 0 0.0518117103670514 0.042737821036878322 0 0.0484135161167236 0.034205204957136963 0 0.060669767880595721 0.038134724015348051 0 0.057623658326613529 0.02352368721002385 0 0.060669767880595721 0.038134724015348051 0 0.0518117103670514 0.042737821036878322 0 0.059559274975242667 0.047504887075434543 0 0.044511166426612833 0.04831055102324476 0 0.0518117103670514 0.042737821036878322 0 0.059559274975242667 0.047504887075434543 0 0.044511166426612833 0.04831055102324476 0 0.0484135161167236 0.034205204957136963 0 0.0518117103670514 0.042737821036878322 0 0.044511166426612833 0.04831055102324476 0 0.066395547834883203 0.05807658879080619 0 0.060132464308973767 0.062986029428160187 0 0.034616451435572633 0.051242168749322393 0 0.060132464308973767 0.062986029428160187 0 0.044511166426612833 0.04831055102324476 0 0.066395547834883203 0.05807658879080619 0 0.044511166426612833 0.04831055102324476 0 0.059559274975242667 0.047504887075434543 0 0.066395547834883203 0.05807658879080619 0 0.034885408484197772 0.0062912350017927032 0 0.052968053050369737 0.0090809173488315582 0 0.042517259973231587 -0.011683923625132649 0 0.034885408484197772 0.0062912350017927032 0 0.043580831547224863 0.021565365261707499 0 0.052968053050369737 0.0090809173488315582 0 0.029022466975609298 0.02571489330768258 0 0.034885408484197772 0.0062912350017927032 0 0.043580831547224863 0.021565365261707499 0 0.029022466975609298 0.02571489330768258 0 0.037630953216902623 0.033668105561091018 0 0.043580831547224863 0.021565365261707499 0 0.037630953216902623 0.033668105561091018 0 0.0484135161167236 0.034205204957136963 0 0.043580831547224863 0.021565365261707499 0 0.057623658326613529 0.02352368721002385 0 0.052968053050369737 0.0090809173488315582 0 0.071708216805815503 0.016768608491387289 0 0.043580831547224863 0.021565365261707499 0 0.057623658326613529 0.02352368721002385 0 0.052968053050369737 0.0090809173488315582 0 0.0484135161167236 0.034205204957136963 0 0.043580831547224863 0.021565365261707499 0 0.057623658326613529 0.02352368721002385 0 0.052968053050369737 0.0090809173488315582 0 0.071708216805815503 0.016768608491387289 0 0.067492943165135169 -0.0019794682467893379 0 0.083930998993742512 0.0059737405228527038 0 0.071708216805815503 0.016768608491387289 0 0.067492943165135169 -0.0019794682467893379 0 0.083930998993742512 0.0059737405228527038 0 0.098495163759696414 0.0029673617968291321 0 0.094917995650245529 0.021722354499223519 0 0.083930998993742512 0.0059737405228527038 0 0.071708216805815503 0.016768608491387289 0 0.094917995650245529 0.021722354499223519 0 0.071708216805815503 0.016768608491387289 0 0.07449934060461412 0.03258063005354956 0 0.094917995650245529 0.021722354499223519 0 0.07449934060461412 0.03258063005354956 0 0.087237150257314613 0.037926204838731957 0 0.094917995650245529 0.021722354499223519 0 0.057623658326613529 0.02352368721002385 0 0.071708216805815503 0.016768608491387289 0 0.07449934060461412 0.03258063005354956 0 0.060669767880595721 0.038134724015348051 0 0.057623658326613529 0.02352368721002385 0 0.07449934060461412 0.03258063005354956 0 0.060669767880595721 0.038134724015348051 0 0.069155187538762042 0.045022305850501279 0 0.07449934060461412 0.03258063005354956 0 0.060669767880595721 0.038134724015348051 0 0.059559274975242667 0.047504887075434543 0 0.069155187538762042 0.045022305850501279 0 0.069155187538762042 0.045022305850501279 0 0.07449934060461412 0.03258063005354956 0 0.079692196512252927 0.044953406994506007 0 0.059559274975242667 0.047504887075434543 0 0.069155187538762042 0.045022305850501279 0 0.067326156772233525 0.050603546620565112 0 0.059559274975242667 0.047504887075434543 0 0.066395547834883203 0.05807658879080619 0 0.067326156772233525 0.050603546620565112 0 0.066395547834883203 0.05807658879080619 0 0.067326156772233525 0.050603546620565112 0 0.074194616740046182 0.051810404765518438 0 0.069155187538762042 0.045022305850501279 0 0.067326156772233525 0.050603546620565112 0 0.074194616740046182 0.051810404765518438 0 0.069155187538762042 0.045022305850501279 0 0.074194616740046182 0.051810404765518438 0 0.079692196512252927 0.044953406994506007 0 0.066395547834883203 0.05807658879080619 0 0.074194616740046182 0.051810404765518438 0 0.080343143758095259 0.058335218209008277 0 0.066395547834883203 0.05807658879080619 0 0.080343143758095259 0.058335218209008277 0 0.08827992924315356 0.067842626558367619 0 0.080343143758095259 0.058335218209008277 0 0.083306510346727383 0.05351440315152866 0 0.090416084875221875 0.058235299142909973 0 0.074194616740046182 0.051810404765518438 0 0.083306510346727383 0.05351440315152866 0 0.079692196512252927 0.044953406994506007 0 0.083306510346727383 0.05351440315152866 0 0.089760373586053266 0.048866493307206167 0 0.079692196512252927 0.044953406994506007 0 0.074194616740046182 0.051810404765518438 0 0.080343143758095259 0.058335218209008277 0 0.083306510346727383 0.05351440315152866 0 0.083306510346727383 0.05351440315152866 0 0.089760373586053266 0.048866493307206167 0 0.090416084875221875 0.058235299142909973 0 0.089760373586053266 0.048866493307206167 0 0.090416084875221875 0.058235299142909973 0 0.099395501669828634 0.055681054702382278 0 0.080343143758095259 0.058335218209008277 0 0.090416084875221875 0.058235299142909973 0 0.08827992924315356 0.067842626558367619 0 0.087237150257314613 0.037926204838731957 0 0.098930039005792711 0.04227996871225087 0 0.094917995650245529 0.021722354499223519 0 0.07449934060461412 0.03258063005354956 0 0.079692196512252927 0.044953406994506007 0 0.087237150257314613 0.037926204838731957 0 0.089760373586053266 0.048866493307206167 0 0.079692196512252927 0.044953406994506007 0 0.087237150257314613 0.037926204838731957 0 0.089760373586053266 0.048866493307206167 0 0.087237150257314613 0.037926204838731957 0 0.098930039005792711 0.04227996871225087 0 0.10894092886672049 0.033503019923715648 0 0.098930039005792711 0.04227996871225087 0 0.11550376979223601 0.054551475820320147 0 0.10894092886672049 0.033503019923715648 0 0.098930039005792711 0.04227996871225087 0 0.094917995650245529 0.021722354499223519 0 0.098930039005792711 0.04227996871225087 0 0.099395501669828634 0.055681054702382278 0 0.11550376979223601 0.054551475820320147 0 0.099395501669828634 0.055681054702382278 0 0.11550376979223601 0.054551475820320147 0 0.10561354398445311 0.069921878226714862 0 0.090416084875221875 0.058235299142909973 0 0.099395501669828634 0.055681054702382278 0 0.095618088847860577 0.065038419849084594 0 0.089760373586053266 0.048866493307206167 0 0.098930039005792711 0.04227996871225087 0 0.099395501669828634 0.055681054702382278 0 0.10894092886672049 0.033503019923715648 0 0.11961069471150609 0.02296590295220987 0 0.12977361784467401 0.039215218793308727 0 0.10894092886672049 0.033503019923715648 0 0.11550376979223601 0.054551475820320147 0 0.12977361784467401 0.039215218793308727 0 0.11961069471150609 0.02296590295220987 0 0.1158546052028349 0.0064685721448778594 0 0.094917995650245529 0.021722354499223519 0 0.11961069471150609 0.02296590295220987 0 0.1158546052028349 0.0064685721448778594 0 0.13894824890776639 0.02136224913872127 0 0.1158546052028349 0.0064685721448778594 0 0.098495163759696414 0.0029673617968291321 0 0.094917995650245529 0.021722354499223519 0 0.10894092886672049 0.033503019923715648 0 0.11961069471150609 0.02296590295220987 0 0.094917995650245529 0.021722354499223519 0 0.097728221435088053 0.099184528615223033 0 0.110275064223293 0.10236359857942121 0 0.11116449005577619 0.086473750785835857 0 0.099894961061174667 0.1104201015940532 0 0.11150799601301251 0.1117412241471519 0 0.110275064223293 0.10236359857942121 0 0.097728221435088053 0.099184528615223033 0 0.099894961061174667 0.1104201015940532 0 0.110275064223293 0.10236359857942121 0 0.097728221435088053 0.099184528615223033 0 0.099894961061174667 0.1104201015940532 0 0.084925795867796111 0.1103515185161017 0 0.099894961061174667 0.1104201015940532 0 0.096984900528893664 0.1212489081817222 0 0.084925795867796111 0.1103515185161017 0 0.099894961061174667 0.1104201015940532 0 0.096984900528893664 0.1212489081817222 0 0.10712684862241641 0.1210429748963526 0 0.096984900528893664 0.1212489081817222 0 0.10712684862241641 0.1210429748963526 0 0.10589272808503949 0.13156516273042271 0 0.099894961061174667 0.1104201015940532 0 0.10712684862241641 0.1210429748963526 0 0.11150799601301251 0.1117412241471519 0 0.10712684862241641 0.1210429748963526 0 0.11150799601301251 0.1117412241471519 0 0.1187293914863337 0.1182846474287873 0 0.11150799601301251 0.1117412241471519 0 0.1187293914863337 0.1182846474287873 0 0.1197878353292403 0.1092484053650479 0 0.10712684862241641 0.1210429748963526 0 0.1187293914863337 0.1182846474287873 0 0.114987521205969 0.1268010028982309 0 0.1187293914863337 0.1182846474287873 0 0.12813823657366311 0.12049833089676459 0 0.12624189261331301 0.1140678077034443 0 0.1187293914863337 0.1182846474287873 0 0.12212988809696081 0.1249307776834532 0 0.12813823657366311 0.12049833089676459 0 0.1187293914863337 0.1182846474287873 0 0.12212988809696081 0.1249307776834532 0 0.114987521205969 0.1268010028982309 0 0.1187293914863337 0.1182846474287873 0 0.1197878353292403 0.1092484053650479 0 0.12624189261331301 0.1140678077034443 0 0.1216961693062274 0.1020981758197984 0 0.110275064223293 0.10236359857942121 0 0.11116449005577619 0.086473750785835857 0 0.1197878353292403 0.1092484053650479 0 0.1216961693062274 0.1020981758197984 0 0.1302764983332621 0.10693497851168419 0 0.1216961693062274 0.1020981758197984 0 0.11116449005577619 0.086473750785835857 0 0.13668050292917741 0.098217611464673699 0 0.1197878353292403 0.1092484053650479 0 0.1216961693062274 0.1020981758197984 0 0.110275064223293 0.10236359857942121 0 0.11150799601301251 0.1117412241471519 0 0.1197878353292403 0.1092484053650479 0 0.110275064223293 0.10236359857942121 0 0.11116449005577619 0.086473750785835857 0 0.1207366242219714 0.074251990558816788 0 0.1300820653953097 0.084166932106396392 0 0.11116449005577619 0.086473750785835857 0 0.13668050292917741 0.098217611464673699 0 0.11116449005577619 0.086473750785835857 0 0.1207366242219714 0.074251990558816788 0 0.10561354398445311 0.069921878226714862 0 0.11550376979223601 0.054551475820320147 0 0.1207366242219714 0.074251990558816788 0 0.13255022158949201 0.068763676371196639 0 0.11550376979223601 0.054551475820320147 0 0.1207366242219714 0.074251990558816788 0 0.10561354398445311 0.069921878226714862 0 0.11116449005577619 0.086473750785835857 0 0.10561354398445311 0.069921878226714862 0 0.085648477182374977 0.074729890106998029 0 0.10561354398445311 0.069921878226714862 0 0.095618088847860577 0.065038419849084594 0 0.085648477182374977 0.074729890106998029 0 0.099395501669828634 0.055681054702382278 0 0.10561354398445311 0.069921878226714862 0 0.095618088847860577 0.065038419849084594 0 0.11116449005577619 0.086473750785835857 0 0.085648477182374977 0.074729890106998029 0 0.11116449005577619 0.086473750785835857 0 0.090808031879269946 0.087622927320568048 0 0.085648477182374977 0.074729890106998029 0 0.097728221435088053 0.099184528615223033 0 0.11116449005577619 0.086473750785835857 0 0.090808031879269946 0.087622927320568048 0 0.097728221435088053 0.099184528615223033 0 0.090808031879269946 0.087622927320568048 0 0.080235742217082393 0.093435287859391092 0 0.090808031879269946 0.087622927320568048 0 0.078675001300488379 0.083882301042573534 0 0.085648477182374977 0.074729890106998029 0 0.090808031879269946 0.087622927320568048 0 0.078675001300488379 0.083882301042573534 0 0.080235742217082393 0.093435287859391092 0 0.066395547834883203 0.05807658879080619 0 0.08827992924315356 0.067842626558367619 0 0.085648477182374977 0.074729890106998029 0 0.095618088847860577 0.065038419849084594 0 0.08827992924315356 0.067842626558367619 0 0.085648477182374977 0.074729890106998029 0 0.090416084875221875 0.058235299142909973 0 0.095618088847860577 0.065038419849084594 0 0.08827992924315356 0.067842626558367619 0 0.066395547834883203 0.05807658879080619 0 0.085648477182374977 0.074729890106998029 0 0.060132464308973767 0.062986029428160187 0 0.066395547834883203 0.05807658879080619 0 0.08827992924315356 0.067842626558367619 0 0.085648477182374977 0.074729890106998029 0 0.068637102026180674 0.07792917868559901 0 0.060132464308973767 0.062986029428160187 0 0.085648477182374977 0.074729890106998029 0 0.060132464308973767 0.062986029428160187 0 0.078675001300488379 0.083882301042573534 0 0.085648477182374977 0.074729890106998029 0 0.068637102026180674 0.07792917868559901 0 0.080235742217082393 0.093435287859391092 0 0.069503799956795384 0.087722797055870286 0 0.068523875558259784 0.095111972458496966 0 0.078675001300488379 0.083882301042573534 0 0.080235742217082393 0.093435287859391092 0 0.069503799956795384 0.087722797055870286 0 0.078675001300488379 0.083882301042573534 0 0.068637102026180674 0.07792917868559901 0 0.069503799956795384 0.087722797055870286 0 0.068637102026180674 0.07792917868559901 0 0.069503799956795384 0.087722797055870286 0 0.060111091978902922 0.083782113849914977 0 0.069503799956795384 0.087722797055870286 0 0.06135777996986308 0.093915161513068182 0 0.060111091978902922 0.083782113849914977 0 0.069503799956795384 0.087722797055870286 0 0.068523875558259784 0.095111972458496966 0 0.06135777996986308 0.093915161513068182 0 0.068523875558259784 0.095111972458496966 0 0.071520258741129425 0.10189571548122769 0 0.062413973273008162 0.1018934272394761 0 0.068523875558259784 0.095111972458496966 0 0.062413973273008162 0.1018934272394761 0 0.06135777996986308 0.093915161513068182 0 0.071520258741129425 0.10189571548122769 0 0.072821304814728441 0.1108529925529516 0 0.063718101814298073 0.11016590081819259 0 0.071520258741129425 0.10189571548122769 0 0.063718101814298073 0.11016590081819259 0 0.062413973273008162 0.1018934272394761 0 0.071520258741129425 0.10189571548122769 0 0.084925795867796111 0.1103515185161017 0 0.072821304814728441 0.1108529925529516 0 0.080235742217082393 0.093435287859391092 0 0.068523875558259784 0.095111972458496966 0 0.071520258741129425 0.10189571548122769 0 0.097728221435088053 0.099184528615223033 0 0.080235742217082393 0.093435287859391092 0 0.084925795867796111 0.1103515185161017 0 0.080235742217082393 0.093435287859391092 0 0.071520258741129425 0.10189571548122769 0 0.084925795867796111 0.1103515185161017 0 0.084925795867796111 0.1103515185161017 0 0.074154959480044275 0.1204842858357125 0 0.087075880893963842 0.12621803440601359 0 0.096984900528893664 0.1212489081817222 0 0.084925795867796111 0.1103515185161017 0 0.087075880893963842 0.12621803440601359 0 0.084925795867796111 0.1103515185161017 0 0.074154959480044275 0.1204842858357125 0 0.072821304814728441 0.1108529925529516 0 0.074154959480044275 0.1204842858357125 0 0.072821304814728441 0.1108529925529516 0 0.063718101814298073 0.11016590081819259 0 0.074154959480044275 0.1204842858357125 0 0.063718101814298073 0.11016590081819259 0 0.060124536552058239 0.11864948812996751 0 0.074154959480044275 0.1204842858357125 0 0.060124536552058239 0.11864948812996751 0 0.061109117960118017 0.12720913792676911 0 0.060124536552058239 0.11864948812996751 0 0.052595679859244633 0.1236025024456274 0 0.054913207086597561 0.11271600588853189 0 0.060124536552058239 0.11864948812996751 0 0.052595679859244633 0.1236025024456274 0 0.061109117960118017 0.12720913792676911 0 0.052595679859244633 0.1236025024456274 0 0.054913207086597561 0.11271600588853189 0 0.046771683079868627 0.1089772416004138 0 0.063718101814298073 0.11016590081819259 0 0.060124536552058239 0.11864948812996751 0 0.054913207086597561 0.11271600588853189 0 0.063718101814298073 0.11016590081819259 0 0.062413973273008162 0.1018934272394761 0 0.053620768430252298 0.1031656988462608 0 0.063718101814298073 0.11016590081819259 0 0.054913207086597561 0.11271600588853189 0 0.053620768430252298 0.1031656988462608 0 0.06135777996986308 0.093915161513068182 0 0.053620768430252298 0.1031656988462608 0 0.051535176025136201 0.090416251810209708 0 0.062413973273008162 0.1018934272394761 0 0.06135777996986308 0.093915161513068182 0 0.053620768430252298 0.1031656988462608 0 0.053620768430252298 0.1031656988462608 0 0.042875633238578528 0.09739353282270094 0 0.051535176025136201 0.090416251810209708 0 0.053620768430252298 0.1031656988462608 0 0.046771683079868627 0.1089772416004138 0 0.042875633238578528 0.09739353282270094 0 0.054913207086597561 0.11271600588853189 0 0.053620768430252298 0.1031656988462608 0 0.046771683079868627 0.1089772416004138 0 0.046771683079868627 0.1089772416004138 0 0.042875633238578528 0.09739353282270094 0 0.034382595390138257 0.1099700727945534 0 0.042875633238578528 0.09739353282270094 0 0.034382595390138257 0.1099700727945534 0 0.030708755379597181 0.088685576768743155 0 0.034382595390138257 0.1099700727945534 0 0.030708755379597181 0.088685576768743155 0 0.052595679859244633 0.1236025024456274 0 0.046771683079868627 0.1089772416004138 0 0.034382595390138257 0.1099700727945534 0 0.034382595390138257 0.1099700727945534 0 0.02520709702204247 0.1232263280856261 0 0.037354296692750887 0.12718670835402709 0 0.052595679859244633 0.1236025024456274 0 0.034382595390138257 0.1099700727945534 0 0.037354296692750887 0.12718670835402709 0 0.034382595390138257 0.1099700727945534 0 0.037354296692750887 0.12718670835402709 0 0.052595679859244633 0.1236025024456274 0 0.034382595390138257 0.1099700727945534 0 0.060132464308973767 0.062986029428160187 0 0.051537231586459821 0.0703604747810012 0 0.044258496001147778 0.063884183083345675 0 0.051537231586459821 0.0703604747810012 0 0.045053238281461433 0.071665999821029613 0 0.044258496001147778 0.063884183083345675 0 0.060132464308973767 0.062986029428160187 0 0.058160070023191839 0.074213970699792686 0 0.051537231586459821 0.0703604747810012 0 0.068637102026180674 0.07792917868559901 0 0.060132464308973767 0.062986029428160187 0 0.058160070023191839 0.074213970699792686 0 0.051537231586459821 0.0703604747810012 0 0.049495561811348857 0.078896267932753172 0 0.045053238281461433 0.071665999821029613 0 0.058160070023191839 0.074213970699792686 0 0.051537231586459821 0.0703604747810012 0 0.049495561811348857 0.078896267932753172 0 0.049495561811348857 0.078896267932753172 0 0.051535176025136201 0.090416251810209708 0 0.041750220721871581 0.085344735896560275 0 0.049495561811348857 0.078896267932753172 0 0.060111091978902922 0.083782113849914977 0 0.051535176025136201 0.090416251810209708 0 0.068637102026180674 0.07792917868559901 0 0.058160070023191839 0.074213970699792686 0 0.060111091978902922 0.083782113849914977 0 0.058160070023191839 0.074213970699792686 0 0.049495561811348857 0.078896267932753172 0 0.060111091978902922 0.083782113849914977 0 0.06135777996986308 0.093915161513068182 0 0.060111091978902922 0.083782113849914977 0 0.051535176025136201 0.090416251810209708 0 0.042875633238578528 0.09739353282270094 0 0.051535176025136201 0.090416251810209708 0 0.041750220721871581 0.085344735896560275 0 0.042875633238578528 0.09739353282270094 0 0.041750220721871581 0.085344735896560275 0 0.030708755379597181 0.088685576768743155 0 0.041750220721871581 0.085344735896560275 0 0.037489048909448763 0.07466528487264068 0 0.030708755379597181 0.088685576768743155 0 0.049495561811348857 0.078896267932753172 0 0.041750220721871581 0.085344735896560275 0 0.037489048909448763 0.07466528487264068 0 0.037489048909448763 0.07466528487264068 0 0.02703491536905472 0.067401080742933134 0 0.030708755379597181 0.088685576768743155 0 0.049495561811348857 0.078896267932753172 0 0.045053238281461433 0.071665999821029613 0 0.037489048909448763 0.07466528487264068 0 0.045053238281461433 0.071665999821029613 0 0.037489048909448763 0.07466528487264068 0 0.037579666130808903 0.067774354445351542 0 0.034062632092931817 0.061255223706808547 0 0.037579666130808903 0.067774354445351542 0 0.02703491536905472 0.067401080742933134 0 0.037489048909448763 0.07466528487264068 0 0.037579666130808903 0.067774354445351542 0 0.02703491536905472 0.067401080742933134 0 0.034062632092931817 0.061255223706808547 0 0.037579666130808903 0.067774354445351542 0 0.044258496001147778 0.063884183083345675 0 0.045053238281461433 0.071665999821029613 0 0.037579666130808903 0.067774354445351542 0 0.044258496001147778 0.063884183083345675 0 0.02703491536905472 0.067401080742933134 0 0.030708755379597181 0.088685576768743155 0 0.01366790099406239 0.052632887419703241 0 0.026593398378051959 0.076487299351285121 0 0.01366790099406239 0.052632887419703241 0 0.02703491536905472 0.067401080742933134 0 0.026593398378051959 0.076487299351285121 0 0.02703491536905472 0.067401080742933134 0 0.026593398378051959 0.076487299351285121 0 0.030708755379597181 0.088685576768743155 0 0.01366790099406239 0.052632887419703241 0 0.026593398378051959 0.076487299351285121 0 0.01611389888654503 0.070322973248010373 0 0.026593398378051959 0.076487299351285121 0 0.01611389888654503 0.070322973248010373 0 0.01767063525815666 0.080500261616376856 0 0.01767063525815666 0.080500261616376856 0 0.030708755379597181 0.088685576768743155 0 0.011643404763696401 0.092949868607662828 0 0.026593398378051959 0.076487299351285121 0 0.01767063525815666 0.080500261616376856 0 0.030708755379597181 0.088685576768743155 0 0.01767063525815666 0.080500261616376856 0 0.011643404763696401 0.092949868607662828 0 0.0065236609159091173 0.071671444604676282 0 -0.01109578586274463 0.07592966442077155 0 0.011643404763696401 0.092949868607662828 0 0.0065236609159091173 0.071671444604676282 0 -0.01109578586274463 0.07592966442077155 0 0.011643404763696401 0.092949868607662828 0 0.01366790099406239 0.052632887419703241 0 0.01611389888654503 0.070322973248010373 0 0.0065236609159091173 0.071671444604676282 0 0.01611389888654503 0.070322973248010373 0 0.01767063525815666 0.080500261616376856 0 0.0065236609159091173 0.071671444604676282 0 -0.0031702267477386531 0.067180855403790804 0 0.00079413703044923156 0.058803151297745167 0 0.0065236609159091173 0.071671444604676282 0 0.034382595390138257 0.1099700727945534 0 0.02520709702204247 0.1232263280856261 0 0.01356063639681436 0.11371506303709419 0 0.02520709702204247 0.1232263280856261 0 0.01356063639681436 0.11371506303709419 0 0.011098566836083609 0.13484946890849181 0 0.034382595390138257 0.1099700727945534 0 0.011643404763696401 0.092949868607662828 0 0.01356063639681436 0.11371506303709419 0 0.034382595390138257 0.1099700727945534 0 0.011643404763696401 0.092949868607662828 0 0.034382595390138257 0.1099700727945534 0 0.030708755379597181 0.088685576768743155 0 0.011643404763696401 0.092949868607662828 0 -0.0040088977147468936 0.097024336429998151 0 0.011643404763696401 0.092949868607662828 0 0.0025937760044158291 0.1064596481343341 0 0.011643404763696401 0.092949868607662828 0 0.0025937760044158291 0.1064596481343341 0 0.01356063639681436 0.11371506303709419 0 -0.007175360702145514 0.1155930690216506 0 0.0025937760044158291 0.1064596481343341 0 0.01356063639681436 0.11371506303709419 0 -0.007175360702145514 0.1155930690216506 0 0.01356063639681436 0.11371506303709419 0 0.011098566836083609 0.13484946890849181 0 -0.007175360702145514 0.1155930690216506 0 0.011098566836083609 0.13484946890849181 0 0.02520709702204247 0.1232263280856261 0 0.011098566836083609 0.13484946890849181 0 0.028759663239593541 0.13617761485890201 0 0.02520709702204247 0.1232263280856261 0 0.028759663239593541 0.13617761485890201 0 0.037354296692750887 0.12718670835402709 0 0.011098566836083609 0.13484946890849181 0 0.029372494374312729 0.15410586879533311 0 0.013538337341477229 0.1636201682865295 0 0.011098566836083609 0.13484946890849181 0 0.028759663239593541 0.13617761485890201 0 0.029372494374312729 0.15410586879533311 0 0.011098566836083609 0.13484946890849181 0 0.029372494374312729 0.15410586879533311 0 -0.0048034666842798916 0.1614245706846468 0 0.011098566836083609 0.13484946890849181 0 0.013538337341477229 0.1636201682865295 0 -0.0057956805663459468 0.1892940575843915 0 -0.0048034666842798916 0.1614245706846468 0 0.013538337341477229 0.1636201682865295 0 -0.0057956805663459468 0.1892940575843915 0 0.013538337341477229 0.1636201682865295 0 0.020045678312652242 0.18090880435863019 0 -0.0057956805663459468 0.1892940575843915 0 0.020045678312652242 0.18090880435863019 0 0.029372494374312729 0.15410586879533311 0 0.013538337341477229 0.1636201682865295 0 0.020045678312652242 0.18090880435863019 0 0.029372494374312729 0.15410586879533311 0 0.045887037191650451 0.17252355113286891 0 0.04813315871709322 0.1541455757588851 0 0.029372494374312729 0.15410586879533311 0 0.020045678312652242 0.18090880435863019 0 0.045887037191650451 0.17252355113286891 0 0.020045678312652242 0.18090880435863019 0 0.045887037191650451 0.17252355113286891 0 0.020045678312652242 0.18090880435863019 0 0.045887037191650451 0.17252355113286891 0 0.041991232206495782 0.1919910870650737 0 0.045887037191650451 0.17252355113286891 0 0.060802696405823108 0.1787365445376432 0 0.041991232206495782 0.1919910870650737 0 0.045887037191650451 0.17252355113286891 0 0.071728396070648653 0.1641382979071076 0 0.045887037191650451 0.17252355113286891 0 0.060802696405823108 0.1787365445376432 0 0.071728396070648653 0.1641382979071076 0 0.045887037191650451 0.17252355113286891 0 0.059657673584757237 0.15824269734654939 0 0.04813315871709322 0.1541455757588851 0 0.045887037191650451 0.17252355113286891 0 0.059657673584757237 0.15824269734654939 0 0.071728396070648653 0.1641382979071076 0 0.059657673584757237 0.15824269734654939 0 0.04813315871709322 0.1541455757588851 0 0.060329678829100349 0.1474246815113264 0 0.04813315871709322 0.1541455757588851 0 0.050215372913412007 0.1458935282758238 0 0.060329678829100349 0.1474246815113264 0 0.050215372913412007 0.1458935282758238 0 0.060329678829100349 0.1474246815113264 0 0.052072656112092337 0.13760051191958289 0 0.050215372913412007 0.1458935282758238 0 0.052072656112092337 0.13760051191958289 0 0.040325997995362128 0.14440334391350099 0 0.060329678829100349 0.1474246815113264 0 0.062159468211553673 0.13737243366585769 0 0.052072656112092337 0.13760051191958289 0 0.062159468211553673 0.13737243366585769 0 0.054733357378362921 0.13083888414419281 0 0.052072656112092337 0.13760051191958289 0 0.052595679859244633 0.1236025024456274 0 0.054733357378362921 0.13083888414419281 0 0.061109117960118017 0.12720913792676911 0 0.062159468211553673 0.13737243366585769 0 0.054733357378362921 0.13083888414419281 0 0.061109117960118017 0.12720913792676911 0 0.052595679859244633 0.1236025024456274 0 0.054733357378362921 0.13083888414419281 0 0.046346625143134958 0.1312929959830558 0 0.054733357378362921 0.13083888414419281 0 0.052072656112092337 0.13760051191958289 0 0.046346625143134958 0.1312929959830558 0 0.037354296692750887 0.12718670835402709 0 0.040325997995362128 0.14440334391350099 0 0.046346625143134958 0.1312929959830558 0 0.037354296692750887 0.12718670835402709 0 0.040325997995362128 0.14440334391350099 0 0.028759663239593541 0.13617761485890201 0 0.037354296692750887 0.12718670835402709 0 0.040325997995362128 0.14440334391350099 0 0.052072656112092337 0.13760051191958289 0 0.046346625143134958 0.1312929959830558 0 0.040325997995362128 0.14440334391350099 0 0.052595679859244633 0.1236025024456274 0 0.046346625143134958 0.1312929959830558 0 0.037354296692750887 0.12718670835402709 0 0.028759663239593541 0.13617761485890201 0 0.029372494374312729 0.15410586879533311 0 0.040325997995362128 0.14440334391350099 0 0.029372494374312729 0.15410586879533311 0 0.04813315871709322 0.1541455757588851 0 0.040325997995362128 0.14440334391350099 0 0.04813315871709322 0.1541455757588851 0 0.050215372913412007 0.1458935282758238 0 0.040325997995362128 0.14440334391350099 0 0.025149977659741599 0.24684982625080901 0 0.00014186162909880781 0.2338185852574263 0 0.02177620002751179 0.22559840920251981 0 0.025149977659741599 0.24684982625080901 0 0.00014186162909880781 0.2338185852574263 0 0.025149977659741599 0.24684982625080901 0 0.00014186162909880781 0.2338185852574263 0 0.0073806355134042019 0.25529449578482938 0 0.00014186162909880781 0.2338185852574263 0 0.02177620002751179 0.22559840920251981 0 0.0090806704795409685 0.20996839310177981 0 0.025149977659741599 0.24684982625080901 0 0.02177620002751179 0.22559840920251981 0 0.039960986899899173 0.22780444499479169 0 0.02177620002751179 0.22559840920251981 0 0.0090806704795409685 0.20996839310177981 0 0.034547503469278373 0.20955079640779209 0 0.0090806704795409685 0.20996839310177981 0 0.02162293693503077 0.1981024475624624 0 0.034547503469278373 0.20955079640779209 0 -0.0057956805663459468 0.1892940575843915 0 0.0090806704795409685 0.20996839310177981 0 0.02162293693503077 0.1981024475624624 0 -0.0057956805663459468 0.1892940575843915 0 0.020045678312652242 0.18090880435863019 0 0.02162293693503077 0.1981024475624624 0 0.020045678312652242 0.18090880435863019 0 0.02162293693503077 0.1981024475624624 0 0.041991232206495782 0.1919910870650737 0 0.02162293693503077 0.1981024475624624 0 0.041991232206495782 0.1919910870650737 0 0.034547503469278373 0.20955079640779209 0 0.041991232206495782 0.1919910870650737 0 0.05849467095877426 0.1965416733816682 0 0.050764695011206777 0.20916964222725651 0 0.060802696405823108 0.1787365445376432 0 0.041991232206495782 0.1919910870650737 0 0.05849467095877426 0.1965416733816682 0 0.050764695011206777 0.20916964222725651 0 0.066981886553135278 0.20878848804672309 0 0.05849467095877426 0.1965416733816682 0 0.050764695011206777 0.20916964222725651 0 0.066981886553135278 0.20878848804672309 0 0.050764695011206777 0.20916964222725651 0 0.061514006406540499 0.23071042489022231 0 0.066981886553135278 0.20878848804672309 0 0.050764695011206777 0.20916964222725651 0 0.034547503469278373 0.20955079640779209 0 0.039960986899899173 0.22780444499479169 0 0.050764695011206777 0.20916964222725651 0 0.034547503469278373 0.20955079640779209 0 0.041991232206495782 0.1919910870650737 0 0.050764695011206777 0.20916964222725651 0 0.034547503469278373 0.20955079640779209 0 0.02177620002751179 0.22559840920251981 0 0.034547503469278373 0.20955079640779209 0 0.039960986899899173 0.22780444499479169 0 0.039960986899899173 0.22780444499479169 0 0.061514006406540499 0.23071042489022231 0 0.045472231705318063 0.24424317023843681 0 0.050764695011206777 0.20916964222725651 0 0.039960986899899173 0.22780444499479169 0 0.061514006406540499 0.23071042489022231 0 0.061514006406540499 0.23071042489022231 0 0.056046126259945157 0.25263236173372139 0 0.061514006406540499 0.23071042489022231 0 0.056046126259945157 0.25263236173372139 0 0.067905867336300579 0.25358800162702 0 0.061514006406540499 0.23071042489022231 0 0.045472231705318063 0.24424317023843681 0 0.056046126259945157 0.25263236173372139 0 0.025149977659741599 0.24684982625080901 0 0.039960986899899173 0.22780444499479169 0 0.045472231705318063 0.24424317023843681 0 0.092857250133516089 0.24175825718487831 0 0.078525547080241467 0.2465942846531784 0 0.093798877441032588 0.2579700649065903 0 0.092857250133516089 0.24175825718487831 0 0.078525547080241467 0.2465942846531784 0 0.081986142109724491 0.22560265144644431 0 0.061514006406540499 0.23071042489022231 0 0.078525547080241467 0.2465942846531784 0 0.067905867336300579 0.25358800162702 0 0.061514006406540499 0.23071042489022231 0 0.078525547080241467 0.2465942846531784 0 0.081986142109724491 0.22560265144644431 0 0.061514006406540499 0.23071042489022231 0 0.081986142109724491 0.22560265144644431 0 0.066981886553135278 0.20878848804672309 0 0.061514006406540499 0.23071042489022231 0 0.066981886553135278 0.20878848804672309 0 0.081986142109724491 0.22560265144644431 0 0.09236794217301933 0.20819183719001669 0 0.066981886553135278 0.20878848804672309 0 0.09236794217301933 0.20819183719001669 0 0.066981886553135278 0.20878848804672309 0 0.09236794217301933 0.20819183719001669 0 0.066981886553135278 0.20878848804672309 0 0.071445073857882777 0.19089458628000441 0 0.060802696405823108 0.1787365445376432 0 0.05849467095877426 0.1965416733816682 0 0.071445073857882777 0.19089458628000441 0 0.066981886553135278 0.20878848804672309 0 0.071445073857882777 0.19089458628000441 0 0.05849467095877426 0.1965416733816682 0 0.066981886553135278 0.20878848804672309 0 0.071445073857882777 0.19089458628000441 0 0.09236794217301933 0.20819183719001669 0 0.071445073857882777 0.19089458628000441 0 0.086464584236575506 0.1862285865309723 0 0.09236794217301933 0.20819183719001669 0 0.086464584236575506 0.1862285865309723 0 0.1023855527362314 0.18749689463882899 0 0.09236794217301933 0.20819183719001669 0 0.11775399779290339 0.20759518633331239 0 0.1023855527362314 0.18749689463882899 0 0.11775399779290339 0.20759518633331239 0 0.1023855527362314 0.18749689463882899 0 0.12550986450034471 0.186594373040398 0 0.09236794217301933 0.20819183719001669 0 0.11775399779290339 0.20759518633331239 0 0.09236794217301933 0.20819183719001669 0 0.11775399779290339 0.20759518633331239 0 0.10906069526472741 0.22998953009969161 0 0.092857250133516089 0.24175825718487831 0 0.081986142109724491 0.22560265144644431 0 0.10906069526472741 0.22998953009969161 0 0.081986142109724491 0.22560265144644431 0 0.09236794217301933 0.20819183719001669 0 0.10906069526472741 0.22998953009969161 0 0.11775399779290339 0.20759518633331239 0 0.10906069526472741 0.22998953009969161 0 0.1382648444377183 0.22719855966067881 0 0.10906069526472741 0.22998953009969161 0 0.12787711237058769 0.24521089126939841 0 0.1100607559553454 0.25396994184181759 0 0.092857250133516089 0.24175825718487831 0 0.10906069526472741 0.22998953009969161 0 0.1100607559553454 0.25396994184181759 0 0.081151633673542972 0.15313158297098389 0 0.083920606388658545 0.14050817004821939 0 0.0975697549496468 0.15575304468134629 0 0.081151633673542972 0.15313158297098389 0 0.083920606388658545 0.14050817004821939 0 0.071387777285217918 0.15212681924726251 0 0.074154959480044275 0.1204842858357125 0 0.087075880893963842 0.12621803440601359 0 0.083920606388658545 0.14050817004821939 0 0.087075880893963842 0.12621803440601359 0 0.083920606388658545 0.14050817004821939 0 0.097906888154765004 0.1362305538396491 0 0.062159468211553673 0.13737243366585769 0 0.061109117960118017 0.12720913792676911 0 0.083920606388658545 0.14050817004821939 0 0.074154959480044275 0.1204842858357125 0 0.061109117960118017 0.12720913792676911 0 0.083920606388658545 0.14050817004821939 0 0.061109117960118017 0.12720913792676911 0 0.083920606388658545 0.14050817004821939 0 0.062159468211553673 0.13737243366585769 0 0.083920606388658545 0.14050817004821939 0 0.069449382678632612 0.1443580261181665 0 0.060329678829100349 0.1474246815113264 0 0.062159468211553673 0.13737243366585769 0 0.069449382678632612 0.1443580261181665 0 0.060329678829100349 0.1474246815113264 0 0.069449382678632612 0.1443580261181665 0 0.071387777285217918 0.15212681924726251 0 0.083920606388658545 0.14050817004821939 0 0.069449382678632612 0.1443580261181665 0 0.071387777285217918 0.15212681924726251 0 0.059657673584757237 0.15824269734654939 0 0.060329678829100349 0.1474246815113264 0 0.071387777285217918 0.15212681924726251 0 0.059657673584757237 0.15824269734654939 0 0.071387777285217918 0.15212681924726251 0 0.071728396070648653 0.1641382979071076 0 0.081151633673542972 0.15313158297098389 0 0.071387777285217918 0.15212681924726251 0 0.071728396070648653 0.1641382979071076 0 0.071445073857882777 0.19089458628000441 0 0.075908261162629706 0.17300068451328551 0 0.086464584236575506 0.1862285865309723 0 0.060802696405823108 0.1787365445376432 0 0.071445073857882777 0.19089458628000441 0 0.075908261162629706 0.17300068451328551 0 0.071445073857882777 0.19089458628000441 0 0.075908261162629706 0.17300068451328551 0 0.060802696405823108 0.1787365445376432 0 0.071728396070648653 0.1641382979071076 0 0.075908261162629706 0.17300068451328551 0 0.086464584236575506 0.1862285865309723 0 0.090216091253114361 0.17155893003272579 0 0.1023855527362314 0.18749689463882899 0 0.075908261162629706 0.17300068451328551 0 0.086464584236575506 0.1862285865309723 0 0.090216091253114361 0.17155893003272579 0 0.081151633673542972 0.15313158297098389 0 0.071728396070648653 0.1641382979071076 0 0.0975697549496468 0.15575304468134629 0 0.071728396070648653 0.1641382979071076 0 0.090216091253114361 0.17155893003272579 0 0.0975697549496468 0.15575304468134629 0 0.071728396070648653 0.1641382979071076 0 0.075908261162629706 0.17300068451328551 0 0.090216091253114361 0.17155893003272579 0 0.071728396070648653 0.1641382979071076 0 0.0975697549496468 0.15575304468134629 0 0.090216091253114361 0.17155893003272579 0 0.1064810698159025 0.16893633516972181 0 0.0975697549496468 0.15575304468134629 0 0.1064810698159025 0.16893633516972181 0 0.1067320948171991 0.1538072021696697 0 0.0975697549496468 0.15575304468134629 0 0.090216091253114361 0.17155893003272579 0 0.1064810698159025 0.16893633516972181 0 0.1023855527362314 0.18749689463882899 0 0.1064810698159025 0.16893633516972181 0 0.12954358324573961 0.16710623429112001 0 0.12550986450034471 0.186594373040398 0 0.1064810698159025 0.16893633516972181 0 0.1023855527362314 0.18749689463882899 0 0.12550986450034471 0.186594373040398 0 0.1064810698159025 0.16893633516972181 0 0.1067320948171991 0.1538072021696697 0 0.12954358324573961 0.16710623429112001 0 0.1067320948171991 0.1538072021696697 0 0.1262856736452258 0.1537478882528979 0 0.12954358324573961 0.16710623429112001 0 0.1067320948171991 0.1538072021696697 0 0.12954358324573961 0.16710623429112001 0 0.1148569119608701 0.14824987142416859 0 0.1067320948171991 0.1538072021696697 0 0.1262856736452258 0.1537478882528979 0 0.118317888191051 0.14254191757659121 0 0.1148569119608701 0.14824987142416859 0 0.1262856736452258 0.1537478882528979 0 0.118317888191051 0.14254191757659121 0 0.12756241452120801 0.13893694775055651 0 0.1262856736452258 0.1537478882528979 0 0.1148569119608701 0.14824987142416859 0 0.1067320948171991 0.1538072021696697 0 0.1080919911900045 0.14290247769751591 0 0.118317888191051 0.14254191757659121 0 0.1148569119608701 0.14824987142416859 0 0.1080919911900045 0.14290247769751591 0 0.083920606388658545 0.14050817004821939 0 0.1067320948171991 0.1538072021696697 0 0.1067320948171991 0.1538072021696697 0 0.1080919911900045 0.14290247769751591 0 0.097906888154765004 0.1362305538396491 0 0.083920606388658545 0.14050817004821939 0 0.1067320948171991 0.1538072021696697 0 0.097906888154765004 0.1362305538396491 0 0.083920606388658545 0.14050817004821939 0 0.1067320948171991 0.1538072021696697 0 0.0975697549496468 0.15575304468134629 0 0.096984900528893664 0.1212489081817222 0 0.097906888154765004 0.1362305538396491 0 0.10589272808503949 0.13156516273042271 0 0.096984900528893664 0.1212489081817222 0 0.087075880893963842 0.12621803440601359 0 0.097906888154765004 0.1362305538396491 0 0.1080919911900045 0.14290247769751591 0 0.097906888154765004 0.1362305538396491 0 0.10589272808503949 0.13156516273042271 0 0.1080919911900045 0.14290247769751591 0 0.10589272808503949 0.13156516273042271 0 0.11327312463209829 0.13597294690712769 0 0.10712684862241641 0.1210429748963526 0 0.10589272808503949 0.13156516273042271 0 0.114987521205969 0.1268010028982309 0 0.10589272808503949 0.13156516273042271 0 0.114987521205969 0.1268010028982309 0 0.11327312463209829 0.13597294690712769 0 0.114987521205969 0.1268010028982309 0 0.11327312463209829 0.13597294690712769 0 0.1203000125167645 0.13336293759413789 0 0.118317888191051 0.14254191757659121 0 0.1080919911900045 0.14290247769751591 0 0.11327312463209829 0.13597294690712769 0 0.118317888191051 0.14254191757659121 0 0.1203000125167645 0.13336293759413789 0 0.12756241452120801 0.13893694775055651 0 0.118317888191051 0.14254191757659121 0 0.11327312463209829 0.13597294690712769 0 0.1203000125167645 0.13336293759413789 0 0.12212988809696081 0.1249307776834532 0 0.114987521205969 0.1268010028982309 0 0.1203000125167645 0.13336293759413789 0 0.12212988809696081 0.1249307776834532 0 0.1203000125167645 0.13336293759413789 0 0.12788127083107459 0.1291064789800366 0 0.12788127083107459 0.1291064789800366 0 0.13409394305489639 0.1257339851238449 0 0.12813823657366311 0.12049833089676459 0 0.12788127083107459 0.1291064789800366 0 0.13410827310584911 0.13282331674432049 0 0.13409394305489639 0.1257339851238449 0 0.12788127083107459 0.1291064789800366 0 0.12756241452120801 0.13893694775055651 0 0.13410827310584911 0.13282331674432049 0 0.1203000125167645 0.13336293759413789 0 0.12788127083107459 0.1291064789800366 0 0.12756241452120801 0.13893694775055651 0 0.13410827310584911 0.13282331674432049 0 0.14295710802469111 0.12768772724150559 0 0.13848136883728299 0.14203914735535511 0 0.12756241452120801 0.13893694775055651 0 0.13410827310584911 0.13282331674432049 0 0.13848136883728299 0.14203914735535511 0 0.13410827310584911 0.13282331674432049 0 0.13409394305489639 0.1257339851238449 0 0.14295710802469111 0.12768772724150559 0 0.14295710802469111 0.12768772724150559 0 0.15698787762036359 0.14007723406829989 0 0.15364605026385231 0.1227496740475859 0 0.14295710802469111 0.12768772724150559 0 0.13848136883728299 0.14203914735535511 0 0.15698787762036359 0.14007723406829989 0 0.13848136883728299 0.14203914735535511 0 0.1441447949138806 0.1573716891147208 0 0.15698787762036359 0.14007723406829989 0 0.1441447949138806 0.1573716891147208 0 0.1598153361361678 0.15982657838785511 0 0.15698787762036359 0.14007723406829989 0 0.13848136883728299 0.14203914735535511 0 0.1262856736452258 0.1537478882528979 0 0.1441447949138806 0.1573716891147208 0 0.12756241452120801 0.13893694775055651 0 0.13848136883728299 0.14203914735535511 0 0.1262856736452258 0.1537478882528979 0 0.1262856736452258 0.1537478882528979 0 0.12954358324573961 0.16710623429112001 0 0.1441447949138806 0.1573716891147208 0 0.12954358324573961 0.16710623429112001 0 0.12550986450034471 0.186594373040398 0 0.15375492999850379 0.1814330523327968 0 0.12954358324573961 0.16710623429112001 0 0.15375492999850379 0.1814330523327968 0 0.1441447949138806 0.1573716891147208 0 0.15375492999850379 0.1814330523327968 0 0.1441447949138806 0.1573716891147208 0 0.1598153361361678 0.15982657838785511 0 0.1598153361361678 0.15982657838785511 0 0.17205847002769489 0.1711246398383999 0 0.17247097746626519 0.1464629757798975 0 0.15375492999850379 0.1814330523327968 0 0.1598153361361678 0.15982657838785511 0 0.17205847002769489 0.1711246398383999 0 0.15375492999850379 0.1814330523327968 0 0.17205847002769489 0.1711246398383999 0 0.18411838942066619 0.18828130780555291 0 0.17205847002769489 0.1711246398383999 0 0.18411838942066619 0.18828130780555291 0 0.19050902449260759 0.164433536692701 0 0.17205847002769489 0.1711246398383999 0 0.17247097746626519 0.1464629757798975 0 0.19050902449260759 0.164433536692701 0 0.17247097746626519 0.1464629757798975 0 0.1903693880120208 0.14015559280000461 0 0.19050902449260759 0.164433536692701 0 0.17247097746626519 0.1464629757798975 0 0.18002451345814399 0.12716596121819479 0 0.1903693880120208 0.14015559280000461 0 0.17247097746626519 0.1464629757798975 0 0.18002451345814399 0.12716596121819479 0 0.16417220099380411 0.12505127510387981 0 0.15698787762036359 0.14007723406829989 0 0.16417220099380411 0.12505127510387981 0 0.15364605026385231 0.1227496740475859 0 0.17247097746626519 0.1464629757798975 0 0.15698787762036359 0.14007723406829989 0 0.16417220099380411 0.12505127510387981 0 0.1598153361361678 0.15982657838785511 0 0.17247097746626519 0.1464629757798975 0 0.15698787762036359 0.14007723406829989 0 0.14702044576598061 0.2478904659134552 0 0.1382648444377183 0.22719855966067881 0 0.15828943790025421 0.22969507774947781 0 0.14702044576598061 0.2478904659134552 0 0.12787711237058769 0.24521089126939841 0 0.1382648444377183 0.22719855966067881 0 0.10906069526472741 0.22998953009969161 0 0.12787711237058769 0.24521089126939841 0 0.1382648444377183 0.22719855966067881 0 0.1382648444377183 0.22719855966067881 0 0.14314005341278749 0.20699853547660821 0 0.15828943790025421 0.22969507774947781 0 0.14314005341278749 0.20699853547660821 0 0.16852610903267151 0.206401884619904 0 0.11775399779290339 0.20759518633331239 0 0.1382648444377183 0.22719855966067881 0 0.14314005341278749 0.20699853547660821 0 0.11775399779290339 0.20759518633331239 0 0.14314005341278749 0.20699853547660821 0 0.11775399779290339 0.20759518633331239 0 0.12550986450034471 0.186594373040398 0 0.14314005341278749 0.20699853547660821 0 0.15375492999850379 0.1814330523327968 0 0.14314005341278749 0.20699853547660821 0 0.16852610903267151 0.206401884619904 0 0.12550986450034471 0.186594373040398 0 0.15375492999850379 0.1814330523327968 0 0.14314005341278749 0.20699853547660821 0 0.15375492999850379 0.1814330523327968 0 0.18411838942066619 0.18828130780555291 0 0.16852610903267151 0.206401884619904 0 0.18411838942066619 0.18828130780555291 0 0.16852610903267151 0.206401884619904 0 0.1878214256448299 0.20672411698152671 0 0.16852610903267151 0.206401884619904 0 0.17766068788986381 0.23020170431202469 0 0.1878214256448299 0.20672411698152671 0 0.14314005341278749 0.20699853547660821 0 0.16852610903267151 0.206401884619904 0 0.15828943790025421 0.22969507774947781 0 0.16852610903267151 0.206401884619904 0 0.15828943790025421 0.22969507774947781 0 0.17766068788986381 0.23020170431202469 0 0.17766068788986381 0.23020170431202469 0 0.19353513124668931 0.22246748781277501 0 0.1878214256448299 0.20672411698152671 0 0.17766068788986381 0.23020170431202469 0 0.18692125413578081 0.24552837502103991 0 0.19379669244916639 0.23440003217329089 0 0.17766068788986381 0.23020170431202469 0 0.18692125413578081 0.24552837502103991 0 0.16774616909827719 0.2460930353984315 0 0.15828943790025421 0.22969507774947781 0 0.17766068788986381 0.23020170431202469 0 0.16774616909827719 0.2460930353984315 0 0.14702044576598061 0.2478904659134552 0 0.15828943790025421 0.22969507774947781 0 0.16774616909827719 0.2460930353984315 0 0.21557305570370441 0.24515722135805329 0 0.2029257889591993 0.24295866219667439 0 0.23007231546290949 0.2334513308517342 0 0.2029257889591993 0.24295866219667439 0 0.23007231546290949 0.2334513308517342 0 0.21557305570370441 0.24515722135805329 0 0.2029257889591993 0.24295866219667439 0 0.20107379594449931 0.25686311186437227 0 0.18692125413578081 0.24552837502103991 0 0.2029257889591993 0.24295866219667439 0 0.20107379594449931 0.25686311186437227 0 0.18692125413578081 0.24552837502103991 0 0.19379669244916639 0.23440003217329089 0 0.2029257889591993 0.24295866219667439 0 0.17766068788986381 0.23020170431202469 0 0.19379669244916639 0.23440003217329089 0 0.19353513124668931 0.22246748781277501 0 0.19379669244916639 0.23440003217329089 0 0.2029257889591993 0.24295866219667439 0 0.20920449219815451 0.22515354045629349 0 0.19379669244916639 0.23440003217329089 0 0.19353513124668931 0.22246748781277501 0 0.20920449219815451 0.22515354045629349 0 0.2029257889591993 0.24295866219667439 0 0.20920449219815451 0.22515354045629349 0 0.23007231546290949 0.2334513308517342 0 0.19353513124668931 0.22246748781277501 0 0.20920449219815451 0.22515354045629349 0 0.20732414099141369 0.20672295990195361 0 0.20920449219815451 0.22515354045629349 0 0.20732414099141369 0.20672295990195361 0 0.22783619495118521 0.20973527166224001 0 0.19353513124668931 0.22246748781277501 0 0.20732414099141369 0.20672295990195361 0 0.1878214256448299 0.20672411698152671 0 0.18411838942066619 0.18828130780555291 0 0.1878214256448299 0.20672411698152671 0 0.20343121377691101 0.18825927067945539 0 0.20732414099141369 0.20672295990195361 0 0.1878214256448299 0.20672411698152671 0 0.20343121377691101 0.18825927067945539 0 0.20732414099141369 0.20672295990195361 0 0.20343121377691101 0.18825927067945539 0 0.2219787971027708 0.18678942035429349 0 0.20732414099141369 0.20672295990195361 0 0.22783619495118521 0.20973527166224001 0 0.2219787971027708 0.18678942035429349 0 0.24528107816237801 0.1907036486386274 0 0.22783619495118521 0.20973527166224001 0 0.2219787971027708 0.18678942035429349 0 0.24528107816237801 0.1907036486386274 0 0.25242827713160498 0.21540237912569379 0 0.24528107816237801 0.1907036486386274 0 0.22783619495118521 0.20973527166224001 0 0.25242827713160498 0.21540237912569379 0 0.20920449219815451 0.22515354045629349 0 0.22783619495118521 0.20973527166224001 0 0.23007231546290949 0.2334513308517342 0 0.23007231546290949 0.2334513308517342 0 0.25242827713160498 0.21540237912569379 0 0.23007231546290949 0.2334513308517342 0 0.25511338863332461 0.22468137717712711 0 0.25242827713160498 0.21540237912569379 0 0.23007231546290949 0.2334513308517342 0 0.25511338863332461 0.22468137717712711 0 0.23007231546290949 0.2334513308517342 0 0.2457442494512444 0.24022391879071339 0 0.25511338863332461 0.22468137717712711 0 0.22783619495118521 0.20973527166224001 0 0.23007231546290949 0.2334513308517342 0 0.25242827713160498 0.21540237912569379 0 0.2457442494512444 0.24022391879071339 0 0.23628031136540401 0.25597328662156199 0 0.26221447651104962 0.2479993693513689 0 0.23007231546290949 0.2334513308517342 0 0.2457442494512444 0.24022391879071339 0 0.23628031136540401 0.25597328662156199 0 0.21557305570370441 0.24515722135805329 0 0.23007231546290949 0.2334513308517342 0 0.23628031136540401 0.25597328662156199 0 0.21557305570370441 0.24515722135805329 0 0.23007231546290949 0.2334513308517342 0 0.21023583046185859 0.14706018503428281 0 0.22521494488481819 0.12557893006429149 0 0.2001236667938262 0.1180422718546187 0 0.18002451345814399 0.12716596121819479 0 0.1903693880120208 0.14015559280000461 0 0.2001236667938262 0.1180422718546187 0 0.21023583046185859 0.14706018503428281 0 0.1903693880120208 0.14015559280000461 0 0.2001236667938262 0.1180422718546187 0 0.21023583046185859 0.14706018503428281 0 0.1903693880120208 0.14015559280000461 0 0.19050902449260759 0.164433536692701 0 0.18411838942066619 0.18828130780555291 0 0.20343121377691101 0.18825927067945539 0 0.19050902449260759 0.164433536692701 0 0.20343121377691101 0.18825927067945539 0 0.19050902449260759 0.164433536692701 0 0.20962662881846919 0.1707346457134423 0 0.20343121377691101 0.18825927067945539 0 0.20962662881846919 0.1707346457134423 0 0.2219787971027708 0.18678942035429349 0 0.21023583046185859 0.14706018503428281 0 0.20962662881846919 0.1707346457134423 0 0.2254160648188453 0.164078398330023 0 0.21023583046185859 0.14706018503428281 0 0.19050902449260759 0.164433536692701 0 0.20962662881846919 0.1707346457134423 0 0.20962662881846919 0.1707346457134423 0 0.2254160648188453 0.164078398330023 0 0.2219787971027708 0.18678942035429349 0 0.2254160648188453 0.164078398330023 0 0.2219787971027708 0.18678942035429349 0 0.23714843650665229 0.1758398884969993 0 0.24528107816237801 0.1907036486386274 0 0.2219787971027708 0.18678942035429349 0 0.23714843650665229 0.1758398884969993 0 0.24528107816237801 0.1907036486386274 0 0.23714843650665229 0.1758398884969993 0 0.25292738168467233 0.17649485219682931 0 0.2254160648188453 0.164078398330023 0 0.24653130607993951 0.16237692388552691 0 0.23688534306575301 0.1458043597726891 0 0.23714843650665229 0.1758398884969993 0 0.24653130607993951 0.16237692388552691 0 0.25292738168467233 0.17649485219682931 0 0.2254160648188453 0.164078398330023 0 0.23714843650665229 0.1758398884969993 0 0.24653130607993951 0.16237692388552691 0 0.24653130607993951 0.16237692388552691 0 0.2496536413094039 0.15044712256699261 0 0.23688534306575301 0.1458043597726891 0 0.2496536413094039 0.15044712256699261 0 0.23688534306575301 0.1458043597726891 0 0.25004344172447263 0.14019424959050239 0 0.21023583046185859 0.14706018503428281 0 0.2254160648188453 0.164078398330023 0 0.23688534306575301 0.1458043597726891 0 0.21023583046185859 0.14706018503428281 0 0.23688534306575301 0.1458043597726891 0 0.22521494488481819 0.12557893006429149 0 0.22521494488481819 0.12557893006429149 0 0.25030622297580962 0.13311558827396619 0 0.23688534306575301 0.1458043597726891 0 0.22521494488481819 0.12557893006429149 0 0.25030622297580962 0.13311558827396619 0 0.23688534306575301 0.1458043597726891 0 0.25004344172447263 0.14019424959050239 0 0.25030622297580962 0.13311558827396619 0 0.22521494488481819 0.12557893006429149 0 0.2369469616243938 0.1144798656387125 0 0.25030622297580962 0.13311558827396619 0 0.2369469616243938 0.1144798656387125 0 0.25094552198087999 0.11589449234768209 0 0.25030622297580962 0.13311558827396619 0 0.2369469616243938 0.1144798656387125 0 0.25158482098595109 0.098673396421397969 0 0.25094552198087999 0.11589449234768209 0 0.2369469616243938 0.1144798656387125 0 0.2308580048349978 0.09939168424622695 0 0.25158482098595109 0.098673396421397969 0 0.2308580048349978 0.09939168424622695 0 0.2177667053289645 0.10879872465146249 0 0.21723881235993189 0.092441087960636145 0 0.2369469616243938 0.1144798656387125 0 0.2308580048349978 0.09939168424622695 0 0.2177667053289645 0.10879872465146249 0 0.22521494488481819 0.12557893006429149 0 0.2369469616243938 0.1144798656387125 0 0.2177667053289645 0.10879872465146249 0 0.2177667053289645 0.10879872465146249 0 0.1970849337058638 0.1019164286603922 0 0.2001236667938262 0.1180422718546187 0 0.22521494488481819 0.12557893006429149 0 0.2177667053289645 0.10879872465146249 0 0.2001236667938262 0.1180422718546187 0 0.22521494488481819 0.12557893006429149 0 0.2001236667938262 0.1180422718546187 0 0.1970849337058638 0.1019164286603922 0 0.20420713705815571 0.090978010823124941 0 0.21723881235993189 0.092441087960636145 0 0.1970849337058638 0.1019164286603922 0 0.21723881235993189 0.092441087960636145 0 0.2177667053289645 0.10879872465146249 0 0.1970849337058638 0.1019164286603922 0 0.21723881235993189 0.092441087960636145 0 0.1970849337058638 0.1019164286603922 0 0.1916307843626972 0.08827444688259839 0 0.17503238870283441 0.11050561364494491 0 0.2001236667938262 0.1180422718546187 0 0.17503238870283441 0.11050561364494491 0 0.1970849337058638 0.1019164286603922 0 0.2001236667938262 0.1180422718546187 0 0.17503238870283441 0.11050561364494491 0 0.1916307843626972 0.08827444688259839 0 0.2082291800225603 0.066043280120252124 0 0.19067723801237901 0.065525043857756982 0 0.1916307843626972 0.08827444688259839 0 0.2082291800225603 0.066043280120252124 0 0.1916307843626972 0.08827444688259839 0 0.21087401780412959 0.081280079788873041 0 0.20420713705815571 0.090978010823124941 0 0.1970849337058638 0.1019164286603922 0 0.1916307843626972 0.08827444688259839 0 0.20420713705815571 0.090978010823124941 0 0.1916307843626972 0.08827444688259839 0 0.21087401780412959 0.081280079788873041 0 0.2082291800225603 0.066043280120252124 0 0.21087401780412959 0.081280079788873041 0 0.20420713705815571 0.090978010823124941 0 0.21723881235993189 0.092441087960636145 0 0.21087401780412959 0.081280079788873041 0 0.21723881235993189 0.092441087960636145 0 0.22613356481757629 0.0775902723280468 0 0.21087401780412959 0.081280079788873041 0 0.2082291800225603 0.066043280120252124 0 0.22613356481757629 0.0775902723280468 0 0.2082291800225603 0.066043280120252124 0 0.22613356481757629 0.0775902723280468 0 0.2082291800225603 0.066043280120252124 0 0.2259496113806885 0.070300708218039992 0 0.21450653174737461 0.057635669175196122 0 0.2259496113806885 0.070300708218039992 0 0.21450653174737461 0.057635669175196122 0 0.2082291800225603 0.066043280120252124 0 0.2259496113806885 0.070300708218039992 0 0.22613356481757629 0.0775902723280468 0 0.2259496113806885 0.070300708218039992 0 0.2248665156508784 0.061611733455129589 0 0.21450653174737461 0.057635669175196122 0 0.2259496113806885 0.070300708218039992 0 0.22613356481757629 0.0775902723280468 0 0.23739269101400209 0.082965747260884265 0 0.2259496113806885 0.070300708218039992 0 0.23739269101400209 0.082965747260884265 0 0.237967452106535 0.070105640596903412 0 0.2259496113806885 0.070300708218039992 0 0.23739269101400209 0.082965747260884265 0 0.2259496113806885 0.070300708218039992 0 0.2330718446673557 0.064441819436705627 0 0.2248665156508784 0.061611733455129589 0 0.2259496113806885 0.070300708218039992 0 0.2330718446673557 0.064441819436705627 0 0.237967452106535 0.070105640596903412 0 0.2308580048349978 0.09939168424622695 0 0.21723881235993189 0.092441087960636145 0 0.23739269101400209 0.082965747260884265 0 0.21723881235993189 0.092441087960636145 0 0.22613356481757629 0.0775902723280468 0 0.23739269101400209 0.082965747260884265 0 0.21723881235993189 0.092441087960636145 0 0.23739269101400209 0.082965747260884265 0 0.23739269101400209 0.082965747260884265 0 0.25158482098595109 0.098673396421397969 0 0.23739269101400209 0.082965747260884265 0 0.25243039498113262 0.075895774732197205 0 0.25158482098595109 0.098673396421397969 0 0.2308580048349978 0.09939168424622695 0 0.23739269101400209 0.082965747260884265 0 0.25158482098595109 0.098673396421397969 0 0.23739269101400209 0.082965747260884265 0 0.25243039498113262 0.075895774732197205 0 0.23934469018649959 0.064583282500140851 0 0.237967452106535 0.070105640596903412 0 0.24496427956833819 0.066036472520138348 0 0.2330718446673557 0.064441819436705627 0 0.23934469018649959 0.064583282500140851 0 0.2376257901407148 0.059976102198904507 0 0.2330718446673557 0.064441819436705627 0 0.23934469018649959 0.064583282500140851 0 0.237967452106535 0.070105640596903412 0 0.23739269101400209 0.082965747260884265 0 0.237967452106535 0.070105640596903412 0 0.24429048066179679 0.072622021298478806 0 0.24429048066179679 0.072622021298478806 0 0.24842415088314279 0.069033451464499671 0 0.25243039498113262 0.075895774732197205 0 0.23739269101400209 0.082965747260884265 0 0.24429048066179679 0.072622021298478806 0 0.25243039498113262 0.075895774732197205 0 0.24842415088314279 0.069033451464499671 0 0.24853219730195361 0.063845178725116872 0 0.25274476311700622 0.067427493409812952 0 0.237967452106535 0.070105640596903412 0 0.24429048066179679 0.072622021298478806 0 0.24496427956833819 0.066036472520138348 0 0.24429048066179679 0.072622021298478806 0 0.24842415088314279 0.069033451464499671 0 0.24496427956833819 0.066036472520138348 0 0.23934469018649959 0.064583282500140851 0 0.24496427956833819 0.066036472520138348 0 0.24309408444955441 0.062356377748052388 0 0.24496427956833819 0.066036472520138348 0 0.24602681454492631 0.062964227281045088 0 0.24309408444955441 0.062356377748052388 0 0.24496427956833819 0.066036472520138348 0 0.24602681454492631 0.062964227281045088 0 0.24853219730195361 0.063845178725116872 0 0.24842415088314279 0.069033451464499671 0 0.24496427956833819 0.066036472520138348 0 0.24853219730195361 0.063845178725116872 0 0.24751669685985911 0.059618880130872708 0 0.24309408444955441 0.062356377748052388 0 0.2376257901407148 0.059976102198904507 0 0.24751669685985911 0.059618880130872708 0 0.24426241142214139 0.049994713685017962 0 0.2310385276818335 0.053106641608170198 0 0.24751669685985911 0.059618880130872708 0 0.2376257901407148 0.059976102198904507 0 0.2310385276818335 0.053106641608170198 0 0.24751669685985911 0.059618880130872708 0 0.2310385276818335 0.053106641608170198 0 0.24853219730195361 0.063845178725116872 0 0.24751669685985911 0.059618880130872708 0 0.2530174900015254 0.0600809219264858 0 0.24602681454492631 0.062964227281045088 0 0.24853219730195361 0.063845178725116872 0 0.24751669685985911 0.059618880130872708 0 0.24602681454492631 0.062964227281045088 0 0.24751669685985911 0.059618880130872708 0 0.24309408444955441 0.062356377748052388 0 0.23934469018649959 0.064583282500140851 0 0.24309408444955441 0.062356377748052388 0 0.2376257901407148 0.059976102198904507 0 0.24426241142214139 0.049994713685017962 0 0.23928634064401511 0.040096757013566242 0 0.2310385276818335 0.053106641608170198 0 0.24751669685985911 0.059618880130872708 0 0.24426241142214139 0.049994713685017962 0 0.25102243244437311 0.053297338652025752 0 0.24426241142214139 0.049994713685017962 0 0.25174039047255609 0.044464402284776217 0 0.25102243244437311 0.053297338652025752 0 0.23928634064401511 0.040096757013566242 0 0.2320502206633881 0.021165953515508481 0 0.25044211127373811 0.032849993626191502 0 0.23928634064401511 0.040096757013566242 0 0.25044211127373811 0.032849993626191502 0 0.25174039047255609 0.044464402284776217 0 0.24426241142214139 0.049994713685017962 0 0.23928634064401511 0.040096757013566242 0 0.25174039047255609 0.044464402284776217 0 0.22618438235043381 0.038998837361733103 0 0.2320502206633881 0.021165953515508481 0 0.20963369093729961 0.03941564640516447 0 0.23928634064401511 0.040096757013566242 0 0.22618438235043381 0.038998837361733103 0 0.2320502206633881 0.021165953515508481 0 0.22618438235043381 0.038998837361733103 0 0.2310385276818335 0.053106641608170198 0 0.21456035850380811 0.046594403085467223 0 0.23928634064401511 0.040096757013566242 0 0.22618438235043381 0.038998837361733103 0 0.2310385276818335 0.053106641608170198 0 0.2310385276818335 0.053106641608170198 0 0.21456035850380811 0.046594403085467223 0 0.2248665156508784 0.061611733455129589 0 0.2310385276818335 0.053106641608170198 0 0.21456035850380811 0.046594403085467223 0 0.2248665156508784 0.061611733455129589 0 0.21456035850380811 0.046594403085467223 0 0.2330718446673557 0.064441819436705627 0 0.2248665156508784 0.061611733455129589 0 0.23150027442910881 0.059501590197602497 0 0.2248665156508784 0.061611733455129589 0 0.23150027442910881 0.059501590197602497 0 0.2310385276818335 0.053106641608170198 0 0.2330718446673557 0.064441819436705627 0 0.2376257901407148 0.059976102198904507 0 0.23150027442910881 0.059501590197602497 0 0.2376257901407148 0.059976102198904507 0 0.23150027442910881 0.059501590197602497 0 0.2310385276818335 0.053106641608170198 0 0.2320502206633881 0.021165953515508481 0 0.22999165343287109 0.0038227322559807589 0 0.25446675038947358 0.0029162606258486688 0 0.2320502206633881 0.021165953515508481 0 0.2600935707136679 0.019574361616358959 0 0.25446675038947358 0.0029162606258486688 0 0.22999165343287109 0.0038227322559807589 0 0.25446675038947358 0.0029162606258486688 0 0.24138147174972829 -0.0061427828714447699 0 0.2320502206633881 0.021165953515508481 0 0.25446675038947358 0.0029162606258486688 0 0.2320502206633881 0.021165953515508481 0 0.2600935707136679 0.019574361616358959 0 0.25044211127373811 0.032849993626191502 0 0.2320502206633881 0.021165953515508481 0 0.20963369093729961 0.03941564640516447 0 0.22999165343287109 0.0038227322559807589 0 0.21340461703840111 0.0096506044731711187 0 0.21351355446813719 -0.0021103410187178909 0 0.2320502206633881 0.021165953515508481 0 0.22999165343287109 0.0038227322559807589 0 0.21340461703840111 0.0096506044731711187 0 0.21340461703840111 0.0096506044731711187 0 0.1998105265397013 0.00335350757378736 0 0.21351355446813719 -0.0021103410187178909 0 0.21340461703840111 0.0096506044731711187 0 0.20371525389429951 0.01279949030761077 0 0.2082588668535221 0.02245160931237615 0 0.21340461703840111 0.0096506044731711187 0 0.20371525389429951 0.01279949030761077 0 0.1998105265397013 0.00335350757378736 0 0.2320502206633881 0.021165953515508481 0 0.2082588668535221 0.02245160931237615 0 0.20963369093729961 0.03941564640516447 0 0.2320502206633881 0.021165953515508481 0 0.21340461703840111 0.0096506044731711187 0 0.2082588668535221 0.02245160931237615 0 0.2082588668535221 0.02245160931237615 0 0.19338700514557339 0.015742239871108451 0 0.20963369093729961 0.03941564640516447 0 0.19338700514557339 0.015742239871108451 0 0.1989601287501698 0.040429129743079398 0 0.18048502430789731 0.01998114488410483 0 0.1989601287501698 0.040429129743079398 0 0.18048502430789731 0.01998114488410483 0 0.19338700514557339 0.015742239871108451 0 0.20963369093729961 0.03941564640516447 0 0.20371525389429951 0.01279949030761077 0 0.2082588668535221 0.02245160931237615 0 0.19338700514557339 0.015742239871108451 0 0.19338700514557339 0.015742239871108451 0 0.1998105265397013 0.00335350757378736 0 0.17714031935384769 -0.0079311666629475405 0 0.20371525389429951 0.01279949030761077 0 0.19338700514557339 0.015742239871108451 0 0.1998105265397013 0.00335350757378736 0 0.21450653174737461 0.057635669175196122 0 0.2029561920580818 0.044851916216142339 0 0.21450653174737461 0.057635669175196122 0 0.2029561920580818 0.044851916216142339 0 0.2021088015620611 0.053433964061651712 0 0.21450653174737461 0.057635669175196122 0 0.21456035850380811 0.046594403085467223 0 0.2029561920580818 0.044851916216142339 0 0.2082291800225603 0.066043280120252124 0 0.21450653174737461 0.057635669175196122 0 0.2021088015620611 0.053433964061651712 0 0.2248665156508784 0.061611733455129589 0 0.21450653174737461 0.057635669175196122 0 0.21456035850380811 0.046594403085467223 0 0.2082291800225603 0.066043280120252124 0 0.21450653174737461 0.057635669175196122 0 0.22618438235043381 0.038998837361733103 0 0.21456035850380811 0.046594403085467223 0 0.20963369093729961 0.03941564640516447 0 0.21456035850380811 0.046594403085467223 0 0.20963369093729961 0.03941564640516447 0 0.21456035850380811 0.046594403085467223 0 0.20530753189452691 0.042937648913457381 0 0.2029561920580818 0.044851916216142339 0 0.20963369093729961 0.03941564640516447 0 0.20530753189452691 0.042937648913457381 0 0.1989601287501698 0.040429129743079398 0 0.21456035850380811 0.046594403085467223 0 0.20530753189452691 0.042937648913457381 0 0.21456035850380811 0.046594403085467223 0 0.20963369093729961 0.03941564640516447 0 0.20530753189452691 0.042937648913457381 0 0.20963369093729961 0.03941564640516447 0 0.20530753189452691 0.042937648913457381 0 0.20530753189452691 0.042937648913457381 0 0.2029561920580818 0.044851916216142339 0 0.1989601287501698 0.040429129743079398 0 0.1774654858828027 0.031934360706524292 0 0.2029561920580818 0.044851916216142339 0 0.1989601287501698 0.040429129743079398 0 0.19971656766465989 0.047489351670260083 0 0.1989601287501698 0.040429129743079398 0 0.19133087755196571 0.045131483978966998 0 0.19971656766465989 0.047489351670260083 0 0.2029561920580818 0.044851916216142339 0 0.19971656766465989 0.047489351670260083 0 0.19338700514557339 0.015742239871108451 0 0.20963369093729961 0.03941564640516447 0 0.1989601287501698 0.040429129743079398 0 0.1989601287501698 0.040429129743079398 0 0.19133087755196571 0.045131483978966998 0 0.18298678422305309 0.040980100737508622 0 0.20530753189452691 0.042937648913457381 0 0.2029561920580818 0.044851916216142339 0 0.1989601287501698 0.040429129743079398 0 0.20530753189452691 0.042937648913457381 0 0.1989601287501698 0.040429129743079398 0 0.2029561920580818 0.044851916216142339 0 0.1989601287501698 0.040429129743079398 0 0.2082291800225603 0.066043280120252124 0 0.18513553631762919 0.051149603126408108 0 0.2021088015620611 0.053433964061651712 0 0.19971656766465989 0.047489351670260083 0 0.18513553631762919 0.051149603126408108 0 0.2082291800225603 0.066043280120252124 0 0.2021088015620611 0.053433964061651712 0 0.18513553631762919 0.051149603126408108 0 0.19067723801237901 0.065525043857756982 0 0.2082291800225603 0.066043280120252124 0 0.18513553631762919 0.051149603126408108 0 0.19133087755196571 0.045131483978966998 0 0.19971656766465989 0.047489351670260083 0 0.18513553631762919 0.051149603126408108 0 0.2029561920580818 0.044851916216142339 0 0.2021088015620611 0.053433964061651712 0 0.19971656766465989 0.047489351670260083 0 0.17734631865053521 0.060730067185729229 0 0.18513553631762919 0.051149603126408108 0 0.16725106424272049 0.052894846580172288 0 0.19067723801237901 0.065525043857756982 0 0.17734631865053521 0.060730067185729229 0 0.18513553631762919 0.051149603126408108 0 0.18298678422305309 0.040980100737508622 0 0.1774654858828027 0.031934360706524292 0 0.1620418926126978 0.036255926132564682 0 0.19133087755196571 0.045131483978966998 0 0.18513553631762919 0.051149603126408108 0 0.18298678422305309 0.040980100737508622 0 0.18513553631762919 0.051149603126408108 0 0.18298678422305309 0.040980100737508622 0 0.1620418926126978 0.036255926132564682 0 0.1989601287501698 0.040429129743079398 0 0.18298678422305309 0.040980100737508622 0 0.1774654858828027 0.031934360706524292 0 0.18513553631762919 0.051149603126408108 0 0.1620418926126978 0.036255926132564682 0 0.1620418926126978 0.036255926132564682 0 0.16725106424272049 0.052894846580172288 0 0.15541952745182569 0.04677658384696623 0 0.18513553631762919 0.051149603126408108 0 0.1620418926126978 0.036255926132564682 0 0.16725106424272049 0.052894846580172288 0 0.16725106424272049 0.052894846580172288 0 0.15507694825043991 0.057889849327421902 0 0.15541952745182569 0.04677658384696623 0 0.16725106424272049 0.052894846580172288 0 0.15507694825043991 0.057889849327421902 0 0.1653937448538241 0.067538194789913991 0 0.17734631865053521 0.060730067185729229 0 0.16725106424272049 0.052894846580172288 0 0.1653937448538241 0.067538194789913991 0 0.18048502430789731 0.01998114488410483 0 0.1657030786406338 0.0084270166623369204 0 0.17714031935384769 -0.0079311666629475405 0 0.19338700514557339 0.015742239871108451 0 0.17714031935384769 -0.0079311666629475405 0 0.19338700514557339 0.015742239871108451 0 0.18048502430789731 0.01998114488410483 0 0.17714031935384769 -0.0079311666629475405 0 0.1989601287501698 0.040429129743079398 0 0.1774654858828027 0.031934360706524292 0 0.18048502430789731 0.01998114488410483 0 0.1774654858828027 0.031934360706524292 0 0.18048502430789731 0.01998114488410483 0 0.16935520337559401 0.020657770454092759 0 0.1774654858828027 0.031934360706524292 0 0.15597084301543529 0.02343959166996953 0 0.1774654858828027 0.031934360706524292 0 0.1620418926126978 0.036255926132564682 0 0.15597084301543529 0.02343959166996953 0 0.1774654858828027 0.031934360706524292 0 0.16935520337559401 0.020657770454092759 0 0.15597084301543529 0.02343959166996953 0 0.16935520337559401 0.020657770454092759 0 0.1657030786406338 0.0084270166623369204 0 0.15597084301543529 0.02343959166996953 0 0.18048502430789731 0.01998114488410483 0 0.16935520337559401 0.020657770454092759 0 0.1657030786406338 0.0084270166623369204 0 0.1657030786406338 0.0084270166623369204 0 0.14883794818754281 0.01110572894874149 0 0.15480995508657039 -0.001084596553268768 0 0.1657030786406338 0.0084270166623369204 0 0.14883794818754281 0.01110572894874149 0 0.15597084301543529 0.02343959166996953 0 0.14883794818754281 0.01110572894874149 0 0.13464870039648349 0.00080453217212592717 0 0.15480995508657039 -0.001084596553268768 0 0.14883794818754281 0.01110572894874149 0 0.13894824890776639 0.02136224913872127 0 0.13464870039648349 0.00080453217212592717 0 0.1620418926126978 0.036255926132564682 0 0.13894824890776639 0.02136224913872127 0 0.14883794818754281 0.01110572894874149 0 0.15597084301543529 0.02343959166996953 0 0.13894824890776639 0.02136224913872127 0 0.1620418926126978 0.036255926132564682 0 0.15597084301543529 0.02343959166996953 0 0.13894824890776639 0.02136224913872127 0 0.11961069471150609 0.02296590295220987 0 0.13894824890776639 0.02136224913872127 0 0.12977361784467401 0.039215218793308727 0 0.1158546052028349 0.0064685721448778594 0 0.13894824890776639 0.02136224913872127 0 0.1158546052028349 0.0064685721448778594 0 0.13894824890776639 0.02136224913872127 0 0.13464870039648349 0.00080453217212592717 0 0.14278372382386809 0.048416123664777412 0 0.1428601767931531 0.062084067640591357 0 0.15507694825043991 0.057889849327421902 0 0.14278372382386809 0.048416123664777412 0 0.15507694825043991 0.057889849327421902 0 0.15541952745182569 0.04677658384696623 0 0.1620418926126978 0.036255926132564682 0 0.13894824890776639 0.02136224913872127 0 0.14579340212816641 0.038405220315267663 0 0.1620418926126978 0.036255926132564682 0 0.15541952745182569 0.04677658384696623 0 0.14579340212816641 0.038405220315267663 0 0.14278372382386809 0.048416123664777412 0 0.15541952745182569 0.04677658384696623 0 0.14579340212816641 0.038405220315267663 0 0.14278372382386809 0.048416123664777412 0 0.14579340212816641 0.038405220315267663 0 0.12977361784467401 0.039215218793308727 0 0.13894824890776639 0.02136224913872127 0 0.14579340212816641 0.038405220315267663 0 0.12977361784467401 0.039215218793308727 0 0.11550376979223601 0.054551475820320147 0 0.12977361784467401 0.039215218793308727 0 0.1326943019686847 0.054606112458038862 0 0.11550376979223601 0.054551475820320147 0 0.1326943019686847 0.054606112458038862 0 0.13255022158949201 0.068763676371196639 0 0.14278372382386809 0.048416123664777412 0 0.12977361784467401 0.039215218793308727 0 0.1326943019686847 0.054606112458038862 0 0.14278372382386809 0.048416123664777412 0 0.1428601767931531 0.062084067640591357 0 0.1326943019686847 0.054606112458038862 0 0.1428601767931531 0.062084067640591357 0 0.1326943019686847 0.054606112458038862 0 0.13255022158949201 0.068763676371196639 0 0.1207366242219714 0.074251990558816788 0 0.13255022158949201 0.068763676371196639 0 0.13578085374332971 0.077614708003019631 0 0.13255022158949201 0.068763676371196639 0 0.13578085374332971 0.077614708003019631 0 0.1430759120552613 0.073085192731263071 0 0.1428601767931531 0.062084067640591357 0 0.13255022158949201 0.068763676371196639 0 0.1430759120552613 0.073085192731263071 0 0.1428601767931531 0.062084067640591357 0 0.1430759120552613 0.073085192731263071 0 0.15260580868734391 0.069203578475014266 0 0.1430759120552613 0.073085192731263071 0 0.14969883640752091 0.076610515579137797 0 0.14563192422462459 0.083183778073064013 0 0.13578085374332971 0.077614708003019631 0 0.1430759120552613 0.073085192731263071 0 0.14563192422462459 0.083183778073064013 0 0.1430759120552613 0.073085192731263071 0 0.14969883640752091 0.076610515579137797 0 0.15260580868734391 0.069203578475014266 0 0.14969883640752091 0.076610515579137797 0 0.15260580868734391 0.069203578475014266 0 0.15677919641446331 0.080277826610221981 0 0.1428601767931531 0.062084067640591357 0 0.15507694825043991 0.057889849327421902 0 0.15260580868734391 0.069203578475014266 0 0.1506819444987289 0.088437751930635633 0 0.14868901735932749 0.09586058707093438 0 0.157853861938485 0.092527754269896317 0 0.1506819444987289 0.088437751930635633 0 0.15677919641446331 0.080277826610221981 0 0.157853861938485 0.092527754269896317 0 0.14969883640752091 0.076610515579137797 0 0.14563192422462459 0.083183778073064013 0 0.15677919641446331 0.080277826610221981 0 0.1506819444987289 0.088437751930635633 0 0.14563192422462459 0.083183778073064013 0 0.15677919641446331 0.080277826610221981 0 0.14563192422462459 0.083183778073064013 0 0.1444557225567443 0.090338813629061501 0 0.13888671887288589 0.088270852986767859 0 0.1506819444987289 0.088437751930635633 0 0.14563192422462459 0.083183778073064013 0 0.1444557225567443 0.090338813629061501 0 0.1444557225567443 0.090338813629061501 0 0.14209274384079601 0.094639397504520467 0 0.14868901735932749 0.09586058707093438 0 0.1506819444987289 0.088437751930635633 0 0.1444557225567443 0.090338813629061501 0 0.14868901735932749 0.09586058707093438 0 0.1444557225567443 0.090338813629061501 0 0.13888671887288589 0.088270852986767859 0 0.14209274384079601 0.094639397504520467 0 0.13888671887288589 0.088270852986767859 0 0.13668050292917741 0.098217611464673699 0 0.14209274384079601 0.094639397504520467 0 0.13888671887288589 0.088270852986767859 0 0.1300820653953097 0.084166932106396392 0 0.13668050292917741 0.098217611464673699 0 0.11116449005577619 0.086473750785835857 0 0.1300820653953097 0.084166932106396392 0 0.13668050292917741 0.098217611464673699 0 0.13578085374332971 0.077614708003019631 0 0.13888671887288589 0.088270852986767859 0 0.1300820653953097 0.084166932106396392 0 0.13578085374332971 0.077614708003019631 0 0.14563192422462459 0.083183778073064013 0 0.13888671887288589 0.088270852986767859 0 0.1207366242219714 0.074251990558816788 0 0.13578085374332971 0.077614708003019631 0 0.1300820653953097 0.084166932106396392 0 0.1216961693062274 0.1020981758197984 0 0.1302764983332621 0.10693497851168419 0 0.13668050292917741 0.098217611464673699 0 0.1302764983332621 0.10693497851168419 0 0.13758713408363871 0.1043360441680015 0 0.13668050292917741 0.098217611464673699 0 0.1302764983332621 0.10693497851168419 0 0.1360833458267342 0.1084620534226548 0 0.13758713408363871 0.1043360441680015 0 0.1360833458267342 0.1084620534226548 0 0.13758713408363871 0.1043360441680015 0 0.14314356584317489 0.10755645506983 0 0.13758713408363871 0.1043360441680015 0 0.13668050292917741 0.098217611464673699 0 0.14175175748584509 0.1005091223711649 0 0.13668050292917741 0.098217611464673699 0 0.14209274384079601 0.094639397504520467 0 0.14175175748584509 0.1005091223711649 0 0.12813823657366311 0.12049833089676459 0 0.13246275659848361 0.1130811342378658 0 0.13708322035591489 0.118794437000363 0 0.12212988809696081 0.1249307776834532 0 0.12788127083107459 0.1291064789800366 0 0.12813823657366311 0.12049833089676459 0 0.1197878353292403 0.1092484053650479 0 0.1302764983332621 0.10693497851168419 0 0.12624189261331301 0.1140678077034443 0 0.12813823657366311 0.12049833089676459 0 0.12624189261331301 0.1140678077034443 0 0.13246275659848361 0.1130811342378658 0 0.1302764983332621 0.10693497851168419 0 0.12624189261331301 0.1140678077034443 0 0.13246275659848361 0.1130811342378658 0 0.138866780176991 0.11235807520418389 0 0.13708322035591489 0.118794437000363 0 0.14572099158606311 0.1154247658161887 0 0.1360833458267342 0.1084620534226548 0 0.13246275659848361 0.1130811342378658 0 0.138866780176991 0.11235807520418389 0 0.1302764983332621 0.10693497851168419 0 0.1360833458267342 0.1084620534226548 0 0.13246275659848361 0.1130811342378658 0 0.1360833458267342 0.1084620534226548 0 0.138866780176991 0.11235807520418389 0 0.14314356584317489 0.10755645506983 0 0.13246275659848361 0.1130811342378658 0 0.138866780176991 0.11235807520418389 0 0.13708322035591489 0.118794437000363 0 0.13409394305489639 0.1257339851238449 0 0.14295710802469111 0.12768772724150559 0 0.13708322035591489 0.118794437000363 0 0.13409394305489639 0.1257339851238449 0 0.12813823657366311 0.12049833089676459 0 0.13708322035591489 0.118794437000363 0 0.14572099158606311 0.1154247658161887 0 0.15364605026385231 0.1227496740475859 0 0.15839207309433961 0.10550736800805539 0 0.14295710802469111 0.12768772724150559 0 0.13708322035591489 0.118794437000363 0 0.14572099158606311 0.1154247658161887 0 0.14295710802469111 0.12768772724150559 0 0.14572099158606311 0.1154247658161887 0 0.15364605026385231 0.1227496740475859 0 0.138866780176991 0.11235807520418389 0 0.14572099158606311 0.1154247658161887 0 0.14314356584317489 0.10755645506983 0 0.14572099158606311 0.1154247658161887 0 0.14314356584317489 0.10755645506983 0 0.15839207309433961 0.10550736800805539 0 0.14175175748584509 0.1005091223711649 0 0.15839207309433961 0.10550736800805539 0 0.14175175748584509 0.1005091223711649 0 0.14314356584317489 0.10755645506983 0 0.15839207309433961 0.10550736800805539 0 0.14175175748584509 0.1005091223711649 0 0.14868901735932749 0.09586058707093438 0 0.15839207309433961 0.10550736800805539 0 0.14209274384079601 0.094639397504520467 0 0.14175175748584509 0.1005091223711649 0 0.14868901735932749 0.09586058707093438 0 0.13758713408363871 0.1043360441680015 0 0.14175175748584509 0.1005091223711649 0 0.14314356584317489 0.10755645506983 0 0.14868901735932749 0.09586058707093438 0 0.15839207309433961 0.10550736800805539 0 0.157853861938485 0.092527754269896317 0 0.15839207309433961 0.10550736800805539 0 0.17503238870283441 0.11050561364494491 0 0.15839207309433961 0.10550736800805539 0 0.1705578526620479 0.095927182961129481 0 0.157853861938485 0.092527754269896317 0 0.15839207309433961 0.10550736800805539 0 0.1705578526620479 0.095927182961129481 0 0.17503238870283441 0.11050561364494491 0 0.16417220099380411 0.12505127510387981 0 0.15839207309433961 0.10550736800805539 0 0.17503238870283441 0.11050561364494491 0 0.16417220099380411 0.12505127510387981 0 0.15364605026385231 0.1227496740475859 0 0.15839207309433961 0.10550736800805539 0 0.16417220099380411 0.12505127510387981 0 0.17503238870283441 0.11050561364494491 0 0.18002451345814399 0.12716596121819479 0 0.16417220099380411 0.12505127510387981 0 0.17503238870283441 0.11050561364494491 0 0.18002451345814399 0.12716596121819479 0 0.2001236667938262 0.1180422718546187 0 0.17503238870283441 0.11050561364494491 0 0.1916307843626972 0.08827444688259839 0 0.1705578526620479 0.095927182961129481 0 0.17503238870283441 0.11050561364494491 0 0.1916307843626972 0.08827444688259839 0 0.17503238870283441 0.11050561364494491 0 0.1916307843626972 0.08827444688259839 0 0.17935943521264269 0.07135827912697662 0 0.16988015521188329 0.08282073200015258 0 0.1916307843626972 0.08827444688259839 0 0.1705578526620479 0.095927182961129481 0 0.16988015521188329 0.08282073200015258 0 0.19067723801237901 0.065525043857756982 0 0.1916307843626972 0.08827444688259839 0 0.17935943521264269 0.07135827912697662 0 0.19067723801237901 0.065525043857756982 0 0.17734631865053521 0.060730067185729229 0 0.17935943521264269 0.07135827912697662 0 0.17734631865053521 0.060730067185729229 0 0.17935943521264269 0.07135827912697662 0 0.1653937448538241 0.067538194789913991 0 0.17935943521264269 0.07135827912697662 0 0.1653937448538241 0.067538194789913991 0 0.16988015521188329 0.08282073200015258 0 0.15507694825043991 0.057889849327421902 0 0.15260580868734391 0.069203578475014266 0 0.1653937448538241 0.067538194789913991 0 0.15260580868734391 0.069203578475014266 0 0.1653937448538241 0.067538194789913991 0 0.15677919641446331 0.080277826610221981 0 0.1653937448538241 0.067538194789913991 0 0.15677919641446331 0.080277826610221981 0 0.16988015521188329 0.08282073200015258 0 0.15677919641446331 0.080277826610221981 0 0.157853861938485 0.092527754269896317 0 0.16988015521188329 0.08282073200015258 0 0.1705578526620479 0.095927182961129481 0 0.157853861938485 0.092527754269896317 0 0.16988015521188329 0.08282073200015258 0 0.099456207782380623 0.4822659283708195 0 0.1141892196830592 0.48396198267476093 0 0.11304725129434449 0.46767028325629811 0 0.099456207782380623 0.4822659283708195 0 0.11304725129434449 0.46767028325629811 0 0.096803680563272876 0.46646214520586099 0 0.099456207782380623 0.4822659283708195 0 0.10782601469385079 0.5 0 0.078267650747156567 0.50000000000000133 0 0.099456207782380623 0.4822659283708195 0 0.10782601469385079 0.5 0 0.1141892196830592 0.48396198267476093 0 0.10782601469385079 0.5 0 0.1249193769550877 0.49369376296818718 0 0.1141892196830592 0.48396198267476093 0 0.1249193769550877 0.49369376296818718 0 0.1141892196830592 0.48396198267476093 0 0.12569724768963239 0.47617993877849962 0 0.10782601469385079 0.5 0 0.1249193769550877 0.49369376296818718 0 0.13738437864054501 0.5 0 0.1141892196830592 0.48396198267476093 0 0.11304725129434449 0.46767028325629811 0 0.12569724768963239 0.47617993877849962 0 0.11304725129434449 0.46767028325629811 0 0.1267882431275838 0.46370707134437261 0 0.12569724768963239 0.47617993877849962 0 0.11304725129434449 0.46767028325629811 0 0.1221607865463437 0.4507156547582637 0 0.1004821270038239 0.44949914822431608 0 0.11304725129434449 0.46767028325629811 0 0.1221607865463437 0.4507156547582637 0 0.1267882431275838 0.46370707134437261 0 0.1221607865463437 0.4507156547582637 0 0.1004821270038239 0.44949914822431608 0 0.12259086230274099 0.42947812748907283 0 0.1004821270038239 0.44949914822431608 0 0.096803680563272876 0.46646214520586099 0 0.084307548883437972 0.45862843933572522 0 0.11304725129434449 0.46767028325629811 0 0.1004821270038239 0.44949914822431608 0 0.096803680563272876 0.46646214520586099 0 0.084307548883437972 0.45862843933572522 0 0.070120974899159305 0.46867166915081548 0 0.08254081050968877 0.47642281665818748 0 0.096803680563272876 0.46646214520586099 0 0.084307548883437972 0.45862843933572522 0 0.08254081050968877 0.47642281665818748 0 0.084307548883437972 0.45862843933572522 0 0.083205653112744402 0.44008551456546158 0 0.070599818540594342 0.45171728711773013 0 0.1004821270038239 0.44949914822431608 0 0.084307548883437972 0.45862843933572522 0 0.083205653112744402 0.44008551456546158 0 0.1004821270038239 0.44949914822431608 0 0.083205653112744402 0.44008551456546158 0 0.095892719888732866 0.42453745382262881 0 0.070599818540594342 0.45171728711773013 0 0.057347956450285731 0.44480695268810438 0 0.068330088192809502 0.43602814955066621 0 0.083205653112744402 0.44008551456546158 0 0.070599818540594342 0.45171728711773013 0 0.068330088192809502 0.43602814955066621 0 0.070599818540594342 0.45171728711773013 0 0.070120974899159305 0.46867166915081548 0 0.05832870883015126 0.45973880463956351 0 0.084307548883437972 0.45862843933572522 0 0.070599818540594342 0.45171728711773013 0 0.070120974899159305 0.46867166915081548 0 0.070120974899159305 0.46867166915081548 0 0.08254081050968877 0.47642281665818748 0 0.061557047466102868 0.48310025102256282 0 0.070120974899159305 0.46867166915081548 0 0.061557047466102868 0.48310025102256282 0 0.05832870883015126 0.45973880463956351 0 0.099456207782380623 0.4822659283708195 0 0.096803680563272876 0.46646214520586099 0 0.08254081050968877 0.47642281665818748 0 0.099456207782380623 0.4822659283708195 0 0.08254081050968877 0.47642281665818748 0 0.078267650747156567 0.50000000000000133 0 0.078267650747156567 0.50000000000000133 0 0.049166882519808157 0.5 0 0.061557047466102868 0.48310025102256282 0 0.08254081050968877 0.47642281665818748 0 0.078267650747156567 0.50000000000000133 0 0.061557047466102868 0.48310025102256282 0 0.078267650747156567 0.50000000000000133 0 0.061557047466102868 0.48310025102256282 0 0.049166882519808157 0.5 0 0.061557047466102868 0.48310025102256282 0 0.038208171894904559 0.48286056860770488 0 0.061557047466102868 0.48310025102256282 0 0.044846444185049857 0.46620050204512359 0 0.05832870883015126 0.45973880463956351 0 0.061557047466102868 0.48310025102256282 0 0.044846444185049857 0.46620050204512359 0 0.061557047466102868 0.48310025102256282 0 0.038208171894904559 0.48286056860770488 0 0.044846444185049857 0.46620050204512359 0 0.038208171894904559 0.48286056860770488 0 0.029572045059576241 0.469060477695939 0 0.044846444185049857 0.46620050204512359 0 0.049166882519808157 0.5 0 0.038208171894904559 0.48286056860770488 0 0.020066114292459799 0.5 0 0.038208171894904559 0.48286056860770488 0 0.020066114292459799 0.5 0 0.021055159894441029 0.48095839664786189 0 0.038208171894904559 0.48286056860770488 0 0.029572045059576241 0.469060477695939 0 0.021055159894441029 0.48095839664786189 0 0.029572045059576241 0.469060477695939 0 0.021055159894441029 0.48095839664786189 0 0.01561460841948897 0.46598216811131982 0 0.021055159894441029 0.48095839664786189 0 0.0030933759349822849 0.48266358315495572 0 0.01561460841948897 0.46598216811131982 0 0.0030933759349822849 0.48266358315495572 0 0.01561460841948897 0.46598216811131982 0 0.0036787250480955699 0.47408322248379448 0 0.0030933759349822849 0.48266358315495572 0 0.01561460841948897 0.46598216811131982 0 -0.0016340076521478781 0.48633642657919801 0 0.0036787250480955699 0.47408322248379448 0 0.0030933759349822849 0.48266358315495572 0 0.020066114292459799 0.5 0 0.021055159894441029 0.48095839664786189 0 0.0030933759349822849 0.48266358315495572 0 -0.0090346539348886701 0.5 0 -0.0016340076521478781 0.48633642657919801 0 0.020066114292459799 0.5 0 -0.0016340076521478781 0.48633642657919801 0 0.020066114292459799 0.5 0 0.0030933759349822849 0.48266358315495572 0 -0.0030841453677343121 0.43636499760021141 0 -0.002359076509941094 0.46135071208970457 0 0.010470448459028871 0.45111158928184719 0 -0.0030841453677343121 0.43636499760021141 0 0.010470448459028871 0.45111158928184719 0 0.017893296784651399 0.43894227458572882 0 -0.002359076509941094 0.46135071208970457 0 0.010470448459028871 0.45111158928184719 0 0.01561460841948897 0.46598216811131982 0 -0.002359076509941094 0.46135071208970457 0 0.0036787250480955699 0.47408322248379448 0 0.01561460841948897 0.46598216811131982 0 0.010470448459028871 0.45111158928184719 0 0.01561460841948897 0.46598216811131982 0 0.0281358409039968 0.44930075306768458 0 0.029572045059576241 0.469060477695939 0 0.01561460841948897 0.46598216811131982 0 0.0281358409039968 0.44930075306768458 0 0.01561460841948897 0.46598216811131982 0 0.0281358409039968 0.44930075306768458 0 0.010470448459028871 0.45111158928184719 0 0.0281358409039968 0.44930075306768458 0 0.017893296784651399 0.43894227458572882 0 0.0281358409039968 0.44930075306768458 0 0.017893296784651399 0.43894227458572882 0 0.03800042812263172 0.43615865433005307 0 0.0281358409039968 0.44930075306768458 0 0.017893296784651399 0.43894227458572882 0 0.0281358409039968 0.44930075306768458 0 0.04587361322417214 0.448769157871174 0 0.03800042812263172 0.43615865433005307 0 0.0281358409039968 0.44930075306768458 0 0.03800042812263172 0.43615865433005307 0 0.04587361322417214 0.448769157871174 0 0.049411209704934803 0.43621283219101809 0 0.03800042812263172 0.43615865433005307 0 0.029572045059576241 0.469060477695939 0 0.0281358409039968 0.44930075306768458 0 0.044846444185049857 0.46620050204512359 0 0.0281358409039968 0.44930075306768458 0 0.04587361322417214 0.448769157871174 0 0.044846444185049857 0.46620050204512359 0 0.0281358409039968 0.44930075306768458 0 0.044846444185049857 0.46620050204512359 0 0.04587361322417214 0.448769157871174 0 0.044846444185049857 0.46620050204512359 0 0.05832870883015126 0.45973880463956351 0 0.04587361322417214 0.448769157871174 0 0.057347956450285731 0.44480695268810438 0 0.049411209704934803 0.43621283219101809 0 0.04587361322417214 0.448769157871174 0 0.05832870883015126 0.45973880463956351 0 0.057347956450285731 0.44480695268810438 0 0.070599818540594342 0.45171728711773013 0 0.05832870883015126 0.45973880463956351 0 0.057347956450285731 0.44480695268810438 0 0.057347956450285731 0.44480695268810438 0 0.058238482531349368 0.43512174465279091 0 0.068330088192809502 0.43602814955066621 0 0.057347956450285731 0.44480695268810438 0 0.058238482531349368 0.43512174465279091 0 0.049411209704934803 0.43621283219101809 0 0.058238482531349368 0.43512174465279091 0 0.05412352915042095 0.42739076434297479 0 0.063786863135573219 0.4234822836218442 0 0.05412352915042095 0.42739076434297479 0 0.047865015341267358 0.42301655559242213 0 0.049411209704934803 0.43621283219101809 0 0.05412352915042095 0.42739076434297479 0 0.047865015341267358 0.42301655559242213 0 0.058238482531349368 0.43512174465279091 0 0.05412352915042095 0.42739076434297479 0 0.049411209704934803 0.43621283219101809 0 0.047865015341267358 0.42301655559242213 0 0.055388731832649349 0.41299308245440008 0 0.044385004541519633 0.40583709082877739 0 0.055388731832649349 0.41299308245440008 0 0.057103340742871267 0.4006394318358022 0 0.0691327228978319 0.40699071288372829 0 0.05412352915042095 0.42739076434297479 0 0.055388731832649349 0.41299308245440008 0 0.063786863135573219 0.4234822836218442 0 0.047865015341267358 0.42301655559242213 0 0.055388731832649349 0.41299308245440008 0 0.05412352915042095 0.42739076434297479 0 0.047865015341267358 0.42301655559242213 0 0.055388731832649349 0.41299308245440008 0 0.055388731832649349 0.41299308245440008 0 0.044385004541519633 0.40583709082877739 0 0.057103340742871267 0.4006394318358022 0 0.047865015341267358 0.42301655559242213 0 0.030398582533070099 0.41080889326869052 0 0.044385004541519633 0.40583709082877739 0 0.047865015341267358 0.42301655559242213 0 0.035686717363660143 0.42423985257235269 0 0.030398582533070099 0.41080889326869052 0 0.047865015341267358 0.42301655559242213 0 0.030398582533070099 0.41080889326869052 0 0.047865015341267358 0.42301655559242213 0 0.049411209704934803 0.43621283219101809 0 0.03800042812263172 0.43615865433005307 0 0.047865015341267358 0.42301655559242213 0 0.03800042812263172 0.43615865433005307 0 0.047865015341267358 0.42301655559242213 0 0.035686717363660143 0.42423985257235269 0 0.03800042812263172 0.43615865433005307 0 0.035686717363660143 0.42423985257235269 0 0.03800042812263172 0.43615865433005307 0 0.0264828434576714 0.42697530709824522 0 0.017893296784651399 0.43894227458572882 0 0.0264828434576714 0.42697530709824522 0 0.013451351612083251 0.42022136891186163 0 0.017893296784651399 0.43894227458572882 0 0.03800042812263172 0.43615865433005307 0 0.0264828434576714 0.42697530709824522 0 0.030398582533070099 0.41080889326869052 0 0.013451351612083251 0.42022136891186163 0 0.012932149724872831 0.39860123094495892 0 0.0264828434576714 0.42697530709824522 0 0.030398582533070099 0.41080889326869052 0 0.013451351612083251 0.42022136891186163 0 0.035686717363660143 0.42423985257235269 0 0.0264828434576714 0.42697530709824522 0 0.030398582533070099 0.41080889326869052 0 -0.0038092142255275289 0.41137928311071797 0 0.013451351612083251 0.42022136891186163 0 0.012932149724872831 0.39860123094495892 0 -0.0030841453677343121 0.43636499760021141 0 0.017893296784651399 0.43894227458572882 0 0.013451351612083251 0.42022136891186163 0 -0.0030841453677343121 0.43636499760021141 0 -0.0038092142255275289 0.41137928311071797 0 0.013451351612083251 0.42022136891186163 0 -0.0045342830833226501 0.3863935686212247 0 0.012932149724872831 0.39860123094495892 0 0.0079023355216259559 0.37348921158265391 0 0.012932149724872831 0.39860123094495892 0 0.025375843575522711 0.38021681034322929 0 0.0079023355216259559 0.37348921158265391 0 -0.0045342830833226501 0.3863935686212247 0 0.012932149724872831 0.39860123094495892 0 -0.0045342830833226501 0.3863935686212247 0 -0.0038092142255275289 0.41137928311071797 0 0.012932149724872831 0.39860123094495892 0 0.030398582533070099 0.41080889326869052 0 0.012932149724872831 0.39860123094495892 0 0.030398582533070099 0.41080889326869052 0 0.012932149724872831 0.39860123094495892 0 0.030218872497922818 0.39559608178221078 0 0.012932149724872831 0.39860123094495892 0 0.030218872497922818 0.39559608178221078 0 0.025375843575522711 0.38021681034322929 0 0.025375843575522711 0.38021681034322929 0 0.045236422390978262 0.39339421550307069 0 0.045418656597819553 0.37354288132317159 0 0.030218872497922818 0.39559608178221078 0 0.025375843575522711 0.38021681034322929 0 0.045236422390978262 0.39339421550307069 0 0.030398582533070099 0.41080889326869052 0 0.030218872497922818 0.39559608178221078 0 0.044385004541519633 0.40583709082877739 0 0.030218872497922818 0.39559608178221078 0 0.045236422390978262 0.39339421550307069 0 0.044385004541519633 0.40583709082877739 0 0.045236422390978262 0.39339421550307069 0 0.057103340742871267 0.4006394318358022 0 0.06607043693335328 0.38973814947632979 0 0.045236422390978262 0.39339421550307069 0 0.044385004541519633 0.40583709082877739 0 0.057103340742871267 0.4006394318358022 0 0.045236422390978262 0.39339421550307069 0 0.06607043693335328 0.38973814947632979 0 0.045418656597819553 0.37354288132317159 0 0.06607043693335328 0.38973814947632979 0 0.066778362586220691 0.36264744131756171 0 0.045418656597819553 0.37354288132317159 0 0.06607043693335328 0.38973814947632979 0 0.086713905658550791 0.37461406501925459 0 0.066778362586220691 0.36264744131756171 0 0.091303312773641829 0.3995757594209417 0 0.1025776524751303 0.38486691706586951 0 0.086713905658550791 0.37461406501925459 0 0.06607043693335328 0.38973814947632979 0 0.091303312773641829 0.3995757594209417 0 0.086713905658550791 0.37461406501925459 0 0.091303312773641829 0.3995757594209417 0 0.086713905658550791 0.37461406501925459 0 0.06607043693335328 0.38973814947632979 0 0.091303312773641829 0.3995757594209417 0 0.0691327228978319 0.40699071288372829 0 0.057103340742871267 0.4006394318358022 0 0.06607043693335328 0.38973814947632979 0 0.0691327228978319 0.40699071288372829 0 0.055388731832649349 0.41299308245440008 0 0.0691327228978319 0.40699071288372829 0 0.063786863135573219 0.4234822836218442 0 0.0691327228978319 0.40699071288372829 0 0.077714875811277062 0.4214876261871765 0 0.063786863135573219 0.4234822836218442 0 0.083205653112744402 0.44008551456546158 0 0.077714875811277062 0.4214876261871765 0 0.068330088192809502 0.43602814955066621 0 0.058238482531349368 0.43512174465279091 0 0.068330088192809502 0.43602814955066621 0 0.063786863135573219 0.4234822836218442 0 0.077714875811277062 0.4214876261871765 0 0.068330088192809502 0.43602814955066621 0 0.063786863135573219 0.4234822836218442 0 0.083205653112744402 0.44008551456546158 0 0.077714875811277062 0.4214876261871765 0 0.095892719888732866 0.42453745382262881 0 0.091303312773641829 0.3995757594209417 0 0.0691327228978319 0.40699071288372829 0 0.077714875811277062 0.4214876261871765 0 0.091303312773641829 0.3995757594209417 0 0.095892719888732866 0.42453745382262881 0 0.091303312773641829 0.3995757594209417 0 0.077714875811277062 0.4214876261871765 0 0.095892719888732866 0.42453745382262881 0 0.091303312773641829 0.3995757594209417 0 0.095892719888732866 0.42453745382262881 0 0.115428724103706 0.40267530492779557 0 0.1004821270038239 0.44949914822431608 0 0.095892719888732866 0.42453745382262881 0 0.12259086230274099 0.42947812748907283 0 0.1004821270038239 0.44949914822431608 0 0.095892719888732866 0.42453745382262881 0 0.095892719888732866 0.42453745382262881 0 0.12259086230274099 0.42947812748907283 0 0.115428724103706 0.40267530492779557 0 0.115428724103706 0.40267530492779557 0 0.119448870245615 0.38256434187866972 0 0.13692284990477191 0.38930777957628943 0 0.119448870245615 0.38256434187866972 0 0.1025776524751303 0.38486691706586951 0 0.1087205780393706 0.3656269003386084 0 0.115428724103706 0.40267530492779557 0 0.119448870245615 0.38256434187866972 0 0.1025776524751303 0.38486691706586951 0 0.1025776524751303 0.38486691706586951 0 0.1087205780393706 0.3656269003386084 0 0.086713905658550791 0.37461406501925459 0 0.091303312773641829 0.3995757594209417 0 0.115428724103706 0.40267530492779557 0 0.1025776524751303 0.38486691706586951 0 0.1087205780393706 0.3656269003386084 0 0.1202868522871179 0.34060046584014031 0 0.0915497208986496 0.34709204532757532 0 0.1087205780393706 0.3656269003386084 0 0.0915497208986496 0.34709204532757532 0 0.086713905658550791 0.37461406501925459 0 0.119448870245615 0.38256434187866972 0 0.1087205780393706 0.3656269003386084 0 0.13274728415341139 0.36410634055334368 0 0.1087205780393706 0.3656269003386084 0 0.1202868522871179 0.34060046584014031 0 0.13274728415341139 0.36410634055334368 0 0.1202868522871179 0.34060046584014031 0 0.1104734498024164 0.31171603628350752 0 0.14183880654046921 0.32250528078568202 0 0.1202868522871179 0.34060046584014031 0 0.1016552612267161 0.33013161519950079 0 0.1104734498024164 0.31171603628350752 0 0.1016552612267161 0.33013161519950079 0 0.081254576285268804 0.3210829637434266 0 0.1104734498024164 0.31171603628350752 0 0.1202868522871179 0.34060046584014031 0 0.1016552612267161 0.33013161519950079 0 0.0915497208986496 0.34709204532757532 0 0.081254576285268804 0.3210829637434266 0 0.072654821413094289 0.33942743407960763 0 0.0915497208986496 0.34709204532757532 0 0.1016552612267161 0.33013161519950079 0 0.081254576285268804 0.3210829637434266 0 0.0915497208986496 0.34709204532757532 0 0.081254576285268804 0.3210829637434266 0 0.06358813508901956 0.32234581427363851 0 0.071244474661197085 0.3036312559279935 0 0.081254576285268804 0.3210829637434266 0 0.06358813508901956 0.32234581427363851 0 0.072654821413094289 0.33942743407960763 0 0.06358813508901956 0.32234581427363851 0 0.072654821413094289 0.33942743407960763 0 0.055199983679349987 0.34246375673151652 0 0.072654821413094289 0.33942743407960763 0 0.066778362586220691 0.36264744131756171 0 0.055199983679349987 0.34246375673151652 0 0.072654821413094289 0.33942743407960763 0 0.0915497208986496 0.34709204532757532 0 0.066778362586220691 0.36264744131756171 0 0.0915497208986496 0.34709204532757532 0 0.086713905658550791 0.37461406501925459 0 0.066778362586220691 0.36264744131756171 0 0.066778362586220691 0.36264744131756171 0 0.044951457965310811 0.3555124197003488 0 0.045418656597819553 0.37354288132317159 0 0.066778362586220691 0.36264744131756171 0 0.044951457965310811 0.3555124197003488 0 0.055199983679349987 0.34246375673151652 0 0.044951457965310811 0.3555124197003488 0 0.021903196078839001 0.35746348141110651 0 0.035457090884324839 0.34144453771838768 0 0.044951457965310811 0.3555124197003488 0 0.035457090884324839 0.34144453771838768 0 0.055199983679349987 0.34246375673151652 0 0.044951457965310811 0.3555124197003488 0 0.045418656597819553 0.37354288132317159 0 0.021903196078839001 0.35746348141110651 0 0.025375843575522711 0.38021681034322929 0 0.021903196078839001 0.35746348141110651 0 0.0079023355216259559 0.37348921158265391 0 0.025375843575522711 0.38021681034322929 0 0.045418656597819553 0.37354288132317159 0 0.021903196078839001 0.35746348141110651 0 0.021903196078839001 0.35746348141110651 0 0.017151683724365509 0.3376665205351736 0 0.035457090884324839 0.34144453771838768 0 0.021903196078839001 0.35746348141110651 0 0.0095650341834115256 0.34490192427506011 0 0.017151683724365509 0.3376665205351736 0 0.021903196078839001 0.35746348141110651 0 0.0095650341834115256 0.34490192427506011 0 0.0061318462344260851 0.35417601161121459 0 -0.0050552824635438226 0.34569829691311771 0 0.0095650341834115256 0.34490192427506011 0 0.0061318462344260851 0.35417601161121459 0 0.021903196078839001 0.35746348141110651 0 0.0061318462344260851 0.35417601161121459 0 0.0079023355216259559 0.37348921158265391 0 -0.0052616759920083916 0.36132776784546622 0 0.0061318462344260851 0.35417601161121459 0 0.0079023355216259559 0.37348921158265391 0 0.0087281755863181168 0.33049580891976171 0 0.020410497070949891 0.30832150289807031 0 0.0056044744337335906 0.31412092038659428 0 0.0087281755863181168 0.33049580891976171 0 0.020410497070949891 0.30832150289807031 0 -0.003280447873963227 0.32161399115684158 0 0.0056044744337335906 0.31412092038659428 0 0.0087281755863181168 0.33049580891976171 0 0.0064742168078369342 0.3347740657525386 0 0.0087281755863181168 0.33049580891976171 0 -0.0050552824635438226 0.34569829691311771 0 0.0095650341834115256 0.34490192427506011 0 0.0064742168078369342 0.3347740657525386 0 0.0095650341834115256 0.34490192427506011 0 0.0064742168078369342 0.3347740657525386 0 0.017151683724365509 0.3376665205351736 0 0.0064742168078369342 0.3347740657525386 0 0.0087281755863181168 0.33049580891976171 0 0.017151683724365509 0.3376665205351736 0 0.0087281755863181168 0.33049580891976171 0 0.025353163704189718 0.33024288796319817 0 0.017151683724365509 0.3376665205351736 0 0.0087281755863181168 0.33049580891976171 0 0.025353163704189718 0.33024288796319817 0 0.025353163704189718 0.33024288796319817 0 0.017151683724365509 0.3376665205351736 0 0.035457090884324839 0.34144453771838768 0 0.0087281755863181168 0.33049580891976171 0 0.025353163704189718 0.33024288796319817 0 0.020410497070949891 0.30832150289807031 0 0.025353163704189718 0.33024288796319817 0 0.038017806832533571 0.30672300381527179 0 0.020410497070949891 0.30832150289807031 0 0.025353163704189718 0.33024288796319817 0 0.045812945845809312 0.32351293560108041 0 0.038017806832533571 0.30672300381527179 0 0.025353163704189718 0.33024288796319817 0 0.045812945845809312 0.32351293560108041 0 0.035457090884324839 0.34144453771838768 0 0.045812945845809312 0.32351293560108041 0 0.035457090884324839 0.34144453771838768 0 0.055199983679349987 0.34246375673151652 0 0.06358813508901956 0.32234581427363851 0 0.045812945845809312 0.32351293560108041 0 0.055199983679349987 0.34246375673151652 0 0.06358813508901956 0.32234581427363851 0 0.045812945845809312 0.32351293560108041 0 0.055148108477292443 0.3057593846019967 0 0.055148108477292443 0.3057593846019967 0 0.047586914097201803 0.29032131063477928 0 0.038017806832533571 0.30672300381527179 0 0.055148108477292443 0.3057593846019967 0 0.047586914097201803 0.29032131063477928 0 0.066935962560195753 0.28615893812798288 0 0.047586914097201803 0.29032131063477928 0 0.050578246113349837 0.27455429857722041 0 0.066935962560195753 0.28615893812798288 0 0.047586914097201803 0.29032131063477928 0 0.032092818555581597 0.28614719687637868 0 0.038017806832533571 0.30672300381527179 0 0.047586914097201803 0.29032131063477928 0 0.032092818555581597 0.28614719687637868 0 0.050578246113349837 0.27455429857722041 0 0.045812945845809312 0.32351293560108041 0 0.055148108477292443 0.3057593846019967 0 0.038017806832533571 0.30672300381527179 0 0.032092818555581597 0.28614719687637868 0 0.038017806832533571 0.30672300381527179 0 0.020410497070949891 0.30832150289807031 0 0.032092818555581597 0.28614719687637868 0 0.020410497070949891 0.30832150289807031 0 0.032092818555581597 0.28614719687637868 0 0.020410497070949891 0.30832150289807031 0 0.0083336089875100904 0.29343585490586271 0 0.032092818555581597 0.28614719687637868 0 0.0083336089875100904 0.29343585490586271 0 0.021382191810826279 0.2686960609189637 0 -0.0088759444352828343 0.31092800175718183 0 0.0056044744337335906 0.31412092038659428 0 0.0083336089875100904 0.29343585490586271 0 0.0056044744337335906 0.31412092038659428 0 0.020410497070949891 0.30832150289807031 0 0.0083336089875100904 0.29343585490586271 0 0.0073806355134042019 0.25529449578482938 0 3.3590645499582607e-05 0.27236849017123349 0 0.021382191810826279 0.2686960609189637 0 0.0083336089875100904 0.29343585490586271 0 3.3590645499582607e-05 0.27236849017123349 0 0.021382191810826279 0.2686960609189637 0 0.025149977659741599 0.24684982625080901 0 0.0073806355134042019 0.25529449578482938 0 0.021382191810826279 0.2686960609189637 0 0.025149977659741599 0.24684982625080901 0 0.021382191810826279 0.2686960609189637 0 0.043775140040213267 0.26397289085468728 0 0.025149977659741599 0.24684982625080901 0 0.045472231705318063 0.24424317023843681 0 0.050158093690384618 0.2598810672441918 0 0.025149977659741599 0.24684982625080901 0 0.050158093690384618 0.2598810672441918 0 0.025149977659741599 0.24684982625080901 0 0.043775140040213267 0.26397289085468728 0 0.050158093690384618 0.2598810672441918 0 0.032092818555581597 0.28614719687637868 0 0.043775140040213267 0.26397289085468728 0 0.032092818555581597 0.28614719687637868 0 0.021382191810826279 0.2686960609189637 0 0.043775140040213267 0.26397289085468728 0 0.032092818555581597 0.28614719687637868 0 0.043775140040213267 0.26397289085468728 0 0.050578246113349837 0.27455429857722041 0 0.050578246113349837 0.27455429857722041 0 0.063875668081316214 0.2678607518654692 0 0.066935962560195753 0.28615893812798288 0 0.043775140040213267 0.26397289085468728 0 0.050578246113349837 0.27455429857722041 0 0.050158093690384618 0.2598810672441918 0 0.050578246113349837 0.27455429857722041 0 0.056046126259945157 0.25263236173372139 0 0.063875668081316214 0.2678607518654692 0 0.050578246113349837 0.27455429857722041 0 0.050158093690384618 0.2598810672441918 0 0.056046126259945157 0.25263236173372139 0 0.045472231705318063 0.24424317023843681 0 0.050158093690384618 0.2598810672441918 0 0.056046126259945157 0.25263236173372139 0 0.050578246113349837 0.27455429857722041 0 0.056046126259945157 0.25263236173372139 0 0.078525547080241467 0.2465942846531784 0 0.067905867336300579 0.25358800162702 0 0.079567988853459573 0.27014218499250892 0 0.067905867336300579 0.25358800162702 0 0.079567988853459573 0.27014218499250892 0 0.063875668081316214 0.2678607518654692 0 0.056046126259945157 0.25263236173372139 0 0.067905867336300579 0.25358800162702 0 0.063875668081316214 0.2678607518654692 0 0.078525547080241467 0.2465942846531784 0 0.079567988853459573 0.27014218499250892 0 0.093798877441032588 0.2579700649065903 0 0.079567988853459573 0.27014218499250892 0 0.063875668081316214 0.2678607518654692 0 0.066935962560195753 0.28615893812798288 0 0.079567988853459573 0.27014218499250892 0 0.066935962560195753 0.28615893812798288 0 0.087430381393448858 0.29852998767476718 0 0.066935962560195753 0.28615893812798288 0 0.071244474661197085 0.3036312559279935 0 0.087430381393448858 0.29852998767476718 0 0.055148108477292443 0.3057593846019967 0 0.066935962560195753 0.28615893812798288 0 0.071244474661197085 0.3036312559279935 0 0.06358813508901956 0.32234581427363851 0 0.055148108477292443 0.3057593846019967 0 0.071244474661197085 0.3036312559279935 0 0.081254576285268804 0.3210829637434266 0 0.087430381393448858 0.29852998767476718 0 0.1104734498024164 0.31171603628350752 0 0.081254576285268804 0.3210829637434266 0 0.071244474661197085 0.3036312559279935 0 0.087430381393448858 0.29852998767476718 0 0.079567988853459573 0.27014218499250892 0 0.087430381393448858 0.29852998767476718 0 0.1079828451826004 0.27738565586056829 0 0.087430381393448858 0.29852998767476718 0 0.1104734498024164 0.31171603628350752 0 0.1079828451826004 0.27738565586056829 0 0.1104734498024164 0.31171603628350752 0 0.1079828451826004 0.27738565586056829 0 0.13401849175413849 0.29214957311260448 0 0.1079828451826004 0.27738565586056829 0 0.13401849175413849 0.29214957311260448 0 0.1100607559553454 0.25396994184181759 0 0.1079828451826004 0.27738565586056829 0 0.13366986361514199 0.26692500362740812 0 0.12787711237058769 0.24521089126939841 0 0.1100607559553454 0.25396994184181759 0 0.13366986361514199 0.26692500362740812 0 0.092857250133516089 0.24175825718487831 0 0.1100607559553454 0.25396994184181759 0 0.093798877441032588 0.2579700649065903 0 0.1100607559553454 0.25396994184181759 0 0.093798877441032588 0.2579700649065903 0 0.1079828451826004 0.27738565586056829 0 0.079567988853459573 0.27014218499250892 0 0.093798877441032588 0.2579700649065903 0 0.1079828451826004 0.27738565586056829 0 0.13366986361514199 0.26692500362740812 0 0.1558685034792309 0.28595093384994291 0 0.15959452244756481 0.26367036214955358 0 0.14702044576598061 0.2478904659134552 0 0.13366986361514199 0.26692500362740812 0 0.15959452244756481 0.26367036214955358 0 0.14702044576598061 0.2478904659134552 0 0.12787711237058769 0.24521089126939841 0 0.13366986361514199 0.26692500362740812 0 0.1079828451826004 0.27738565586056829 0 0.13366986361514199 0.26692500362740812 0 0.13401849175413849 0.29214957311260448 0 0.1104734498024164 0.31171603628350752 0 0.13401849175413849 0.29214957311260448 0 0.14183880654046921 0.32250528078568202 0 0.13401849175413849 0.29214957311260448 0 0.16005413832567669 0.30691349036464077 0 0.14183880654046921 0.32250528078568202 0 0.13401849175413849 0.29214957311260448 0 0.16005413832567669 0.30691349036464077 0 0.13401849175413849 0.29214957311260448 0 0.1558685034792309 0.28595093384994291 0 0.16005413832567669 0.30691349036464077 0 0.13366986361514199 0.26692500362740812 0 0.13401849175413849 0.29214957311260448 0 0.1558685034792309 0.28595093384994291 0 0.1558685034792309 0.28595093384994291 0 0.1700220001876428 0.28782965529906401 0 0.16005413832567669 0.30691349036464077 0 0.1558685034792309 0.28595093384994291 0 0.1700220001876428 0.28782965529906401 0 0.17370236977615991 0.27502287964280692 0 0.1700220001876428 0.28782965529906401 0 0.16005413832567669 0.30691349036464077 0 0.1764196225356903 0.29880027385689728 0 0.16005413832567669 0.30691349036464077 0 0.1764196225356903 0.29880027385689728 0 0.18686192329242929 0.31378732528256248 0 0.1764196225356903 0.29880027385689728 0 0.18674031124236579 0.30201460306836742 0 0.19086383386244751 0.2907864273273883 0 0.1764196225356903 0.29880027385689728 0 0.18674031124236579 0.30201460306836742 0 0.18686192329242929 0.31378732528256248 0 0.1700220001876428 0.28782965529906401 0 0.18013512871176271 0.28566990799825959 0 0.17370236977615991 0.27502287964280692 0 0.1700220001876428 0.28782965529906401 0 0.1764196225356903 0.29880027385689728 0 0.18013512871176271 0.28566990799825959 0 0.1764196225356903 0.29880027385689728 0 0.18013512871176271 0.28566990799825959 0 0.19086383386244751 0.2907864273273883 0 0.18013512871176271 0.28566990799825959 0 0.1896678171968729 0.27591030386514148 0 0.19086383386244751 0.2907864273273883 0 0.18251379545819379 0.26835647973838378 0 0.17370236977615991 0.27502287964280692 0 0.1896678171968729 0.27591030386514148 0 0.18013512871176271 0.28566990799825959 0 0.17370236977615991 0.27502287964280692 0 0.1896678171968729 0.27591030386514148 0 0.18251379545819379 0.26835647973838378 0 0.17370236977615991 0.27502287964280692 0 0.17699066645021869 0.2595722272450377 0 0.17370236977615991 0.27502287964280692 0 0.15959452244756481 0.26367036214955358 0 0.17699066645021869 0.2595722272450377 0 0.1558685034792309 0.28595093384994291 0 0.17370236977615991 0.27502287964280692 0 0.15959452244756481 0.26367036214955358 0 0.16774616909827719 0.2460930353984315 0 0.15959452244756481 0.26367036214955358 0 0.17699066645021869 0.2595722272450377 0 0.14702044576598061 0.2478904659134552 0 0.16774616909827719 0.2460930353984315 0 0.15959452244756481 0.26367036214955358 0 0.18692125413578081 0.24552837502103991 0 0.16774616909827719 0.2460930353984315 0 0.17699066645021869 0.2595722272450377 0 0.18692125413578081 0.24552837502103991 0 0.17699066645021869 0.2595722272450377 0 0.19242781921148469 0.26384338938458129 0 0.18251379545819379 0.26835647973838378 0 0.17699066645021869 0.2595722272450377 0 0.19242781921148469 0.26384338938458129 0 0.18692125413578081 0.24552837502103991 0 0.19242781921148469 0.26384338938458129 0 0.20107379594449931 0.25686311186437227 0 0.18692125413578081 0.24552837502103991 0 0.20107379594449931 0.25686311186437227 0 0.19242781921148469 0.26384338938458129 0 0.20107379594449931 0.25686311186437227 0 0.2008998280478862 0.26959186196165702 0 0.19242781921148469 0.26384338938458129 0 0.20107379594449931 0.25686311186437227 0 0.19242781921148469 0.26384338938458129 0 0.1896678171968729 0.27591030386514148 0 0.2008998280478862 0.26959186196165702 0 0.18251379545819379 0.26835647973838378 0 0.19242781921148469 0.26384338938458129 0 0.1896678171968729 0.27591030386514148 0 0.1896678171968729 0.27591030386514148 0 0.2008998280478862 0.26959186196165702 0 0.20354188417430641 0.281093168015905 0 0.2008998280478862 0.26959186196165702 0 0.2177878237122676 0.27024933667828532 0 0.20354188417430641 0.281093168015905 0 0.2177878237122676 0.27024933667828532 0 0.20354188417430641 0.281093168015905 0 0.2166033006779626 0.28924568688104418 0 0.21557305570370441 0.24515722135805329 0 0.20107379594449931 0.25686311186437227 0 0.2177878237122676 0.27024933667828532 0 0.20107379594449931 0.25686311186437227 0 0.2177878237122676 0.27024933667828532 0 0.20107379594449931 0.25686311186437227 0 0.2008998280478862 0.26959186196165702 0 0.2177878237122676 0.27024933667828532 0 0.21557305570370441 0.24515722135805329 0 0.20107379594449931 0.25686311186437227 0 0.21557305570370441 0.24515722135805329 0 0.2177878237122676 0.27024933667828532 0 0.23628031136540401 0.25597328662156199 0 0.2177878237122676 0.27024933667828532 0 0.23628031136540401 0.25597328662156199 0 0.23450185148003599 0.28363556149219821 0 0.2177878237122676 0.27024933667828532 0 0.23450185148003599 0.28363556149219821 0 0.2166033006779626 0.28924568688104418 0 0.2177878237122676 0.27024933667828532 0 0.23450185148003599 0.28363556149219821 0 0.23628031136540401 0.25597328662156199 0 0.23450185148003599 0.28363556149219821 0 0.25102838231212438 0.26850893423506528 0 0.23450185148003599 0.28363556149219821 0 0.25953152444998728 0.28294166139542631 0 0.25102838231212438 0.26850893423506528 0 0.23628031136540401 0.25597328662156199 0 0.25102838231212438 0.26850893423506528 0 0.26221447651104962 0.2479993693513689 0 0.2297645605960125 0.30261029929826411 0 0.25121587924780342 0.29702178630611242 0 0.2484846271056145 0.31037308609574782 0 0.2297645605960125 0.30261029929826411 0 0.23798581837376781 0.31938142953188831 0 0.2484846271056145 0.31037308609574782 0 0.2297645605960125 0.30261029929826411 0 0.25121587924780342 0.29702178630611242 0 0.23450185148003599 0.28363556149219821 0 0.2297645605960125 0.30261029929826411 0 0.25121587924780342 0.29702178630611242 0 0.23450185148003599 0.28363556149219821 0 0.25121587924780342 0.29702178630611242 0 0.23450185148003599 0.28363556149219821 0 0.25953152444998728 0.28294166139542631 0 0.25121587924780342 0.29702178630611242 0 0.23450185148003599 0.28363556149219821 0 0.2297645605960125 0.30261029929826411 0 0.2166033006779626 0.28924568688104418 0 0.2297645605960125 0.30261029929826411 0 0.20831324194422091 0.30819881229041318 0 0.2297645605960125 0.30261029929826411 0 0.20831324194422091 0.30819881229041318 0 0.21977364325038071 0.31928170538083578 0 0.20831324194422091 0.30819881229041318 0 0.2166033006779626 0.28924568688104418 0 0.20288664267638859 0.29424953150154581 0 0.2297645605960125 0.30261029929826411 0 0.20831324194422091 0.30819881229041318 0 0.2166033006779626 0.28924568688104418 0 0.20354188417430641 0.281093168015905 0 0.2166033006779626 0.28924568688104418 0 0.20288664267638859 0.29424953150154581 0 0.20354188417430641 0.281093168015905 0 0.20288664267638859 0.29424953150154581 0 0.19086383386244751 0.2907864273273883 0 0.20288664267638859 0.29424953150154581 0 0.19086383386244751 0.2907864273273883 0 0.19511095272300569 0.3019235629929784 0 0.1896678171968729 0.27591030386514148 0 0.20354188417430641 0.281093168015905 0 0.19086383386244751 0.2907864273273883 0 0.20831324194422091 0.30819881229041318 0 0.18686192329242929 0.31378732528256248 0 0.20831324194422091 0.30819881229041318 0 0.19511095272300569 0.3019235629929784 0 0.18686192329242929 0.31378732528256248 0 0.20831324194422091 0.30819881229041318 0 0.20288664267638859 0.29424953150154581 0 0.19511095272300569 0.3019235629929784 0 0.18674031124236579 0.30201460306836742 0 0.19086383386244751 0.2907864273273883 0 0.19511095272300569 0.3019235629929784 0 0.18674031124236579 0.30201460306836742 0 0.19511095272300569 0.3019235629929784 0 0.18686192329242929 0.31378732528256248 0 0.20141288137377081 0.31920030670374799 0 0.18686192329242929 0.31378732528256248 0 0.18608978489721489 0.32167740761667712 0 0.20831324194422091 0.30819881229041318 0 0.20141288137377081 0.31920030670374799 0 0.18686192329242929 0.31378732528256248 0 0.20141288137377081 0.31920030670374799 0 0.21212543146875301 0.33644132486871342 0 0.18608978489721489 0.32167740761667712 0 0.21212543146875301 0.33644132486871342 0 0.18608978489721489 0.32167740761667712 0 0.19231113454718349 0.34165597013868199 0 0.21212543146875301 0.33644132486871342 0 0.18608978489721489 0.32167740761667712 0 0.20831324194422091 0.30819881229041318 0 0.20141288137377081 0.31920030670374799 0 0.21977364325038071 0.31928170538083578 0 0.20141288137377081 0.31920030670374799 0 0.21212543146875301 0.33644132486871342 0 0.21977364325038071 0.31928170538083578 0 0.21977364325038071 0.31928170538083578 0 0.2290399257457596 0.32985805959198788 0 0.23798581837376781 0.31938142953188831 0 0.2297645605960125 0.30261029929826411 0 0.21977364325038071 0.31928170538083578 0 0.23798581837376781 0.31938142953188831 0 0.21212543146875301 0.33644132486871342 0 0.21977364325038071 0.31928170538083578 0 0.2290399257457596 0.32985805959198788 0 0.21212543146875301 0.33644132486871342 0 0.23060518033342339 0.33807106122714048 0 0.2290399257457596 0.32985805959198788 0 0.21212543146875301 0.33644132486871342 0 0.23060518033342339 0.33807106122714048 0 0.23816107804029091 0.35120524212074949 0 0.23060518033342339 0.33807106122714048 0 0.2290399257457596 0.32985805959198788 0 0.2430942860788903 0.33477961832711151 0 0.23060518033342339 0.33807106122714048 0 0.2430942860788903 0.33477961832711151 0 0.23816107804029091 0.35120524212074949 0 0.2484846271056145 0.31037308609574782 0 0.23798581837376781 0.31938142953188831 0 0.25508783524565293 0.32209220201309929 0 0.2430942860788903 0.33477961832711151 0 0.23798581837376781 0.31938142953188831 0 0.25508783524565293 0.32209220201309929 0 0.2290399257457596 0.32985805959198788 0 0.2430942860788903 0.33477961832711151 0 0.23798581837376781 0.31938142953188831 0 0.23439037865920059 0.35560025357312369 0 0.2386764282036242 0.37725286527910618 0 0.24311907173897271 0.36013203008567057 0 0.23439037865920059 0.35560025357312369 0 0.2386764282036242 0.37725286527910618 0 0.2492643002430574 0.365916522193315 0 0.24311907173897271 0.36013203008567057 0 0.2386764282036242 0.37725286527910618 0 0.2492643002430574 0.365916522193315 0 0.2386764282036242 0.37725286527910618 0 0.25383912625151372 0.37755129754335942 0 0.24311907173897271 0.36013203008567057 0 0.23816107804029091 0.35120524212074949 0 0.2641967246118288 0.36596915937278562 0 0.2430942860788903 0.33477961832711151 0 0.23816107804029091 0.35120524212074949 0 0.26173146881309822 0.35734024057335978 0 0.24311907173897271 0.36013203008567057 0 0.23816107804029091 0.35120524212074949 0 0.23439037865920059 0.35560025357312369 0 0.21212543146875301 0.33644132486871342 0 0.23816107804029091 0.35120524212074949 0 0.21848510057545151 0.35453686872473111 0 0.23816107804029091 0.35120524212074949 0 0.23439037865920059 0.35560025357312369 0 0.21848510057545151 0.35453686872473111 0 0.21212543146875301 0.33644132486871342 0 0.23816107804029091 0.35120524212074949 0 0.23439037865920059 0.35560025357312369 0 0.22513916990612379 0.36868200325308897 0 0.2386764282036242 0.37725286527910618 0 0.23439037865920059 0.35560025357312369 0 0.22513916990612379 0.36868200325308897 0 0.21848510057545151 0.35453686872473111 0 0.22513916990612379 0.36868200325308897 0 0.20931495008602691 0.36890180222237801 0 0.21961872799640589 0.38146559318592133 0 0.22513916990612379 0.36868200325308897 0 0.20931495008602691 0.36890180222237801 0 0.21848510057545151 0.35453686872473111 0 0.20931495008602691 0.36890180222237801 0 0.21848510057545151 0.35453686872473111 0 0.2018014651714847 0.35413555731190122 0 0.21212543146875301 0.33644132486871342 0 0.21848510057545151 0.35453686872473111 0 0.2018014651714847 0.35413555731190122 0 0.19231113454718349 0.34165597013868199 0 0.2018014651714847 0.35413555731190122 0 0.1832131523033072 0.3569188224833833 0 0.19231113454718349 0.34165597013868199 0 0.21212543146875301 0.33644132486871342 0 0.2018014651714847 0.35413555731190122 0 0.20931495008602691 0.36890180222237801 0 0.2018014651714847 0.35413555731190122 0 0.19217836357317111 0.36996972767433872 0 0.20931495008602691 0.36890180222237801 0 0.19217836357317111 0.36996972767433872 0 0.20289108470775991 0.38370682355227331 0 0.2018014651714847 0.35413555731190122 0 0.19217836357317111 0.36996972767433872 0 0.1832131523033072 0.3569188224833833 0 0.19217836357317111 0.36996972767433872 0 0.17197644233242751 0.37002706837148541 0 0.1832131523033072 0.3569188224833833 0 0.17197644233242751 0.37002706837148541 0 0.16866852787741549 0.35230522619665788 0 0.1832131523033072 0.3569188224833833 0 0.17197644233242751 0.37002706837148541 0 0.16866852787741549 0.35230522619665788 0 0.15186920095361911 0.35620033980905319 0 0.17197644233242751 0.37002706837148541 0 0.15186920095361911 0.35620033980905319 0 0.15185568245476189 0.37707061606136422 0 0.16866852787741549 0.35230522619665788 0 0.1579580049025659 0.33927316190663209 0 0.15186920095361911 0.35620033980905319 0 0.16866852787741549 0.35230522619665788 0 0.1832131523033072 0.3569188224833833 0 0.17832583889515771 0.33910673841273542 0 0.19231113454718349 0.34165597013868199 0 0.1832131523033072 0.3569188224833833 0 0.17832583889515771 0.33910673841273542 0 0.17832583889515771 0.33910673841273542 0 0.18608978489721489 0.32167740761667712 0 0.16647560889869609 0.32578562508456149 0 0.19231113454718349 0.34165597013868199 0 0.17832583889515771 0.33910673841273542 0 0.18608978489721489 0.32167740761667712 0 0.16005413832567669 0.30691349036464077 0 0.18608978489721489 0.32167740761667712 0 0.16005413832567669 0.30691349036464077 0 0.18686192329242929 0.31378732528256248 0 0.18608978489721489 0.32167740761667712 0 0.16005413832567669 0.30691349036464077 0 0.18608978489721489 0.32167740761667712 0 0.16647560889869609 0.32578562508456149 0 0.17832583889515771 0.33910673841273542 0 0.16647560889869609 0.32578562508456149 0 0.1579580049025659 0.33927316190663209 0 0.16866852787741549 0.35230522619665788 0 0.17832583889515771 0.33910673841273542 0 0.1579580049025659 0.33927316190663209 0 0.16647560889869609 0.32578562508456149 0 0.1579580049025659 0.33927316190663209 0 0.14183880654046921 0.32250528078568202 0 0.1579580049025659 0.33927316190663209 0 0.14183880654046921 0.32250528078568202 0 0.14054269679001921 0.34363296691054102 0 0.16005413832567669 0.30691349036464077 0 0.16647560889869609 0.32578562508456149 0 0.14183880654046921 0.32250528078568202 0 0.1202868522871179 0.34060046584014031 0 0.14183880654046921 0.32250528078568202 0 0.14054269679001921 0.34363296691054102 0 0.1202868522871179 0.34060046584014031 0 0.14054269679001921 0.34363296691054102 0 0.13274728415341139 0.36410634055334368 0 0.13274728415341139 0.36410634055334368 0 0.15186920095361911 0.35620033980905319 0 0.15185568245476189 0.37707061606136422 0 0.14054269679001921 0.34363296691054102 0 0.13274728415341139 0.36410634055334368 0 0.15186920095361911 0.35620033980905319 0 0.1579580049025659 0.33927316190663209 0 0.14054269679001921 0.34363296691054102 0 0.15186920095361911 0.35620033980905319 0 0.15352992747694119 0.40026604784697911 0 0.13692284990477191 0.38930777957628943 0 0.1397509022148696 0.40843688002483958 0 0.15352992747694119 0.40026604784697911 0 0.15185568245476189 0.37707061606136422 0 0.13692284990477191 0.38930777957628943 0 0.13274728415341139 0.36410634055334368 0 0.15185568245476189 0.37707061606136422 0 0.13692284990477191 0.38930777957628943 0 0.119448870245615 0.38256434187866972 0 0.13274728415341139 0.36410634055334368 0 0.13692284990477191 0.38930777957628943 0 0.115428724103706 0.40267530492779557 0 0.13692284990477191 0.38930777957628943 0 0.1397509022148696 0.40843688002483958 0 0.12259086230274099 0.42947812748907283 0 0.1397509022148696 0.40843688002483958 0 0.14363603346764281 0.42707530835579988 0 0.12259086230274099 0.42947812748907283 0 0.115428724103706 0.40267530492779557 0 0.1397509022148696 0.40843688002483958 0 0.12259086230274099 0.42947812748907283 0 0.14363603346764281 0.42707530835579988 0 0.13510526379757609 0.44116740875256688 0 0.14363603346764281 0.42707530835579988 0 0.16526304614212209 0.42908608809292892 0 0.1507341445198021 0.44370602134863157 0 0.14363603346764281 0.42707530835579988 0 0.15527295380072001 0.4153931176925994 0 0.16526304614212209 0.42908608809292892 0 0.14363603346764281 0.42707530835579988 0 0.1507341445198021 0.44370602134863157 0 0.13510526379757609 0.44116740875256688 0 0.1397509022148696 0.40843688002483958 0 0.14363603346764281 0.42707530835579988 0 0.15527295380072001 0.4153931176925994 0 0.15352992747694119 0.40026604784697911 0 0.1397509022148696 0.40843688002483958 0 0.15527295380072001 0.4153931176925994 0 0.15527295380072001 0.4153931176925994 0 0.1711416470664554 0.41062619466687539 0 0.16526304614212209 0.42908608809292892 0 0.15352992747694119 0.40026604784697911 0 0.15527295380072001 0.4153931176925994 0 0.1711416470664554 0.41062619466687539 0 0.16526304614212209 0.42908608809292892 0 0.1809560021812836 0.43814832633623357 0 0.16598328874466911 0.44273574664910909 0 0.16526304614212209 0.42908608809292892 0 0.18469425222239219 0.42125941149134333 0 0.1809560021812836 0.43814832633623357 0 0.1711416470664554 0.41062619466687539 0 0.16526304614212209 0.42908608809292892 0 0.18469425222239219 0.42125941149134333 0 0.1711416470664554 0.41062619466687539 0 0.18469425222239219 0.42125941149134333 0 0.1843100454414533 0.40126956181167389 0 0.1711416470664554 0.41062619466687539 0 0.1843100454414533 0.40126956181167389 0 0.16952276405911931 0.3912061138884545 0 0.1843100454414533 0.40126956181167389 0 0.16952276405911931 0.3912061138884545 0 0.18589276442329861 0.38606835492789338 0 0.15352992747694119 0.40026604784697911 0 0.1711416470664554 0.41062619466687539 0 0.16952276405911931 0.3912061138884545 0 0.15352992747694119 0.40026604784697911 0 0.15185568245476189 0.37707061606136422 0 0.16952276405911931 0.3912061138884545 0 0.17197644233242751 0.37002706837148541 0 0.15185568245476189 0.37707061606136422 0 0.16952276405911931 0.3912061138884545 0 0.17197644233242751 0.37002706837148541 0 0.16952276405911931 0.3912061138884545 0 0.18589276442329861 0.38606835492789338 0 0.19217836357317111 0.36996972767433872 0 0.17197644233242751 0.37002706837148541 0 0.18589276442329861 0.38606835492789338 0 0.18589276442329861 0.38606835492789338 0 0.20289108470775991 0.38370682355227331 0 0.19700705340585539 0.39579078134538831 0 0.19217836357317111 0.36996972767433872 0 0.18589276442329861 0.38606835492789338 0 0.20289108470775991 0.38370682355227331 0 0.19700705340585539 0.39579078134538831 0 0.21316338490038089 0.39704202397260657 0 0.19877798755638451 0.41086714246249401 0 0.1843100454414533 0.40126956181167389 0 0.19700705340585539 0.39579078134538831 0 0.19877798755638451 0.41086714246249401 0 0.1843100454414533 0.40126956181167389 0 0.18589276442329861 0.38606835492789338 0 0.19700705340585539 0.39579078134538831 0 0.20289108470775991 0.38370682355227331 0 0.19700705340585539 0.39579078134538831 0 0.21316338490038089 0.39704202397260657 0 0.20931495008602691 0.36890180222237801 0 0.20289108470775991 0.38370682355227331 0 0.21961872799640589 0.38146559318592133 0 0.20289108470775991 0.38370682355227331 0 0.21316338490038089 0.39704202397260657 0 0.21961872799640589 0.38146559318592133 0 0.22513916990612379 0.36868200325308897 0 0.21961872799640589 0.38146559318592133 0 0.2386764282036242 0.37725286527910618 0 0.21961872799640589 0.38146559318592133 0 0.22852735017452019 0.39320804083607441 0 0.2386764282036242 0.37725286527910618 0 0.21316338490038089 0.39704202397260657 0 0.21961872799640589 0.38146559318592133 0 0.22852735017452019 0.39320804083607441 0 0.21316338490038089 0.39704202397260657 0 0.22852735017452019 0.39320804083607441 0 0.22983145469658259 0.40925978250573319 0 0.21316338490038089 0.39704202397260657 0 0.22983145469658259 0.40925978250573319 0 0.22852735017452019 0.39320804083607441 0 0.2429624777480478 0.39890547698508871 0 0.22983145469658259 0.40925978250573319 0 0.2429624777480478 0.39890547698508871 0 0.2386764282036242 0.37725286527910618 0 0.22852735017452019 0.39320804083607441 0 0.2429624777480478 0.39890547698508871 0 0.2386764282036242 0.37725286527910618 0 0.2429624777480478 0.39890547698508871 0 0.2386764282036242 0.37725286527910618 0 0.25341304662754638 0.38974012394171498 0 0.2386764282036242 0.37725286527910618 0 0.25383912625151372 0.37755129754335942 0 0.25341304662754638 0.38974012394171498 0 0.24649952449278431 0.42147754103885982 0 0.22996656543308741 0.44177288309861867 0 0.24946733303660301 0.43176723098649622 0 0.24649952449278431 0.42147754103885982 0 0.22996656543308741 0.44177288309861867 0 0.24649952449278431 0.42147754103885982 0 0.22738899126970491 0.42458926785457718 0 0.22996656543308741 0.44177288309861867 0 0.24946733303660301 0.43176723098649622 0 0.24649952449278431 0.42147754103885982 0 0.2429624777480478 0.39890547698508871 0 0.24649952449278431 0.42147754103885982 0 0.24649952449278431 0.42147754103885982 0 0.22983145469658259 0.40925978250573319 0 0.22738899126970491 0.42458926785457718 0 0.24649952449278431 0.42147754103885982 0 0.22983145469658259 0.40925978250573319 0 0.2429624777480478 0.39890547698508871 0 0.24649952449278431 0.42147754103885982 0 0.22983145469658259 0.40925978250573319 0 0.21316338490038089 0.39704202397260657 0 0.22983145469658259 0.40925978250573319 0 0.21370806227123909 0.41789950377956148 0 0.22983145469658259 0.40925978250573319 0 0.22738899126970491 0.42458926785457718 0 0.21370806227123909 0.41789950377956148 0 0.22738899126970491 0.42458926785457718 0 0.21739304288862979 0.43200563017257382 0 0.22996656543308741 0.44177288309861867 0 0.22738899126970491 0.42458926785457718 0 0.21739304288862979 0.43200563017257382 0 0.21370806227123909 0.41789950377956148 0 0.21739304288862979 0.43200563017257382 0 0.1999317510848099 0.43097584272053618 0 0.2111195299095035 0.44359306409302351 0 0.21739304288862979 0.43200563017257382 0 0.21370806227123909 0.41789950377956148 0 0.1999317510848099 0.43097584272053618 0 0.21370806227123909 0.41789950377956148 0 0.19877798755638451 0.41086714246249401 0 0.1999317510848099 0.43097584272053618 0 0.21316338490038089 0.39704202397260657 0 0.21370806227123909 0.41789950377956148 0 0.19877798755638451 0.41086714246249401 0 0.18469425222239219 0.42125941149134333 0 0.19877798755638451 0.41086714246249401 0 0.1999317510848099 0.43097584272053618 0 0.18469425222239219 0.42125941149134333 0 0.1843100454414533 0.40126956181167389 0 0.19877798755638451 0.41086714246249401 0 0.18469425222239219 0.42125941149134333 0 0.1999317510848099 0.43097584272053618 0 0.1809560021812836 0.43814832633623357 0 0.1999317510848099 0.43097584272053618 0 0.19479511809318301 0.4526549487178691 0 0.2111195299095035 0.44359306409302351 0 0.1999317510848099 0.43097584272053618 0 0.19479511809318301 0.4526549487178691 0 0.1809560021812836 0.43814832633623357 0 0.19479511809318301 0.4526549487178691 0 0.213169792932182 0.46047172596691099 0 0.19211155850092579 0.47790980627879082 0 0.19479511809318301 0.4526549487178691 0 0.19211155850092579 0.47790980627879082 0 0.18348770279874721 0.46143911161818069 0 0.213169792932182 0.46047172596691099 0 0.2111195299095035 0.44359306409302351 0 0.22996656543308741 0.44177288309861867 0 0.19479511809318301 0.4526549487178691 0 0.213169792932182 0.46047172596691099 0 0.2111195299095035 0.44359306409302351 0 0.21739304288862979 0.43200563017257382 0 0.2111195299095035 0.44359306409302351 0 0.22996656543308741 0.44177288309861867 0 0.22996656543308741 0.44177288309861867 0 0.22854105436186559 0.46372788353366717 0 0.24141841662185301 0.45603819576859073 0 0.213169792932182 0.46047172596691099 0 0.22854105436186559 0.46372788353366717 0 0.221321310837439 0.47674074212904899 0 0.213169792932182 0.46047172596691099 0 0.22996656543308741 0.44177288309861867 0 0.22854105436186559 0.46372788353366717 0 0.24141841662185301 0.45603819576859073 0 0.23645949407781469 0.47608243786178739 0 0.25047151807745072 0.47036873115219768 0 0.22854105436186559 0.46372788353366717 0 0.24141841662185301 0.45603819576859073 0 0.23645949407781469 0.47608243786178739 0 0.24141841662185301 0.45603819576859073 0 0.25047151807745072 0.47036873115219768 0 0.25477099823403621 0.45804476415031298 0 0.24141841662185301 0.45603819576859073 0 0.25282491994113748 0.44831200937164878 0 0.25477099823403621 0.45804476415031298 0 0.22996656543308741 0.44177288309861867 0 0.24141841662185301 0.45603819576859073 0 0.24583280085865111 0.44361242472787987 0 0.24946733303660301 0.43176723098649622 0 0.22996656543308741 0.44177288309861867 0 0.24583280085865111 0.44361242472787987 0 0.24141841662185301 0.45603819576859073 0 0.24583280085865111 0.44361242472787987 0 0.25282491994113748 0.44831200937164878 0 0.24904418528453851 0.48634810883828161 0 0.23645949407781469 0.47608243786178739 0 0.23352830384551029 0.49999999999999978 0 0.24904418528453851 0.48634810883828161 0 0.23352830384551029 0.49999999999999978 0 0.25181722630913472 0.5 0 0.24904418528453851 0.48634810883828161 0 0.23645949407781469 0.47608243786178739 0 0.25047151807745072 0.47036873115219768 0 0.23645949407781469 0.47608243786178739 0 0.221321310837439 0.47674074212904899 0 0.23352830384551029 0.49999999999999978 0 0.22854105436186559 0.46372788353366717 0 0.23645949407781469 0.47608243786178739 0 0.221321310837439 0.47674074212904899 0 0.23352830384551029 0.49999999999999978 0 0.2128199311732181 0.48895490313939532 0 0.21702906166474581 0.5 0 0.23352830384551029 0.49999999999999978 0 0.2128199311732181 0.48895490313939532 0 0.221321310837439 0.47674074212904899 0 0.23352830384551029 0.49999999999999978 0 0.2128199311732181 0.48895490313939532 0 0.2128199311732181 0.48895490313939532 0 0.21702906166474581 0.5 0 0.20052981948398141 0.49999999999999989 0 0.213169792932182 0.46047172596691099 0 0.221321310837439 0.47674074212904899 0 0.19211155850092579 0.47790980627879082 0 0.221321310837439 0.47674074212904899 0 0.2128199311732181 0.48895490313939532 0 0.19211155850092579 0.47790980627879082 0 0.2128199311732181 0.48895490313939532 0 0.19211155850092579 0.47790980627879082 0 0.2128199311732181 0.48895490313939532 0 0.20052981948398141 0.49999999999999989 0 0.19295831529489699 0.4905304616351287 0 0.2128199311732181 0.48895490313939532 0 0.19211155850092579 0.47790980627879082 0 0.19295831529489699 0.4905304616351287 0 0.20052981948398141 0.49999999999999989 0 0.1839227339461352 0.49861489743603538 0 0.20052981948398141 0.49999999999999989 0 0.19295831529489699 0.4905304616351287 0 0.1839227339461352 0.49861489743603538 0 0.19211155850092579 0.47790980627879082 0 0.19295831529489699 0.4905304616351287 0 0.1809625144841838 0.48570342190566712 0 0.1839227339461352 0.49861489743603538 0 0.1809625144841838 0.48570342190566712 0 0.16731564840828889 0.49722979487207219 0 0.1839227339461352 0.49861489743603538 0 0.16731564840828889 0.49722979487207219 0 0.1839227339461352 0.49861489743603538 0 0.1669427425872391 0.49999999999999922 0 0.16731564840828889 0.49722979487207219 0 0.19295831529489699 0.4905304616351287 0 0.1839227339461352 0.49861489743603538 0 0.1809625144841838 0.48570342190566712 0 0.1809625144841838 0.48570342190566712 0 0.16731564840828889 0.49722979487207219 0 0.16935941711846161 0.48204725214512889 0 0.16731564840828889 0.49722979487207219 0 0.157708884996551 0.48584061526662409 0 0.14611751268168829 0.49546177892012921 0 0.16731564840828889 0.49722979487207219 0 0.14611751268168829 0.49546177892012921 0 0.1669427425872391 0.49999999999999922 0 0.16731564840828889 0.49722979487207219 0 0.14611751268168829 0.49546177892012921 0 0.1669427425872391 0.49999999999999922 0 0.16731564840828889 0.49722979487207219 0 0.16731564840828889 0.49722979487207219 0 0.16935941711846161 0.48204725214512889 0 0.16731564840828889 0.49722979487207219 0 0.157708884996551 0.48584061526662409 0 0.16935941711846161 0.48204725214512889 0 0.16382575626869561 0.4735735187060508 0 0.15802571703479451 0.46684670821381258 0 0.1531189490294651 0.47544631339495541 0 0.157708884996551 0.48584061526662409 0 0.16382575626869561 0.4735735187060508 0 0.1531189490294651 0.47544631339495541 0 0.157708884996551 0.48584061526662409 0 0.16382575626869561 0.4735735187060508 0 0.16935941711846161 0.48204725214512889 0 0.16935941711846161 0.48204725214512889 0 0.17140318582863401 0.46686470941818559 0 0.16382575626869561 0.4735735187060508 0 0.16935941711846161 0.48204725214512889 0 0.17140318582863401 0.46686470941818559 0 0.1809625144841838 0.48570342190566712 0 0.16935941711846161 0.48204725214512889 0 0.17140318582863401 0.46686470941818559 0 0.19211155850092579 0.47790980627879082 0 0.1809625144841838 0.48570342190566712 0 0.17140318582863401 0.46686470941818559 0 0.19211155850092579 0.47790980627879082 0 0.17140318582863401 0.46686470941818559 0 0.19479511809318301 0.4526549487178691 0 0.18348770279874721 0.46143911161818069 0 0.17341546959919829 0.45191605883299152 0 0.19211155850092579 0.47790980627879082 0 0.18348770279874721 0.46143911161818069 0 0.17140318582863401 0.46686470941818559 0 0.18348770279874721 0.46143911161818069 0 0.17341546959919829 0.45191605883299152 0 0.17140318582863401 0.46686470941818559 0 0.17341546959919829 0.45191605883299152 0 0.17140318582863401 0.46686470941818559 0 0.19479511809318301 0.4526549487178691 0 0.1809560021812836 0.43814832633623357 0 0.17341546959919829 0.45191605883299152 0 0.1809560021812836 0.43814832633623357 0 0.17341546959919829 0.45191605883299152 0 0.16598328874466911 0.44273574664910909 0 0.17341546959919829 0.45191605883299152 0 0.16598328874466911 0.44273574664910909 0 0.15954778128093949 0.4508222386347599 0 0.16598328874466911 0.44273574664910909 0 0.15954778128093949 0.4508222386347599 0 0.1507341445198021 0.44370602134863157 0 0.16526304614212209 0.42908608809292892 0 0.16598328874466911 0.44273574664910909 0 0.1507341445198021 0.44370602134863157 0 0.16382575626869561 0.4735735187060508 0 0.1651762257979181 0.46354347419730452 0 0.17140318582863401 0.46686470941818559 0 0.1651762257979181 0.46354347419730452 0 0.17140318582863401 0.46686470941818559 0 0.17341546959919829 0.45191605883299152 0 0.1651762257979181 0.46354347419730452 0 0.17140318582863401 0.46686470941818559 0 0.17341546959919829 0.45191605883299152 0 0.15954778128093949 0.4508222386347599 0 0.1651762257979181 0.46354347419730452 0 0.15954778128093949 0.4508222386347599 0 0.1651762257979181 0.46354347419730452 0 0.1582471669695637 0.45974252444074731 0 0.16382575626869561 0.4735735187060508 0 0.1651762257979181 0.46354347419730452 0 0.15802571703479451 0.46684670821381258 0 0.1651762257979181 0.46354347419730452 0 0.1582471669695637 0.45974252444074731 0 0.15802571703479451 0.46684670821381258 0 0.14976048710833001 0.46192771033000529 0 0.1507341445198021 0.44370602134863157 0 0.136404492151351 0.45486193181106682 0 0.1582471669695637 0.45974252444074731 0 0.15802571703479451 0.46684670821381258 0 0.14976048710833001 0.46192771033000529 0 0.15802571703479451 0.46684670821381258 0 0.14976048710833001 0.46192771033000529 0 0.1531189490294651 0.47544631339495541 0 0.15954778128093949 0.4508222386347599 0 0.1582471669695637 0.45974252444074731 0 0.14976048710833001 0.46192771033000529 0 0.14976048710833001 0.46192771033000529 0 0.136404492151351 0.45486193181106682 0 0.13663143795624749 0.46910754811773492 0 0.15954778128093949 0.4508222386347599 0 0.14976048710833001 0.46192771033000529 0 0.1507341445198021 0.44370602134863157 0 0.1507341445198021 0.44370602134863157 0 0.13510526379757609 0.44116740875256688 0 0.136404492151351 0.45486193181106682 0 0.1221607865463437 0.4507156547582637 0 0.12259086230274099 0.42947812748907283 0 0.13510526379757609 0.44116740875256688 0 0.1221607865463437 0.4507156547582637 0 0.13510526379757609 0.44116740875256688 0 0.136404492151351 0.45486193181106682 0 0.136404492151351 0.45486193181106682 0 0.1267882431275838 0.46370707134437261 0 0.13663143795624749 0.46910754811773492 0 0.1221607865463437 0.4507156547582637 0 0.136404492151351 0.45486193181106682 0 0.1267882431275838 0.46370707134437261 0 0.1267882431275838 0.46370707134437261 0 0.12569724768963239 0.47617993877849962 0 0.13663143795624749 0.46910754811773492 0 0.12569724768963239 0.47617993877849962 0 0.13663143795624749 0.46910754811773492 0 0.1364132019148096 0.48384982340983701 0 0.13663143795624749 0.46910754811773492 0 0.1364132019148096 0.48384982340983701 0 0.14361111091913481 0.47574478002545789 0 0.1249193769550877 0.49369376296818718 0 0.1364132019148096 0.48384982340983701 0 0.14611751268168829 0.49546177892012921 0 0.1249193769550877 0.49369376296818718 0 0.14611751268168829 0.49546177892012921 0 0.1249193769550877 0.49369376296818718 0 0.12569724768963239 0.47617993877849962 0 0.1364132019148096 0.48384982340983701 0 0.1249193769550877 0.49369376296818718 0 0.13738437864054501 0.5 0 0.14611751268168829 0.49546177892012921 0 0.1364132019148096 0.48384982340983701 0 0.14611751268168829 0.49546177892012921 0 0.14718343377546941 0.48347361591025501 0 0.1669427425872391 0.49999999999999922 0 0.13738437864054501 0.5 0 0.14611751268168829 0.49546177892012921 0 0.157708884996551 0.48584061526662409 0 0.14611751268168829 0.49546177892012921 0 0.14718343377546941 0.48347361591025501 0 0.157708884996551 0.48584061526662409 0 0.1531189490294651 0.47544631339495541 0 0.14718343377546941 0.48347361591025501 0 0.14976048710833001 0.46192771033000529 0 0.1531189490294651 0.47544631339495541 0 0.14361111091913481 0.47574478002545789 0 0.14976048710833001 0.46192771033000529 0 0.13663143795624749 0.46910754811773492 0 0.14361111091913481 0.47574478002545789 0 0.1364132019148096 0.48384982340983701 0 0.14361111091913481 0.47574478002545789 0 0.14718343377546941 0.48347361591025501 0 0.1531189490294651 0.47544631339495541 0 0.14361111091913481 0.47574478002545789 0 0.14718343377546941 0.48347361591025501 0 0.35832214194920592 0.47929915408112939 0 0.34611268429232461 0.46591887339206078 0 0.3375369348076922 0.4829399206954248 0 0.35832214194920592 0.47929915408112939 0 0.35850557312216419 0.5 0 0.3375369348076922 0.4829399206954248 0 0.35850557312216419 0.5 0 0.37801407526051067 0.48065415083330842 0 0.38797204790529932 0.5 0 0.35832214194920592 0.47929915408112939 0 0.35850557312216419 0.5 0 0.37801407526051067 0.48065415083330842 0 0.35832214194920592 0.47929915408112939 0 0.36980735363827261 0.46050290225189661 0 0.37801407526051067 0.48065415083330842 0 0.36980735363827261 0.46050290225189661 0 0.34502769605759259 0.44546544446971242 0 0.36959298495063608 0.43610817863788948 0 0.35832214194920592 0.47929915408112939 0 0.36980735363827261 0.46050290225189661 0 0.34611268429232461 0.46591887339206078 0 0.36980735363827261 0.46050290225189661 0 0.34502769605759259 0.44546544446971242 0 0.34611268429232461 0.46591887339206078 0 0.36980735363827261 0.46050290225189661 0 0.34611268429232461 0.46591887339206078 0 0.34611268429232461 0.46591887339206078 0 0.3317687487832644 0.45597005559148451 0 0.32241801494637662 0.47133484453222518 0 0.34502769605759259 0.44546544446971242 0 0.34611268429232461 0.46591887339206078 0 0.3317687487832644 0.45597005559148451 0 0.34611268429232461 0.46591887339206078 0 0.32241801494637662 0.47133484453222518 0 0.34502769605759259 0.44546544446971242 0 0.3317687487832644 0.45597005559148451 0 0.32480939915707069 0.44218818576869201 0 0.34502769605759259 0.44546544446971242 0 0.32480939915707069 0.44218818576869201 0 0.33523501366627878 0.43221560569608392 0 0.3107318966111981 0.4514989769174147 0 0.3227404476219688 0.42624713816244092 0 0.3317687487832644 0.45597005559148451 0 0.32480939915707069 0.44218818576869201 0 0.3107318966111981 0.4514989769174147 0 0.32480939915707069 0.44218818576869201 0 0.3107318966111981 0.4514989769174147 0 0.3227404476219688 0.42624713816244092 0 0.3317687487832644 0.45597005559148451 0 0.32241801494637662 0.47133484453222518 0 0.3107318966111981 0.4514989769174147 0 0.32241801494637662 0.47133484453222518 0 0.3375369348076922 0.4829399206954248 0 0.31372501333874958 0.48784291822244708 0 0.34611268429232461 0.46591887339206078 0 0.32241801494637662 0.47133484453222518 0 0.3375369348076922 0.4829399206954248 0 0.35850557312216419 0.5 0 0.3375369348076922 0.4829399206954248 0 0.32903909833902928 0.5 0 0.32903909833902928 0.5 0 0.31372501333874958 0.48784291822244708 0 0.29957262355589431 0.5 0 0.3375369348076922 0.4829399206954248 0 0.32903909833902928 0.5 0 0.31372501333874958 0.48784291822244708 0 0.31372501333874958 0.48784291822244708 0 0.30130976803097798 0.48891801032572652 0 0.29957262355589431 0.5 0 0.31372501333874958 0.48784291822244708 0 0.30130976803097798 0.48891801032572652 0 0.29872334560042851 0.47675081567238892 0 0.30130976803097798 0.48891801032572652 0 0.29957262355589431 0.5 0 0.28978827390519868 0.49553967616935518 0 0.32241801494637662 0.47133484453222518 0 0.29872334560042851 0.47675081567238892 0 0.32241801494637662 0.47133484453222518 0 0.31372501333874958 0.48784291822244708 0 0.29872334560042851 0.47675081567238892 0 0.29872334560042851 0.47675081567238892 0 0.28397488520641462 0.48012192141307769 0 0.28978827390519868 0.49553967616935518 0 0.29872334560042851 0.47675081567238892 0 0.28929399795500932 0.47058792179259418 0 0.29703527816799058 0.46117092995693892 0 0.29872334560042851 0.47675081567238892 0 0.28929399795500932 0.47058792179259418 0 0.28397488520641462 0.48012192141307769 0 0.29872334560042851 0.47675081567238892 0 0.28397488520641462 0.48012192141307769 0 0.28929399795500932 0.47058792179259418 0 0.28397488520641462 0.48012192141307769 0 0.27920072977811172 0.47805830749059319 0 0.28397488520641462 0.48012192141307769 0 0.28978827390519868 0.49553967616935518 0 0.27010614877275918 0.50000000000000067 0 0.29957262355589431 0.5 0 0.28978827390519868 0.49553967616935518 0 0.27010614877275918 0.50000000000000067 0 0.30130976803097798 0.48891801032572652 0 0.29872334560042851 0.47675081567238892 0 0.28978827390519868 0.49553967616935518 0 0.29872334560042851 0.47675081567238892 0 0.28978827390519868 0.49553967616935518 0 0.28397488520641462 0.48012192141307769 0 0.27010614877275918 0.50000000000000067 0 0.27920072977811172 0.47805830749059319 0 0.27010614877275918 0.50000000000000067 0 0.26909437115437917 0.48384867389528768 0 0.26130641782501518 0.49139676135406141 0 0.27010614877275918 0.50000000000000067 0 0.27920072977811172 0.47805830749059319 0 0.26909437115437917 0.48384867389528768 0 0.27010614877275918 0.50000000000000067 0 0.27920072977811172 0.47805830749059319 0 0.27920072977811172 0.47805830749059319 0 0.27306774476234302 0.47644699960251641 0 0.26909437115437917 0.48384867389528768 0 0.27920072977811172 0.47805830749059319 0 0.27306774476234302 0.47644699960251641 0 0.27643472525740193 0.46726539210963169 0 0.26824582816420722 0.47348896141386071 0 0.27306774476234302 0.47644699960251641 0 0.27643472525740193 0.46726539210963169 0 0.26824582816420722 0.47348896141386071 0 0.26909437115437917 0.48384867389528768 0 0.25993240985832161 0.47939275616227872 0 0.26824582816420722 0.47348896141386071 0 0.27306774476234302 0.47644699960251641 0 0.26909437115437917 0.48384867389528768 0 0.24904418528453851 0.48634810883828161 0 0.25993240985832161 0.47939275616227872 0 0.25047151807745072 0.47036873115219768 0 0.26824582816420722 0.47348896141386071 0 0.25993240985832161 0.47939275616227872 0 0.26165523792153211 0.46576309323832682 0 0.25993240985832161 0.47939275616227872 0 0.25047151807745072 0.47036873115219768 0 0.26165523792153211 0.46576309323832682 0 0.27010614877275918 0.50000000000000067 0 0.25181722630913472 0.5 0 0.26130641782501518 0.49139676135406141 0 0.24904418528453851 0.48634810883828161 0 0.25993240985832161 0.47939275616227872 0 0.26130641782501518 0.49139676135406141 0 0.24904418528453851 0.48634810883828161 0 0.25181722630913472 0.5 0 0.26130641782501518 0.49139676135406141 0 0.26909437115437917 0.48384867389528768 0 0.25993240985832161 0.47939275616227872 0 0.26130641782501518 0.49139676135406141 0 0.26490489917960358 0.45079530358348557 0 0.25548676926057468 0.44017180441404491 0 0.26331147225899149 0.43380076267102891 0 0.24946733303660301 0.43176723098649622 0 0.24583280085865111 0.44361242472787987 0 0.25548676926057468 0.44017180441404491 0 0.24583280085865111 0.44361242472787987 0 0.25548676926057468 0.44017180441404491 0 0.25282491994113748 0.44831200937164878 0 0.26490489917960358 0.45079530358348557 0 0.25548676926057468 0.44017180441404491 0 0.25282491994113748 0.44831200937164878 0 0.26490489917960358 0.45079530358348557 0 0.25282491994113748 0.44831200937164878 0 0.25477099823403621 0.45804476415031298 0 0.25047151807745072 0.47036873115219768 0 0.25477099823403621 0.45804476415031298 0 0.26165523792153211 0.46576309323832682 0 0.26490489917960358 0.45079530358348557 0 0.25477099823403621 0.45804476415031298 0 0.26165523792153211 0.46576309323832682 0 0.26490489917960358 0.45079530358348557 0 0.27160577401557351 0.46248804296782559 0 0.27679169795675967 0.45600994403837303 0 0.26490489917960358 0.45079530358348557 0 0.26165523792153211 0.46576309323832682 0 0.27160577401557351 0.46248804296782559 0 0.26824582816420722 0.47348896141386071 0 0.27160577401557351 0.46248804296782559 0 0.27643472525740193 0.46726539210963169 0 0.26824582816420722 0.47348896141386071 0 0.26165523792153211 0.46576309323832682 0 0.27160577401557351 0.46248804296782559 0 0.27160577401557351 0.46248804296782559 0 0.27643472525740193 0.46726539210963169 0 0.27679169795675967 0.45600994403837303 0 0.27643472525740193 0.46726539210963169 0 0.27679169795675967 0.45600994403837303 0 0.28829531078346382 0.45611661498118572 0 0.27903440424894049 0.4453257315987294 0 0.26331147225899149 0.43380076267102891 0 0.26490489917960358 0.45079530358348557 0 0.27903440424894049 0.4453257315987294 0 0.26331147225899149 0.43380076267102891 0 0.26490489917960358 0.45079530358348557 0 0.27679169795675967 0.45600994403837303 0 0.27903440424894049 0.4453257315987294 0 0.27903440424894049 0.4453257315987294 0 0.2917470315179379 0.44281751567604499 0 0.28179675760275558 0.42932557237874241 0 0.27679169795675967 0.45600994403837303 0 0.27903440424894049 0.4453257315987294 0 0.28829531078346382 0.45611661498118572 0 0.27903440424894049 0.4453257315987294 0 0.2917470315179379 0.44281751567604499 0 0.28829531078346382 0.45611661498118572 0 0.2917470315179379 0.44281751567604499 0 0.28829531078346382 0.45611661498118572 0 0.29813183988985342 0.45090032042111128 0 0.27920072977811172 0.47805830749059319 0 0.27643472525740193 0.46726539210963169 0 0.28829531078346382 0.45611661498118572 0 0.28929399795500932 0.47058792179259418 0 0.27920072977811172 0.47805830749059319 0 0.28829531078346382 0.45611661498118572 0 0.27920072977811172 0.47805830749059319 0 0.28829531078346382 0.45611661498118572 0 0.28829531078346382 0.45611661498118572 0 0.29703527816799058 0.46117092995693892 0 0.29813183988985342 0.45090032042111128 0 0.28929399795500932 0.47058792179259418 0 0.28829531078346382 0.45611661498118572 0 0.29703527816799058 0.46117092995693892 0 0.29872334560042851 0.47675081567238892 0 0.29703527816799058 0.46117092995693892 0 0.3107318966111981 0.4514989769174147 0 0.29872334560042851 0.47675081567238892 0 0.3107318966111981 0.4514989769174147 0 0.32241801494637662 0.47133484453222518 0 0.29872334560042851 0.47675081567238892 0 0.3107318966111981 0.4514989769174147 0 0.29703527816799058 0.46117092995693892 0 0.29813183988985342 0.45090032042111128 0 0.3107318966111981 0.4514989769174147 0 0.30159082278473881 0.44219288247638061 0 0.3107318966111981 0.4514989769174147 0 0.30884109342504262 0.43428586920116352 0 0.2917470315179379 0.44281751567604499 0 0.30159082278473881 0.44219288247638061 0 0.29850225247966211 0.43146173016616862 0 0.2917470315179379 0.44281751567604499 0 0.30159082278473881 0.44219288247638061 0 0.29813183988985342 0.45090032042111128 0 0.30159082278473881 0.44219288247638061 0 0.29813183988985342 0.45090032042111128 0 0.3107318966111981 0.4514989769174147 0 0.30884109342504262 0.43428586920116352 0 0.29850225247966211 0.43146173016616862 0 0.30862162828234507 0.42004495563460759 0 0.29850225247966211 0.43146173016616862 0 0.30862162828234507 0.42004495563460759 0 0.29547148538100448 0.41817397575591742 0 0.30159082278473881 0.44219288247638061 0 0.30884109342504262 0.43428586920116352 0 0.29850225247966211 0.43146173016616862 0 0.30862162828234507 0.42004495563460759 0 0.30304430461131138 0.40735012112542651 0 0.3196782615082488 0.40265332564926309 0 0.30862162828234507 0.42004495563460759 0 0.30304430461131138 0.40735012112542651 0 0.29547148538100448 0.41817397575591742 0 0.30304430461131138 0.40735012112542651 0 0.29062365375375682 0.40708788978866228 0 0.29547148538100448 0.41817397575591742 0 0.29062365375375682 0.40708788978866228 0 0.29547148538100448 0.41817397575591742 0 0.28288479604298378 0.41446876034122271 0 0.29547148538100448 0.41817397575591742 0 0.28288479604298378 0.41446876034122271 0 0.28179675760275558 0.42932557237874241 0 0.29062365375375682 0.40708788978866228 0 0.28288479604298378 0.41446876034122271 0 0.28001120465417539 0.40182109974822727 0 0.29850225247966211 0.43146173016616862 0 0.29547148538100448 0.41817397575591742 0 0.28179675760275558 0.42932557237874241 0 0.2917470315179379 0.44281751567604499 0 0.29850225247966211 0.43146173016616862 0 0.28179675760275558 0.42932557237874241 0 0.28179675760275558 0.42932557237874241 0 0.27042562322166658 0.41684269204638819 0 0.26331147225899149 0.43380076267102891 0 0.27903440424894049 0.4453257315987294 0 0.28179675760275558 0.42932557237874241 0 0.26331147225899149 0.43380076267102891 0 0.27042562322166658 0.41684269204638819 0 0.26380858941988822 0.4002294757553399 0 0.28001120465417539 0.40182109974822727 0 0.28288479604298378 0.41446876034122271 0 0.28179675760275558 0.42932557237874241 0 0.27042562322166658 0.41684269204638819 0 0.28288479604298378 0.41446876034122271 0 0.27042562322166658 0.41684269204638819 0 0.28001120465417539 0.40182109974822727 0 0.24649952449278431 0.42147754103885982 0 0.25492995388566009 0.41993008507457552 0 0.26380858941988822 0.4002294757553399 0 0.27042562322166658 0.41684269204638819 0 0.25492995388566009 0.41993008507457552 0 0.26380858941988822 0.4002294757553399 0 0.24649952449278431 0.42147754103885982 0 0.26380858941988822 0.4002294757553399 0 0.2429624777480478 0.39890547698508871 0 0.24649952449278431 0.42147754103885982 0 0.26380858941988822 0.4002294757553399 0 0.24946733303660301 0.43176723098649622 0 0.24649952449278431 0.42147754103885982 0 0.26331147225899149 0.43380076267102891 0 0.24649952449278431 0.42147754103885982 0 0.25492995388566009 0.41993008507457552 0 0.26331147225899149 0.43380076267102891 0 0.24649952449278431 0.42147754103885982 0 0.26331147225899149 0.43380076267102891 0 0.27042562322166658 0.41684269204638819 0 0.25492995388566009 0.41993008507457552 0 0.26331147225899149 0.43380076267102891 0 0.24946733303660301 0.43176723098649622 0 0.25548676926057468 0.44017180441404491 0 0.26331147225899149 0.43380076267102891 0 0.26350653962281989 0.38010735630523079 0 0.25341304662754638 0.38974012394171498 0 0.26380858941988822 0.4002294757553399 0 0.26350653962281989 0.38010735630523079 0 0.25383912625151372 0.37755129754335942 0 0.25710864090743918 0.37145542319719338 0 0.26350653962281989 0.38010735630523079 0 0.25383912625151372 0.37755129754335942 0 0.25341304662754638 0.38974012394171498 0 0.2429624777480478 0.39890547698508871 0 0.25341304662754638 0.38974012394171498 0 0.26380858941988822 0.4002294757553399 0 0.26380858941988822 0.4002294757553399 0 0.28001120465417539 0.40182109974822727 0 0.28036865154730628 0.37990086281960789 0 0.26350653962281989 0.38010735630523079 0 0.28036865154730628 0.37990086281960789 0 0.2641967246118288 0.36596915937278562 0 0.26380858941988822 0.4002294757553399 0 0.28036865154730628 0.37990086281960789 0 0.26350653962281989 0.38010735630523079 0 0.26380858941988822 0.4002294757553399 0 0.28036865154730628 0.37990086281960789 0 0.28036865154730628 0.37990086281960789 0 0.29170647807930872 0.39362549197251728 0 0.2987730087010142 0.37934426936791982 0 0.28036865154730628 0.37990086281960789 0 0.29170647807930872 0.39362549197251728 0 0.28001120465417539 0.40182109974822727 0 0.28036865154730628 0.37990086281960789 0 0.29170647807930872 0.39362549197251728 0 0.29062365375375682 0.40708788978866228 0 0.28001120465417539 0.40182109974822727 0 0.29170647807930872 0.39362549197251728 0 0.30304430461131138 0.40735012112542651 0 0.29062365375375682 0.40708788978866228 0 0.29170647807930872 0.39362549197251728 0 0.30304430461131138 0.40735012112542651 0 0.30637452063024528 0.39219955594670219 0 0.3196782615082488 0.40265332564926309 0 0.30304430461131138 0.40735012112542651 0 0.29170647807930872 0.39362549197251728 0 0.30304430461131138 0.40735012112542651 0 0.29170647807930872 0.39362549197251728 0 0.30637452063024528 0.39219955594670219 0 0.30637452063024528 0.39219955594670219 0 0.2987730087010142 0.37934426936791982 0 0.31661607539452802 0.37905951313608538 0 0.29170647807930872 0.39362549197251728 0 0.30637452063024528 0.39219955594670219 0 0.2987730087010142 0.37934426936791982 0 0.31661607539452802 0.37905951313608538 0 0.32905198958534931 0.38831461949406398 0 0.3196782615082488 0.40265332564926309 0 0.31661607539452802 0.37905951313608538 0 0.32905198958534931 0.38831461949406398 0 0.33389487655237682 0.3658352592629312 0 0.32905198958534931 0.38831461949406398 0 0.34270248502322931 0.38427053755298168 0 0.33389487655237682 0.3658352592629312 0 0.32905198958534931 0.38831461949406398 0 0.34270248502322931 0.38427053755298168 0 0.33272146632259869 0.40525883785771122 0 0.34270248502322931 0.38427053755298168 0 0.33272146632259869 0.40525883785771122 0 0.34270248502322931 0.38427053755298168 0 0.33272146632259869 0.40525883785771122 0 0.34670895149724801 0.40816004440777182 0 0.31661607539452802 0.37905951313608538 0 0.3196782615082488 0.40265332564926309 0 0.32905198958534931 0.38831461949406398 0 0.33272146632259869 0.40525883785771122 0 0.3196782615082488 0.40265332564926309 0 0.30637452063024528 0.39219955594670219 0 0.31661607539452802 0.37905951313608538 0 0.3196782615082488 0.40265332564926309 0 0.3196782615082488 0.40265332564926309 0 0.3227404476219688 0.42624713816244092 0 0.30862162828234507 0.42004495563460759 0 0.3196782615082488 0.40265332564926309 0 0.3227404476219688 0.42624713816244092 0 0.33272146632259869 0.40525883785771122 0 0.3196782615082488 0.40265332564926309 0 0.3227404476219688 0.42624713816244092 0 0.33272146632259869 0.40525883785771122 0 0.3227404476219688 0.42624713816244092 0 0.32480939915707069 0.44218818576869201 0 0.3227404476219688 0.42624713816244092 0 0.3107318966111981 0.4514989769174147 0 0.30884109342504262 0.43428586920116352 0 0.3227404476219688 0.42624713816244092 0 0.32480939915707069 0.44218818576869201 0 0.3227404476219688 0.42624713816244092 0 0.33523501366627878 0.43221560569608392 0 0.30884109342504262 0.43428586920116352 0 0.30862162828234507 0.42004495563460759 0 0.3227404476219688 0.42624713816244092 0 0.34502769605759259 0.44546544446971242 0 0.33523501366627878 0.43221560569608392 0 0.34795858503051302 0.425881111768525 0 0.3227404476219688 0.42624713816244092 0 0.33523501366627878 0.43221560569608392 0 0.33659904832278342 0.4201421825902541 0 0.33523501366627878 0.43221560569608392 0 0.33659904832278342 0.4201421825902541 0 0.34795858503051302 0.425881111768525 0 0.33272146632259869 0.40525883785771122 0 0.3227404476219688 0.42624713816244092 0 0.33659904832278342 0.4201421825902541 0 0.33272146632259869 0.40525883785771122 0 0.33659904832278342 0.4201421825902541 0 0.34670895149724801 0.40816004440777182 0 0.33659904832278342 0.4201421825902541 0 0.34670895149724801 0.40816004440777182 0 0.34795858503051302 0.425881111768525 0 0.34670895149724801 0.40816004440777182 0 0.34795858503051302 0.425881111768525 0 0.36336601300371613 0.41450991002864218 0 0.34670895149724801 0.40816004440777182 0 0.36336601300371613 0.41450991002864218 0 0.35690611128064731 0.3988976866485166 0 0.34502769605759259 0.44546544446971242 0 0.34795858503051302 0.425881111768525 0 0.36959298495063608 0.43610817863788948 0 0.34795858503051302 0.425881111768525 0 0.36959298495063608 0.43610817863788948 0 0.36336601300371613 0.41450991002864218 0 0.36959298495063608 0.43610817863788948 0 0.36336601300371613 0.41450991002864218 0 0.38530342098431941 0.41064856824057122 0 0.36336601300371613 0.41450991002864218 0 0.3736470799201031 0.39378130610698531 0 0.38530342098431941 0.41064856824057122 0 0.3736470799201031 0.39378130610698531 0 0.3601059063978746 0.38125551426405008 0 0.35690611128064731 0.3988976866485166 0 0.36336601300371613 0.41450991002864218 0 0.3736470799201031 0.39378130610698531 0 0.35690611128064731 0.3988976866485166 0 0.3736470799201031 0.39378130610698531 0 0.3601059063978746 0.38125551426405008 0 0.37414389550204002 0.36898578533419818 0 0.34270248502322931 0.38427053755298168 0 0.3601059063978746 0.38125551426405008 0 0.35690611128064731 0.3988976866485166 0 0.34270248502322931 0.38427053755298168 0 0.3601059063978746 0.38125551426405008 0 0.35268350372385993 0.36328223724825232 0 0.34270248502322931 0.38427053755298168 0 0.34670895149724801 0.40816004440777182 0 0.35690611128064731 0.3988976866485166 0 0.35268350372385993 0.36328223724825232 0 0.36266452242448938 0.34229393694352239 0 0.35030182712711511 0.35130594720886232 0 0.35268350372385993 0.36328223724825232 0 0.36266452242448938 0.34229393694352239 0 0.35030182712711511 0.35130594720886232 0 0.35146565257524442 0.34420791440797271 0 0.36266452242448938 0.34229393694352239 0 0.35030182712711511 0.35130594720886232 0 0.35146565257524442 0.34420791440797271 0 0.34269927497721508 0.34493512072036142 0 0.35030182712711511 0.35130594720886232 0 0.35268350372385993 0.36328223724825232 0 0.33389487655237682 0.3658352592629312 0 0.34270248502322931 0.38427053755298168 0 0.35268350372385993 0.36328223724825232 0 0.3601059063978746 0.38125551426405008 0 0.35268350372385993 0.36328223724825232 0 0.37414389550204002 0.36898578533419818 0 0.35268350372385993 0.36328223724825232 0 0.37414389550204002 0.36898578533419818 0 0.36300645299402812 0.35604351837507042 0 0.37414389550204002 0.36898578533419818 0 0.37228166628853332 0.35471301169251829 0 0.36300645299402812 0.35604351837507042 0 0.35268350372385993 0.36328223724825232 0 0.36300645299402812 0.35604351837507042 0 0.36266452242448938 0.34229393694352239 0 0.37228166628853332 0.35471301169251829 0 0.36300645299402812 0.35604351837507042 0 0.36840829020790361 0.34668560051738673 0 0.36300645299402812 0.35604351837507042 0 0.36840829020790361 0.34668560051738673 0 0.36266452242448938 0.34229393694352239 0 0.36840829020790361 0.34668560051738673 0 0.36266452242448938 0.34229393694352239 0 0.36587418437400321 0.34278907974668538 0 0.37228166628853332 0.35471301169251829 0 0.36840829020790361 0.34668560051738673 0 0.37486749369974542 0.34694596905823039 0 0.37486749369974542 0.34694596905823039 0 0.37256750073976291 0.34304532959464751 0 0.37670219357667811 0.34177383067972761 0 0.36840829020790361 0.34668560051738673 0 0.37486749369974542 0.34694596905823039 0 0.37256750073976291 0.34304532959464751 0 0.36124897776362869 0.33531944770056321 0 0.36266452242448938 0.34229393694352239 0 0.36411885078159001 0.32644375487552563 0 0.37256750073976291 0.34304532959464751 0 0.36916640720496519 0.34145859007673351 0 0.37369311900952262 0.33836265764115908 0 0.37256750073976291 0.34304532959464751 0 0.37369311900952262 0.33836265764115908 0 0.37670219357667811 0.34177383067972761 0 0.36266452242448938 0.34229393694352239 0 0.37014896644917339 0.316543878568457 0 0.36770298492566261 0.33637877995368609 0 0.36266452242448938 0.34229393694352239 0 0.37368960646642962 0.31911015363466272 0 0.36770298492566261 0.33637877995368609 0 0.36985494237623989 0.33311962493185521 0 0.37368960646642962 0.31911015363466272 0 0.36266452242448938 0.34229393694352239 0 0.37368960646642962 0.31911015363466272 0 0.36266452242448938 0.34229393694352239 0 0.37014896644917339 0.316543878568457 0 0.36411885078159001 0.32644375487552563 0 0.36840829020790361 0.34668560051738673 0 0.36916640720496519 0.34145859007673351 0 0.36587418437400321 0.34278907974668538 0 0.36840829020790361 0.34668560051738673 0 0.37256750073976291 0.34304532959464751 0 0.36916640720496519 0.34145859007673351 0 0.36916640720496519 0.34145859007673351 0 0.36587418437400321 0.34278907974668538 0 0.36708394454210669 0.33994961910346172 0 0.36916640720496519 0.34145859007673351 0 0.37010024416019238 0.33739894816112592 0 0.36708394454210669 0.33994961910346172 0 0.36916640720496519 0.34145859007673351 0 0.37010024416019238 0.33739894816112592 0 0.37369311900952262 0.33836265764115908 0 0.36770298492566261 0.33637877995368609 0 0.37010024416019238 0.33739894816112592 0 0.36708394454210669 0.33994961910346172 0 0.37010024416019238 0.33739894816112592 0 0.37369311900952262 0.33836265764115908 0 0.3722735272100694 0.33425106354392481 0 0.3722735272100694 0.33425106354392481 0 0.37245621682226088 0.32924087979990557 0 0.375263113682131 0.33313320718557798 0 0.37369311900952262 0.33836265764115908 0 0.3722735272100694 0.33425106354392481 0 0.375263113682131 0.33313320718557798 0 0.3722735272100694 0.33425106354392481 0 0.37245621682226088 0.32924087979990557 0 0.36985494237623989 0.33311962493185521 0 0.37245621682226088 0.32924087979990557 0 0.37577016905582622 0.32787937856968757 0 0.375263113682131 0.33313320718557798 0 0.37010024416019238 0.33739894816112592 0 0.3722735272100694 0.33425106354392481 0 0.36985494237623989 0.33311962493185521 0 0.36770298492566261 0.33637877995368609 0 0.37010024416019238 0.33739894816112592 0 0.36985494237623989 0.33311962493185521 0 0.36128237795215928 0.33126347269122047 0 0.36124897776362869 0.33531944770056321 0 0.36411885078159001 0.32644375487552563 0 0.36150631125237548 0.32912422255951068 0 0.36128237795215928 0.33126347269122047 0 0.36411885078159001 0.32644375487552563 0 0.36150631125237548 0.32912422255951068 0 0.35994194411877378 0.32646204206530971 0 0.35835984371964152 0.33045614064968309 0 0.36128237795215928 0.33126347269122047 0 0.35899626180536931 0.33430086833413269 0 0.35835984371964152 0.33045614064968309 0 0.36150631125237548 0.32912422255951068 0 0.36128237795215928 0.33126347269122047 0 0.35835984371964152 0.33045614064968309 0 0.36128237795215928 0.33126347269122047 0 0.36124897776362869 0.33531944770056321 0 0.35899626180536931 0.33430086833413269 0 0.36124897776362869 0.33531944770056321 0 0.36001134864139028 0.33778823672905661 0 0.35899626180536931 0.33430086833413269 0 0.36124897776362869 0.33531944770056321 0 0.36001134864139028 0.33778823672905661 0 0.36266452242448938 0.34229393694352239 0 0.36001134864139028 0.33778823672905661 0 0.36266452242448938 0.34229393694352239 0 0.3582225103283424 0.33883319475427592 0 0.36266452242448938 0.34229393694352239 0 0.36587418437400321 0.34278907974668538 0 0.36708394454210669 0.33994961910346172 0 0.36770298492566261 0.33637877995368609 0 0.36266452242448938 0.34229393694352239 0 0.36708394454210669 0.33994961910346172 0 0.36266452242448938 0.34229393694352239 0 0.37368960646642962 0.31911015363466272 0 0.37014896644917339 0.316543878568457 0 0.37014896644917339 0.316543878568457 0 0.36604953812300478 0.31497278055865852 0 0.36630954626425261 0.31087512405144152 0 0.37499251130121058 0.31593455150060828 0 0.37014896644917339 0.316543878568457 0 0.37695808612291098 0.31120865645681561 0 0.37499251130121058 0.31593455150060828 0 0.37368960646642962 0.31911015363466272 0 0.37014896644917339 0.316543878568457 0 0.37014896644917339 0.316543878568457 0 0.36646072203027302 0.32009490443849897 0 0.3659238024377004 0.31770243144255911 0 0.37014896644917339 0.316543878568457 0 0.3659238024377004 0.31770243144255911 0 0.36604953812300478 0.31497278055865852 0 0.37245621682226088 0.32924087979990557 0 0.36985494237623989 0.33311962493185521 0 0.37368960646642962 0.31911015363466272 0 0.37245621682226088 0.32924087979990557 0 0.37368960646642962 0.31911015363466272 0 0.37506056064123422 0.32471797871916308 0 0.37245621682226088 0.32924087979990557 0 0.37577016905582622 0.32787937856968757 0 0.37506056064123422 0.32471797871916308 0 0.37014896644917339 0.316543878568457 0 0.36411885078159001 0.32644375487552563 0 0.36646072203027302 0.32009490443849897 0 0.36411885078159001 0.32644375487552563 0 0.35994194411877378 0.32646204206530971 0 0.36132202517978662 0.32303080634539388 0 0.36150631125237548 0.32912422255951068 0 0.36411885078159001 0.32644375487552563 0 0.35994194411877378 0.32646204206530971 0 0.36132202517978662 0.32303080634539388 0 0.36348301458407639 0.32047903077872458 0 0.35962675317161102 0.31893041505789499 0 0.36411885078159001 0.32644375487552563 0 0.36132202517978662 0.32303080634539388 0 0.36348301458407639 0.32047903077872458 0 0.36411885078159001 0.32644375487552563 0 0.36348301458407639 0.32047903077872458 0 0.36646072203027302 0.32009490443849897 0 0.36348301458407639 0.32047903077872458 0 0.36646072203027302 0.32009490443849897 0 0.3659238024377004 0.31770243144255911 0 0.3659238024377004 0.31770243144255911 0 0.36344593390349789 0.31667187251247519 0 0.36604953812300478 0.31497278055865852 0 0.36348301458407639 0.32047903077872458 0 0.3659238024377004 0.31770243144255911 0 0.36344593390349789 0.31667187251247519 0 0.36348301458407639 0.32047903077872458 0 0.36344593390349789 0.31667187251247519 0 0.35962675317161102 0.31893041505789499 0 0.36344593390349789 0.31667187251247519 0 0.35962675317161102 0.31893041505789499 0 0.35878641637012221 0.31305233625990619 0 0.36344593390349789 0.31667187251247519 0 0.36331333565659901 0.31283202127524651 0 0.35878641637012221 0.31305233625990619 0 0.36331333565659901 0.31283202127524651 0 0.36604953812300478 0.31497278055865852 0 0.36630954626425261 0.31087512405144152 0 0.36344593390349789 0.31667187251247519 0 0.36331333565659901 0.31283202127524651 0 0.36604953812300478 0.31497278055865852 0 0.35878641637012221 0.31305233625990619 0 0.35512602374864599 0.31718053618965047 0 0.35090510471213721 0.31152713165908658 0 0.35512602374864599 0.31718053618965047 0 0.34983435518440159 0.31943204998396652 0 0.35090510471213721 0.31152713165908658 0 0.35962675317161102 0.31893041505789499 0 0.35878641637012221 0.31305233625990619 0 0.35512602374864599 0.31718053618965047 0 0.35962675317161102 0.31893041505789499 0 0.35512602374864599 0.31718053618965047 0 0.35673455485560862 0.32229528426682241 0 0.35512602374864599 0.31718053618965047 0 0.35673455485560862 0.32229528426682241 0 0.34983435518440159 0.31943204998396652 0 0.35673455485560862 0.32229528426682241 0 0.35060422568955008 0.32587015674736058 0 0.34983435518440159 0.31943204998396652 0 0.35994194411877378 0.32646204206530971 0 0.36132202517978662 0.32303080634539388 0 0.35673455485560862 0.32229528426682241 0 0.36132202517978662 0.32303080634539388 0 0.35962675317161102 0.31893041505789499 0 0.35673455485560862 0.32229528426682241 0 0.35994194411877378 0.32646204206530971 0 0.35673455485560862 0.32229528426682241 0 0.35627338036128769 0.32705738058013539 0 0.35994194411877378 0.32646204206530971 0 0.35627338036128769 0.32705738058013539 0 0.35835984371964152 0.33045614064968309 0 0.35627338036128769 0.32705738058013539 0 0.35060422568955008 0.32587015674736058 0 0.35398721241228231 0.33095327650953749 0 0.35673455485560862 0.32229528426682241 0 0.35627338036128769 0.32705738058013539 0 0.35060422568955008 0.32587015674736058 0 0.35060422568955008 0.32587015674736058 0 0.34514221143703899 0.32919058107390442 0 0.34284551192874652 0.32364904383841531 0 0.35060422568955008 0.32587015674736058 0 0.34983435518440159 0.31943204998396652 0 0.34284551192874652 0.32364904383841531 0 0.34983435518440159 0.31943204998396652 0 0.34480088275632298 0.31606258733578418 0 0.35090510471213721 0.31152713165908658 0 0.34983435518440159 0.31943204998396652 0 0.34480088275632298 0.31606258733578418 0 0.34284551192874652 0.32364904383841531 0 0.35146565257524442 0.34420791440797271 0 0.36266452242448938 0.34229393694352239 0 0.35562031764263757 0.34031424282986023 0 0.35302683950207769 0.33602013814058929 0 0.35562031764263757 0.34031424282986023 0 0.35672120529774148 0.33684362974708199 0 0.35202203774268331 0.33965573310897551 0 0.35302683950207769 0.33602013814058929 0 0.35562031764263757 0.34031424282986023 0 0.35146565257524442 0.34420791440797271 0 0.35202203774268331 0.33965573310897551 0 0.35562031764263757 0.34031424282986023 0 0.36266452242448938 0.34229393694352239 0 0.35562031764263757 0.34031424282986023 0 0.3582225103283424 0.33883319475427592 0 0.35562031764263757 0.34031424282986023 0 0.3582225103283424 0.33883319475427592 0 0.35672120529774148 0.33684362974708199 0 0.36001134864139028 0.33778823672905661 0 0.3582225103283424 0.33883319475427592 0 0.35672120529774148 0.33684362974708199 0 0.36001134864139028 0.33778823672905661 0 0.35672120529774148 0.33684362974708199 0 0.35899626180536931 0.33430086833413269 0 0.35899626180536931 0.33430086833413269 0 0.35641212776078268 0.33381706902087938 0 0.35835984371964152 0.33045614064968309 0 0.35672120529774148 0.33684362974708199 0 0.35899626180536931 0.33430086833413269 0 0.35641212776078268 0.33381706902087938 0 0.35627338036128769 0.32705738058013539 0 0.35835984371964152 0.33045614064968309 0 0.35398721241228231 0.33095327650953749 0 0.35641212776078268 0.33381706902087938 0 0.35835984371964152 0.33045614064968309 0 0.35398721241228231 0.33095327650953749 0 0.35302683950207769 0.33602013814058929 0 0.35641212776078268 0.33381706902087938 0 0.35398721241228231 0.33095327650953749 0 0.35302683950207769 0.33602013814058929 0 0.35398721241228231 0.33095327650953749 0 0.34924685744035389 0.33249877391857741 0 0.35302683950207769 0.33602013814058929 0 0.35672120529774148 0.33684362974708199 0 0.35641212776078268 0.33381706902087938 0 0.35302683950207769 0.33602013814058929 0 0.34924685744035389 0.33249877391857741 0 0.34788509595764172 0.33882226599831611 0 0.35060422568955008 0.32587015674736058 0 0.34924685744035389 0.33249877391857741 0 0.34514221143703899 0.32919058107390442 0 0.35060422568955008 0.32587015674736058 0 0.35398721241228231 0.33095327650953749 0 0.34924685744035389 0.33249877391857741 0 0.34924685744035389 0.33249877391857741 0 0.34514221143703899 0.32919058107390442 0 0.34474234507332802 0.33433591834825649 0 0.34924685744035389 0.33249877391857741 0 0.34474234507332802 0.33433591834825649 0 0.34788509595764172 0.33882226599831611 0 0.34474234507332802 0.33433591834825649 0 0.34788509595764172 0.33882226599831611 0 0.34057592936449049 0.33809639891542392 0 0.35146565257524442 0.34420791440797271 0 0.34788509595764172 0.33882226599831611 0 0.34269927497721508 0.34493512072036142 0 0.35202203774268331 0.33965573310897551 0 0.35302683950207769 0.33602013814058929 0 0.34788509595764172 0.33882226599831611 0 0.35146565257524442 0.34420791440797271 0 0.35202203774268331 0.33965573310897551 0 0.34788509595764172 0.33882226599831611 0 0.34057592936449049 0.33809639891542392 0 0.33318390910610529 0.34358855052096038 0 0.34269927497721508 0.34493512072036142 0 0.34788509595764172 0.33882226599831611 0 0.34057592936449049 0.33809639891542392 0 0.34269927497721508 0.34493512072036142 0 0.34474234507332802 0.33433591834825649 0 0.34057592936449049 0.33809639891542392 0 0.33946855119551672 0.33096103471374028 0 0.34514221143703899 0.32919058107390442 0 0.34474234507332802 0.33433591834825649 0 0.33946855119551672 0.33096103471374028 0 0.34057592936449049 0.33809639891542392 0 0.33946855119551672 0.33096103471374028 0 0.33283637980140879 0.33469331179832718 0 0.33946855119551672 0.33096103471374028 0 0.33283637980140879 0.33469331179832718 0 0.33464693517381472 0.32630086361949601 0 0.33283637980140879 0.33469331179832718 0 0.33464693517381472 0.32630086361949601 0 0.3250964778074269 0.32978689602061512 0 0.34057592936449049 0.33809639891542392 0 0.33283637980140879 0.33469331179832718 0 0.33318390910610529 0.34358855052096038 0 0.33283637980140879 0.33469331179832718 0 0.33318390910610529 0.34358855052096038 0 0.32611481079287369 0.33974729713420021 0 0.34480088275632298 0.31606258733578418 0 0.33769186663180051 0.31814262317354819 0 0.34192449374142192 0.30753297203612773 0 0.34480088275632298 0.31606258733578418 0 0.33769186663180051 0.31814262317354819 0 0.34284551192874652 0.32364904383841531 0 0.33946855119551672 0.33096103471374028 0 0.34284551192874652 0.32364904383841531 0 0.33464693517381472 0.32630086361949601 0 0.33769186663180051 0.31814262317354819 0 0.34284551192874652 0.32364904383841531 0 0.33464693517381472 0.32630086361949601 0 0.34514221143703899 0.32919058107390442 0 0.33946855119551672 0.33096103471374028 0 0.34284551192874652 0.32364904383841531 0 0.33769186663180051 0.31814262317354819 0 0.33464693517381472 0.32630086361949601 0 0.32994282367798861 0.32057227217232959 0 0.33464693517381472 0.32630086361949601 0 0.32994282367798861 0.32057227217232959 0 0.3250964778074269 0.32978689602061512 0 0.33769186663180051 0.31814262317354819 0 0.32994282367798861 0.32057227217232959 0 0.32867162081685902 0.31028670060733149 0 0.32176892132522322 0.32006025561378759 0 0.31440941436971798 0.31242774502049953 0 0.32867162081685902 0.31028670060733149 0 0.32994282367798861 0.32057227217232959 0 0.32176892132522322 0.32006025561378759 0 0.32867162081685902 0.31028670060733149 0 0.32176892132522322 0.32006025561378759 0 0.31484893044661 0.32778579360563193 0 0.3250964778074269 0.32978689602061512 0 0.32994282367798861 0.32057227217232959 0 0.32176892132522322 0.32006025561378759 0 0.3250964778074269 0.32978689602061512 0 0.32176892132522322 0.32006025561378759 0 0.31484893044661 0.32778579360563193 0 0.31440941436971798 0.31242774502049953 0 0.32611481079287369 0.33974729713420021 0 0.3250964778074269 0.32978689602061512 0 0.31767498628904178 0.33862919533695518 0 0.32611481079287369 0.33974729713420021 0 0.31767498628904178 0.33862919533695518 0 0.32336406622478242 0.34852958887145069 0 0.33283637980140879 0.33469331179832718 0 0.32611481079287369 0.33974729713420021 0 0.3250964778074269 0.32978689602061512 0 0.31484893044661 0.32778579360563193 0 0.31767498628904178 0.33862919533695518 0 0.30654896287530792 0.34033791233229299 0 0.31484893044661 0.32778579360563193 0 0.3250964778074269 0.32978689602061512 0 0.31767498628904178 0.33862919533695518 0 0.31767498628904178 0.33862919533695518 0 0.31315570067328902 0.3464643712977632 0 0.32336406622478242 0.34852958887145069 0 0.31315570067328902 0.3464643712977632 0 0.31355388928080707 0.35546570062290778 0 0.32336406622478242 0.34852958887145069 0 0.32336406622478242 0.34852958887145069 0 0.33442175170730049 0.35218858713626039 0 0.32437013183195901 0.3602157298059272 0 0.31355388928080707 0.35546570062290778 0 0.32336406622478242 0.34852958887145069 0 0.32437013183195901 0.3602157298059272 0 0.33318390910610529 0.34358855052096038 0 0.32611481079287369 0.33974729713420021 0 0.32336406622478242 0.34852958887145069 0 0.35030182712711511 0.35130594720886232 0 0.33442175170730049 0.35218858713626039 0 0.33389487655237682 0.3658352592629312 0 0.33318390910610529 0.34358855052096038 0 0.32336406622478242 0.34852958887145069 0 0.33442175170730049 0.35218858713626039 0 0.35030182712711511 0.35130594720886232 0 0.33442175170730049 0.35218858713626039 0 0.34269927497721508 0.34493512072036142 0 0.33318390910610529 0.34358855052096038 0 0.33442175170730049 0.35218858713626039 0 0.34269927497721508 0.34493512072036142 0 0.34270248502322931 0.38427053755298168 0 0.35268350372385993 0.36328223724825232 0 0.33389487655237682 0.3658352592629312 0 0.33442175170730049 0.35218858713626039 0 0.33389487655237682 0.3658352592629312 0 0.32437013183195901 0.3602157298059272 0 0.31661607539452802 0.37905951313608538 0 0.33389487655237682 0.3658352592629312 0 0.32437013183195901 0.3602157298059272 0 0.31661607539452802 0.37905951313608538 0 0.31355388928080707 0.35546570062290778 0 0.32437013183195901 0.3602157298059272 0 0.31661607539452802 0.37905951313608538 0 0.31355388928080707 0.35546570062290778 0 0.31661607539452802 0.37905951313608538 0 0.31355388928080707 0.35546570062290778 0 0.30541822204374358 0.36584678197342768 0 0.2987730087010142 0.37934426936791982 0 0.31661607539452802 0.37905951313608538 0 0.30541822204374358 0.36584678197342768 0 0.30541822204374358 0.36584678197342768 0 0.30393955747459928 0.35096595789874813 0 0.29215410451095353 0.36543341035917859 0 0.2987730087010142 0.37934426936791982 0 0.30541822204374358 0.36584678197342768 0 0.29215410451095353 0.36543341035917859 0 0.31315570067328902 0.3464643712977632 0 0.30393955747459928 0.35096595789874813 0 0.30654896287530792 0.34033791233229299 0 0.31315570067328902 0.3464643712977632 0 0.31355388928080707 0.35546570062290778 0 0.30393955747459928 0.35096595789874813 0 0.31355388928080707 0.35546570062290778 0 0.30541822204374358 0.36584678197342768 0 0.30393955747459928 0.35096595789874813 0 0.30393955747459928 0.35096595789874813 0 0.29215410451095353 0.36543341035917859 0 0.30393955747459928 0.35096595789874813 0 0.29720735802849829 0.34424744790442102 0 0.29027641861796738 0.35164951467646482 0 0.30393955747459928 0.35096595789874813 0 0.29720735802849829 0.34424744790442102 0 0.30654896287530792 0.34033791233229299 0 0.29720735802849829 0.34424744790442102 0 0.29027641861796738 0.35164951467646482 0 0.28998304713239348 0.34105976447064218 0 0.30393955747459928 0.35096595789874813 0 0.29027641861796738 0.35164951467646482 0 0.29215410451095353 0.36543341035917859 0 0.29027641861796738 0.35164951467646482 0 0.29215410451095353 0.36543341035917859 0 0.27920137084664282 0.3573603676334649 0 0.29027641861796738 0.35164951467646482 0 0.27920137084664282 0.3573603676334649 0 0.28068773357058369 0.34198453751068081 0 0.29027641861796738 0.35164951467646482 0 0.28068773357058369 0.34198453751068081 0 0.28998304713239348 0.34105976447064218 0 0.28036865154730628 0.37990086281960789 0 0.29215410451095353 0.36543341035917859 0 0.27920137084664282 0.3573603676334649 0 0.28036865154730628 0.37990086281960789 0 0.2987730087010142 0.37934426936791982 0 0.29215410451095353 0.36543341035917859 0 0.28036865154730628 0.37990086281960789 0 0.29215410451095353 0.36543341035917859 0 0.28036865154730628 0.37990086281960789 0 0.27920137084664282 0.3573603676334649 0 0.26173146881309822 0.35734024057335978 0 0.28036865154730628 0.37990086281960789 0 0.26173146881309822 0.35734024057335978 0 0.28036865154730628 0.37990086281960789 0 0.26173146881309822 0.35734024057335978 0 0.2641967246118288 0.36596915937278562 0 0.27920137084664282 0.3573603676334649 0 0.27030047393074008 0.3474963096498429 0 0.26173146881309822 0.35734024057335978 0 0.27920137084664282 0.3573603676334649 0 0.27030047393074008 0.3474963096498429 0 0.28068773357058369 0.34198453751068081 0 0.2430942860788903 0.33477961832711151 0 0.26173146881309822 0.35734024057335978 0 0.27030047393074008 0.3474963096498429 0 0.26173146881309822 0.35734024057335978 0 0.26240083601839698 0.33727672217147331 0 0.23816107804029091 0.35120524212074949 0 0.26173146881309822 0.35734024057335978 0 0.2641967246118288 0.36596915937278562 0 0.23816107804029091 0.35120524212074949 0 0.2641967246118288 0.36596915937278562 0 0.2492643002430574 0.365916522193315 0 0.24311907173897271 0.36013203008567057 0 0.2641967246118288 0.36596915937278562 0 0.2492643002430574 0.365916522193315 0 0.25710864090743918 0.37145542319719338 0 0.2641967246118288 0.36596915937278562 0 0.2492643002430574 0.365916522193315 0 0.25383912625151372 0.37755129754335942 0 0.25710864090743918 0.37145542319719338 0 0.26350653962281989 0.38010735630523079 0 0.25710864090743918 0.37145542319719338 0 0.2641967246118288 0.36596915937278562 0 0.2484846271056145 0.31037308609574782 0 0.25508783524565293 0.32209220201309929 0 0.26836904206483531 0.31075971332937607 0 0.25508783524565293 0.32209220201309929 0 0.26240083601839698 0.33727672217147331 0 0.26677092012209491 0.32204036282613252 0 0.25508783524565293 0.32209220201309929 0 0.26677092012209491 0.32204036282613252 0 0.26836904206483531 0.31075971332937607 0 0.2430942860788903 0.33477961832711151 0 0.25508783524565293 0.32209220201309929 0 0.26240083601839698 0.33727672217147331 0 0.2430942860788903 0.33477961832711151 0 0.26173146881309822 0.35734024057335978 0 0.26240083601839698 0.33727672217147331 0 0.26240083601839698 0.33727672217147331 0 0.27184092000699639 0.33891315949469752 0 0.27388917516664008 0.32964775149744319 0 0.26240083601839698 0.33727672217147331 0 0.27388917516664008 0.32964775149744319 0 0.26677092012209491 0.32204036282613252 0 0.27030047393074008 0.3474963096498429 0 0.26240083601839698 0.33727672217147331 0 0.27184092000699639 0.33891315949469752 0 0.27030047393074008 0.3474963096498429 0 0.27184092000699639 0.33891315949469752 0 0.28068773357058369 0.34198453751068081 0 0.27184092000699639 0.33891315949469752 0 0.28068773357058369 0.34198453751068081 0 0.27388917516664008 0.32964775149744319 0 0.28068773357058369 0.34198453751068081 0 0.27388917516664008 0.32964775149744319 0 0.28570907475377572 0.33188311037056872 0 0.27388917516664008 0.32964775149744319 0 0.26677092012209491 0.32204036282613252 0 0.28178409254690689 0.31684790712797722 0 0.27388917516664008 0.32964775149744319 0 0.28178409254690689 0.31684790712797722 0 0.28570907475377572 0.33188311037056872 0 0.26677092012209491 0.32204036282613252 0 0.28178409254690689 0.31684790712797722 0 0.26836904206483531 0.31075971332937607 0 0.28178409254690689 0.31684790712797722 0 0.29262159606390598 0.32453461147271162 0 0.29660332646403359 0.30785121346786842 0 0.28178409254690689 0.31684790712797722 0 0.29262159606390598 0.32453461147271162 0 0.28570907475377572 0.33188311037056872 0 0.28068773357058369 0.34198453751068081 0 0.28570907475377572 0.33188311037056872 0 0.28998304713239348 0.34105976447064218 0 0.29262159606390598 0.32453461147271162 0 0.28570907475377572 0.33188311037056872 0 0.29603465069114282 0.33553421189107618 0 0.29720735802849829 0.34424744790442102 0 0.29603465069114282 0.33553421189107618 0 0.28998304713239348 0.34105976447064218 0 0.28570907475377572 0.33188311037056872 0 0.29603465069114282 0.33553421189107618 0 0.28998304713239348 0.34105976447064218 0 0.29720735802849829 0.34424744790442102 0 0.29603465069114282 0.33553421189107618 0 0.30654896287530792 0.34033791233229299 0 0.29603465069114282 0.33553421189107618 0 0.30654896287530792 0.34033791233229299 0 0.30445412428221041 0.32558903425911379 0 0.29262159606390598 0.32453461147271162 0 0.29603465069114282 0.33553421189107618 0 0.30445412428221041 0.32558903425911379 0 0.31484893044661 0.32778579360563193 0 0.30654896287530792 0.34033791233229299 0 0.30445412428221041 0.32558903425911379 0 0.31767498628904178 0.33862919533695518 0 0.31315570067328902 0.3464643712977632 0 0.30654896287530792 0.34033791233229299 0 0.30445412428221041 0.32558903425911379 0 0.29660332646403359 0.30785121346786842 0 0.31440941436971798 0.31242774502049953 0 0.29262159606390598 0.32453461147271162 0 0.30445412428221041 0.32558903425911379 0 0.29660332646403359 0.30785121346786842 0 0.31484893044661 0.32778579360563193 0 0.30445412428221041 0.32558903425911379 0 0.31440941436971798 0.31242774502049953 0 0.30822946874662033 0.29998271616579031 0 0.29660332646403359 0.30785121346786842 0 0.31440941436971798 0.31242774502049953 0 0.30822946874662033 0.29998271616579031 0 0.30055108247350393 0.28416894361273021 0 0.29660332646403359 0.30785121346786842 0 0.30822946874662033 0.29998271616579031 0 0.30055108247350393 0.28416894361273021 0 0.32109763140443309 0.29547610107375327 0 0.30055108247350393 0.28416894361273021 0 0.29660332646403359 0.30785121346786842 0 0.27430616976337108 0.29100628718303567 0 0.30055108247350393 0.28416894361273021 0 0.27430616976337108 0.29100628718303567 0 0.28443506245096839 0.27205148705280008 0 0.30055108247350393 0.28416894361273021 0 0.27430616976337108 0.29100628718303567 0 0.28178409254690689 0.31684790712797722 0 0.29660332646403359 0.30785121346786842 0 0.27430616976337108 0.29100628718303567 0 0.28178409254690689 0.31684790712797722 0 0.26836904206483531 0.31075971332937607 0 0.27430616976337108 0.29100628718303567 0 0.28178409254690689 0.31684790712797722 0 0.27430616976337108 0.29100628718303567 0 0.27430616976337108 0.29100628718303567 0 0.25121587924780342 0.29702178630611242 0 0.27430616976337108 0.29100628718303567 0 0.25953152444998728 0.28294166139542631 0 0.25121587924780342 0.29702178630611242 0 0.26836904206483531 0.31075971332937607 0 0.27430616976337108 0.29100628718303567 0 0.25121587924780342 0.29702178630611242 0 0.26836904206483531 0.31075971332937607 0 0.25121587924780342 0.29702178630611242 0 0.2484846271056145 0.31037308609574782 0 0.26836904206483531 0.31075971332937607 0 0.25121587924780342 0.29702178630611242 0 0.25102838231212438 0.26850893423506528 0 0.26790857605335527 0.26889798384773289 0 0.26221447651104962 0.2479993693513689 0 0.26790857605335527 0.26889798384773289 0 0.26221447651104962 0.2479993693513689 0 0.25953152444998728 0.28294166139542631 0 0.25102838231212438 0.26850893423506528 0 0.26790857605335527 0.26889798384773289 0 0.27430616976337108 0.29100628718303567 0 0.26790857605335527 0.26889798384773289 0 0.28443506245096839 0.27205148705280008 0 0.27430616976337108 0.29100628718303567 0 0.25953152444998728 0.28294166139542631 0 0.26790857605335527 0.26889798384773289 0 0.27430616976337108 0.29100628718303567 0 0.26790857605335527 0.26889798384773289 0 0.26790857605335527 0.26889798384773289 0 0.28119448123381058 0.25405304303149878 0 0.26221447651104962 0.2479993693513689 0 0.26790857605335527 0.26889798384773289 0 0.28119448123381058 0.25405304303149878 0 0.28443506245096839 0.27205148705280008 0 0.28119448123381058 0.25405304303149878 0 0.28443506245096839 0.27205148705280008 0 0.2982150027308012 0.26213117758900317 0 0.28119448123381058 0.25405304303149878 0 0.2982150027308012 0.26213117758900317 0 0.30328699804120918 0.24394477185791469 0 0.30055108247350393 0.28416894361273021 0 0.28443506245096839 0.27205148705280008 0 0.2982150027308012 0.26213117758900317 0 0.30055108247350393 0.28416894361273021 0 0.2982150027308012 0.26213117758900317 0 0.31879452400631653 0.25919465198291952 0 0.2982150027308012 0.26213117758900317 0 0.31879452400631653 0.25919465198291952 0 0.30328699804120918 0.24394477185791469 0 0.31879452400631653 0.25919465198291952 0 0.33092809789354199 0.24744869965648561 0 0.31845456220733243 0.24449663650262579 0 0.31879452400631653 0.25919465198291952 0 0.33565265393095528 0.25675142138279861 0 0.33982225619875311 0.26765994074234428 0 0.31879452400631653 0.25919465198291952 0 0.33982225619875311 0.26765994074234428 0 0.31879452400631653 0.25919465198291952 0 0.33565265393095528 0.25675142138279861 0 0.33092809789354199 0.24744869965648561 0 0.33565265393095528 0.25675142138279861 0 0.33982225619875311 0.26765994074234428 0 0.34536281311255052 0.25941060478944128 0 0.33565265393095528 0.25675142138279861 0 0.3433555784436142 0.25004320974280247 0 0.33092809789354199 0.24744869965648561 0 0.33565265393095528 0.25675142138279861 0 0.3433555784436142 0.25004320974280247 0 0.34536281311255052 0.25941060478944128 0 0.31879452400631653 0.25919465198291952 0 0.33982225619875311 0.26765994074234428 0 0.32679599518363661 0.27733160004242491 0 0.33982225619875311 0.26765994074234428 0 0.32679599518363661 0.27733160004242491 0 0.34056182851336592 0.28206143899133118 0 0.30055108247350393 0.28416894361273021 0 0.32679599518363661 0.27733160004242491 0 0.30055108247350393 0.28416894361273021 0 0.31879452400631653 0.25919465198291952 0 0.32679599518363661 0.27733160004242491 0 0.32679599518363661 0.27733160004242491 0 0.32109763140443309 0.29547610107375327 0 0.33248404658197278 0.28876668272462419 0 0.30055108247350393 0.28416894361273021 0 0.32679599518363661 0.27733160004242491 0 0.32109763140443309 0.29547610107375327 0 0.32109763140443309 0.29547610107375327 0 0.31440941436971798 0.31242774502049953 0 0.32867162081685902 0.31028670060733149 0 0.30822946874662033 0.29998271616579031 0 0.32109763140443309 0.29547610107375327 0 0.31440941436971798 0.31242774502049953 0 0.32867162081685902 0.31028670060733149 0 0.33472549883669622 0.29791121211074773 0 0.34192449374142192 0.30753297203612773 0 0.32109763140443309 0.29547610107375327 0 0.32867162081685902 0.31028670060733149 0 0.33472549883669622 0.29791121211074773 0 0.33472549883669622 0.29791121211074773 0 0.34281583705185747 0.29966479619329672 0 0.34192449374142192 0.30753297203612773 0 0.33769186663180051 0.31814262317354819 0 0.32867162081685902 0.31028670060733149 0 0.34192449374142192 0.30753297203612773 0 0.32679599518363661 0.27733160004242491 0 0.33248404658197278 0.28876668272462419 0 0.34056182851336592 0.28206143899133118 0 0.32109763140443309 0.29547610107375327 0 0.33472549883669622 0.29791121211074773 0 0.33248404658197278 0.28876668272462419 0 0.33472549883669622 0.29791121211074773 0 0.33248404658197278 0.28876668272462419 0 0.34417327957572558 0.29277050597204329 0 0.33472549883669622 0.29791121211074773 0 0.34281583705185747 0.29966479619329672 0 0.34417327957572558 0.29277050597204329 0 0.33248404658197278 0.28876668272462419 0 0.34056182851336592 0.28206143899133118 0 0.34417327957572558 0.29277050597204329 0 0.34056182851336592 0.28206143899133118 0 0.34979868535227071 0.28728326233729501 0 0.34417327957572558 0.29277050597204329 0 0.34056182851336592 0.28206143899133118 0 0.34979868535227071 0.28728326233729501 0 0.35183199075491411 0.27966461044832719 0 0.34417327957572558 0.29277050597204329 0 0.35334053836337709 0.29410458558147129 0 0.34972900846361488 0.30172704795696642 0 0.34979868535227071 0.28728326233729501 0 0.34417327957572558 0.29277050597204329 0 0.35334053836337709 0.29410458558147129 0 0.34979868535227071 0.28728326233729501 0 0.35334053836337709 0.29410458558147129 0 0.35722235408413222 0.28831366276426512 0 0.35334053836337709 0.29410458558147129 0 0.35826071325737319 0.3003277240158499 0 0.36091512844171192 0.29433704443458902 0 0.35334053836337709 0.29410458558147129 0 0.35722235408413222 0.28831366276426512 0 0.36091512844171192 0.29433704443458902 0 0.34979868535227071 0.28728326233729501 0 0.35722235408413222 0.28831366276426512 0 0.35183199075491411 0.27966461044832719 0 0.35722235408413222 0.28831366276426512 0 0.36152496379752869 0.28359539021876212 0 0.35183199075491411 0.27966461044832719 0 0.34480088275632298 0.31606258733578418 0 0.34192449374142192 0.30753297203612773 0 0.35090510471213721 0.31152713165908658 0 0.34192449374142192 0.30753297203612773 0 0.35090510471213721 0.31152713165908658 0 0.34972900846361488 0.30172704795696642 0 0.34281583705185747 0.29966479619329672 0 0.34417327957572558 0.29277050597204329 0 0.34972900846361488 0.30172704795696642 0 0.34281583705185747 0.29966479619329672 0 0.34192449374142192 0.30753297203612773 0 0.34972900846361488 0.30172704795696642 0 0.34972900846361488 0.30172704795696642 0 0.35826071325737319 0.3003277240158499 0 0.35721607615581658 0.30656573559573969 0 0.35334053836337709 0.29410458558147129 0 0.34972900846361488 0.30172704795696642 0 0.35826071325737319 0.3003277240158499 0 0.35090510471213721 0.31152713165908658 0 0.34972900846361488 0.30172704795696642 0 0.35721607615581658 0.30656573559573969 0 0.35878641637012221 0.31305233625990619 0 0.35090510471213721 0.31152713165908658 0 0.35721607615581658 0.30656573559573969 0 0.37014896644917339 0.316543878568457 0 0.37763341047385651 0.29079382019339128 0 0.37014896644917339 0.316543878568457 0 0.37108481648816682 0.30013899891886681 0 0.36845835323010317 0.30596496181531441 0 0.37014896644917339 0.316543878568457 0 0.37763341047385651 0.29079382019339128 0 0.37695808612291098 0.31120865645681561 0 0.37014896644917339 0.316543878568457 0 0.37108481648816682 0.30013899891886681 0 0.37763341047385651 0.29079382019339128 0 0.36630954626425261 0.31087512405144152 0 0.36228941999803421 0.30896529616435242 0 0.36543096483439103 0.3064802843427199 0 0.36331333565659901 0.31283202127524651 0 0.36630954626425261 0.31087512405144152 0 0.36228941999803421 0.30896529616435242 0 0.36331333565659901 0.31283202127524651 0 0.35878641637012221 0.31305233625990619 0 0.36228941999803421 0.30896529616435242 0 0.35878641637012221 0.31305233625990619 0 0.35721607615581658 0.30656573559573969 0 0.36228941999803421 0.30896529616435242 0 0.35721607615581658 0.30656573559573969 0 0.36228941999803421 0.30896529616435242 0 0.36268018070702418 0.30398627546106088 0 0.36630954626425261 0.31087512405144152 0 0.36543096483439103 0.3064802843427199 0 0.36845835323010317 0.30596496181531441 0 0.36228941999803421 0.30896529616435242 0 0.36543096483439103 0.3064802843427199 0 0.36268018070702418 0.30398627546106088 0 0.36543096483439103 0.3064802843427199 0 0.36607900901995372 0.30349396637540749 0 0.36845835323010317 0.30596496181531441 0 0.36607900901995372 0.30349396637540749 0 0.36268018070702418 0.30398627546106088 0 0.36558719123160882 0.29969948119116269 0 0.36607900901995372 0.30349396637540749 0 0.36558719123160882 0.29969948119116269 0 0.36823835509664099 0.30133882906677939 0 0.36543096483439103 0.3064802843427199 0 0.36607900901995372 0.30349396637540749 0 0.36268018070702418 0.30398627546106088 0 0.35826071325737319 0.3003277240158499 0 0.35721607615581658 0.30656573559573969 0 0.36268018070702418 0.30398627546106088 0 0.35826071325737319 0.3003277240158499 0 0.36268018070702418 0.30398627546106088 0 0.36558719123160882 0.29969948119116269 0 0.35826071325737319 0.3003277240158499 0 0.36558719123160882 0.29969948119116269 0 0.36091512844171192 0.29433704443458902 0 0.36871223371641282 0.29817542324200702 0 0.37108481648816682 0.30013899891886681 0 0.37014933742706652 0.29575476169949788 0 0.36558719123160882 0.29969948119116269 0 0.36871223371641282 0.29817542324200702 0 0.36734652779664789 0.29411680932906442 0 0.36558719123160882 0.29969948119116269 0 0.36871223371641282 0.29817542324200702 0 0.36823835509664099 0.30133882906677939 0 0.36871223371641282 0.29817542324200702 0 0.37108481648816682 0.30013899891886681 0 0.36823835509664099 0.30133882906677939 0 0.37108481648816682 0.30013899891886681 0 0.36823835509664099 0.30133882906677939 0 0.36845835323010317 0.30596496181531441 0 0.36607900901995372 0.30349396637540749 0 0.36823835509664099 0.30133882906677939 0 0.36845835323010317 0.30596496181531441 0 0.37014896644917339 0.316543878568457 0 0.36630954626425261 0.31087512405144152 0 0.36845835323010317 0.30596496181531441 0 0.36812955944888692 0.28419813691800921 0 0.36084998839118931 0.2761252295017701 0 0.37969218042614078 0.28371066929036243 0 0.36152496379752869 0.28359539021876212 0 0.36812955944888692 0.28419813691800921 0 0.36084998839118931 0.2761252295017701 0 0.36414496955441777 0.28941104037434479 0 0.36911771796651938 0.28986917351547109 0 0.36812955944888692 0.28419813691800921 0 0.36152496379752869 0.28359539021876212 0 0.36414496955441777 0.28941104037434479 0 0.36812955944888692 0.28419813691800921 0 0.35722235408413222 0.28831366276426512 0 0.36152496379752869 0.28359539021876212 0 0.36414496955441777 0.28941104037434479 0 0.35722235408413222 0.28831366276426512 0 0.36091512844171192 0.29433704443458902 0 0.36414496955441777 0.28941104037434479 0 0.36558719123160882 0.29969948119116269 0 0.36091512844171192 0.29433704443458902 0 0.36734652779664789 0.29411680932906442 0 0.36091512844171192 0.29433704443458902 0 0.36414496955441777 0.28941104037434479 0 0.36734652779664789 0.29411680932906442 0 0.36414496955441777 0.28941104037434479 0 0.36911771796651938 0.28986917351547109 0 0.36734652779664789 0.29411680932906442 0 0.36911771796651938 0.28986917351547109 0 0.37026464520563152 0.29279186409727531 0 0.36734652779664789 0.29411680932906442 0 0.37108481648816682 0.30013899891886681 0 0.37306860395079622 0.29341917559567809 0 0.37763341047385651 0.29079382019339128 0 0.36911771796651938 0.28986917351547109 0 0.37026464520563152 0.29279186409727531 0 0.37237913536365119 0.29056320862162688 0 0.36871223371641282 0.29817542324200702 0 0.36734652779664789 0.29411680932906442 0 0.37014933742706652 0.29575476169949788 0 0.37026464520563152 0.29279186409727531 0 0.36734652779664789 0.29411680932906442 0 0.37014933742706652 0.29575476169949788 0 0.37108481648816682 0.30013899891886681 0 0.37014933742706652 0.29575476169949788 0 0.37306860395079622 0.29341917559567809 0 0.37026464520563152 0.29279186409727531 0 0.37014933742706652 0.29575476169949788 0 0.37306860395079622 0.29341917559567809 0 0.36911771796651938 0.28986917351547109 0 0.37237913536365119 0.29056320862162688 0 0.37333201972158658 0.2878654242033048 0 0.37306860395079622 0.29341917559567809 0 0.37237913536365119 0.29056320862162688 0 0.37763341047385651 0.29079382019339128 0 0.37237913536365119 0.29056320862162688 0 0.37333201972158658 0.2878654242033048 0 0.37763341047385651 0.29079382019339128 0 0.37026464520563152 0.29279186409727531 0 0.37306860395079622 0.29341917559567809 0 0.37237913536365119 0.29056320862162688 0 0.37333201972158658 0.2878654242033048 0 0.36812955944888692 0.28419813691800921 0 0.37969218042614078 0.28371066929036243 0 0.36911771796651938 0.28986917351547109 0 0.37333201972158658 0.2878654242033048 0 0.36812955944888692 0.28419813691800921 0 0.36084998839118931 0.2761252295017701 0 0.37969218042614078 0.28371066929036243 0 0.36084998839118931 0.2761252295017701 0 0.37017340450925651 0.266060206293324 0 0.3539366042426153 0.26554047293381039 0 0.36084998839118931 0.2761252295017701 0 0.38460708535355081 0.26680105137204091 0 0.36084998839118931 0.2761252295017701 0 0.37017340450925651 0.266060206293324 0 0.38460708535355081 0.26680105137204091 0 0.3539366042426153 0.26554047293381039 0 0.38129994004966872 0.25577407136566988 0 0.37169426656027921 0.24972740256563611 0 0.37017340450925651 0.266060206293324 0 0.3539366042426153 0.26554047293381039 0 0.38129994004966872 0.25577407136566988 0 0.3539366042426153 0.26554047293381039 0 0.37169426656027921 0.24972740256563611 0 0.36205361842742478 0.24882498742118489 0 0.3539366042426153 0.26554047293381039 0 0.38129994004966872 0.25577407136566988 0 0.3539366042426153 0.26554047293381039 0 0.35175757775775729 0.2532797976346674 0 0.36205361842742478 0.24882498742118489 0 0.3433555784436142 0.25004320974280247 0 0.35175757775775729 0.2532797976346674 0 0.34536281311255052 0.25941060478944128 0 0.33982225619875311 0.26765994074234428 0 0.3539366042426153 0.26554047293381039 0 0.34536281311255052 0.25941060478944128 0 0.3539366042426153 0.26554047293381039 0 0.35175757775775729 0.2532797976346674 0 0.34536281311255052 0.25941060478944128 0 0.33982225619875311 0.26765994074234428 0 0.36084998839118931 0.2761252295017701 0 0.33982225619875311 0.26765994074234428 0 0.36084998839118931 0.2761252295017701 0 0.3539366042426153 0.26554047293381039 0 0.33982225619875311 0.26765994074234428 0 0.36084998839118931 0.2761252295017701 0 0.35183199075491411 0.27966461044832719 0 0.33982225619875311 0.26765994074234428 0 0.34056182851336592 0.28206143899133118 0 0.35183199075491411 0.27966461044832719 0 0.36152496379752869 0.28359539021876212 0 0.36084998839118931 0.2761252295017701 0 0.35183199075491411 0.27966461044832719 0 0.36084998839118931 0.2761252295017701 0 0.35183199075491411 0.27966461044832719 0 0.39945440726228237 0.27350419034528239 0 0.38460708535355081 0.26680105137204091 0 0.40768566828284042 0.25774317622192677 0 0.39945440726228237 0.27350419034528239 0 0.4092682188351508 0.26816031590002881 0 0.40768566828284042 0.25774317622192677 0 0.39945440726228237 0.27350419034528239 0 0.38460708535355081 0.26680105137204091 0 0.3904751567012596 0.27530993325585928 0 0.39945440726228237 0.27350419034528239 0 0.3904751567012596 0.27530993325585928 0 0.39488150240831521 0.28173053148540511 0 0.39945440726228237 0.27350419034528239 0 0.40366985246608472 0.28285995447659418 0 0.40929088926209078 0.279020096056181 0 0.39945440726228237 0.27350419034528239 0 0.4092682188351508 0.26816031590002881 0 0.40929088926209078 0.279020096056181 0 0.39945440726228237 0.27350419034528239 0 0.39488150240831521 0.28173053148540511 0 0.40366985246608472 0.28285995447659418 0 0.38783836144724232 0.2556839199238965 0 0.38129994004966872 0.25577407136566988 0 0.40866327585672191 0.24600766979752939 0 0.38460708535355081 0.26680105137204091 0 0.40768566828284042 0.25774317622192677 0 0.38783836144724232 0.2556839199238965 0 0.40768566828284042 0.25774317622192677 0 0.40866327585672191 0.24600766979752939 0 0.38783836144724232 0.2556839199238965 0 0.38460708535355081 0.26680105137204091 0 0.40768566828284042 0.25774317622192677 0 0.38129994004966872 0.25577407136566988 0 0.40866327585672191 0.24600766979752939 0 0.38783836144724232 0.2556839199238965 0 0.38129994004966872 0.25577407136566988 0 0.38460708535355081 0.26680105137204091 0 0.38783836144724232 0.2556839199238965 0 0.38460708535355081 0.26680105137204091 0 0.38129994004966872 0.25577407136566988 0 0.37169426656027921 0.24972740256563611 0 0.38106847269238292 0.24536179082341181 0 0.37017340450925651 0.266060206293324 0 0.38129994004966872 0.25577407136566988 0 0.38460708535355081 0.26680105137204091 0 0.36084998839118931 0.2761252295017701 0 0.38460708535355081 0.26680105137204091 0 0.37969218042614078 0.28371066929036243 0 0.38460708535355081 0.26680105137204091 0 0.3904751567012596 0.27530993325585928 0 0.37969218042614078 0.28371066929036243 0 0.38460708535355081 0.26680105137204091 0 0.37969218042614078 0.28371066929036243 0 0.3904751567012596 0.27530993325585928 0 0.37969218042614078 0.28371066929036243 0 0.39488150240831521 0.28173053148540511 0 0.37969218042614078 0.28371066929036243 0 0.37763341047385651 0.29079382019339128 0 0.40259214502479168 0.29292967641552992 0 0.37763341047385651 0.29079382019339128 0 0.4027243230010164 0.30147339632314252 0 0.37969218042614078 0.28371066929036243 0 0.37763341047385651 0.29079382019339128 0 0.37333201972158658 0.2878654242033048 0 0.37969218042614078 0.28371066929036243 0 0.37763341047385651 0.29079382019339128 0 0.37763341047385651 0.29079382019339128 0 0.37695808612291098 0.31120865645681561 0 0.38599374742651271 0.30414296713942529 0 0.37763341047385651 0.29079382019339128 0 0.38599374742651271 0.30414296713942529 0 0.4027243230010164 0.30147339632314252 0 0.37695808612291098 0.31120865645681561 0 0.38599374742651271 0.30414296713942529 0 0.38754735899376969 0.31282171123814728 0 0.38599374742651271 0.30414296713942529 0 0.4027243230010164 0.30147339632314252 0 0.38754735899376969 0.31282171123814728 0 0.4027243230010164 0.30147339632314252 0 0.3956366020903157 0.32248231082130752 0 0.38754735899376969 0.31282171123814728 0 0.37969218042614078 0.28371066929036243 0 0.40259214502479168 0.29292967641552992 0 0.37969218042614078 0.28371066929036243 0 0.39488150240831521 0.28173053148540511 0 0.40259214502479168 0.29292967641552992 0 0.37763341047385651 0.29079382019339128 0 0.4027243230010164 0.30147339632314252 0 0.40259214502479168 0.29292967641552992 0 0.4027243230010164 0.30147339632314252 0 0.40259214502479168 0.29292967641552992 0 0.41139710839419091 0.29189735433941028 0 0.40259214502479168 0.29292967641552992 0 0.40366985246608472 0.28285995447659418 0 0.41139710839419091 0.29189735433941028 0 0.39488150240831521 0.28173053148540511 0 0.40259214502479168 0.29292967641552992 0 0.40366985246608472 0.28285995447659418 0 0.40366985246608472 0.28285995447659418 0 0.41139710839419091 0.29189735433941028 0 0.40929088926209078 0.279020096056181 0 0.41139710839419091 0.29189735433941028 0 0.42781523552817591 0.31215297245289481 0 0.42226183937510081 0.28327127115801121 0 0.41139710839419091 0.29189735433941028 0 0.42226183937510081 0.28327127115801121 0 0.40929088926209078 0.279020096056181 0 0.4027243230010164 0.30147339632314252 0 0.41139710839419091 0.29189735433941028 0 0.42781523552817591 0.31215297245289481 0 0.4027243230010164 0.30147339632314252 0 0.42781523552817591 0.31215297245289481 0 0.41357021602424721 0.32279281759874212 0 0.4027243230010164 0.30147339632314252 0 0.42781523552817591 0.31215297245289481 0 0.42781523552817591 0.31215297245289481 0 0.42226183937510081 0.28327127115801121 0 0.42781523552817591 0.31215297245289481 0 0.42226183937510081 0.28327127115801121 0 0.44120727567718632 0.28746005308771089 0 0.42226183937510081 0.28327127115801121 0 0.43023391716603732 0.27040224467912161 0 0.44120727567718632 0.28746005308771089 0 0.42226183937510081 0.28327127115801121 0 0.43023391716603732 0.27040224467912161 0 0.41664462513020523 0.25422696758609492 0 0.43023391716603732 0.27040224467912161 0 0.43692075095235122 0.26433370861442979 0 0.44373838257505849 0.27050131303512348 0 0.42226183937510081 0.28327127115801121 0 0.4092682188351508 0.26816031590002881 0 0.41664462513020523 0.25422696758609492 0 0.42226183937510081 0.28327127115801121 0 0.41664462513020523 0.25422696758609492 0 0.42226183937510081 0.28327127115801121 0 0.4092682188351508 0.26816031590002881 0 0.40929088926209078 0.279020096056181 0 0.40768566828284042 0.25774317622192677 0 0.41664462513020523 0.25422696758609492 0 0.40866327585672191 0.24600766979752939 0 0.40768566828284042 0.25774317622192677 0 0.41664462513020523 0.25422696758609492 0 0.4092682188351508 0.26816031590002881 0 0.40768566828284042 0.25774317622192677 0 0.41664462513020523 0.25422696758609492 0 0.42749544465446981 0.25699566217507153 0 0.45166362976964691 0.25106894999712381 0 0.43076425121212841 0.2486853010718087 0 0.41664462513020523 0.25422696758609492 0 0.42749544465446981 0.25699566217507153 0 0.43076425121212841 0.2486853010718087 0 0.43023391716603732 0.27040224467912161 0 0.41664462513020523 0.25422696758609492 0 0.42749544465446981 0.25699566217507153 0 0.41664462513020523 0.25422696758609492 0 0.43076425121212841 0.2486853010718087 0 0.42749544465446981 0.25699566217507153 0 0.43692075095235122 0.26433370861442979 0 0.44456450099631911 0.26043047377218492 0 0.43023391716603732 0.27040224467912161 0 0.42749544465446981 0.25699566217507153 0 0.43692075095235122 0.26433370861442979 0 0.42749544465446981 0.25699566217507153 0 0.45166362976964691 0.25106894999712381 0 0.42749544465446981 0.25699566217507153 0 0.44456450099631911 0.26043047377218492 0 0.45166362976964691 0.25106894999712381 0 0.43692075095235122 0.26433370861442979 0 0.44456450099631911 0.26043047377218492 0 0.44373838257505849 0.27050131303512348 0 0.44456450099631911 0.26043047377218492 0 0.44373838257505849 0.27050131303512348 0 0.45508065662597141 0.26402805921732958 0 0.44456450099631911 0.26043047377218492 0 0.45166362976964691 0.25106894999712381 0 0.45508065662597141 0.26402805921732958 0 0.44373838257505849 0.27050131303512348 0 0.45472874274978531 0.27586911806656422 0 0.44120727567718632 0.28746005308771089 0 0.43023391716603732 0.27040224467912161 0 0.44373838257505849 0.27050131303512348 0 0.44120727567718632 0.28746005308771089 0 0.44373838257505849 0.27050131303512348 0 0.45472874274978531 0.27586911806656422 0 0.45508065662597141 0.26402805921732958 0 0.45472874274978531 0.27586911806656422 0 0.46665275363318931 0.27127710252775639 0 0.46192346945889701 0.28817835066990299 0 0.45472874274978531 0.27586911806656422 0 0.46665275363318931 0.27127710252775639 0 0.45508065662597141 0.26402805921732958 0 0.45166362976964691 0.25106894999712381 0 0.46652816171208539 0.25830808769848879 0 0.47583181488482379 0.2451422378191761 0 0.45166362976964691 0.25106894999712381 0 0.45508065662597141 0.26402805921732958 0 0.46652816171208539 0.25830808769848879 0 0.46665275363318931 0.27127710252775639 0 0.45508065662597141 0.26402805921732958 0 0.46652816171208539 0.25830808769848879 0 0.46665275363318931 0.27127710252775639 0 0.46652816171208539 0.25830808769848879 0 0.48341195364679568 0.26002408893105827 0 0.46652816171208539 0.25830808769848879 0 0.48341195364679568 0.26002408893105827 0 0.47583181488482379 0.2451422378191761 0 0.46665275363318931 0.27127710252775639 0 0.48341195364679568 0.26002408893105827 0 0.48138518434246891 0.28130646820503019 0 0.46665275363318931 0.27127710252775639 0 0.48138518434246891 0.28130646820503019 0 0.46192346945889701 0.28817835066990299 0 0.5 0.26671351767664991 0 0.5 0.29421150971207138 0 0.48138518434246891 0.28130646820503019 0 0.48341195364679568 0.26002408893105827 0 0.5 0.26671351767664991 0 0.48138518434246891 0.28130646820503019 0 0.48341195364679568 0.26002408893105827 0 0.5 0.26671351767664991 0 0.50000000000000067 0.2392155256412283 0 0.5 0.29421150971207138 0 0.47556093647901088 0.30733800586058863 0 0.5 0.32170950174749302 0 0.5 0.29421150971207138 0 0.48138518434246891 0.28130646820503019 0 0.47556093647901088 0.30733800586058863 0 0.48138518434246891 0.28130646820503019 0 0.47556093647901088 0.30733800586058863 0 0.46192346945889701 0.28817835066990299 0 0.47556093647901088 0.30733800586058863 0 0.45214514511688908 0.30370412902975941 0 0.45421880844117613 0.32339126307769928 0 0.47556093647901088 0.30733800586058863 0 0.46192346945889701 0.28817835066990299 0 0.45214514511688908 0.30370412902975941 0 0.46192346945889701 0.28817835066990299 0 0.44120727567718632 0.28746005308771089 0 0.45214514511688908 0.30370412902975941 0 0.45472874274978531 0.27586911806656422 0 0.46192346945889701 0.28817835066990299 0 0.44120727567718632 0.28746005308771089 0 0.42781523552817591 0.31215297245289481 0 0.44120727567718632 0.28746005308771089 0 0.45214514511688908 0.30370412902975941 0 0.42781523552817591 0.31215297245289481 0 0.45421880844117613 0.32339126307769928 0 0.43298436918619881 0.33903622913929549 0 0.42781523552817591 0.31215297245289481 0 0.45214514511688908 0.30370412902975941 0 0.45421880844117613 0.32339126307769928 0 0.42781523552817591 0.31215297245289481 0 0.45421880844117613 0.32339126307769928 0 0.45421880844117613 0.32339126307769928 0 0.45970761232660212 0.34692044601787542 0 0.43298436918619881 0.33903622913929549 0 0.45421880844117613 0.32339126307769928 0 0.48062238135417568 0.33462955370250519 0 0.45421880844117613 0.32339126307769928 0 0.48062238135417568 0.33462955370250519 0 0.45970761232660212 0.34692044601787542 0 0.47556093647901088 0.30733800586058863 0 0.45421880844117613 0.32339126307769928 0 0.48062238135417568 0.33462955370250519 0 0.48062238135417568 0.33462955370250519 0 0.5 0.32170950174749302 0 0.5 0.34920749378291471 0 0.47556093647901088 0.30733800586058863 0 0.48062238135417568 0.33462955370250519 0 0.5 0.32170950174749302 0 0.5 0.34920749378291471 0 0.48254603458521478 0.3522402998402685 0 0.5 0.37670548581833618 0 0.48062238135417568 0.33462955370250519 0 0.5 0.34920749378291471 0 0.48254603458521478 0.3522402998402685 0 0.48254603458521478 0.3522402998402685 0 0.46972057754862501 0.36630584452178799 0 0.45970761232660212 0.34692044601787542 0 0.48062238135417568 0.33462955370250519 0 0.48254603458521478 0.3522402998402685 0 0.45970761232660212 0.34692044601787542 0 0.48254603458521478 0.3522402998402685 0 0.46972057754862501 0.36630584452178799 0 0.5 0.37670548581833618 0 0.46972057754862501 0.36630584452178799 0 0.43815350284422228 0.36591948582569622 0 0.45848938469160699 0.38276388730883248 0 0.46972057754862501 0.36630584452178799 0 0.45970761232660212 0.34692044601787542 0 0.43815350284422228 0.36591948582569622 0 0.45970761232660212 0.34692044601787542 0 0.43815350284422228 0.36591948582569622 0 0.43298436918619881 0.33903622913929549 0 0.43815350284422228 0.36591948582569622 0 0.4167242930516859 0.35972934744593471 0 0.42344095457037051 0.38268701701273461 0 0.4167242930516859 0.35972934744593471 0 0.40101385701800268 0.38518895784325291 0 0.4167242930516859 0.35972934744593471 0 0.40181680918128981 0.35947395412181382 0 0.40101385701800268 0.38518895784325291 0 0.4167242930516859 0.35972934744593471 0 0.40869055031553031 0.33881917925707022 0 0.40181680918128981 0.35947395412181382 0 0.4167242930516859 0.35972934744593471 0 0.43298436918619881 0.33903622913929549 0 0.40869055031553031 0.33881917925707022 0 0.43815350284422228 0.36591948582569622 0 0.4167242930516859 0.35972934744593471 0 0.43298436918619881 0.33903622913929549 0 0.43815350284422228 0.36591948582569622 0 0.43298436918619881 0.33903622913929549 0 0.42781523552817591 0.31215297245289481 0 0.43298436918619881 0.33903622913929549 0 0.42781523552817591 0.31215297245289481 0 0.43298436918619881 0.33903622913929549 0 0.41357021602424721 0.32279281759874212 0 0.43298436918619881 0.33903622913929549 0 0.41357021602424721 0.32279281759874212 0 0.40869055031553031 0.33881917925707022 0 0.40869055031553031 0.33881917925707022 0 0.39369601167170543 0.33564153172070438 0 0.39209274976778918 0.34814598654190299 0 0.40869055031553031 0.33881917925707022 0 0.39369601167170543 0.33564153172070438 0 0.3956366020903157 0.32248231082130752 0 0.39369601167170543 0.33564153172070438 0 0.3956366020903157 0.32248231082130752 0 0.38362385659697051 0.32926172455430031 0 0.39369601167170543 0.33564153172070438 0 0.38635485741833753 0.33883185827426582 0 0.39209274976778918 0.34814598654190299 0 0.41357021602424721 0.32279281759874212 0 0.40869055031553031 0.33881917925707022 0 0.3956366020903157 0.32248231082130752 0 0.4027243230010164 0.30147339632314252 0 0.41357021602424721 0.32279281759874212 0 0.3956366020903157 0.32248231082130752 0 0.3956366020903157 0.32248231082130752 0 0.38754735899376969 0.31282171123814728 0 0.38479800915553353 0.32074741934569512 0 0.38754735899376969 0.31282171123814728 0 0.38479800915553353 0.32074741934569512 0 0.37917338616632867 0.3168755173424983 0 0.3956366020903157 0.32248231082130752 0 0.38479800915553353 0.32074741934569512 0 0.38362385659697051 0.32926172455430031 0 0.38479800915553353 0.32074741934569512 0 0.37832625022041982 0.32264150287239662 0 0.38362385659697051 0.32926172455430031 0 0.37577016905582622 0.32787937856968757 0 0.37832625022041982 0.32264150287239662 0 0.38362385659697051 0.32926172455430031 0 0.37577016905582622 0.32787937856968757 0 0.37506056064123422 0.32471797871916308 0 0.37832625022041982 0.32264150287239662 0 0.37368960646642962 0.31911015363466272 0 0.37506056064123422 0.32471797871916308 0 0.37832625022041982 0.32264150287239662 0 0.37695808612291098 0.31120865645681561 0 0.38754735899376969 0.31282171123814728 0 0.37917338616632867 0.3168755173424983 0 0.38479800915553353 0.32074741934569512 0 0.37832625022041982 0.32264150287239662 0 0.37917338616632867 0.3168755173424983 0 0.37368960646642962 0.31911015363466272 0 0.37832625022041982 0.32264150287239662 0 0.37917338616632867 0.3168755173424983 0 0.37499251130121058 0.31593455150060828 0 0.37368960646642962 0.31911015363466272 0 0.37917338616632867 0.3168755173424983 0 0.37499251130121058 0.31593455150060828 0 0.37695808612291098 0.31120865645681561 0 0.37917338616632867 0.3168755173424983 0 0.38635485741833753 0.33883185827426582 0 0.3795813787571668 0.3363772241379393 0 0.38278029029805521 0.34473282441648212 0 0.39369601167170543 0.33564153172070438 0 0.38635485741833753 0.33883185827426582 0 0.38362385659697051 0.32926172455430031 0 0.38635485741833753 0.33883185827426582 0 0.38362385659697051 0.32926172455430031 0 0.3795813787571668 0.3363772241379393 0 0.37577016905582622 0.32787937856968757 0 0.38362385659697051 0.32926172455430031 0 0.37868435463470768 0.3315773541462857 0 0.38362385659697051 0.32926172455430031 0 0.37868435463470768 0.3315773541462857 0 0.3795813787571668 0.3363772241379393 0 0.37577016905582622 0.32787937856968757 0 0.37868435463470768 0.3315773541462857 0 0.375263113682131 0.33313320718557798 0 0.37868435463470768 0.3315773541462857 0 0.375263113682131 0.33313320718557798 0 0.3795813787571668 0.3363772241379393 0 0.37369311900952262 0.33836265764115908 0 0.3795813787571668 0.3363772241379393 0 0.37670219357667811 0.34177383067972761 0 0.3795813787571668 0.3363772241379393 0 0.37670219357667811 0.34177383067972761 0 0.38278029029805521 0.34473282441648212 0 0.37369311900952262 0.33836265764115908 0 0.375263113682131 0.33313320718557798 0 0.3795813787571668 0.3363772241379393 0 0.3809821990389497 0.35490418517770578 0 0.39056259575344082 0.36548629952090861 0 0.39209274976778918 0.34814598654190299 0 0.37486749369974542 0.34694596905823039 0 0.37670219357667811 0.34177383067972761 0 0.38278029029805521 0.34473282441648212 0 0.37486749369974542 0.34694596905823039 0 0.38278029029805521 0.34473282441648212 0 0.3809821990389497 0.35490418517770578 0 0.38278029029805521 0.34473282441648212 0 0.3809821990389497 0.35490418517770578 0 0.39209274976778918 0.34814598654190299 0 0.38635485741833753 0.33883185827426582 0 0.38278029029805521 0.34473282441648212 0 0.39209274976778918 0.34814598654190299 0 0.37228166628853332 0.35471301169251829 0 0.37486749369974542 0.34694596905823039 0 0.3809821990389497 0.35490418517770578 0 0.37414389550204002 0.36898578533419818 0 0.3809821990389497 0.35490418517770578 0 0.39056259575344082 0.36548629952090861 0 0.37414389550204002 0.36898578533419818 0 0.39056259575344082 0.36548629952090861 0 0.40101385701800268 0.38518895784325291 0 0.37414389550204002 0.36898578533419818 0 0.37228166628853332 0.35471301169251829 0 0.3809821990389497 0.35490418517770578 0 0.39056259575344082 0.36548629952090861 0 0.40181680918128981 0.35947395412181382 0 0.40101385701800268 0.38518895784325291 0 0.39056259575344082 0.36548629952090861 0 0.40181680918128981 0.35947395412181382 0 0.39209274976778918 0.34814598654190299 0 0.40869055031553031 0.33881917925707022 0 0.40181680918128981 0.35947395412181382 0 0.39209274976778918 0.34814598654190299 0 0.40101385701800268 0.38518895784325291 0 0.38530342098431941 0.41064856824057122 0 0.40101385701800268 0.38518895784325291 0 0.38530342098431941 0.41064856824057122 0 0.41521715527738928 0.40390661881175682 0 0.3736470799201031 0.39378130610698531 0 0.37414389550204002 0.36898578533419818 0 0.40101385701800268 0.38518895784325291 0 0.3736470799201031 0.39378130610698531 0 0.40101385701800268 0.38518895784325291 0 0.38530342098431941 0.41064856824057122 0 0.36959298495063608 0.43610817863788948 0 0.38530342098431941 0.41064856824057122 0 0.36959298495063608 0.43610817863788948 0 0.38530342098431941 0.41064856824057122 0 0.3889231515195431 0.43141286456833011 0 0.3889231515195431 0.43141286456833011 0 0.40362265567455102 0.42304679086704539 0 0.39942544658573009 0.43872588670818857 0 0.40362265567455102 0.42304679086704539 0 0.41248490446316177 0.43293377153942381 0 0.39942544658573009 0.43872588670818857 0 0.38530342098431941 0.41064856824057122 0 0.3889231515195431 0.43141286456833011 0 0.40362265567455102 0.42304679086704539 0 0.38530342098431941 0.41064856824057122 0 0.40362265567455102 0.42304679086704539 0 0.41521715527738928 0.40390661881175682 0 0.40362265567455102 0.42304679086704539 0 0.42233359500988371 0.42307221464191669 0 0.41521715527738928 0.40390661881175682 0 0.40362265567455102 0.42304679086704539 0 0.41248490446316177 0.43293377153942381 0 0.42233359500988371 0.42307221464191669 0 0.41248490446316177 0.43293377153942381 0 0.42233359500988371 0.42307221464191669 0 0.42326813014219627 0.43909650749986368 0 0.42233359500988371 0.42307221464191669 0 0.43681876433844857 0.43497208046478802 0 0.42326813014219627 0.43909650749986368 0 0.42233359500988371 0.42307221464191669 0 0.43681876433844857 0.43497208046478802 0 0.43655617137350622 0.42038510460191503 0 0.42233359500988371 0.42307221464191669 0 0.42830887421762198 0.41018013153495869 0 0.41521715527738928 0.40390661881175682 0 0.42233359500988371 0.42307221464191669 0 0.42830887421762198 0.41018013153495869 0 0.43655617137350622 0.42038510460191503 0 0.42830887421762198 0.41018013153495869 0 0.43655617137350622 0.42038510460191503 0 0.439625884597032 0.40642404903869822 0 0.42978568865087441 0.39901034440009059 0 0.42344095457037051 0.38268701701273461 0 0.4433226365022459 0.39280274251209668 0 0.42978568865087441 0.39901034440009059 0 0.41521715527738928 0.40390661881175682 0 0.42344095457037051 0.38268701701273461 0 0.42830887421762198 0.41018013153495869 0 0.42978568865087441 0.39901034440009059 0 0.439625884597032 0.40642404903869822 0 0.42830887421762198 0.41018013153495869 0 0.42978568865087441 0.39901034440009059 0 0.41521715527738928 0.40390661881175682 0 0.4167242930516859 0.35972934744593471 0 0.40101385701800268 0.38518895784325291 0 0.42344095457037051 0.38268701701273461 0 0.40101385701800268 0.38518895784325291 0 0.41521715527738928 0.40390661881175682 0 0.42344095457037051 0.38268701701273461 0 0.43815350284422228 0.36591948582569622 0 0.42344095457037051 0.38268701701273461 0 0.4433226365022459 0.39280274251209668 0 0.43815350284422228 0.36591948582569622 0 0.4433226365022459 0.39280274251209668 0 0.43815350284422228 0.36591948582569622 0 0.4433226365022459 0.39280274251209668 0 0.45848938469160699 0.38276388730883248 0 0.4433226365022459 0.39280274251209668 0 0.4587292321942566 0.40377894109977869 0 0.44849177016026981 0.41968599919849731 0 0.4433226365022459 0.39280274251209668 0 0.44849177016026981 0.41968599919849731 0 0.42978568865087441 0.39901034440009059 0 0.4433226365022459 0.39280274251209668 0 0.439625884597032 0.40642404903869822 0 0.4433226365022459 0.39280274251209668 0 0.4587292321942566 0.40377894109977869 0 0.45848938469160699 0.38276388730883248 0 0.4587292321942566 0.40377894109977869 0 0.45848938469160699 0.38276388730883248 0 0.47720201034463561 0.39055994944820821 0 0.46972057754862501 0.36630584452178799 0 0.45848938469160699 0.38276388730883248 0 0.47720201034463561 0.39055994944820821 0 0.46972057754862501 0.36630584452178799 0 0.47720201034463561 0.39055994944820821 0 0.5 0.37670548581833618 0 0.47720201034463561 0.39055994944820821 0 0.5 0.40420347785375749 0 0.47329291580914951 0.41490179660840648 0 0.4587292321942566 0.40377894109977869 0 0.47720201034463561 0.39055994944820821 0 0.47329291580914951 0.41490179660840648 0 0.47720201034463561 0.39055994944820821 0 0.5 0.40420347785375749 0 0.5 0.37670548581833618 0 0.48546521128148462 0.42572005307568972 0 0.49999999999999828 0.43170146988917901 0 0.48502495584706629 0.44181750450007778 0 0.49999999999999828 0.43170146988917901 0 0.48502495584706629 0.44181750450007778 0 0.5 0.40420347785375749 0 0.48546521128148462 0.42572005307568972 0 0.47329291580914951 0.41490179660840648 0 0.5 0.40420347785375749 0 0.48546521128148462 0.42572005307568972 0 0.49999999999999828 0.43170146988917901 0 0.48546521128148462 0.42572005307568972 0 0.47462076711180717 0.43403653248997731 0 0.48502495584706629 0.44181750450007778 0 0.47329291580914951 0.41490179660840648 0 0.47462076711180717 0.43403653248997731 0 0.45927084092720188 0.43580976915473651 0 0.48546521128148462 0.42572005307568972 0 0.47329291580914951 0.41490179660840648 0 0.47462076711180717 0.43403653248997731 0 0.45927084092720188 0.43580976915473651 0 0.44849177016026981 0.41968599919849731 0 0.47329291580914951 0.41490179660840648 0 0.45927084092720188 0.43580976915473651 0 0.44849177016026981 0.41968599919849731 0 0.45927084092720188 0.43580976915473651 0 0.44849177016026981 0.41968599919849731 0 0.45165089640657707 0.43611575462809582 0 0.4587292321942566 0.40377894109977869 0 0.47329291580914951 0.41490179660840648 0 0.44849177016026981 0.41968599919849731 0 0.4433226365022459 0.39280274251209668 0 0.44849177016026981 0.41968599919849731 0 0.439625884597032 0.40642404903869822 0 0.43655617137350622 0.42038510460191503 0 0.44849177016026981 0.41968599919849731 0 0.439625884597032 0.40642404903869822 0 0.44849177016026981 0.41968599919849731 0 0.439625884597032 0.40642404903869822 0 0.44849177016026981 0.41968599919849731 0 0.45165089640657707 0.43611575462809582 0 0.44386952542921521 0.4295111469185629 0 0.44849177016026981 0.41968599919849731 0 0.45165089640657707 0.43611575462809582 0 0.45165089640657707 0.43611575462809582 0 0.44386952542921521 0.4295111469185629 0 0.44519082659473158 0.43782150968735878 0 0.43655617137350622 0.42038510460191503 0 0.44849177016026981 0.41968599919849731 0 0.44386952542921521 0.4295111469185629 0 0.43681876433844857 0.43497208046478802 0 0.43655617137350622 0.42038510460191503 0 0.44386952542921521 0.4295111469185629 0 0.43681876433844857 0.43497208046478802 0 0.44386952542921521 0.4295111469185629 0 0.44519082659473158 0.43782150968735878 0 0.43681876433844857 0.43497208046478802 0 0.44519082659473158 0.43782150968735878 0 0.44362096681603608 0.44566090358066651 0 0.43681876433844857 0.43497208046478802 0 0.44362096681603608 0.44566090358066651 0 0.43343701099378978 0.44857281610427868 0 0.44362096681603608 0.44566090358066651 0 0.44110505044236059 0.45564825146568327 0 0.43343701099378978 0.44857281610427868 0 0.44362096681603608 0.44566090358066651 0 0.45255374853073171 0.45216262504332899 0 0.45221828903371142 0.44335246171580328 0 0.44362096681603608 0.44566090358066651 0 0.45255374853073171 0.45216262504332899 0 0.44110505044236059 0.45564825146568327 0 0.44519082659473158 0.43782150968735878 0 0.44362096681603608 0.44566090358066651 0 0.45221828903371142 0.44335246171580328 0 0.45165089640657707 0.43611575462809582 0 0.44519082659473158 0.43782150968735878 0 0.45221828903371142 0.44335246171580328 0 0.45255374853073171 0.45216262504332899 0 0.44518446721829791 0.46873079822848901 0 0.44110505044236059 0.45564825146568327 0 0.44518446721829791 0.46873079822848901 0 0.44110505044236059 0.45564825146568327 0 0.43072905865294731 0.46311411437165317 0 0.47284597636140308 0.45611600571247141 0 0.46302896313844299 0.47272331085799019 0 0.45255374853073171 0.45216262504332899 0 0.44518446721829791 0.46873079822848901 0 0.47004991169413368 0.45193353911097589 0 0.47004991169413368 0.45193353911097589 0 0.47284597636140308 0.45611600571247141 0 0.46302896313844299 0.47272331085799019 0 0.44518446721829791 0.46873079822848901 0 0.47004991169413368 0.45193353911097589 0 0.46302896313844299 0.47272331085799019 0 0.44518446721829791 0.46873079822848901 0 0.47004991169413368 0.45193353911097589 0 0.45927084092720188 0.43580976915473651 0 0.47004991169413368 0.45193353911097589 0 0.45927084092720188 0.43580976915473651 0 0.45930684530103161 0.44617181272829648 0 0.47004991169413368 0.45193353911097589 0 0.47462076711180717 0.43403653248997731 0 0.45927084092720188 0.43580976915473651 0 0.47004991169413368 0.45193353911097589 0 0.45255374853073171 0.45216262504332899 0 0.45930684530103161 0.44617181272829648 0 0.47004991169413368 0.45193353911097589 0 0.45927084092720188 0.43580976915473651 0 0.45221828903371142 0.44335246171580328 0 0.45930684530103161 0.44617181272829648 0 0.45927084092720188 0.43580976915473651 0 0.45165089640657707 0.43611575462809582 0 0.45221828903371142 0.44335246171580328 0 0.45255374853073171 0.45216262504332899 0 0.45221828903371142 0.44335246171580328 0 0.45930684530103161 0.44617181272829648 0 0.47462076711180717 0.43403653248997731 0 0.47004991169413368 0.45193353911097589 0 0.48502495584706629 0.44181750450007778 0 0.48189680466807888 0.45106209462173341 0 0.47450081081676521 0.45331654521044668 0 0.48502495584706629 0.44181750450007778 0 0.47004991169413368 0.45193353911097589 0 0.48502495584706629 0.44181750450007778 0 0.47004991169413368 0.45193353911097589 0 0.47450081081676521 0.45331654521044668 0 0.48502495584706629 0.44181750450007778 0 0.47284597636140308 0.45611600571247141 0 0.48050552008400071 0.46757346096286262 0 0.46302896313844299 0.47272331085799019 0 0.47004991169413368 0.45193353911097589 0 0.47284597636140308 0.45611600571247141 0 0.47004991169413368 0.45193353911097589 0 0.47450081081676521 0.45331654521044668 0 0.47284597636140308 0.45611600571247141 0 0.47450081081676521 0.45331654521044668 0 0.47284597636140308 0.45611600571247141 0 0.47951191807974908 0.45654698881850991 0 0.47450081081676521 0.45331654521044668 0 0.47284597636140308 0.45611600571247141 0 0.47284597636140308 0.45611600571247141 0 0.48050552008400071 0.46757346096286262 0 0.47284597636140308 0.45611600571247141 0 0.48050552008400071 0.46757346096286262 0 0.47951191807974908 0.45654698881850991 0 0.48189680466807888 0.45106209462173341 0 0.47951191807974908 0.45654698881850991 0 0.4878104784684959 0.4546668375850359 0 0.48050552008400071 0.46757346096286262 0 0.47951191807974908 0.45654698881850991 0 0.4878104784684959 0.4546668375850359 0 0.48189680466807888 0.45106209462173341 0 0.47450081081676521 0.45331654521044668 0 0.47951191807974908 0.45654698881850991 0 0.48050552008400071 0.46757346096286262 0 0.4878104784684959 0.4546668375850359 0 0.49999999999999928 0.46182898591187349 0 0.48050552008400071 0.46757346096286262 0 0.49999999999999928 0.46182898591187349 0 0.49999999999999828 0.43170146988917901 0 0.4878104784684959 0.4546668375850359 0 0.49999999999999928 0.46182898591187349 0 0.49999999999999828 0.43170146988917901 0 0.4878104784684959 0.4546668375850359 0 0.48502495584706629 0.44181750450007778 0 0.48189680466807888 0.45106209462173341 0 0.4878104784684959 0.4546668375850359 0 0.48502495584706629 0.44181750450007778 0 0.49999999999999928 0.46182898591187349 0 0.5 0.5 0 0.49753071700976492 0.4930404390193398 0 0.5 0.5 0 0.47501141284236448 0.48698608464618232 0 0.44690499747156931 0.4999999999999995 0 0.5 0.5 0 0.49753071700976492 0.4930404390193398 0 0.47501141284236448 0.48698608464618232 0 0.49753071700976492 0.4930404390193398 0 0.48901811854688337 0.4803069499911008 0 0.47501141284236448 0.48698608464618232 0 0.49753071700976492 0.4930404390193398 0 0.48901811854688337 0.4803069499911008 0 0.48050552008400071 0.46757346096286262 0 0.49999999999999928 0.46182898591187349 0 0.48901811854688337 0.4803069499911008 0 0.49999999999999928 0.46182898591187349 0 0.49753071700976492 0.4930404390193398 0 0.48901811854688337 0.4803069499911008 0 0.48050552008400071 0.46757346096286262 0 0.48901811854688337 0.4803069499911008 0 0.48050552008400071 0.46757346096286262 0 0.46302896313844299 0.47272331085799019 0 0.48901811854688337 0.4803069499911008 0 0.47689100365292297 0.47689745161453417 0 0.47501141284236448 0.48698608464618232 0 0.48050552008400071 0.46757346096286262 0 0.47689100365292297 0.47689745161453417 0 0.46302896313844299 0.47272331085799019 0 0.48050552008400071 0.46757346096286262 0 0.48901811854688337 0.4803069499911008 0 0.47689100365292297 0.47689745161453417 0 0.47689100365292297 0.47689745161453417 0 0.47501141284236448 0.48698608464618232 0 0.46302896313844299 0.47272331085799019 0 0.47501141284236448 0.48698608464618232 0 0.45496698030500621 0.48636165542899479 0 0.44690499747156931 0.4999999999999995 0 0.47501141284236448 0.48698608464618232 0 0.45496698030500621 0.48636165542899479 0 0.46302896313844299 0.47272331085799019 0 0.45496698030500621 0.48636165542899479 0 0.46302896313844299 0.47272331085799019 0 0.46302896313844299 0.47272331085799019 0 0.43620850627812668 0.48062654530969717 0 0.44518446721829791 0.46873079822848901 0 0.46302896313844299 0.47272331085799019 0 0.43620850627812668 0.48062654530969717 0 0.45496698030500621 0.48636165542899479 0 0.46302896313844299 0.47272331085799019 0 0.43620850627812668 0.48062654530969717 0 0.45496698030500621 0.48636165542899479 0 0.44690499747156931 0.4999999999999995 0 0.43620850627812668 0.48062654530969717 0 0.45496698030500621 0.48636165542899479 0 0.44690499747156931 0.4999999999999995 0 0.42031902274246069 0.48552805734600057 0 0.41743852268843429 0.5 0 0.43620850627812668 0.48062654530969717 0 0.44690499747156931 0.4999999999999995 0 0.41743852268843429 0.5 0 0.43620850627812668 0.48062654530969717 0 0.42031902274246069 0.48552805734600057 0 0.41743852268843429 0.5 0 0.40134209412993838 0.48520307466421098 0 0.42031902274246069 0.48552805734600057 0 0.40973563488985532 0.47579104778557152 0 0.40134209412993838 0.48520307466421098 0 0.42031902274246069 0.48552805734600057 0 0.40973563488985532 0.47579104778557152 0 0.41789473538963601 0.46705380048502582 0 0.44518446721829791 0.46873079822848901 0 0.42031902274246069 0.48552805734600057 0 0.43072905865294731 0.46311411437165317 0 0.44518446721829791 0.46873079822848901 0 0.42031902274246069 0.48552805734600057 0 0.43620850627812668 0.48062654530969717 0 0.44518446721829791 0.46873079822848901 0 0.42031902274246069 0.48552805734600057 0 0.42031902274246069 0.48552805734600057 0 0.43072905865294731 0.46311411437165317 0 0.41789473538963601 0.46705380048502582 0 0.44110505044236059 0.45564825146568327 0 0.43072905865294731 0.46311411437165317 0 0.43343701099378978 0.44857281610427868 0 0.43072905865294731 0.46311411437165317 0 0.43343701099378978 0.44857281610427868 0 0.42053980660522761 0.45341513910658388 0 0.43072905865294731 0.46311411437165317 0 0.41789473538963601 0.46705380048502582 0 0.42053980660522761 0.45341513910658388 0 0.43681876433844857 0.43497208046478802 0 0.43343701099378978 0.44857281610427868 0 0.42326813014219627 0.43909650749986368 0 0.43343701099378978 0.44857281610427868 0 0.42326813014219627 0.43909650749986368 0 0.42053980660522761 0.45341513910658388 0 0.41248490446316177 0.43293377153942381 0 0.42326813014219627 0.43909650749986368 0 0.41215324011006321 0.44426916471351768 0 0.42326813014219627 0.43909650749986368 0 0.41215324011006321 0.44426916471351768 0 0.42053980660522761 0.45341513910658388 0 0.41215324011006321 0.44426916471351768 0 0.42053980660522761 0.45341513910658388 0 0.40575666434273311 0.45838443146516472 0 0.41248490446316177 0.43293377153942381 0 0.41215324011006321 0.44426916471351768 0 0.39942544658573009 0.43872588670818857 0 0.40973563488985532 0.47579104778557152 0 0.41789473538963601 0.46705380048502582 0 0.40575666434273311 0.45838443146516472 0 0.41789473538963601 0.46705380048502582 0 0.42053980660522761 0.45341513910658388 0 0.40575666434273311 0.45838443146516472 0 0.40973563488985532 0.47579104778557152 0 0.40575666434273311 0.45838443146516472 0 0.39457326129307041 0.46924519202038539 0 0.40575666434273311 0.45838443146516472 0 0.38748492612950952 0.44892285829301931 0 0.39457326129307041 0.46924519202038539 0 0.40575666434273311 0.45838443146516472 0 0.39942544658573009 0.43872588670818857 0 0.38748492612950952 0.44892285829301931 0 0.3889231515195431 0.43141286456833011 0 0.39942544658573009 0.43872588670818857 0 0.38748492612950952 0.44892285829301931 0 0.41215324011006321 0.44426916471351768 0 0.40575666434273311 0.45838443146516472 0 0.39942544658573009 0.43872588670818857 0 0.36980735363827261 0.46050290225189661 0 0.36959298495063608 0.43610817863788948 0 0.38748492612950952 0.44892285829301931 0 0.36959298495063608 0.43610817863788948 0 0.3889231515195431 0.43141286456833011 0 0.38748492612950952 0.44892285829301931 0 0.36980735363827261 0.46050290225189661 0 0.38748492612950952 0.44892285829301931 0 0.39457326129307041 0.46924519202038539 0 0.36980735363827261 0.46050290225189661 0 0.37801407526051067 0.48065415083330842 0 0.39457326129307041 0.46924519202038539 0 0.37801407526051067 0.48065415083330842 0 0.38797204790529932 0.5 0 0.40134209412993838 0.48520307466421098 0 0.41743852268843429 0.5 0 0.38797204790529932 0.5 0 0.40134209412993838 0.48520307466421098 0 0.40973563488985532 0.47579104778557152 0 0.40134209412993838 0.48520307466421098 0 0.39457326129307041 0.46924519202038539 0 0.37801407526051067 0.48065415083330842 0 0.40134209412993838 0.48520307466421098 0 0.39457326129307041 0.46924519202038539 0 0.33471388977496319 0.083869725553476451 0 0.32003772732572838 0.080925826065863432 0 0.34163206045391592 0.099703108374672819 0 0.32003772732572838 0.080925826065863432 0 0.34163206045391592 0.099703108374672819 0 0.33471388977496319 0.083869725553476451 0 0.34163206045391592 0.099703108374672819 0 0.35085433501378249 0.086695181415402722 0 0.33471388977496319 0.083869725553476451 0 0.34209731100959018 0.06531632876058778 0 0.3490795063897344 0.076610282135673974 0 0.33471388977496319 0.083869725553476451 0 0.34209731100959018 0.06531632876058778 0 0.32721969837032222 0.069259436753723466 0 0.33471388977496319 0.083869725553476451 0 0.32721969837032222 0.069259436753723466 0 0.32003772732572838 0.080925826065863432 0 0.31518448171420999 0.065085558788002928 0 0.32721969837032222 0.069259436753723466 0 0.32003772732572838 0.080925826065863432 0 0.32003772732572838 0.080925826065863432 0 0.31657863646219547 0.093324099257994786 0 0.34163206045391592 0.099703108374672819 0 0.32003772732572838 0.080925826065863432 0 0.31657863646219547 0.093324099257994786 0 0.30227411453462139 0.089652133027170247 0 0.33471388977496319 0.083869725553476451 0 0.32003772732572838 0.080925826065863432 0 0.31657863646219547 0.093324099257994786 0 0.32025759602694659 0.1047776340902011 0 0.34163206045391592 0.099703108374672819 0 0.31657863646219547 0.093324099257994786 0 0.32025759602694659 0.1047776340902011 0 0.30640852481201453 0.1024735992044304 0 0.32025759602694659 0.1047776340902011 0 0.31114536757858358 0.11742006929579971 0 0.30640852481201453 0.1024735992044304 0 0.32606950933900308 0.1158177097477945 0 0.31114536757858358 0.11742006929579971 0 0.3195478300457561 0.1332621056988223 0 0.32025759602694659 0.1047776340902011 0 0.32606950933900308 0.1158177097477945 0 0.31114536757858358 0.11742006929579971 0 0.33761965874988609 0.1186889285033586 0 0.34163206045391592 0.099703108374672819 0 0.34956654336434939 0.1234914401014125 0 0.32606950933900308 0.1158177097477945 0 0.33761965874988609 0.1186889285033586 0 0.34163206045391592 0.099703108374672819 0 0.32606950933900308 0.1158177097477945 0 0.33761965874988609 0.1186889285033586 0 0.33436770153514289 0.13112975471366969 0 0.33761965874988609 0.1186889285033586 0 0.34956654336434939 0.1234914401014125 0 0.33436770153514289 0.13112975471366969 0 0.32025759602694659 0.1047776340902011 0 0.32606950933900308 0.1158177097477945 0 0.34163206045391592 0.099703108374672819 0 0.34163206045391592 0.099703108374672819 0 0.35755874922647762 0.098360434014750309 0 0.36322639358210312 0.11848039068348271 0 0.34163206045391592 0.099703108374672819 0 0.36322639358210312 0.11848039068348271 0 0.34163206045391592 0.099703108374672819 0 0.35755874922647762 0.098360434014750309 0 0.35085433501378249 0.086695181415402722 0 0.34163206045391592 0.099703108374672819 0 0.34956654336434939 0.1234914401014125 0 0.36322639358210312 0.11848039068348271 0 0.36322639358210312 0.11848039068348271 0 0.37045299287494049 0.09679375479102828 0 0.38005682511468147 0.12140739343396729 0 0.35755874922647762 0.098360434014750309 0 0.36322639358210312 0.11848039068348271 0 0.37045299287494049 0.09679375479102828 0 0.35755874922647762 0.098360434014750309 0 0.37045299287494049 0.09679375479102828 0 0.35979627253246887 0.087956112087811941 0 0.37045299287494049 0.09679375479102828 0 0.36986657419494789 0.075759843690150083 0 0.37682589963749002 0.081332762740894418 0 0.37045299287494049 0.09679375479102828 0 0.35979627253246887 0.087956112087811941 0 0.36084916063519962 0.072180116148089279 0 0.37045299287494049 0.09679375479102828 0 0.36084916063519962 0.072180116148089279 0 0.36986657419494789 0.075759843690150083 0 0.37045299287494049 0.09679375479102828 0 0.36084916063519962 0.072180116148089279 0 0.35755874922647762 0.098360434014750309 0 0.35979627253246887 0.087956112087811941 0 0.35085433501378249 0.086695181415402722 0 0.35979627253246887 0.087956112087811941 0 0.35560274156159061 0.081403828627082772 0 0.36084916063519962 0.072180116148089279 0 0.33471388977496319 0.083869725553476451 0 0.35085433501378249 0.086695181415402722 0 0.3490795063897344 0.076610282135673974 0 0.35979627253246887 0.087956112087811941 0 0.35560274156159061 0.081403828627082772 0 0.35085433501378249 0.086695181415402722 0 0.35560274156159061 0.081403828627082772 0 0.35085433501378249 0.086695181415402722 0 0.3490795063897344 0.076610282135673974 0 0.34209731100959018 0.06531632876058778 0 0.3490795063897344 0.076610282135673974 0 0.36084916063519962 0.072180116148089279 0 0.36448270712015302 0.068442951443566186 0 0.36084916063519962 0.072180116148089279 0 0.35124532839545858 0.047566477505150237 0 0.35560274156159061 0.081403828627082772 0 0.3490795063897344 0.076610282135673974 0 0.36084916063519962 0.072180116148089279 0 0.36448270712015302 0.068442951443566186 0 0.36084916063519962 0.072180116148089279 0 0.36986657419494789 0.075759843690150083 0 0.36986657419494789 0.075759843690150083 0 0.37596532967213542 0.069868995675824025 0 0.37682589963749002 0.081332762740894418 0 0.36448270712015302 0.068442951443566186 0 0.36986657419494789 0.075759843690150083 0 0.37084641292541748 0.06878424193773866 0 0.36986657419494789 0.075759843690150083 0 0.37084641292541748 0.06878424193773866 0 0.37596532967213542 0.069868995675824025 0 0.36448270712015302 0.068442951443566186 0 0.37084641292541748 0.06878424193773866 0 0.37307104071443398 0.061065176941414383 0 0.37084641292541748 0.06878424193773866 0 0.37307104071443398 0.061065176941414383 0 0.37596532967213542 0.069868995675824025 0 0.36448270712015302 0.068442951443566186 0 0.37307104071443398 0.061065176941414383 0 0.37146335928247548 0.04052602251159599 0 0.36448270712015302 0.068442951443566186 0 0.37146335928247548 0.04052602251159599 0 0.35124532839545858 0.047566477505150237 0 0.36448270712015302 0.068442951443566186 0 0.37146335928247548 0.04052602251159599 0 0.37146335928247548 0.04052602251159599 0 0.35572529983931911 0.032753521421585163 0 0.36312657459820519 0.022962182453169309 0 0.37146335928247548 0.04052602251159599 0 0.35572529983931911 0.032753521421585163 0 0.35124532839545858 0.047566477505150237 0 0.35572529983931911 0.032753521421585163 0 0.35124532839545858 0.047566477505150237 0 0.3321968515854315 0.028027004478648001 0 0.36084916063519962 0.072180116148089279 0 0.35124532839545858 0.047566477505150237 0 0.34209731100959018 0.06531632876058778 0 0.36084916063519962 0.072180116148089279 0 0.35124532839545858 0.047566477505150237 0 0.36312657459820519 0.022962182453169309 0 0.35936362748920009 0.0091271431172253586 0 0.37844401144479839 0.012609093579625891 0 0.35936362748920009 0.0091271431172253586 0 0.37844401144479839 0.012609093579625891 0 0.36665723294200347 -0.001883505129568449 0 0.35936362748920009 0.0091271431172253586 0 0.36665723294200347 -0.001883505129568449 0 0.35531676971978082 -0.0033532784323768001 0 0.37146335928247548 0.04052602251159599 0 0.36312657459820519 0.022962182453169309 0 0.37844401144479839 0.012609093579625891 0 0.37146335928247548 0.04052602251159599 0 0.37844401144479839 0.012609093579625891 0 0.35572529983931911 0.032753521421585163 0 0.35063657493523293 0.0197951316358141 0 0.3321968515854315 0.028027004478648001 0 0.35572529983931911 0.032753521421585163 0 0.36312657459820519 0.022962182453169309 0 0.35063657493523293 0.0197951316358141 0 0.36312657459820519 0.022962182453169309 0 0.35063657493523293 0.0197951316358141 0 0.35936362748920009 0.0091271431172253586 0 0.35936362748920009 0.0091271431172253586 0 0.33689267375143878 0.0039255003288513873 0 0.35531676971978082 -0.0033532784323768001 0 0.35063657493523293 0.0197951316358141 0 0.35936362748920009 0.0091271431172253586 0 0.33689267375143878 0.0039255003288513873 0 0.33689267375143878 0.0039255003288513873 0 0.3321968515854315 0.028027004478648001 0 0.30352242257352219 0.0039185454548519476 0 0.35063657493523293 0.0197951316358141 0 0.33689267375143878 0.0039255003288513873 0 0.3321968515854315 0.028027004478648001 0 0.3321968515854315 0.028027004478648001 0 0.32406508202711942 0.05109974460068676 0 0.30086563814790429 0.035038583275740692 0 0.34209731100959018 0.06531632876058778 0 0.32721969837032222 0.069259436753723466 0 0.32406508202711942 0.05109974460068676 0 0.34209731100959018 0.06531632876058778 0 0.35124532839545858 0.047566477505150237 0 0.32406508202711942 0.05109974460068676 0 0.35124532839545858 0.047566477505150237 0 0.3321968515854315 0.028027004478648001 0 0.32406508202711942 0.05109974460068676 0 0.31518448171420999 0.065085558788002928 0 0.32721969837032222 0.069259436753723466 0 0.32406508202711942 0.05109974460068676 0 0.31518448171420999 0.065085558788002928 0 0.32406508202711942 0.05109974460068676 0 0.29882370077581188 0.062479238108283437 0 0.32406508202711942 0.05109974460068676 0 0.29882370077581188 0.062479238108283437 0 0.30086563814790429 0.035038583275740692 0 0.32406508202711942 0.05109974460068676 0 0.30086563814790429 0.035038583275740692 0 0.30086563814790429 0.035038583275740692 0 0.28350496565293731 0.043820562147367653 0 0.27766619426868899 0.018977421950794569 0 0.29882370077581188 0.062479238108283437 0 0.30086563814790429 0.035038583275740692 0 0.28350496565293731 0.043820562147367653 0 0.29882370077581188 0.062479238108283437 0 0.28350496565293731 0.043820562147367653 0 0.28339325744793759 0.061338593161917712 0 0.3321968515854315 0.028027004478648001 0 0.30086563814790429 0.035038583275740692 0 0.30352242257352219 0.0039185454548519476 0 0.30086563814790429 0.035038583275740692 0 0.27766619426868899 0.018977421950794569 0 0.30086563814790429 0.035038583275740692 0 0.30352242257352219 0.0039185454548519476 0 0.27766619426868899 0.018977421950794569 0 0.30352242257352219 0.0039185454548519476 0 0.27766619426868899 0.018977421950794569 0 0.27708695819087842 -0.0025378708656911609 0 0.27766619426868899 0.018977421950794569 0 0.25446675038947358 0.0029162606258486688 0 0.27766619426868899 0.018977421950794569 0 0.26047117107291767 -0.0019720443344692288 0 0.27708695819087842 -0.0025378708656911609 0 0.27766619426868899 0.018977421950794569 0 0.2600935707136679 0.019574361616358959 0 0.26464981823601458 0.038183209123269009 0 0.2600935707136679 0.019574361616358959 0 0.26464981823601458 0.038183209123269009 0 0.25044211127373811 0.032849993626191502 0 0.27766619426868899 0.018977421950794569 0 0.2600935707136679 0.019574361616358959 0 0.25446675038947358 0.0029162606258486688 0 0.27766619426868899 0.018977421950794569 0 0.25446675038947358 0.0029162606258486688 0 0.26047117107291767 -0.0019720443344692288 0 0.25446675038947358 0.0029162606258486688 0 0.26047117107291767 -0.0019720443344692288 0 0.28339325744793759 0.061338593161917712 0 0.2699795556074106 0.054659435659755229 0 0.26514968559830832 0.069915803624621298 0 0.28350496565293731 0.043820562147367653 0 0.28339325744793759 0.061338593161917712 0 0.2699795556074106 0.054659435659755229 0 0.28350496565293731 0.043820562147367653 0 0.27766619426868899 0.018977421950794569 0 0.26464981823601458 0.038183209123269009 0 0.28350496565293731 0.043820562147367653 0 0.2699795556074106 0.054659435659755229 0 0.26464981823601458 0.038183209123269009 0 0.26464981823601458 0.038183209123269009 0 0.25174039047255609 0.044464402284776217 0 0.2585751734657834 0.052327775232976027 0 0.26464981823601458 0.038183209123269009 0 0.25044211127373811 0.032849993626191502 0 0.25174039047255609 0.044464402284776217 0 0.25174039047255609 0.044464402284776217 0 0.25102243244437311 0.053297338652025752 0 0.2585751734657834 0.052327775232976027 0 0.2699795556074106 0.054659435659755229 0 0.26464981823601458 0.038183209123269009 0 0.2585751734657834 0.052327775232976027 0 0.2699795556074106 0.054659435659755229 0 0.2585751734657834 0.052327775232976027 0 0.26000268679747079 0.061003988239662958 0 0.2699795556074106 0.054659435659755229 0 0.26000268679747079 0.061003988239662958 0 0.26514968559830832 0.069915803624621298 0 0.2585751734657834 0.052327775232976027 0 0.26000268679747079 0.061003988239662958 0 0.2530174900015254 0.0600809219264858 0 0.25102243244437311 0.053297338652025752 0 0.2585751734657834 0.052327775232976027 0 0.2530174900015254 0.0600809219264858 0 0.24751669685985911 0.059618880130872708 0 0.25102243244437311 0.053297338652025752 0 0.2530174900015254 0.0600809219264858 0 0.24853219730195361 0.063845178725116872 0 0.2530174900015254 0.0600809219264858 0 0.25274476311700622 0.067427493409812952 0 0.2530174900015254 0.0600809219264858 0 0.25274476311700622 0.067427493409812952 0 0.26000268679747079 0.061003988239662958 0 0.2530174900015254 0.0600809219264858 0 0.25274476311700622 0.067427493409812952 0 0.25274476311700622 0.067427493409812952 0 0.25243039498113262 0.075895774732197205 0 0.24842415088314279 0.069033451464499671 0 0.25274476311700622 0.067427493409812952 0 0.25243039498113262 0.075895774732197205 0 0.25274476311700622 0.067427493409812952 0 0.25243039498113262 0.075895774732197205 0 0.26514968559830832 0.069915803624621298 0 0.25243039498113262 0.075895774732197205 0 0.26514968559830832 0.069915803624621298 0 0.26417250328098718 0.085299079350852347 0 0.25243039498113262 0.075895774732197205 0 0.26514968559830832 0.069915803624621298 0 0.26000268679747079 0.061003988239662958 0 0.25274476311700622 0.067427493409812952 0 0.26514968559830832 0.069915803624621298 0 0.25274476311700622 0.067427493409812952 0 0.26514968559830832 0.069915803624621298 0 0.25243039498113262 0.075895774732197205 0 0.26417250328098718 0.085299079350852347 0 0.25158482098595109 0.098673396421397969 0 0.25243039498113262 0.075895774732197205 0 0.25158482098595109 0.098673396421397969 0 0.26417250328098718 0.085299079350852347 0 0.27563544099652842 0.091217529053328833 0 0.26597619666038957 0.098681263799979324 0 0.26417250328098718 0.085299079350852347 0 0.27658940398852799 0.081360569412953818 0 0.27563544099652842 0.091217529053328833 0 0.26514968559830832 0.069915803624621298 0 0.26417250328098718 0.085299079350852347 0 0.27658940398852799 0.081360569412953818 0 0.27658940398852799 0.081360569412953818 0 0.27563544099652842 0.091217529053328833 0 0.28742128170162778 0.087331448045782731 0 0.28339325744793759 0.061338593161917712 0 0.26514968559830832 0.069915803624621298 0 0.29259370646201821 0.075420814845242989 0 0.26514968559830832 0.069915803624621298 0 0.27658940398852799 0.081360569412953818 0 0.29259370646201821 0.075420814845242989 0 0.28339325744793759 0.061338593161917712 0 0.26514968559830832 0.069915803624621298 0 0.26514968559830832 0.069915803624621298 0 0.29259370646201821 0.075420814845242989 0 0.29882370077581188 0.062479238108283437 0 0.28339325744793759 0.061338593161917712 0 0.29259370646201821 0.075420814845242989 0 0.27658940398852799 0.081360569412953818 0 0.29259370646201821 0.075420814845242989 0 0.28742128170162778 0.087331448045782731 0 0.27563544099652842 0.091217529053328833 0 0.28742128170162778 0.087331448045782731 0 0.29001374252644291 0.099006193890217781 0 0.28742128170162778 0.087331448045782731 0 0.30227411453462139 0.089652133027170247 0 0.29001374252644291 0.099006193890217781 0 0.29259370646201821 0.075420814845242989 0 0.28742128170162778 0.087331448045782731 0 0.30227411453462139 0.089652133027170247 0 0.32003772732572838 0.080925826065863432 0 0.29259370646201821 0.075420814845242989 0 0.30227411453462139 0.089652133027170247 0 0.32003772732572838 0.080925826065863432 0 0.29259370646201821 0.075420814845242989 0 0.32003772732572838 0.080925826065863432 0 0.29882370077581188 0.062479238108283437 0 0.29259370646201821 0.075420814845242989 0 0.32003772732572838 0.080925826065863432 0 0.29882370077581188 0.062479238108283437 0 0.31518448171420999 0.065085558788002928 0 0.32003772732572838 0.080925826065863432 0 0.29882370077581188 0.062479238108283437 0 0.29818169174329712 0.11066146566519899 0 0.31114536757858358 0.11742006929579971 0 0.294250496481684 0.12267566802032639 0 0.31114536757858358 0.11742006929579971 0 0.294250496481684 0.12267566802032639 0 0.30313841955192899 0.13260249050964579 0 0.29818169174329712 0.11066146566519899 0 0.31114536757858358 0.11742006929579971 0 0.30640852481201453 0.1024735992044304 0 0.30227411453462139 0.089652133027170247 0 0.30640852481201453 0.1024735992044304 0 0.29001374252644291 0.099006193890217781 0 0.29818169174329712 0.11066146566519899 0 0.30640852481201453 0.1024735992044304 0 0.29001374252644291 0.099006193890217781 0 0.31657863646219547 0.093324099257994786 0 0.30227411453462139 0.089652133027170247 0 0.30640852481201453 0.1024735992044304 0 0.29818169174329712 0.11066146566519899 0 0.29001374252644291 0.099006193890217781 0 0.28729541733308872 0.1128284558108848 0 0.29001374252644291 0.099006193890217781 0 0.28729541733308872 0.1128284558108848 0 0.27577858748266387 0.1072301355245756 0 0.29818169174329712 0.11066146566519899 0 0.28729541733308872 0.1128284558108848 0 0.294250496481684 0.12267566802032639 0 0.28729541733308872 0.1128284558108848 0 0.294250496481684 0.12267566802032639 0 0.28067449336876182 0.1220521091494646 0 0.28067449336876182 0.1220521091494646 0 0.26956705708048567 0.1198361090660386 0 0.27577858748266387 0.1072301355245756 0 0.28729541733308872 0.1128284558108848 0 0.28067449336876182 0.1220521091494646 0 0.27577858748266387 0.1072301355245756 0 0.26956705708048567 0.1198361090660386 0 0.27577858748266387 0.1072301355245756 0 0.26270963055581759 0.11098617864974181 0 0.27563544099652842 0.091217529053328833 0 0.27577858748266387 0.1072301355245756 0 0.26597619666038957 0.098681263799979324 0 0.27563544099652842 0.091217529053328833 0 0.29001374252644291 0.099006193890217781 0 0.27577858748266387 0.1072301355245756 0 0.27577858748266387 0.1072301355245756 0 0.26597619666038957 0.098681263799979324 0 0.26270963055581759 0.11098617864974181 0 0.25158482098595109 0.098673396421397969 0 0.25094552198087999 0.11589449234768209 0 0.25158482098595109 0.098673396421397969 0 0.26270963055581759 0.11098617864974181 0 0.25094552198087999 0.11589449234768209 0 0.26417250328098718 0.085299079350852347 0 0.26597619666038957 0.098681263799979324 0 0.25158482098595109 0.098673396421397969 0 0.26597619666038957 0.098681263799979324 0 0.25158482098595109 0.098673396421397969 0 0.26270963055581759 0.11098617864974181 0 0.25158482098595109 0.098673396421397969 0 0.26270963055581759 0.11098617864974181 0 0.25094552198087999 0.11589449234768209 0 0.25030622297580962 0.13311558827396619 0 0.26022612795132161 0.12333036834530881 0 0.25094552198087999 0.11589449234768209 0 0.25030622297580962 0.13311558827396619 0 0.26956705708048567 0.1198361090660386 0 0.26022612795132161 0.12333036834530881 0 0.26270963055581759 0.11098617864974181 0 0.26022612795132161 0.12333036834530881 0 0.26270963055581759 0.11098617864974181 0 0.25094552198087999 0.11589449234768209 0 0.26956705708048567 0.1198361090660386 0 0.26022612795132161 0.12333036834530881 0 0.26675796828336718 0.1380571931171293 0 0.26022612795132161 0.12333036834530881 0 0.25030622297580962 0.13311558827396619 0 0.26675796828336718 0.1380571931171293 0 0.25030622297580962 0.13311558827396619 0 0.26675796828336718 0.1380571931171293 0 0.25030622297580962 0.13311558827396619 0 0.26675796828336718 0.1380571931171293 0 0.25638724149227848 0.14295410589973731 0 0.25004344172447263 0.14019424959050239 0 0.25030622297580962 0.13311558827396619 0 0.25638724149227848 0.14295410589973731 0 0.25004344172447263 0.14019424959050239 0 0.25030622297580962 0.13311558827396619 0 0.26675796828336718 0.1380571931171293 0 0.28320971359092417 0.1429987979602943 0 0.26675796828336718 0.1380571931171293 0 0.28666270206708028 0.1324408374186071 0 0.28320971359092417 0.1429987979602943 0 0.28067449336876182 0.1220521091494646 0 0.26956705708048567 0.1198361090660386 0 0.26675796828336718 0.1380571931171293 0 0.28067449336876182 0.1220521091494646 0 0.26675796828336718 0.1380571931171293 0 0.28666270206708028 0.1324408374186071 0 0.26675796828336718 0.1380571931171293 0 0.27436529468354132 0.15433220537778311 0 0.26010861073109098 0.15248373785575309 0 0.26675796828336718 0.1380571931171293 0 0.27436529468354132 0.15433220537778311 0 0.28320971359092417 0.1429987979602943 0 0.26675796828336718 0.1380571931171293 0 0.26010861073109098 0.15248373785575309 0 0.25638724149227848 0.14295410589973731 0 0.2496536413094039 0.15044712256699261 0 0.25004344172447263 0.14019424959050239 0 0.25638724149227848 0.14295410589973731 0 0.24653130607993951 0.16237692388552691 0 0.2496536413094039 0.15044712256699261 0 0.26010861073109098 0.15248373785575309 0 0.2496536413094039 0.15044712256699261 0 0.26010861073109098 0.15248373785575309 0 0.25638724149227848 0.14295410589973731 0 0.24653130607993951 0.16237692388552691 0 0.25292738168467233 0.17649485219682931 0 0.26638423851283249 0.16867758561061549 0 0.24653130607993951 0.16237692388552691 0 0.26010861073109098 0.15248373785575309 0 0.26638423851283249 0.16867758561061549 0 0.24528107816237801 0.1907036486386274 0 0.25292738168467233 0.17649485219682931 0 0.26633433714882182 0.18577592949096661 0 0.25292738168467233 0.17649485219682931 0 0.26633433714882182 0.18577592949096661 0 0.26638423851283249 0.16867758561061549 0 0.27723266788850742 0.181048228772968 0 0.26638423851283249 0.16867758561061549 0 0.28391425324491287 0.17071999404263091 0 0.26633433714882182 0.18577592949096661 0 0.27723266788850742 0.181048228772968 0 0.26638423851283249 0.16867758561061549 0 0.27436529468354132 0.15433220537778311 0 0.26010861073109098 0.15248373785575309 0 0.26638423851283249 0.16867758561061549 0 0.27436529468354132 0.15433220537778311 0 0.26638423851283249 0.16867758561061549 0 0.28391425324491287 0.17071999404263091 0 0.27436529468354132 0.15433220537778311 0 0.28391425324491287 0.17071999404263091 0 0.29097703849613438 0.15773848939083679 0 0.28391425324491287 0.17071999404263091 0 0.2931647794093819 0.16879209887591959 0 0.29097703849613438 0.15773848939083679 0 0.2931647794093819 0.16879209887591959 0 0.29097703849613438 0.15773848939083679 0 0.30040947706207388 0.16512632217721829 0 0.28391425324491287 0.17071999404263091 0 0.28743664533084129 0.187357279865842 0 0.29743995151898561 0.17866098634217961 0 0.27723266788850742 0.181048228772968 0 0.28391425324491287 0.17071999404263091 0 0.28743664533084129 0.187357279865842 0 0.28391425324491287 0.17071999404263091 0 0.2931647794093819 0.16879209887591959 0 0.29743995151898561 0.17866098634217961 0 0.28743664533084129 0.187357279865842 0 0.29743995151898561 0.17866098634217961 0 0.29971043857951379 0.19298806906372529 0 0.29743995151898561 0.17866098634217961 0 0.30929675685570829 0.1858318568065235 0 0.29971043857951379 0.19298806906372529 0 0.29743995151898561 0.17866098634217961 0 0.3101655001798202 0.17563615506282959 0 0.30040947706207388 0.16512632217721829 0 0.29743995151898561 0.17866098634217961 0 0.3101655001798202 0.17563615506282959 0 0.30929675685570829 0.1858318568065235 0 0.30040947706207388 0.16512632217721829 0 0.30453528129870422 0.15487579661148021 0 0.32848741365188411 0.1727716232507491 0 0.29097703849613438 0.15773848939083679 0 0.30040947706207388 0.16512632217721829 0 0.30453528129870422 0.15487579661148021 0 0.2931647794093819 0.16879209887591959 0 0.29743995151898561 0.17866098634217961 0 0.30040947706207388 0.16512632217721829 0 0.29097703849613438 0.15773848939083679 0 0.30453528129870422 0.15487579661148021 0 0.29618567382365713 0.14404403195872001 0 0.30453528129870422 0.15487579661148021 0 0.30873747279203018 0.14281046260302349 0 0.29618567382365713 0.14404403195872001 0 0.30453528129870422 0.15487579661148021 0 0.30873747279203018 0.14281046260302349 0 0.32007589174333823 0.14676000458717811 0 0.30873747279203018 0.14281046260302349 0 0.30313841955192899 0.13260249050964579 0 0.3195478300457561 0.1332621056988223 0 0.31114536757858358 0.11742006929579971 0 0.30313841955192899 0.13260249050964579 0 0.3195478300457561 0.1332621056988223 0 0.30873747279203018 0.14281046260302349 0 0.30313841955192899 0.13260249050964579 0 0.29618567382365713 0.14404403195872001 0 0.294250496481684 0.12267566802032639 0 0.30313841955192899 0.13260249050964579 0 0.28666270206708028 0.1324408374186071 0 0.30313841955192899 0.13260249050964579 0 0.28666270206708028 0.1324408374186071 0 0.29618567382365713 0.14404403195872001 0 0.294250496481684 0.12267566802032639 0 0.28067449336876182 0.1220521091494646 0 0.28666270206708028 0.1324408374186071 0 0.28666270206708028 0.1324408374186071 0 0.28320971359092417 0.1429987979602943 0 0.29618567382365713 0.14404403195872001 0 0.27436529468354132 0.15433220537778311 0 0.29097703849613438 0.15773848939083679 0 0.28320971359092417 0.1429987979602943 0 0.29097703849613438 0.15773848939083679 0 0.28320971359092417 0.1429987979602943 0 0.29618567382365713 0.14404403195872001 0 0.28119448123381058 0.25405304303149878 0 0.26221447651104962 0.2479993693513689 0 0.28440499104296979 0.23439140090611099 0 0.26221447651104962 0.2479993693513689 0 0.26853130556434218 0.23400660741274959 0 0.28440499104296979 0.23439140090611099 0 0.26221447651104962 0.2479993693513689 0 0.28440499104296979 0.23439140090611099 0 0.2457442494512444 0.24022391879071339 0 0.26221447651104962 0.2479993693513689 0 0.25511338863332461 0.22468137717712711 0 0.26221447651104962 0.2479993693513689 0 0.25511338863332461 0.22468137717712711 0 0.26853130556434218 0.23400660741274959 0 0.26221447651104962 0.2479993693513689 0 0.25511338863332461 0.22468137717712711 0 0.25511338863332461 0.22468137717712711 0 0.25242827713160498 0.21540237912569379 0 0.25511338863332461 0.22468137717712711 0 0.2794126892910288 0.21617120911671081 0 0.25511338863332461 0.22468137717712711 0 0.26853130556434218 0.23400660741274959 0 0.2794126892910288 0.21617120911671081 0 0.26853130556434218 0.23400660741274959 0 0.2794126892910288 0.21617120911671081 0 0.28440499104296979 0.23439140090611099 0 0.25511338863332461 0.22468137717712711 0 0.2794126892910288 0.21617120911671081 0 0.26644318031571418 0.20408753099865831 0 0.2794126892910288 0.21617120911671081 0 0.26644318031571418 0.20408753099865831 0 0.27722953884408802 0.19656269719262509 0 0.24528107816237801 0.1907036486386274 0 0.26644318031571418 0.20408753099865831 0 0.25242827713160498 0.21540237912569379 0 0.25511338863332461 0.22468137717712711 0 0.26644318031571418 0.20408753099865831 0 0.25242827713160498 0.21540237912569379 0 0.26644318031571418 0.20408753099865831 0 0.25242827713160498 0.21540237912569379 0 0.24528107816237801 0.1907036486386274 0 0.26633433714882182 0.18577592949096661 0 0.26644318031571418 0.20408753099865831 0 0.26633433714882182 0.18577592949096661 0 0.26644318031571418 0.20408753099865831 0 0.27722953884408802 0.19656269719262509 0 0.27723266788850742 0.181048228772968 0 0.28743664533084129 0.187357279865842 0 0.27722953884408802 0.19656269719262509 0 0.26633433714882182 0.18577592949096661 0 0.27723266788850742 0.181048228772968 0 0.27722953884408802 0.19656269719262509 0 0.28743664533084129 0.187357279865842 0 0.27722953884408802 0.19656269719262509 0 0.28939512316467059 0.2005252056429343 0 0.28743664533084129 0.187357279865842 0 0.28939512316467059 0.2005252056429343 0 0.29971043857951379 0.19298806906372529 0 0.30929675685570829 0.1858318568065235 0 0.29971043857951379 0.19298806906372529 0 0.31162694501442678 0.19735313208654229 0 0.29971043857951379 0.19298806906372529 0 0.31162694501442678 0.19735313208654229 0 0.30371198994873311 0.20766104105629449 0 0.28939512316467059 0.2005252056429343 0 0.29971043857951379 0.19298806906372529 0 0.30371198994873311 0.20766104105629449 0 0.2794126892910288 0.21617120911671081 0 0.30371198994873311 0.20766104105629449 0 0.2794126892910288 0.21617120911671081 0 0.30371198994873311 0.20766104105629449 0 0.30659550557489001 0.220783432460853 0 0.2794126892910288 0.21617120911671081 0 0.27722953884408802 0.19656269719262509 0 0.28939512316467059 0.2005252056429343 0 0.2794126892910288 0.21617120911671081 0 0.28939512316467059 0.2005252056429343 0 0.30371198994873311 0.20766104105629449 0 0.30659550557489001 0.220783432460853 0 0.28440499104296979 0.23439140090611099 0 0.2794126892910288 0.21617120911671081 0 0.30659550557489001 0.220783432460853 0 0.28440499104296979 0.23439140090611099 0 0.30659550557489001 0.220783432460853 0 0.30328699804120918 0.24394477185791469 0 0.28440499104296979 0.23439140090611099 0 0.30659550557489001 0.220783432460853 0 0.30328699804120918 0.24394477185791469 0 0.31607427666693672 0.2331905299380852 0 0.28119448123381058 0.25405304303149878 0 0.30328699804120918 0.24394477185791469 0 0.28440499104296979 0.23439140090611099 0 0.3433555784436142 0.25004320974280247 0 0.34183468199228573 0.23727684870966961 0 0.33092809789354199 0.24744869965648561 0 0.34183468199228573 0.23727684870966961 0 0.3288410404878227 0.2348757256337824 0 0.33092809789354199 0.24744869965648561 0 0.3288410404878227 0.2348757256337824 0 0.33092809789354199 0.24744869965648561 0 0.31845456220733243 0.24449663650262579 0 0.31879452400631653 0.25919465198291952 0 0.30328699804120918 0.24394477185791469 0 0.31845456220733243 0.24449663650262579 0 0.30328699804120918 0.24394477185791469 0 0.31845456220733243 0.24449663650262579 0 0.31607427666693672 0.2331905299380852 0 0.3288410404878227 0.2348757256337824 0 0.31845456220733243 0.24449663650262579 0 0.31607427666693672 0.2331905299380852 0 0.3288410404878227 0.2348757256337824 0 0.31607427666693672 0.2331905299380852 0 0.32372534117020862 0.22390137225637691 0 0.30659550557489001 0.220783432460853 0 0.31607427666693672 0.2331905299380852 0 0.32372534117020862 0.22390137225637691 0 0.3288410404878227 0.2348757256337824 0 0.32372534117020862 0.22390137225637691 0 0.33832986301458301 0.22348170923356889 0 0.34183468199228573 0.23727684870966961 0 0.3288410404878227 0.2348757256337824 0 0.33832986301458301 0.22348170923356889 0 0.32372534117020862 0.22390137225637691 0 0.33832986301458301 0.22348170923356889 0 0.32878602010681029 0.20717546401559489 0 0.33832986301458301 0.22348170923356889 0 0.32878602010681029 0.20717546401559489 0 0.35089693608391498 0.21212819010674691 0 0.32878602010681029 0.20717546401559489 0 0.35097653463873058 0.19356749557033681 0 0.35089693608391498 0.21212819010674691 0 0.30659550557489001 0.220783432460853 0 0.32372534117020862 0.22390137225637691 0 0.32878602010681029 0.20717546401559489 0 0.31162694501442678 0.19735313208654229 0 0.30371198994873311 0.20766104105629449 0 0.32878602010681029 0.20717546401559489 0 0.30371198994873311 0.20766104105629449 0 0.30659550557489001 0.220783432460853 0 0.32878602010681029 0.20717546401559489 0 0.30659550557489001 0.220783432460853 0 0.32878602010681029 0.20717546401559489 0 0.32878602010681029 0.20717546401559489 0 0.31972446529152482 0.19052244909679969 0 0.3336272658304279 0.18895925974375941 0 0.31162694501442678 0.19735313208654229 0 0.32878602010681029 0.20717546401559489 0 0.31972446529152482 0.19052244909679969 0 0.30929675685570829 0.1858318568065235 0 0.31162694501442678 0.19735313208654229 0 0.31972446529152482 0.19052244909679969 0 0.32878602010681029 0.20717546401559489 0 0.3336272658304279 0.18895925974375941 0 0.35097653463873058 0.19356749557033681 0 0.32878602010681029 0.20717546401559489 0 0.35097653463873058 0.19356749557033681 0 0.3336272658304279 0.18895925974375941 0 0.35097653463873058 0.19356749557033681 0 0.35656535024169428 0.1804169243242798 0 0.35097653463873058 0.19356749557033681 0 0.35896651107905142 0.20360726904620211 0 0.35089693608391498 0.21212819010674691 0 0.35097653463873058 0.19356749557033681 0 0.36405518175537521 0.19484170215684679 0 0.35896651107905142 0.20360726904620211 0 0.35097653463873058 0.19356749557033681 0 0.36405518175537521 0.19484170215684679 0 0.35656535024169428 0.1804169243242798 0 0.36405518175537521 0.19484170215684679 0 0.35656535024169428 0.1804169243242798 0 0.38464328683150451 0.18806222539781059 0 0.36405518175537521 0.19484170215684679 0 0.36923798170140371 0.20928007436804161 0 0.38464328683150451 0.18806222539781059 0 0.36405518175537521 0.19484170215684679 0 0.36923798170140371 0.20928007436804161 0 0.35896651107905142 0.20360726904620211 0 0.36923798170140371 0.20928007436804161 0 0.36132702422268731 0.21787493872225441 0 0.35896651107905142 0.20360726904620211 0 0.36923798170140371 0.20928007436804161 0 0.36132702422268731 0.21787493872225441 0 0.37292139258550783 0.22672254500020811 0 0.36132702422268731 0.21787493872225441 0 0.35896651107905142 0.20360726904620211 0 0.35089693608391498 0.21212819010674691 0 0.34183468199228573 0.23727684870966961 0 0.33832986301458301 0.22348170923356889 0 0.35524969613090918 0.22837961108452459 0 0.36132702422268731 0.21787493872225441 0 0.35089693608391498 0.21212819010674691 0 0.35524969613090918 0.22837961108452459 0 0.33832986301458301 0.22348170923356889 0 0.35089693608391498 0.21212819010674691 0 0.35524969613090918 0.22837961108452459 0 0.36132702422268731 0.21787493872225441 0 0.35524969613090918 0.22837961108452459 0 0.37292139258550783 0.22672254500020811 0 0.35524969613090918 0.22837961108452459 0 0.37292139258550783 0.22672254500020811 0 0.36587213359177301 0.2378375665458646 0 0.37292139258550783 0.22672254500020811 0 0.36587213359177301 0.2378375665458646 0 0.3757768555661396 0.240133652284411 0 0.36587213359177301 0.2378375665458646 0 0.37169426656027921 0.24972740256563611 0 0.3757768555661396 0.240133652284411 0 0.36587213359177301 0.2378375665458646 0 0.37169426656027921 0.24972740256563611 0 0.36205361842742478 0.24882498742118489 0 0.36587213359177301 0.2378375665458646 0 0.36205361842742478 0.24882498742118489 0 0.35356337405553911 0.24205426642971811 0 0.35175757775775729 0.2532797976346674 0 0.36205361842742478 0.24882498742118489 0 0.35356337405553911 0.24205426642971811 0 0.35524969613090918 0.22837961108452459 0 0.36587213359177301 0.2378375665458646 0 0.35356337405553911 0.24205426642971811 0 0.34183468199228573 0.23727684870966961 0 0.35524969613090918 0.22837961108452459 0 0.35356337405553911 0.24205426642971811 0 0.3433555784436142 0.25004320974280247 0 0.34183468199228573 0.23727684870966961 0 0.35356337405553911 0.24205426642971811 0 0.3433555784436142 0.25004320974280247 0 0.35175757775775729 0.2532797976346674 0 0.35356337405553911 0.24205426642971811 0 0.33379856680907583 0.1437068241164389 0 0.32007589174333823 0.14676000458717811 0 0.33365817402274128 0.15789089208148979 0 0.33379856680907583 0.1437068241164389 0 0.33365817402274128 0.15789089208148979 0 0.34780073530519279 0.14835628742565241 0 0.33379856680907583 0.1437068241164389 0 0.34780073530519279 0.14835628742565241 0 0.34586764947947463 0.1362539899128139 0 0.33379856680907583 0.1437068241164389 0 0.33436770153514289 0.13112975471366969 0 0.34586764947947463 0.1362539899128139 0 0.34956654336434939 0.1234914401014125 0 0.33436770153514289 0.13112975471366969 0 0.34586764947947463 0.1362539899128139 0 0.33379856680907583 0.1437068241164389 0 0.33436770153514289 0.13112975471366969 0 0.3195478300457561 0.1332621056988223 0 0.32606950933900308 0.1158177097477945 0 0.33436770153514289 0.13112975471366969 0 0.3195478300457561 0.1332621056988223 0 0.30873747279203018 0.14281046260302349 0 0.3195478300457561 0.1332621056988223 0 0.32007589174333823 0.14676000458717811 0 0.30453528129870422 0.15487579661148021 0 0.32007589174333823 0.14676000458717811 0 0.33365817402274128 0.15789089208148979 0 0.33379856680907583 0.1437068241164389 0 0.3195478300457561 0.1332621056988223 0 0.32007589174333823 0.14676000458717811 0 0.30453528129870422 0.15487579661148021 0 0.33365817402274128 0.15789089208148979 0 0.30453528129870422 0.15487579661148021 0 0.32848741365188411 0.1727716232507491 0 0.33365817402274128 0.15789089208148979 0 0.30040947706207388 0.16512632217721829 0 0.32848741365188411 0.1727716232507491 0 0.3101655001798202 0.17563615506282959 0 0.30040947706207388 0.16512632217721829 0 0.32848741365188411 0.1727716232507491 0 0.3101655001798202 0.17563615506282959 0 0.31983557186529732 0.18171103000860481 0 0.32848741365188411 0.1727716232507491 0 0.3336272658304279 0.18895925974375941 0 0.31983557186529732 0.18171103000860481 0 0.32848741365188411 0.1727716232507491 0 0.3101655001798202 0.17563615506282959 0 0.30929675685570829 0.1858318568065235 0 0.31983557186529732 0.18171103000860481 0 0.30929675685570829 0.1858318568065235 0 0.31972446529152482 0.19052244909679969 0 0.31983557186529732 0.18171103000860481 0 0.31972446529152482 0.19052244909679969 0 0.3336272658304279 0.18895925974375941 0 0.31983557186529732 0.18171103000860481 0 0.32848741365188411 0.1727716232507491 0 0.34507730906385942 0.16855187839241309 0 0.35656535024169428 0.1804169243242798 0 0.3336272658304279 0.18895925974375941 0 0.32848741365188411 0.1727716232507491 0 0.35656535024169428 0.1804169243242798 0 0.32848741365188411 0.1727716232507491 0 0.35656535024169428 0.1804169243242798 0 0.32848741365188411 0.1727716232507491 0 0.33365817402274128 0.15789089208148979 0 0.34507730906385942 0.16855187839241309 0 0.33365817402274128 0.15789089208148979 0 0.34507730906385942 0.16855187839241309 0 0.36278106674677829 0.1609059875514994 0 0.34507730906385942 0.16855187839241309 0 0.35656535024169428 0.1804169243242798 0 0.36278106674677829 0.1609059875514994 0 0.33365817402274128 0.15789089208148979 0 0.36278106674677829 0.1609059875514994 0 0.35656535024169428 0.1804169243242798 0 0.37356219856206202 0.1741215612114578 0 0.38464328683150451 0.18806222539781059 0 0.35656535024169428 0.1804169243242798 0 0.38464328683150451 0.18806222539781059 0 0.35656535024169428 0.1804169243242798 0 0.37356219856206202 0.1741215612114578 0 0.36278106674677829 0.1609059875514994 0 0.36278106674677829 0.1609059875514994 0 0.36531512046589693 0.1378839500987098 0 0.37680076681991098 0.15092733218095339 0 0.36278106674677829 0.1609059875514994 0 0.34780073530519279 0.14835628742565241 0 0.36531512046589693 0.1378839500987098 0 0.34780073530519279 0.14835628742565241 0 0.34586764947947463 0.1362539899128139 0 0.36531512046589693 0.1378839500987098 0 0.33365817402274128 0.15789089208148979 0 0.36278106674677829 0.1609059875514994 0 0.34780073530519279 0.14835628742565241 0 0.34956654336434939 0.1234914401014125 0 0.34586764947947463 0.1362539899128139 0 0.36531512046589693 0.1378839500987098 0 0.34956654336434939 0.1234914401014125 0 0.36322639358210312 0.11848039068348271 0 0.36531512046589693 0.1378839500987098 0 0.36322639358210312 0.11848039068348271 0 0.36531512046589693 0.1378839500987098 0 0.38482072671029011 0.13725767299229241 0 0.36322639358210312 0.11848039068348271 0 0.38482072671029011 0.13725767299229241 0 0.36322639358210312 0.11848039068348271 0 0.38482072671029011 0.13725767299229241 0 0.38005682511468147 0.12140739343396729 0 0.38482072671029011 0.13725767299229241 0 0.39398634319161102 0.12556361147638159 0 0.38005682511468147 0.12140739343396729 0 0.38482072671029011 0.13725767299229241 0 0.39398634319161102 0.12556361147638159 0 0.40386822996399702 0.1370092008917044 0 0.39398634319161102 0.12556361147638159 0 0.40386822996399702 0.1370092008917044 0 0.40630256149234217 0.12337914253670321 0 0.38482072671029011 0.13725767299229241 0 0.40641505983847698 0.15603495530110209 0 0.38482072671029011 0.13725767299229241 0 0.40386822996399702 0.1370092008917044 0 0.40641505983847698 0.15603495530110209 0 0.38482072671029011 0.13725767299229241 0 0.39190395947081519 0.16392108302150901 0 0.40641505983847698 0.15603495530110209 0 0.36531512046589693 0.1378839500987098 0 0.38482072671029011 0.13725767299229241 0 0.37680076681991098 0.15092733218095339 0 0.38482072671029011 0.13725767299229241 0 0.37680076681991098 0.15092733218095339 0 0.39190395947081519 0.16392108302150901 0 0.36278106674677829 0.1609059875514994 0 0.39190395947081519 0.16392108302150901 0 0.36278106674677829 0.1609059875514994 0 0.37680076681991098 0.15092733218095339 0 0.39190395947081519 0.16392108302150901 0 0.37356219856206202 0.1741215612114578 0 0.36278106674677829 0.1609059875514994 0 0.39190395947081519 0.16392108302150901 0 0.37356219856206202 0.1741215612114578 0 0.39190395947081519 0.16392108302150901 0 0.38464328683150451 0.18806222539781059 0 0.4059128807594603 0.17981630131623391 0 0.39190395947081519 0.16392108302150901 0 0.38464328683150451 0.18806222539781059 0 0.39190395947081519 0.16392108302150901 0 0.42102685219485209 0.16693617849151851 0 0.40641505983847698 0.15603495530110209 0 0.4059128807594603 0.17981630131623391 0 0.39190395947081519 0.16392108302150901 0 0.42102685219485209 0.16693617849151851 0 0.42102685219485209 0.16693617849151851 0 0.40641505983847698 0.15603495530110209 0 0.41490094777653419 0.14712571815411829 0 0.39190395947081519 0.16392108302150901 0 0.42102685219485209 0.16693617849151851 0 0.4059128807594603 0.17981630131623391 0 0.42102685219485209 0.16693617849151851 0 0.42759287120751482 0.1799189573059411 0 0.4059128807594603 0.17981630131623391 0 0.42759287120751482 0.1799189573059411 0 0.42045703890892938 0.19185412915784311 0 0.42102685219485209 0.16693617849151851 0 0.42759287120751482 0.1799189573059411 0 0.45014974491888898 0.16995127396152809 0 0.42759287120751482 0.1799189573059411 0 0.42045703890892938 0.19185412915784311 0 0.43799329450951457 0.1898848624547933 0 0.42102685219485209 0.16693617849151851 0 0.45014974491888898 0.16995127396152809 0 0.42102685219485209 0.16693617849151851 0 0.43641214087317609 0.15776157540708571 0 0.42820809332857229 0.14540676379554701 0 0.42102685219485209 0.16693617849151851 0 0.43641214087317609 0.15776157540708571 0 0.45014974491888898 0.16995127396152809 0 0.43641214087317609 0.15776157540708571 0 0.42820809332857229 0.14540676379554701 0 0.44305345270963392 0.14224085277467549 0 0.42820809332857229 0.14540676379554701 0 0.43267139290449452 0.12562392175117529 0 0.41815906511665779 0.13368892679480551 0 0.42820809332857229 0.14540676379554701 0 0.43267139290449452 0.12562392175117529 0 0.44305345270963392 0.14224085277467549 0 0.43267139290449452 0.12562392175117529 0 0.41815906511665779 0.13368892679480551 0 0.41840244549433692 0.1204435227777134 0 0.41815906511665779 0.13368892679480551 0 0.41840244549433692 0.1204435227777134 0 0.40630256149234217 0.12337914253670321 0 0.40386822996399702 0.1370092008917044 0 0.41815906511665779 0.13368892679480551 0 0.40630256149234217 0.12337914253670321 0 0.40386822996399702 0.1370092008917044 0 0.41815906511665779 0.13368892679480551 0 0.41490094777653419 0.14712571815411829 0 0.42102685219485209 0.16693617849151851 0 0.42820809332857229 0.14540676379554701 0 0.41490094777653419 0.14712571815411829 0 0.40386822996399702 0.1370092008917044 0 0.40641505983847698 0.15603495530110209 0 0.41490094777653419 0.14712571815411829 0 0.42820809332857229 0.14540676379554701 0 0.41815906511665779 0.13368892679480551 0 0.41490094777653419 0.14712571815411829 0 0.39196586341458151 0.242441409442547 0 0.40329821407583749 0.23025496453590971 0 0.40866327585672191 0.24600766979752939 0 0.38129994004966872 0.25577407136566988 0 0.39196586341458151 0.242441409442547 0 0.40866327585672191 0.24600766979752939 0 0.38129994004966872 0.25577407136566988 0 0.39196586341458151 0.242441409442547 0 0.38106847269238292 0.24536179082341181 0 0.37169426656027921 0.24972740256563611 0 0.38106847269238292 0.24536179082341181 0 0.3757768555661396 0.240133652284411 0 0.37292139258550783 0.22672254500020811 0 0.3757768555661396 0.240133652284411 0 0.38460543787124563 0.238732418458795 0 0.38106847269238292 0.24536179082341181 0 0.3757768555661396 0.240133652284411 0 0.38460543787124563 0.238732418458795 0 0.39196586341458151 0.242441409442547 0 0.38106847269238292 0.24536179082341181 0 0.38460543787124563 0.238732418458795 0 0.39196586341458151 0.242441409442547 0 0.38460543787124563 0.238732418458795 0 0.38844350160088592 0.2284985707660753 0 0.37292139258550783 0.22672254500020811 0 0.38460543787124563 0.238732418458795 0 0.38844350160088592 0.2284985707660753 0 0.37292139258550783 0.22672254500020811 0 0.38844350160088592 0.2284985707660753 0 0.38369130631537601 0.21297307403445409 0 0.38844350160088592 0.2284985707660753 0 0.39679964264504158 0.21937630878092959 0 0.38369130631537601 0.21297307403445409 0 0.38844350160088592 0.2284985707660753 0 0.39679964264504158 0.21937630878092959 0 0.40329821407583749 0.23025496453590971 0 0.39196586341458151 0.242441409442547 0 0.38844350160088592 0.2284985707660753 0 0.40329821407583749 0.23025496453590971 0 0.39679964264504158 0.21937630878092959 0 0.40329821407583749 0.23025496453590971 0 0.41066806580544729 0.2160617609406458 0 0.39598296716959969 0.20626700748070109 0 0.40513352984814438 0.19492560706685999 0 0.41066806580544729 0.2160617609406458 0 0.39679964264504158 0.21937630878092959 0 0.39598296716959969 0.20626700748070109 0 0.41066806580544729 0.2160617609406458 0 0.39679964264504158 0.21937630878092959 0 0.39598296716959969 0.20626700748070109 0 0.38369130631537601 0.21297307403445409 0 0.36923798170140371 0.20928007436804161 0 0.37292139258550783 0.22672254500020811 0 0.38369130631537601 0.21297307403445409 0 0.36923798170140371 0.20928007436804161 0 0.38369130631537601 0.21297307403445409 0 0.38464328683150451 0.18806222539781059 0 0.39598296716959969 0.20626700748070109 0 0.38369130631537601 0.21297307403445409 0 0.38464328683150451 0.18806222539781059 0 0.39598296716959969 0.20626700748070109 0 0.38464328683150451 0.18806222539781059 0 0.40513352984814438 0.19492560706685999 0 0.4059128807594603 0.17981630131623391 0 0.38464328683150451 0.18806222539781059 0 0.40513352984814438 0.19492560706685999 0 0.40513352984814438 0.19492560706685999 0 0.42045703890892938 0.19185412915784311 0 0.42444067869502011 0.20693424997503959 0 0.4059128807594603 0.17981630131623391 0 0.40513352984814438 0.19492560706685999 0 0.42045703890892938 0.19185412915784311 0 0.42045703890892938 0.19185412915784311 0 0.42444067869502011 0.20693424997503959 0 0.43799329450951457 0.1898848624547933 0 0.42444067869502011 0.20693424997503959 0 0.44184419378540352 0.2076794424592901 0 0.43799329450951457 0.1898848624547933 0 0.42444067869502011 0.20693424997503959 0 0.4302098735549707 0.2206458244329694 0 0.44184419378540352 0.2076794424592901 0 0.42444067869502011 0.20693424997503959 0 0.41066806580544729 0.2160617609406458 0 0.4302098735549707 0.2206458244329694 0 0.40513352984814438 0.19492560706685999 0 0.42444067869502011 0.20693424997503959 0 0.41066806580544729 0.2160617609406458 0 0.41066806580544729 0.2160617609406458 0 0.41777320819135039 0.22984229758728861 0 0.4302098735549707 0.2206458244329694 0 0.40329821407583749 0.23025496453590971 0 0.41066806580544729 0.2160617609406458 0 0.41777320819135039 0.22984229758728861 0 0.4302098735549707 0.2206458244329694 0 0.43602661166377499 0.2362412682293889 0 0.44584438813649652 0.2203436080528294 0 0.41777320819135039 0.22984229758728861 0 0.4302098735549707 0.2206458244329694 0 0.43602661166377499 0.2362412682293889 0 0.43602661166377499 0.2362412682293889 0 0.43076425121212841 0.2486853010718087 0 0.40866327585672191 0.24600766979752939 0 0.43602661166377499 0.2362412682293889 0 0.40866327585672191 0.24600766979752939 0 0.41777320819135039 0.22984229758728861 0 0.43602661166377499 0.2362412682293889 0 0.40866327585672191 0.24600766979752939 0 0.41664462513020523 0.25422696758609492 0 0.43076425121212841 0.2486853010718087 0 0.40866327585672191 0.24600766979752939 0 0.40329821407583749 0.23025496453590971 0 0.41777320819135039 0.22984229758728861 0 0.40866327585672191 0.24600766979752939 0 0.45166362976964691 0.25106894999712381 0 0.45384283414141641 0.23962742592169059 0 0.47583181488482379 0.2451422378191761 0 0.45166362976964691 0.25106894999712381 0 0.47583181488482379 0.2451422378191761 0 0.45384283414141641 0.23962742592169059 0 0.47692141707070451 0.23056955077157251 0 0.45166362976964691 0.25106894999712381 0 0.43076425121212841 0.2486853010718087 0 0.45384283414141641 0.23962742592169059 0 0.43602661166377499 0.2362412682293889 0 0.43076425121212841 0.2486853010718087 0 0.45384283414141641 0.23962742592169059 0 0.43076425121212841 0.2486853010718087 0 0.45384283414141641 0.23962742592169059 0 0.43602661166377499 0.2362412682293889 0 0.46338994747082818 0.22647486666124839 0 0.43602661166377499 0.2362412682293889 0 0.44584438813649652 0.2203436080528294 0 0.46338994747082818 0.22647486666124839 0 0.43602661166377499 0.2362412682293889 0 0.45384283414141641 0.23962742592169059 0 0.46338994747082818 0.22647486666124839 0 0.44584438813649652 0.2203436080528294 0 0.46338994747082818 0.22647486666124839 0 0.4574246187180494 0.20998202225832771 0 0.45384283414141641 0.23962742592169059 0 0.46338994747082818 0.22647486666124839 0 0.47692141707070451 0.23056955077157251 0 0.46338994747082818 0.22647486666124839 0 0.4574246187180494 0.20998202225832771 0 0.47311107537994651 0.21060674662752529 0 0.4574246187180494 0.20998202225832771 0 0.46861366351278472 0.19789432193598561 0 0.47311107537994651 0.21060674662752529 0 0.44584438813649652 0.2203436080528294 0 0.4574246187180494 0.20998202225832771 0 0.44184419378540352 0.2076794424592901 0 0.4302098735549707 0.2206458244329694 0 0.44584438813649652 0.2203436080528294 0 0.44184419378540352 0.2076794424592901 0 0.4574246187180494 0.20998202225832771 0 0.44184419378540352 0.2076794424592901 0 0.45120510308892831 0.19507838461398491 0 0.44184419378540352 0.2076794424592901 0 0.43799329450951457 0.1898848624547933 0 0.45120510308892831 0.19507838461398491 0 0.4574246187180494 0.20998202225832771 0 0.45120510308892831 0.19507838461398491 0 0.46861366351278472 0.19789432193598561 0 0.45120510308892831 0.19507838461398491 0 0.46861366351278472 0.19789432193598561 0 0.45014974491888898 0.16995127396152809 0 0.46861366351278472 0.19789432193598561 0 0.48377650321145821 0.20030440734603891 0 0.47890777313388699 0.17818810929941131 0 0.46861366351278472 0.19789432193598561 0 0.48377650321145821 0.20030440734603891 0 0.47311107537994651 0.21060674662752529 0 0.48377650321145821 0.20030440734603891 0 0.5 0.19442179120654851 0 0.47890777313388699 0.17818810929941131 0 0.48377650321145821 0.20030440734603891 0 0.5 0.19442179120654851 0 0.49075328327788142 0.2167084650931079 0 0.5 0.19442179120654851 0 0.49075328327788142 0.2167084650931079 0 0.49999999999999339 0.2215116756214566 0 0.48377650321145821 0.20030440734603891 0 0.49075328327788142 0.2167084650931079 0 0.47311107537994651 0.21060674662752529 0 0.46338994747082818 0.22647486666124839 0 0.49075328327788142 0.2167084650931079 0 0.47311107537994651 0.21060674662752529 0 0.46338994747082818 0.22647486666124839 0 0.49075328327788142 0.2167084650931079 0 0.46338994747082818 0.22647486666124839 0 0.49075328327788142 0.2167084650931079 0 0.47692141707070451 0.23056955077157251 0 0.47692141707070451 0.23056955077157251 0 0.49999999999999339 0.2215116756214566 0 0.50000000000000067 0.2392155256412283 0 0.49075328327788142 0.2167084650931079 0 0.47692141707070451 0.23056955077157251 0 0.49999999999999339 0.2215116756214566 0 0.47692141707070451 0.23056955077157251 0 0.49999999999999339 0.2215116756214566 0 0.50000000000000067 0.2392155256412283 0 0.47583181488482379 0.2451422378191761 0 0.48341195364679568 0.26002408893105827 0 0.50000000000000067 0.2392155256412283 0 0.47583181488482379 0.2451422378191761 0 0.47692141707070451 0.23056955077157251 0 0.50000000000000067 0.2392155256412283 0 0.47583181488482379 0.2451422378191761 0 0.45384283414141641 0.23962742592169059 0 0.47692141707070451 0.23056955077157251 0 0.47583181488482379 0.2451422378191761 0 0.46053260521531592 0.14091734283165991 0 0.45014974491888898 0.16995127396152809 0 0.47759274938693741 0.15337993901402261 0 0.46053260521531592 0.14091734283165991 0 0.47596637305353268 0.1236489788231635 0 0.45094723062946279 0.12208098845927939 0 0.46053260521531592 0.14091734283165991 0 0.44305345270963392 0.14224085277467549 0 0.45094723062946279 0.12208098845927939 0 0.43267139290449452 0.12562392175117529 0 0.44305345270963392 0.14224085277467549 0 0.45094723062946279 0.12208098845927939 0 0.46053260521531592 0.14091734283165991 0 0.44305345270963392 0.14224085277467549 0 0.45014974491888898 0.16995127396152809 0 0.43641214087317609 0.15776157540708571 0 0.44305345270963392 0.14224085277467549 0 0.45014974491888898 0.16995127396152809 0 0.42759287120751482 0.1799189573059411 0 0.43799329450951457 0.1898848624547933 0 0.45014974491888898 0.16995127396152809 0 0.43799329450951457 0.1898848624547933 0 0.45120510308892831 0.19507838461398491 0 0.45014974491888898 0.16995127396152809 0 0.46861366351278472 0.19789432193598561 0 0.45014974491888898 0.16995127396152809 0 0.47890777313388699 0.17818810929941131 0 0.45014974491888898 0.16995127396152809 0 0.47890777313388699 0.17818810929941131 0 0.47759274938693741 0.15337993901402261 0 0.5 0.19442179120654851 0 0.47890777313388699 0.17818810929941131 0 0.5 0.16733190679164031 0 0.47890777313388699 0.17818810929941131 0 0.5 0.16733190679164031 0 0.47759274938693741 0.15337993901402261 0 0.5 0.16733190679164031 0 0.47759274938693741 0.15337993901402261 0 0.5 0.14024202237673219 0 0.46053260521531592 0.14091734283165991 0 0.47759274938693741 0.15337993901402261 0 0.47596637305353268 0.1236489788231635 0 0.5 0.14024202237673219 0 0.5 0.11315213796182411 0 0.47596637305353268 0.1236489788231635 0 0.47759274938693741 0.15337993901402261 0 0.5 0.14024202237673219 0 0.47596637305353268 0.1236489788231635 0 0.5 0.11315213796182411 0 0.48146508414057748 0.097867616362435003 0 0.47596637305353268 0.1236489788231635 0 0.5 0.11315213796182411 0 0.48146508414057748 0.097867616362435003 0 0.5 0.08606225354691599 0 0.48146508414057748 0.097867616362435003 0 0.46684480345772023 0.083704774648097419 0 0.46085076100455152 0.1051260388446932 0 0.48146508414057748 0.097867616362435003 0 0.47596637305353268 0.1236489788231635 0 0.46085076100455152 0.1051260388446932 0 0.5 0.08606225354691599 0 0.48297411160829701 0.071419164250366693 0 0.5 0.058972369132007867 0 0.48146508414057748 0.097867616362435003 0 0.5 0.08606225354691599 0 0.48297411160829701 0.071419164250366693 0 0.48146508414057748 0.097867616362435003 0 0.48297411160829701 0.071419164250366693 0 0.46684480345772023 0.083704774648097419 0 0.48297411160829701 0.071419164250366693 0 0.46368779630991369 0.062884433647911922 0 0.46684480345772023 0.083704774648097419 0 0.46368779630991369 0.062884433647911922 0 0.4455316944648699 0.078385408113317706 0 0.46368779630991369 0.062884433647911922 0 0.46684480345772023 0.083704774648097419 0 0.4455316944648699 0.078385408113317706 0 0.46684480345772023 0.083704774648097419 0 0.4455316944648699 0.078385408113317706 0 0.46085076100455152 0.1051260388446932 0 0.4455316944648699 0.078385408113317706 0 0.46085076100455152 0.1051260388446932 0 0.43655847815144871 0.087567909291679069 0 0.4455316944648699 0.078385408113317706 0 0.43655847815144871 0.087567909291679069 0 0.43300293116684879 0.070359854062556224 0 0.4455316944648699 0.078385408113317706 0 0.43300293116684879 0.070359854062556224 0 0.44432728466234178 0.059795406129610977 0 0.46368779630991369 0.062884433647911922 0 0.4455316944648699 0.078385408113317706 0 0.44432728466234178 0.059795406129610977 0 0.47596637305353268 0.1236489788231635 0 0.46085076100455152 0.1051260388446932 0 0.45094723062946279 0.12208098845927939 0 0.46085076100455152 0.1051260388446932 0 0.43655847815144871 0.087567909291679069 0 0.46085076100455152 0.1051260388446932 0 0.43845481143497073 0.110031162788742 0 0.43302597451412722 0.09911942802672713 0 0.46085076100455152 0.1051260388446932 0 0.43302597451412722 0.09911942802672713 0 0.43655847815144871 0.087567909291679069 0 0.43267139290449452 0.12562392175117529 0 0.45094723062946279 0.12208098845927939 0 0.43845481143497073 0.110031162788742 0 0.46085076100455152 0.1051260388446932 0 0.45094723062946279 0.12208098845927939 0 0.43845481143497073 0.110031162788742 0 0.43267139290449452 0.12562392175117529 0 0.43845481143497073 0.110031162788742 0 0.42512360996164289 0.1101942667169049 0 0.43267139290449452 0.12562392175117529 0 0.42512360996164289 0.1101942667169049 0 0.41840244549433692 0.1204435227777134 0 0.42512360996164289 0.1101942667169049 0 0.41840244549433692 0.1204435227777134 0 0.41145911669595331 0.1096997076075869 0 0.41840244549433692 0.1204435227777134 0 0.41145911669595331 0.1096997076075869 0 0.40630256149234217 0.12337914253670321 0 0.41145911669595331 0.1096997076075869 0 0.41782870111656589 0.098086010242617663 0 0.40188519574572068 0.098349840232826835 0 0.41782870111656589 0.098086010242617663 0 0.41132824907511162 0.087668761689670915 0 0.40188519574572068 0.098349840232826835 0 0.42512360996164289 0.1101942667169049 0 0.41145911669595331 0.1096997076075869 0 0.41782870111656589 0.098086010242617663 0 0.41782870111656589 0.098086010242617663 0 0.43302597451412722 0.09911942802672713 0 0.42198136315300161 0.08812274721924529 0 0.42512360996164289 0.1101942667169049 0 0.41782870111656589 0.098086010242617663 0 0.43302597451412722 0.09911942802672713 0 0.43845481143497073 0.110031162788742 0 0.42512360996164289 0.1101942667169049 0 0.43302597451412722 0.09911942802672713 0 0.43655847815144871 0.087567909291679069 0 0.42198136315300161 0.08812274721924529 0 0.41226619529834591 0.070009779738664735 0 0.43655847815144871 0.087567909291679069 0 0.41226619529834591 0.070009779738664735 0 0.43302597451412722 0.09911942802672713 0 0.43655847815144871 0.087567909291679069 0 0.42198136315300161 0.08812274721924529 0 0.43300293116684879 0.070359854062556224 0 0.41226619529834591 0.070009779738664735 0 0.42739758089851382 0.054541393999090262 0 0.43655847815144871 0.087567909291679069 0 0.43300293116684879 0.070359854062556224 0 0.41226619529834591 0.070009779738664735 0 0.42198136315300161 0.08812274721924529 0 0.41226619529834591 0.070009779738664735 0 0.41132824907511162 0.087668761689670915 0 0.41226619529834591 0.070009779738664735 0 0.41132824907511162 0.087668761689670915 0 0.39992923875424519 0.082621500021195282 0 0.41782870111656589 0.098086010242617663 0 0.42198136315300161 0.08812274721924529 0 0.41132824907511162 0.087668761689670915 0 0.41132824907511162 0.087668761689670915 0 0.39992923875424519 0.082621500021195282 0 0.40188519574572068 0.098349840232826835 0 0.39992923875424519 0.082621500021195282 0 0.38759228221014619 0.095233220303727467 0 0.40188519574572068 0.098349840232826835 0 0.39992923875424519 0.082621500021195282 0 0.38759228221014619 0.095233220303727467 0 0.41226619529834591 0.070009779738664735 0 0.39707386889515511 0.070908779594843374 0 0.39683376059791597 0.058855427163935138 0 0.41226619529834591 0.070009779738664735 0 0.39683376059791597 0.058855427163935138 0 0.41226619529834591 0.070009779738664735 0 0.39992923875424519 0.082621500021195282 0 0.41226619529834591 0.070009779738664735 0 0.39992923875424519 0.082621500021195282 0 0.39707386889515511 0.070908779594843374 0 0.39992923875424519 0.082621500021195282 0 0.39707386889515511 0.070908779594843374 0 0.38583977896057609 0.075316135258006081 0 0.39707386889515511 0.070908779594843374 0 0.38282045226763678 0.060547433734587333 0 0.39683376059791597 0.058855427163935138 0 0.39707386889515511 0.070908779594843374 0 0.38583977896057609 0.075316135258006081 0 0.38282045226763678 0.060547433734587333 0 0.38583977896057609 0.075316135258006081 0 0.37596532967213542 0.069868995675824025 0 0.37682589963749002 0.081332762740894418 0 0.37307104071443398 0.061065176941414383 0 0.37596532967213542 0.069868995675824025 0 0.38282045226763678 0.060547433734587333 0 0.38583977896057609 0.075316135258006081 0 0.37596532967213542 0.069868995675824025 0 0.38282045226763678 0.060547433734587333 0 0.39992923875424519 0.082621500021195282 0 0.38412803848747967 0.086259474622970303 0 0.38759228221014619 0.095233220303727467 0 0.39992923875424519 0.082621500021195282 0 0.38583977896057609 0.075316135258006081 0 0.38412803848747967 0.086259474622970303 0 0.37045299287494049 0.09679375479102828 0 0.38412803848747967 0.086259474622970303 0 0.38759228221014619 0.095233220303727467 0 0.38583977896057609 0.075316135258006081 0 0.38412803848747967 0.086259474622970303 0 0.37682589963749002 0.081332762740894418 0 0.37045299287494049 0.09679375479102828 0 0.38412803848747967 0.086259474622970303 0 0.37682589963749002 0.081332762740894418 0 0.37045299287494049 0.09679375479102828 0 0.38005682511468147 0.12140739343396729 0 0.37045299287494049 0.09679375479102828 0 0.38759228221014619 0.095233220303727467 0 0.38890959528695412 0.1083938038889192 0 0.37045299287494049 0.09679375479102828 0 0.38890959528695412 0.1083938038889192 0 0.38005682511468147 0.12140739343396729 0 0.39398634319161102 0.12556361147638159 0 0.38890959528695412 0.1083938038889192 0 0.38005682511468147 0.12140739343396729 0 0.39398634319161102 0.12556361147638159 0 0.38890959528695412 0.1083938038889192 0 0.39948393258462489 0.11301500309558379 0 0.39398634319161102 0.12556361147638159 0 0.40630256149234217 0.12337914253670321 0 0.39948393258462489 0.11301500309558379 0 0.41145911669595331 0.1096997076075869 0 0.40630256149234217 0.12337914253670321 0 0.39948393258462489 0.11301500309558379 0 0.41145911669595331 0.1096997076075869 0 0.39948393258462489 0.11301500309558379 0 0.40188519574572068 0.098349840232826835 0 0.38759228221014619 0.095233220303727467 0 0.38890959528695412 0.1083938038889192 0 0.40188519574572068 0.098349840232826835 0 0.38890959528695412 0.1083938038889192 0 0.39948393258462489 0.11301500309558379 0 0.40188519574572068 0.098349840232826835 0 0.3912475249538237 0.025882868266216091 0 0.40325323122183843 0.024352223252143548 0 0.39536881189699241 0.01378873843063998 0 0.3912475249538237 0.025882868266216091 0 0.40325323122183843 0.024352223252143548 0 0.39805180056669343 0.032772735105760037 0 0.40325323122183843 0.024352223252143548 0 0.39805180056669343 0.032772735105760037 0 0.40655765028286611 0.035582104639029083 0 0.40325323122183843 0.024352223252143548 0 0.39536881189699241 0.01378873843063998 0 0.40720094273855439 0.01372602960598159 0 0.40060323373222451 0.0042547197705496897 0 0.39536881189699241 0.01378873843063998 0 0.40720094273855439 0.01372602960598159 0 0.40060323373222451 0.0042547197705496897 0 0.41081432206005303 0.0037114498956348132 0 0.4046584776842293 -0.0050702490882302163 0 0.40060323373222451 0.0042547197705496897 0 0.41081432206005303 0.0037114498956348132 0 0.40720094273855439 0.01372602960598159 0 0.40060323373222451 0.0042547197705496897 0 0.39025836247721268 0.0036292771787240202 0 0.39531848553630572 -0.0042569273994520467 0 0.40060323373222451 0.0042547197705496897 0 0.39536881189699241 0.01378873843063998 0 0.39025836247721268 0.0036292771787240202 0 0.37844401144479839 0.012609093579625891 0 0.38356146703633898 -0.0078565650350033434 0 0.37844401144479839 0.012609093579625891 0 0.39025836247721268 0.0036292771787240202 0 0.38356146703633898 -0.0078565650350033434 0 0.39536881189699241 0.01378873843063998 0 0.37844401144479839 0.012609093579625891 0 0.39025836247721268 0.0036292771787240202 0 0.3912475249538237 0.025882868266216091 0 0.37844401144479839 0.012609093579625891 0 0.38063223185621792 0.036578263657106522 0 0.37844401144479839 0.012609093579625891 0 0.38063223185621792 0.036578263657106522 0 0.37146335928247548 0.04052602251159599 0 0.37844401144479839 0.012609093579625891 0 0.38063223185621792 0.036578263657106522 0 0.3912475249538237 0.025882868266216091 0 0.39536881189699241 0.01378873843063998 0 0.37844401144479839 0.012609093579625891 0 0.37146335928247548 0.04052602251159599 0 0.38063223185621792 0.036578263657106522 0 0.38282045226763678 0.060547433734587333 0 0.3912475249538237 0.025882868266216091 0 0.38063223185621792 0.036578263657106522 0 0.3908528121234538 0.035995570554822158 0 0.38063223185621792 0.036578263657106522 0 0.38791705742610771 0.044539104287684539 0 0.3908528121234538 0.035995570554822158 0 0.38791705742610771 0.044539104287684539 0 0.38282045226763678 0.060547433734587333 0 0.39079668350586277 0.051215399393808793 0 0.37307104071443398 0.061065176941414383 0 0.37146335928247548 0.04052602251159599 0 0.38282045226763678 0.060547433734587333 0 0.38063223185621792 0.036578263657106522 0 0.38791705742610771 0.044539104287684539 0 0.38282045226763678 0.060547433734587333 0 0.38063223185621792 0.036578263657106522 0 0.38282045226763678 0.060547433734587333 0 0.38282045226763678 0.060547433734587333 0 0.39683376059791597 0.058855427163935138 0 0.39079668350586277 0.051215399393808793 0 0.41226619529834591 0.070009779738664735 0 0.39683376059791597 0.058855427163935138 0 0.40948896714378957 0.05055434744181983 0 0.39683376059791597 0.058855427163935138 0 0.39079668350586277 0.051215399393808793 0 0.39674782008621368 0.04348041067995833 0 0.39683376059791597 0.058855427163935138 0 0.39674782008621368 0.04348041067995833 0 0.40948896714378957 0.05055434744181983 0 0.3908528121234538 0.035995570554822158 0 0.39805180056669343 0.032772735105760037 0 0.39674782008621368 0.04348041067995833 0 0.3912475249538237 0.025882868266216091 0 0.3908528121234538 0.035995570554822158 0 0.39805180056669343 0.032772735105760037 0 0.38791705742610771 0.044539104287684539 0 0.3908528121234538 0.035995570554822158 0 0.39674782008621368 0.04348041067995833 0 0.38791705742610771 0.044539104287684539 0 0.39079668350586277 0.051215399393808793 0 0.39674782008621368 0.04348041067995833 0 0.39674782008621368 0.04348041067995833 0 0.40655765028286611 0.035582104639029083 0 0.40948896714378957 0.05055434744181983 0 0.39805180056669343 0.032772735105760037 0 0.39674782008621368 0.04348041067995833 0 0.40655765028286611 0.035582104639029083 0 0.40655765028286611 0.035582104639029083 0 0.41713079569888262 0.040856968430241461 0 0.41557099838193923 0.024039796491718179 0 0.41713079569888262 0.040856968430241461 0 0.42755741698364552 0.032815777208855347 0 0.41557099838193923 0.024039796491718179 0 0.40655765028286611 0.035582104639029083 0 0.41713079569888262 0.040856968430241461 0 0.40948896714378957 0.05055434744181983 0 0.41226619529834591 0.070009779738664735 0 0.40948896714378957 0.05055434744181983 0 0.42739758089851382 0.054541393999090262 0 0.41713079569888262 0.040856968430241461 0 0.40948896714378957 0.05055434744181983 0 0.42739758089851382 0.054541393999090262 0 0.41226619529834591 0.070009779738664735 0 0.42739758089851382 0.054541393999090262 0 0.43300293116684879 0.070359854062556224 0 0.42739758089851382 0.054541393999090262 0 0.44432728466234178 0.059795406129610977 0 0.41713079569888262 0.040856968430241461 0 0.42739758089851382 0.054541393999090262 0 0.42755741698364552 0.032815777208855347 0 0.42739758089851382 0.054541393999090262 0 0.42755741698364552 0.032815777208855347 0 0.44252896649868317 0.039073008259517338 0 0.42739758089851382 0.054541393999090262 0 0.44252896649868317 0.039073008259517338 0 0.42755741698364552 0.032815777208855347 0 0.4358194844604939 0.024219735287320941 0 0.44252896649868317 0.039073008259517338 0 0.42755741698364552 0.032815777208855347 0 0.41557099838193923 0.024039796491718179 0 0.4265644217351573 0.014684511896395219 0 0.4358194844604939 0.024219735287320941 0 0.4265644217351573 0.014684511896395219 0 0.44548351627008242 0.01642882659412407 0 0.42755741698364552 0.032815777208855347 0 0.4358194844604939 0.024219735287320941 0 0.4265644217351573 0.014684511896395219 0 0.41557099838193923 0.024039796491718179 0 0.4165272652869268 0.01155925859927168 0 0.4265644217351573 0.014684511896395219 0 0.41557099838193923 0.024039796491718179 0 0.40720094273855439 0.01372602960598159 0 0.4165272652869268 0.01155925859927168 0 0.40325323122183843 0.024352223252143548 0 0.41557099838193923 0.024039796491718179 0 0.40720094273855439 0.01372602960598159 0 0.40325323122183843 0.024352223252143548 0 0.40655765028286611 0.035582104639029083 0 0.41557099838193923 0.024039796491718179 0 0.41081432206005303 0.0037114498956348132 0 0.40720094273855439 0.01372602960598159 0 0.4165272652869268 0.01155925859927168 0 0.4165272652869268 0.01155925859927168 0 0.42248564151892998 0.0016345051066286029 0 0.4265644217351573 0.014684511896395219 0 0.41081432206005303 0.0037114498956348132 0 0.4165272652869268 0.01155925859927168 0 0.42248564151892998 0.0016345051066286029 0 0.42248564151892998 0.0016345051066286029 0 0.4265644217351573 0.014684511896395219 0 0.4382820622288856 -0.0014159552958160841 0 0.4265644217351573 0.014684511896395219 0 0.44548351627008242 0.01642882659412407 0 0.4382820622288856 -0.0014159552958160841 0 0.45100246047295739 0.0046664116742636159 0 0.44548351627008242 0.01642882659412407 0 0.4382820622288856 -0.0014159552958160841 0 0.45100246047295739 0.0046664116742636159 0 0.44548351627008242 0.01642882659412407 0 0.4580470330794123 0.0188547641718908 0 0.4358194844604939 0.024219735287320941 0 0.4514029071021442 0.02821869916314456 0 0.44548351627008242 0.01642882659412407 0 0.4358194844604939 0.024219735287320941 0 0.4514029071021442 0.02821869916314456 0 0.44252896649868317 0.039073008259517338 0 0.4514029071021442 0.02821869916314456 0 0.44548351627008242 0.01642882659412407 0 0.4580470330794123 0.0188547641718908 0 0.4514029071021442 0.02821869916314456 0 0.4580470330794123 0.0188547641718908 0 0.46553563141862692 0.027383902935855992 0 0.4580470330794123 0.0188547641718908 0 0.46553563141862692 0.027383902935855992 0 0.471035018561343 0.01684384088441979 0 0.4580470330794123 0.0188547641718908 0 0.4620271672997433 0.0081957990277541914 0 0.471035018561343 0.01684384088441979 0 0.4620271672997433 0.0081957990277541914 0 0.47207727543944228 0.0077163925679632076 0 0.45540766643685782 -0.0078732224449345398 0 0.4620271672997433 0.0081957990277541914 0 0.47207727543944228 0.0077163925679632076 0 0.471035018561343 0.01684384088441979 0 0.45100246047295739 0.0046664116742636159 0 0.4620271672997433 0.0081957990277541914 0 0.45540766643685782 -0.0078732224449345398 0 0.45100246047295739 0.0046664116742636159 0 0.4580470330794123 0.0188547641718908 0 0.4620271672997433 0.0081957990277541914 0 0.42739758089851382 0.054541393999090262 0 0.44432728466234178 0.059795406129610977 0 0.44252896649868317 0.039073008259517338 0 0.44432728466234178 0.059795406129610977 0 0.44252896649868317 0.039073008259517338 0 0.46100281088556699 0.043351957730158222 0 0.4514029071021442 0.02821869916314456 0 0.44252896649868317 0.039073008259517338 0 0.46100281088556699 0.043351957730158222 0 0.4514029071021442 0.02821869916314456 0 0.46553563141862692 0.027383902935855992 0 0.46100281088556699 0.043351957730158222 0 0.46553563141862692 0.027383902935855992 0 0.46100281088556699 0.043351957730158222 0 0.4764725540003833 0.035303178421407518 0 0.46368779630991369 0.062884433647911922 0 0.44432728466234178 0.059795406129610977 0 0.46100281088556699 0.043351957730158222 0 0.48297411160829701 0.071419164250366693 0 0.46368779630991369 0.062884433647911922 0 0.48184389815495748 0.047383459182506117 0 0.46368779630991369 0.062884433647911922 0 0.46100281088556699 0.043351957730158222 0 0.48184389815495748 0.047383459182506117 0 0.46368779630991369 0.062884433647911922 0 0.48184389815495748 0.047383459182506117 0 0.46100281088556699 0.043351957730158222 0 0.48184389815495748 0.047383459182506117 0 0.4764725540003833 0.035303178421407518 0 0.48184389815495748 0.047383459182506117 0 0.50000000000000089 0.031882484717099757 0 0.48184389815495748 0.047383459182506117 0 0.50000000000000089 0.031882484717099757 0 0.5 0.058972369132007867 0 0.48184389815495748 0.047383459182506117 0 0.4764725540003833 0.035303178421407518 0 0.50000000000000089 0.031882484717099757 0 0.48297411160829701 0.071419164250366693 0 0.48184389815495748 0.047383459182506117 0 0.5 0.058972369132007867 0 0.48173822001607031 0.002441982684480838 0 0.47207727543944228 0.0077163925679632076 0 0.45540766643685782 -0.0078732224449345398 0 0.48073089036299149 0.01447516008145705 0 0.48088876464914698 0.0066420825236524483 0 0.47207727543944228 0.0077163925679632076 0 0.48088876464914698 0.0066420825236524483 0 0.48173822001607031 0.002441982684480838 0 0.48944624590280772 0.014576472087587141 0 0.48073089036299149 0.01447516008145705 0 0.48088876464914698 0.0066420825236524483 0 0.48944624590280772 0.014576472087587141 0 0.48088876464914698 0.0066420825236524483 0 0.48173822001607031 0.002441982684480838 0 0.47207727543944228 0.0077163925679632076 0 0.48088876464914698 0.0066420825236524483 0 0.48173822001607031 0.002441982684480838 0 0.48073089036299149 0.01447516008145705 0 0.47207727543944228 0.0077163925679632076 0 0.471035018561343 0.01684384088441979 0 0.46553563141862692 0.027383902935855992 0 0.471035018561343 0.01684384088441979 0 0.48098968552297122 0.023479159592672289 0 0.46553563141862692 0.027383902935855992 0 0.4764725540003833 0.035303178421407518 0 0.48098968552297122 0.023479159592672289 0 0.48073089036299149 0.01447516008145705 0 0.471035018561343 0.01684384088441979 0 0.48098968552297122 0.023479159592672289 0 0.48073089036299149 0.01447516008145705 0 0.48098968552297122 0.023479159592672289 0 0.48944624590280772 0.014576472087587141 0 0.50000000000000089 0.031882484717099757 0 0.50000000000000044 0.0095961811708810997 0 0.48944624590280772 0.014576472087587141 0 0.4764725540003833 0.035303178421407518 0 0.50000000000000089 0.031882484717099757 0 0.48098968552297122 0.023479159592672289 0 0.50000000000000089 0.031882484717099757 0 0.48098968552297122 0.023479159592672289 0 0.48944624590280772 0.014576472087587141 0 0.48173822001607031 0.002441982684480838 0 0.50000000000000044 0.0095961811708810997 0 0.48944624590280772 0.014576472087587141 0 0.48173822001607031 0.002441982684480838 0 0.50000000000000044 0.0095961811708810997 0 0.48173822001607031 0.002441982684480838 0 0.50000000000000044 0.0095961811708810997 0 0.5 -0.01553848795347695 0 0.48173822001607031 0.002441982684480838 0 0.5 -0.01553848795347695 0 0.48723509010938909 -0.024737082977995831 0 0.48173822001607031 0.002441982684480838 0 0.48723509010938909 -0.024737082977995831 0 0.48173822001607031 0.002441982684480838 0 0.46944239540012012 -0.021901386132034111 0 0.45540766643685782 -0.0078732224449345398 0 0.48173822001607031 0.002441982684480838 0 0.46944239540012012 -0.021901386132034111 0 0.48723509010938909 -0.024737082977995831 0 0.46944239540012012 -0.021901386132034111 0 0.48723509010938909 -0.024737082977995831 0 0.47311684284700922 -0.039980301183512167 0 0.5 -0.01553848795347695 0 0.48723509010938909 -0.024737082977995831 0 0.5 -0.040673157077835087 0 0.48723509010938909 -0.024737082977995831 0 0.49273196020270971 -0.051916148640471983 0 0.48034048547664182 -0.050194577481915269 0 0.48723509010938909 -0.024737082977995831 0 0.49273196020270971 -0.051916148640471983 0 0.48723509010938909 -0.024737082977995831 0 0.5 -0.040673157077835087 0 0.49273196020270971 -0.051916148640471983 0 0.5 -0.040673157077835087 0 0.49273196020270971 -0.051916148640471983 0 0.5 -0.065807826202193331 0 0.49273196020270971 -0.051916148640471983 0 0.48384360039889979 -0.062204599920787272 0 0.48034048547664182 -0.050194577481915269 0 0.48034048547664182 -0.050194577481915269 0 0.47035120232490191 -0.060528185902064997 0 0.47311684284700922 -0.039980301183512167 0 0.47035120232490191 -0.060528185902064997 0 0.47311684284700922 -0.039980301183512167 0 0.48384360039889979 -0.062204599920787272 0 0.48034048547664182 -0.050194577481915269 0 0.47035120232490191 -0.060528185902064997 0 0.48723509010938909 -0.024737082977995831 0 0.48034048547664182 -0.050194577481915269 0 0.47311684284700922 -0.039980301183512167 0 0.46944239540012012 -0.021901386132034111 0 0.47311684284700922 -0.039980301183512167 0 0.44971415759127392 -0.039358306738208573 0 0.47035120232490191 -0.060528185902064997 0 0.47311684284700922 -0.039980301183512167 0 0.44971415759127392 -0.039358306738208573 0 0.47035120232490191 -0.060528185902064997 0 0.44971415759127392 -0.039358306738208573 0 0.47035120232490191 -0.060528185902064997 0 0.43963483674523918 -0.055334607978488382 0 0.44971415759127392 -0.039358306738208573 0 0.43963483674523918 -0.055334607978488382 0 0.44971415759127392 -0.039358306738208573 0 0.42419530264354072 -0.042652000491910397 0 0.46944239540012012 -0.021901386132034111 0 0.44971415759127392 -0.039358306738208573 0 0.45540766643685782 -0.0078732224449345398 0 0.44971415759127392 -0.039358306738208573 0 0.42907711285764621 -0.01818842757435184 0 0.44971415759127392 -0.039358306738208573 0 0.45540766643685782 -0.0078732224449345398 0 0.42907711285764621 -0.01818842757435184 0 0.45540766643685782 -0.0078732224449345398 0 0.42907711285764621 -0.01818842757435184 0 0.45100246047295739 0.0046664116742636159 0 0.4382820622288856 -0.0014159552958160841 0 0.45540766643685782 -0.0078732224449345398 0 0.4382820622288856 -0.0014159552958160841 0 0.45540766643685782 -0.0078732224449345398 0 0.42907711285764621 -0.01818842757435184 0 0.48173822001607031 0.002441982684480838 0 0.45540766643685782 -0.0078732224449345398 0 0.47129126618897188 -0.1223351355815797 0 0.47148248434309947 -0.114916285604633 0 0.48087269318342413 -0.1216818802472065 0 0.47148248434309947 -0.114916285604633 0 0.48087269318342413 -0.1216818802472065 0 0.47838814501791832 -0.1066654575105275 0 0.48087269318342413 -0.1216818802472065 0 0.48924328608656842 -0.1141618265083332 0 0.47838814501791832 -0.1066654575105275 0 0.5 -0.1122204549214597 0 0.48924328608656842 -0.1141618265083332 0 0.5 -0.13349841451636779 0 0.48087269318342413 -0.1216818802472065 0 0.48924328608656842 -0.1141618265083332 0 0.5 -0.13349841451636779 0 0.5 -0.1122204549214597 0 0.48924328608656842 -0.1141618265083332 0 0.48827073793524339 -0.097774102912636218 0 0.48924328608656842 -0.1141618265083332 0 0.48827073793524339 -0.097774102912636218 0 0.47838814501791832 -0.1066654575105275 0 0.5 -0.1122204549214597 0 0.48827073793524339 -0.097774102912636218 0 0.50000000000000266 -0.090942495326551576 0 0.47652975213937199 -0.091635549067057065 0 0.46683976751390588 -0.086617099886465918 0 0.46456669494636288 -0.10350535152343909 0 0.48827073793524339 -0.097774102912636218 0 0.47838814501791832 -0.1066654575105275 0 0.47652975213937199 -0.091635549067057065 0 0.47148248434309947 -0.114916285604633 0 0.47838814501791832 -0.1066654575105275 0 0.46456669494636288 -0.10350535152343909 0 0.47838814501791832 -0.1066654575105275 0 0.47652975213937199 -0.091635549067057065 0 0.46456669494636288 -0.10350535152343909 0 0.48827073793524339 -0.097774102912636218 0 0.47652975213937199 -0.091635549067057065 0 0.48517560116245317 -0.075735340614307423 0 0.47652975213937199 -0.091635549067057065 0 0.48517560116245317 -0.075735340614307423 0 0.46683976751390588 -0.086617099886465918 0 0.47652975213937199 -0.091635549067057065 0 0.46683976751390588 -0.086617099886465918 0 0.50000000000000266 -0.090942495326551576 0 0.49822883029603021 -0.079095214302948247 0 0.5 -0.065807826202193331 0 0.48827073793524339 -0.097774102912636218 0 0.50000000000000266 -0.090942495326551576 0 0.48517560116245317 -0.075735340614307423 0 0.50000000000000266 -0.090942495326551576 0 0.48517560116245317 -0.075735340614307423 0 0.50000000000000266 -0.090942495326551576 0 0.49822883029603021 -0.079095214302948247 0 0.48517560116245317 -0.075735340614307423 0 0.49273196020270971 -0.051916148640471983 0 0.49822883029603021 -0.079095214302948247 0 0.48384360039889979 -0.062204599920787272 0 0.49822883029603021 -0.079095214302948247 0 0.48517560116245317 -0.075735340614307423 0 0.49273196020270971 -0.051916148640471983 0 0.48384360039889979 -0.062204599920787272 0 0.49822883029603021 -0.079095214302948247 0 0.49273196020270971 -0.051916148640471983 0 0.49822883029603021 -0.079095214302948247 0 0.5 -0.065807826202193331 0 0.47035120232490191 -0.060528185902064997 0 0.48517560116245317 -0.075735340614307423 0 0.47035120232490191 -0.060528185902064997 0 0.48517560116245317 -0.075735340614307423 0 0.46683976751390588 -0.086617099886465918 0 0.48384360039889979 -0.062204599920787272 0 0.47035120232490191 -0.060528185902064997 0 0.48517560116245317 -0.075735340614307423 0 0.47035120232490191 -0.060528185902064997 0 0.46683976751390588 -0.086617099886465918 0 0.47035120232490191 -0.060528185902064997 0 0.44249197108241189 -0.074007360679063244 0 0.46683976751390588 -0.086617099886465918 0 0.47035120232490191 -0.060528185902064997 0 0.43963483674523918 -0.055334607978488382 0 0.44249197108241189 -0.074007360679063244 0 0.44249197108241189 -0.074007360679063244 0 0.46683976751390588 -0.086617099886465918 0 0.4490662803509099 -0.094083529251462475 0 0.44249197108241189 -0.074007360679063244 0 0.4490662803509099 -0.094083529251462475 0 0.42834270349958448 -0.099226311759436261 0 0.44249197108241189 -0.074007360679063244 0 0.46683976751390588 -0.086617099886465918 0 0.46683976751390588 -0.086617099886465918 0 0.46456669494636288 -0.10350535152343909 0 0.4490662803509099 -0.094083529251462475 0 0.46683976751390588 -0.086617099886465918 0 0.46456669494636288 -0.10350535152343909 0 0.46456669494636288 -0.10350535152343909 0 0.4490662803509099 -0.094083529251462475 0 0.44386094964032902 -0.11054798122052439 0 0.4490662803509099 -0.094083529251462475 0 0.44386094964032902 -0.11054798122052439 0 0.42834270349958448 -0.099226311759436261 0 0.44386094964032902 -0.11054798122052439 0 0.46257396642688631 -0.12529077885077469 0 0.45239247298790419 -0.125419693033265 0 0.44386094964032902 -0.11054798122052439 0 0.42916935431308728 -0.1205456085246996 0 0.4435038969132965 -0.12540022695152131 0 0.44386094964032902 -0.11054798122052439 0 0.45239247298790419 -0.125419693033265 0 0.4435038969132965 -0.12540022695152131 0 0.44386094964032902 -0.11054798122052439 0 0.46229362237882032 -0.1203936031604123 0 0.46257396642688631 -0.12529077885077469 0 0.46456669494636288 -0.10350535152343909 0 0.46229362237882032 -0.1203936031604123 0 0.46456669494636288 -0.10350535152343909 0 0.44386094964032902 -0.11054798122052439 0 0.46229362237882032 -0.1203936031604123 0 0.44386094964032902 -0.11054798122052439 0 0.46257396642688631 -0.12529077885077469 0 0.47148248434309947 -0.114916285604633 0 0.46456669494636288 -0.10350535152343909 0 0.46229362237882032 -0.1203936031604123 0 0.47129126618897188 -0.1223351355815797 0 0.46229362237882032 -0.1203936031604123 0 0.46257396642688631 -0.12529077885077469 0 0.47129126618897188 -0.1223351355815797 0 0.47148248434309947 -0.114916285604633 0 0.46229362237882032 -0.1203936031604123 0 0.44386094964032902 -0.11054798122052439 0 0.42916935431308728 -0.1205456085246996 0 0.42834270349958448 -0.099226311759436261 0 0.41143930547928681 -0.11934523636421419 0 0.42916935431308728 -0.1205456085246996 0 0.42834270349958448 -0.099226311759436261 0 0.41143930547928681 -0.11934523636421419 0 0.40555832972599831 -0.095826118330896617 0 0.41143930547928681 -0.11934523636421419 0 0.42834270349958448 -0.099226311759436261 0 0.40555832972599831 -0.095826118330896617 0 0.42834270349958448 -0.099226311759436261 0 0.41884290658632428 -0.080552882507727325 0 0.40555832972599831 -0.095826118330896617 0 0.41884290658632428 -0.080552882507727325 0 0.39967735397270959 -0.072307000297579083 0 0.40555832972599831 -0.095826118330896617 0 0.44249197108241189 -0.074007360679063244 0 0.42834270349958448 -0.099226311759436261 0 0.41884290658632428 -0.080552882507727325 0 0.44249197108241189 -0.074007360679063244 0 0.41814417465091752 -0.061397621471661459 0 0.43963483674523918 -0.055334607978488382 0 0.44249197108241189 -0.074007360679063244 0 0.41814417465091752 -0.061397621471661459 0 0.44249197108241189 -0.074007360679063244 0 0.41884290658632428 -0.080552882507727325 0 0.41814417465091752 -0.061397621471661459 0 0.41884290658632428 -0.080552882507727325 0 0.39967735397270959 -0.072307000297579083 0 0.41814417465091752 -0.061397621471661459 0 0.39967735397270959 -0.072307000297579083 0 0.38669795957132042 -0.057310603286660967 0 0.37240766699872252 -0.068318548019290964 0 0.39967735397270959 -0.072307000297579083 0 0.37781097748786241 -0.089314889372882261 0 0.37240766699872252 -0.068318548019290964 0 0.39967735397270959 -0.072307000297579083 0 0.37781097748786241 -0.089314889372882261 0 0.40555832972599831 -0.095826118330896617 0 0.39967735397270959 -0.072307000297579083 0 0.40555832972599831 -0.095826118330896617 0 0.40555832972599831 -0.095826118330896617 0 0.38953803654933628 -0.10754997095337659 0 0.39823574772599779 -0.11763079726210079 0 0.37781097748786241 -0.089314889372882261 0 0.40555832972599831 -0.095826118330896617 0 0.38953803654933628 -0.10754997095337659 0 0.37781097748786241 -0.089314889372882261 0 0.38953803654933628 -0.10754997095337659 0 0.37644505785585192 -0.1058120404938334 0 0.38953803654933628 -0.10754997095337659 0 0.37644505785585192 -0.1058120404938334 0 0.37720890243704291 -0.12310924361699779 0 0.38953803654933628 -0.10754997095337659 0 0.37720890243704291 -0.12310924361699779 0 0.38918813321375051 -0.12739880168557821 0 0.38953803654933628 -0.10754997095337659 0 0.39823574772599779 -0.11763079726210079 0 0.38918813321375051 -0.12739880168557821 0 0.41143930547928681 -0.11934523636421419 0 0.39823574772599779 -0.11763079726210079 0 0.40257569972698831 -0.13396225485532559 0 0.41143930547928681 -0.11934523636421419 0 0.40555832972599831 -0.095826118330896617 0 0.39823574772599779 -0.11763079726210079 0 0.42011428296152808 -0.02169968792975261 0 0.41401194260749391 -0.028450411104576211 0 0.41343304557213612 -0.018371446868227208 0 0.42011428296152808 -0.02169968792975261 0 0.41343304557213612 -0.018371446868227208 0 0.41928481904255338 -0.01548900553927589 0 0.42011428296152808 -0.02169968792975261 0 0.41928481904255338 -0.01548900553927589 0 0.42542521438275183 -0.0144422395697206 0 0.42011428296152808 -0.02169968792975261 0 0.41401194260749391 -0.028450411104576211 0 0.42742255973229643 -0.030069766767760062 0 0.41401194260749391 -0.028450411104576211 0 0.40522076275047969 -0.019933987949522329 0 0.40044964155059998 -0.029094842751199331 0 0.41401194260749391 -0.028450411104576211 0 0.41343304557213612 -0.018371446868227208 0 0.40522076275047969 -0.019933987949522329 0 0.41343304557213612 -0.018371446868227208 0 0.40806592415966281 -0.01253819616599721 0 0.40522076275047969 -0.019933987949522329 0 0.40806592415966281 -0.01253819616599721 0 0.4135204533098043 -0.0054466611181140526 0 0.41498054603746559 -0.011947546426581419 0 0.41343304557213612 -0.018371446868227208 0 0.40806592415966281 -0.01253819616599721 0 0.41498054603746559 -0.011947546426581419 0 0.41081432206005303 0.0037114498956348132 0 0.4135204533098043 -0.0054466611181140526 0 0.4046584776842293 -0.0050702490882302163 0 0.40806592415966281 -0.01253819616599721 0 0.4135204533098043 -0.0054466611181140526 0 0.4046584776842293 -0.0050702490882302163 0 0.41081432206005303 0.0037114498956348132 0 0.42248564151892998 0.0016345051066286029 0 0.4135204533098043 -0.0054466611181140526 0 0.42248564151892998 0.0016345051066286029 0 0.4135204533098043 -0.0054466611181140526 0 0.42119781252485211 -0.0083000839364812864 0 0.41343304557213612 -0.018371446868227208 0 0.41498054603746559 -0.011947546426581419 0 0.41928481904255338 -0.01548900553927589 0 0.4135204533098043 -0.0054466611181140526 0 0.41498054603746559 -0.011947546426581419 0 0.42119781252485211 -0.0083000839364812864 0 0.41498054603746559 -0.011947546426581419 0 0.42119781252485211 -0.0083000839364812864 0 0.41928481904255338 -0.01548900553927589 0 0.42542521438275183 -0.0144422395697206 0 0.42820760236351979 -0.0076976995852137747 0 0.42907711285764621 -0.01818842757435184 0 0.4382820622288856 -0.0014159552958160841 0 0.42820760236351979 -0.0076976995852137747 0 0.42907711285764621 -0.01818842757435184 0 0.42119781252485211 -0.0083000839364812864 0 0.41928481904255338 -0.01548900553927589 0 0.42542521438275183 -0.0144422395697206 0 0.42248564151892998 0.0016345051066286029 0 0.4382820622288856 -0.0014159552958160841 0 0.42820760236351979 -0.0076976995852137747 0 0.42119781252485211 -0.0083000839364812864 0 0.42542521438275183 -0.0144422395697206 0 0.42820760236351979 -0.0076976995852137747 0 0.42248564151892998 0.0016345051066286029 0 0.42119781252485211 -0.0083000839364812864 0 0.42820760236351979 -0.0076976995852137747 0 0.44971415759127392 -0.039358306738208573 0 0.42907711285764621 -0.01818842757435184 0 0.42742255973229643 -0.030069766767760062 0 0.42011428296152808 -0.02169968792975261 0 0.42907711285764621 -0.01818842757435184 0 0.42742255973229643 -0.030069766767760062 0 0.42011428296152808 -0.02169968792975261 0 0.42542521438275183 -0.0144422395697206 0 0.42907711285764621 -0.01818842757435184 0 0.42011428296152808 -0.02169968792975261 0 0.42907711285764621 -0.01818842757435184 0 0.42542521438275183 -0.0144422395697206 0 0.42907711285764621 -0.01818842757435184 0 0.44971415759127392 -0.039358306738208573 0 0.42742255973229643 -0.030069766767760062 0 0.42419530264354072 -0.042652000491910397 0 0.41401194260749391 -0.028450411104576211 0 0.42742255973229643 -0.030069766767760062 0 0.42419530264354072 -0.042652000491910397 0 0.43963483674523918 -0.055334607978488382 0 0.42419530264354072 -0.042652000491910397 0 0.41814417465091752 -0.061397621471661459 0 0.41814417465091752 -0.061397621471661459 0 0.41107184061272262 -0.047596707948501772 0 0.39379637821942232 -0.04878788226426127 0 0.42419530264354072 -0.042652000491910397 0 0.41814417465091752 -0.061397621471661459 0 0.41107184061272262 -0.047596707948501772 0 0.41401194260749391 -0.028450411104576211 0 0.42419530264354072 -0.042652000491910397 0 0.40815150693701141 -0.037549327566173699 0 0.42419530264354072 -0.042652000491910397 0 0.41107184061272262 -0.047596707948501772 0 0.40815150693701141 -0.037549327566173699 0 0.41401194260749391 -0.028450411104576211 0 0.40815150693701141 -0.037549327566173699 0 0.40044964155059998 -0.029094842751199331 0 0.41107184061272262 -0.047596707948501772 0 0.40815150693701141 -0.037549327566173699 0 0.39379637821942232 -0.04878788226426127 0 0.40815150693701141 -0.037549327566173699 0 0.39379637821942232 -0.04878788226426127 0 0.40044964155059998 -0.029094842751199331 0 0.39379637821942232 -0.04878788226426127 0 0.38867892262788012 -0.028322223649632432 0 0.39379637821942232 -0.04878788226426127 0 0.38867892262788012 -0.028322223649632432 0 0.40044964155059998 -0.029094842751199331 0 0.39967735397270959 -0.072307000297579083 0 0.39379637821942232 -0.04878788226426127 0 0.38669795957132042 -0.057310603286660967 0 0.41814417465091752 -0.061397621471661459 0 0.39379637821942232 -0.04878788226426127 0 0.39967735397270959 -0.072307000297579083 0 0.39379637821942232 -0.04878788226426127 0 0.39967735397270959 -0.072307000297579083 0 0.41814417465091752 -0.061397621471661459 0 0.39379637821942232 -0.04878788226426127 0 0.39379637821942232 -0.04878788226426127 0 0.38896036142985008 -0.046283306103098283 0 0.38669795957132042 -0.057310603286660967 0 0.37839056082150663 -0.050608978831784571 0 0.37240766699872252 -0.068318548019290964 0 0.38669795957132042 -0.057310603286660967 0 0.37839056082150663 -0.050608978831784571 0 0.38896036142985008 -0.046283306103098283 0 0.39379637821942232 -0.04878788226426127 0 0.38669795957132042 -0.057310603286660967 0 0.38896036142985008 -0.046283306103098283 0 0.39379637821942232 -0.04878788226426127 0 0.38896036142985008 -0.046283306103098283 0 0.38867892262788012 -0.028322223649632432 0 0.3834615598562825 -0.037386722635115492 0 0.38896036142985008 -0.046283306103098283 0 0.38867892262788012 -0.028322223649632432 0 0.37839056082150663 -0.050608978831784571 0 0.3834615598562825 -0.037386722635115492 0 0.38896036142985008 -0.046283306103098283 0 0.37839056082150663 -0.050608978831784571 0 0.3834615598562825 -0.037386722635115492 0 0.37356965880113402 -0.040783236975350308 0 0.38867892262788012 -0.028322223649632432 0 0.38356146703633898 -0.0078565650350033434 0 0.3834615598562825 -0.037386722635115492 0 0.37600683512296651 -0.014087071697862221 0 0.37356965880113402 -0.040783236975350308 0 0.3834615598562825 -0.037386722635115492 0 0.38867892262788012 -0.028322223649632432 0 0.37600683512296651 -0.014087071697862221 0 0.38867892262788012 -0.028322223649632432 0 0.37600683512296651 -0.014087071697862221 0 0.38356146703633898 -0.0078565650350033434 0 0.38867892262788012 -0.028322223649632432 0 0.39658225960386179 -0.014459285545308009 0 0.38356146703633898 -0.0078565650350033434 0 0.38867892262788012 -0.028322223649632432 0 0.40044964155059998 -0.029094842751199331 0 0.39658225960386179 -0.014459285545308009 0 0.40522076275047969 -0.019933987949522329 0 0.40044964155059998 -0.029094842751199331 0 0.39658225960386179 -0.014459285545308009 0 0.40806592415966281 -0.01253819616599721 0 0.40522076275047969 -0.019933987949522329 0 0.39658225960386179 -0.014459285545308009 0 0.40060323373222451 0.0042547197705496897 0 0.4046584776842293 -0.0050702490882302163 0 0.39531848553630572 -0.0042569273994520467 0 0.40806592415966281 -0.01253819616599721 0 0.4046584776842293 -0.0050702490882302163 0 0.39658225960386179 -0.014459285545308009 0 0.4046584776842293 -0.0050702490882302163 0 0.39658225960386179 -0.014459285545308009 0 0.39531848553630572 -0.0042569273994520467 0 0.39658225960386179 -0.014459285545308009 0 0.39531848553630572 -0.0042569273994520467 0 0.38356146703633898 -0.0078565650350033434 0 0.39025836247721268 0.0036292771787240202 0 0.39531848553630572 -0.0042569273994520467 0 0.38356146703633898 -0.0078565650350033434 0 0.37844401144479839 0.012609093579625891 0 0.37600683512296651 -0.014087071697862221 0 0.37844401144479839 0.012609093579625891 0 0.37600683512296651 -0.014087071697862221 0 0.38356146703633898 -0.0078565650350033434 0 0.37600683512296651 -0.014087071697862221 0 0.36665723294200347 -0.001883505129568449 0 0.35850646790810559 -0.01395473468271459 0 0.37844401144479839 0.012609093579625891 0 0.37600683512296651 -0.014087071697862221 0 0.36665723294200347 -0.001883505129568449 0 0.36665723294200347 -0.001883505129568449 0 0.35531676971978082 -0.0033532784323768001 0 0.35850646790810559 -0.01395473468271459 0 0.37600683512296651 -0.014087071697862221 0 0.37356965880113402 -0.040783236975350308 0 0.37600683512296651 -0.014087071697862221 0 0.36404947753274258 -0.026706798856440471 0 0.35850646790810559 -0.01395473468271459 0 0.37600683512296651 -0.014087071697862221 0 0.36404947753274258 -0.026706798856440471 0 0.37356965880113402 -0.040783236975350308 0 0.34748556133762742 -0.02738266599094942 0 0.35850646790810559 -0.01395473468271459 0 0.34370628527030811 -0.0115647124322744 0 0.36404947753274258 -0.026706798856440471 0 0.34748556133762742 -0.02738266599094942 0 0.35850646790810559 -0.01395473468271459 0 0.36404947753274258 -0.026706798856440471 0 0.34748556133762742 -0.02738266599094942 0 0.36012817770438982 -0.039413746555128387 0 0.33689267375143878 0.0039255003288513873 0 0.35531676971978082 -0.0033532784323768001 0 0.34370628527030811 -0.0115647124322744 0 0.35531676971978082 -0.0033532784323768001 0 0.35850646790810559 -0.01395473468271459 0 0.34370628527030811 -0.0115647124322744 0 0.33689267375143878 0.0039255003288513873 0 0.34370628527030811 -0.0115647124322744 0 0.32469666258817742 -0.019557632270551 0 0.33689267375143878 0.0039255003288513873 0 0.30352242257352219 0.0039185454548519476 0 0.32469666258817742 -0.019557632270551 0 0.34748556133762742 -0.02738266599094942 0 0.34370628527030811 -0.0115647124322744 0 0.32469666258817742 -0.019557632270551 0 0.34748556133762742 -0.02738266599094942 0 0.32469666258817742 -0.019557632270551 0 0.33457477032001748 -0.043965109755099818 0 0.31326255248553708 -0.043768501277314603 0 0.32924913997341337 -0.063603686862235317 0 0.31014365419524398 -0.06072536978512106 0 0.31326255248553708 -0.043768501277314603 0 0.32924913997341337 -0.063603686862235317 0 0.31326255248553708 -0.043768501277314603 0 0.33457477032001748 -0.043965109755099818 0 0.32924913997341337 -0.063603686862235317 0 0.32469666258817742 -0.019557632270551 0 0.31326255248553708 -0.043768501277314603 0 0.33457477032001748 -0.043965109755099818 0 0.33457477032001748 -0.043965109755099818 0 0.34313363496153881 -0.061193084728204693 0 0.35029003257871461 -0.048624574981710279 0 0.33457477032001748 -0.043965109755099818 0 0.34313363496153881 -0.061193084728204693 0 0.32924913997341337 -0.063603686862235317 0 0.35029003257871461 -0.048624574981710279 0 0.36524615827173029 -0.053571455971191423 0 0.35631850447425872 -0.066333179594821989 0 0.34313363496153881 -0.061193084728204693 0 0.35029003257871461 -0.048624574981710279 0 0.35631850447425872 -0.066333179594821989 0 0.35029003257871461 -0.048624574981710279 0 0.36012817770438982 -0.039413746555128387 0 0.36524615827173029 -0.053571455971191423 0 0.34748556133762742 -0.02738266599094942 0 0.33457477032001748 -0.043965109755099818 0 0.35029003257871461 -0.048624574981710279 0 0.34748556133762742 -0.02738266599094942 0 0.35029003257871461 -0.048624574981710279 0 0.36012817770438982 -0.039413746555128387 0 0.36404947753274258 -0.026706798856440471 0 0.36012817770438982 -0.039413746555128387 0 0.37356965880113402 -0.040783236975350308 0 0.36012817770438982 -0.039413746555128387 0 0.37356965880113402 -0.040783236975350308 0 0.36524615827173029 -0.053571455971191423 0 0.37839056082150663 -0.050608978831784571 0 0.36524615827173029 -0.053571455971191423 0 0.37240766699872252 -0.068318548019290964 0 0.37839056082150663 -0.050608978831784571 0 0.37356965880113402 -0.040783236975350308 0 0.36524615827173029 -0.053571455971191423 0 0.36524615827173029 -0.053571455971191423 0 0.37240766699872252 -0.068318548019290964 0 0.35631850447425872 -0.066333179594821989 0 0.37240766699872252 -0.068318548019290964 0 0.36259903827425999 -0.08213590949324566 0 0.35631850447425872 -0.066333179594821989 0 0.37781097748786241 -0.089314889372882261 0 0.37240766699872252 -0.068318548019290964 0 0.36259903827425999 -0.08213590949324566 0 0.37781097748786241 -0.089314889372882261 0 0.36259903827425999 -0.08213590949324566 0 0.3612223149491664 -0.1032740580320769 0 0.34523572746128989 -0.083438872447156087 0 0.3612223149491664 -0.1032740580320769 0 0.36259903827425999 -0.08213590949324566 0 0.34523572746128989 -0.083438872447156087 0 0.3612223149491664 -0.1032740580320769 0 0.34313363496153881 -0.061193084728204693 0 0.34523572746128989 -0.083438872447156087 0 0.35631850447425872 -0.066333179594821989 0 0.36259903827425999 -0.08213590949324566 0 0.34523572746128989 -0.083438872447156087 0 0.35631850447425872 -0.066333179594821989 0 0.37720890243704291 -0.12310924361699779 0 0.36253108037134668 -0.1248744885805331 0 0.3612223149491664 -0.1032740580320769 0 0.37644505785585192 -0.1058120404938334 0 0.37720890243704291 -0.12310924361699779 0 0.3612223149491664 -0.1032740580320769 0 0.37720890243704291 -0.12310924361699779 0 0.3612223149491664 -0.1032740580320769 0 0.37781097748786241 -0.089314889372882261 0 0.37644505785585192 -0.1058120404938334 0 0.3612223149491664 -0.1032740580320769 0 0.34523572746128989 -0.083438872447156087 0 0.3612223149491664 -0.1032740580320769 0 0.33932087337301742 -0.1007066993955318 0 0.3612223149491664 -0.1032740580320769 0 0.34941185211170689 -0.1127717253903176 0 0.33932087337301742 -0.1007066993955318 0 0.36253108037134668 -0.1248744885805331 0 0.33587402752894302 -0.122350175475488 0 0.36253108037134668 -0.1248744885805331 0 0.34941185211170689 -0.1127717253903176 0 0.33587402752894302 -0.122350175475488 0 0.36253108037134668 -0.1248744885805331 0 0.3612223149491664 -0.1032740580320769 0 0.34941185211170689 -0.1127717253903176 0 0.34941185211170689 -0.1127717253903176 0 0.33587402752894302 -0.122350175475488 0 0.33932087337301742 -0.1007066993955318 0 0.33587402752894302 -0.122350175475488 0 0.33932087337301742 -0.1007066993955318 0 0.31943204723016899 -0.10139701157958859 0 0.33932087337301742 -0.1007066993955318 0 0.31943204723016899 -0.10139701157958859 0 0.32474927095682959 -0.081008353448563344 0 0.33587402752894302 -0.122350175475488 0 0.31943204723016899 -0.10139701157958859 0 0.3092169746865393 -0.1198258623704429 0 0.33587402752894302 -0.122350175475488 0 0.3092169746865393 -0.1198258623704429 0 0.34523572746128989 -0.083438872447156087 0 0.32924913997341337 -0.063603686862235317 0 0.32474927095682959 -0.081008353448563344 0 0.34523572746128989 -0.083438872447156087 0 0.32924913997341337 -0.063603686862235317 0 0.34313363496153881 -0.061193084728204693 0 0.34523572746128989 -0.083438872447156087 0 0.32924913997341337 -0.063603686862235317 0 0.34523572746128989 -0.083438872447156087 0 0.33932087337301742 -0.1007066993955318 0 0.32474927095682959 -0.081008353448563344 0 0.31943204723016899 -0.10139701157958859 0 0.32474927095682959 -0.081008353448563344 0 0.31117343018006932 -0.08835554327446378 0 0.32474927095682959 -0.081008353448563344 0 0.30201438303726968 -0.075929904193525521 0 0.32474927095682959 -0.081008353448563344 0 0.30201438303726968 -0.075929904193525521 0 0.31117343018006932 -0.08835554327446378 0 0.32924913997341337 -0.063603686862235317 0 0.32474927095682959 -0.081008353448563344 0 0.31014365419524398 -0.06072536978512106 0 0.32474927095682959 -0.081008353448563344 0 0.30201438303726968 -0.075929904193525521 0 0.31014365419524398 -0.06072536978512106 0 0.30201438303726968 -0.075929904193525521 0 0.31014365419524398 -0.06072536978512106 0 0.29222542489931519 -0.060978945333093171 0 0.31117343018006932 -0.08835554327446378 0 0.29442961060618023 -0.089764156713605506 0 0.30306705175182019 -0.101009202806625 0 0.30201438303726968 -0.075929904193525521 0 0.31117343018006932 -0.08835554327446378 0 0.29442961060618023 -0.089764156713605506 0 0.29442961060618023 -0.089764156713605506 0 0.28691460331806928 -0.079185378374353493 0 0.27734124638624891 -0.089737863242296378 0 0.30201438303726968 -0.075929904193525521 0 0.29442961060618023 -0.089764156713605506 0 0.28691460331806928 -0.079185378374353493 0 0.30201438303726968 -0.075929904193525521 0 0.27927949511770961 -0.070851454938488739 0 0.29222542489931519 -0.060978945333093171 0 0.30201438303726968 -0.075929904193525521 0 0.27927949511770961 -0.070851454938488739 0 0.30201438303726968 -0.075929904193525521 0 0.28691460331806928 -0.079185378374353493 0 0.27927949511770961 -0.070851454938488739 0 0.28691460331806928 -0.079185378374353493 0 0.27927949511770961 -0.070851454938488739 0 0.27809334201771629 -0.079209584513290715 0 0.28691460331806928 -0.079185378374353493 0 0.27927949511770961 -0.070851454938488739 0 0.27927949511770961 -0.070851454938488739 0 0.27868582307562201 -0.055886184139343542 0 0.29222542489931519 -0.060978945333093171 0 0.31943204723016899 -0.10139701157958859 0 0.3092169746865393 -0.1198258623704429 0 0.30306705175182019 -0.101009202806625 0 0.3092169746865393 -0.1198258623704429 0 0.30306705175182019 -0.101009202806625 0 0.28879183359809052 -0.10393054527906551 0 0.31943204723016899 -0.10139701157958859 0 0.31117343018006932 -0.08835554327446378 0 0.30306705175182019 -0.101009202806625 0 0.28879183359809052 -0.10393054527906551 0 0.28255992184413548 -0.11730154926539781 0 0.27267591943638608 -0.1048970298088977 0 0.29442961060618023 -0.089764156713605506 0 0.28879183359809052 -0.10393054527906551 0 0.27734124638624891 -0.089737863242296378 0 0.29442961060618023 -0.089764156713605506 0 0.30306705175182019 -0.101009202806625 0 0.28879183359809052 -0.10393054527906551 0 0.3092169746865393 -0.1198258623704429 0 0.28255992184413548 -0.11730154926539781 0 0.3092169746865393 -0.1198258623704429 0 0.28879183359809052 -0.10393054527906551 0 0.28255992184413548 -0.11730154926539781 0 0.3092169746865393 -0.1198258623704429 0 0.28255992184413548 -0.11730154926539781 0 0.28721398294742878 -0.13035474923543569 0 0.28255992184413548 -0.11730154926539781 0 0.26776517015272971 -0.1222840496799191 0 0.28721398294742878 -0.13035474923543569 0 0.28255992184413548 -0.11730154926539781 0 0.26776517015272971 -0.1222840496799191 0 0.27267591943638608 -0.1048970298088977 0 0.26776517015272971 -0.1222840496799191 0 0.27267591943638608 -0.1048970298088977 0 0.26047800574605201 -0.11084537767631369 0 0.28879183359809052 -0.10393054527906551 0 0.27267591943638608 -0.1048970298088977 0 0.27734124638624891 -0.089737863242296378 0 0.27267591943638608 -0.1048970298088977 0 0.27734124638624891 -0.089737863242296378 0 0.26256105175446781 -0.092679464148907056 0 0.25771864553297669 -0.099620140202181948 0 0.26047800574605201 -0.11084537767631369 0 0.24375228786211539 -0.116580291014256 0 0.27267591943638608 -0.1048970298088977 0 0.25771864553297669 -0.099620140202181948 0 0.26256105175446781 -0.092679464148907056 0 0.25771864553297669 -0.099620140202181948 0 0.25304747237378489 -0.090741332181114118 0 0.24292322406264641 -0.096552741650977186 0 0.25771864553297669 -0.099620140202181948 0 0.26256105175446781 -0.092679464148907056 0 0.25304747237378489 -0.090741332181114118 0 0.27267591943638608 -0.1048970298088977 0 0.25771864553297669 -0.099620140202181948 0 0.26047800574605201 -0.11084537767631369 0 0.26776517015272971 -0.1222840496799191 0 0.26153006621115998 -0.13421007507225571 0 0.24375228786211539 -0.116580291014256 0 0.26776517015272971 -0.1222840496799191 0 0.24375228786211539 -0.116580291014256 0 0.26776517015272971 -0.1222840496799191 0 0.26047800574605201 -0.11084537767631369 0 0.24375228786211539 -0.116580291014256 0 0.27927949511770961 -0.070851454938488739 0 0.25811154610651499 -0.066123023671663908 0 0.26329678137076351 -0.053405898285071182 0 0.27927949511770961 -0.070851454938488739 0 0.25811154610651499 -0.066123023671663908 0 0.26883802324883782 -0.077063641498024305 0 0.27927949511770961 -0.070851454938488739 0 0.25811154610651499 -0.066123023671663908 0 0.26883802324883782 -0.077063641498024305 0 0.27927949511770961 -0.070851454938488739 0 0.27809334201771629 -0.079209584513290715 0 0.26883802324883782 -0.077063641498024305 0 0.27809334201771629 -0.079209584513290715 0 0.27734124638624891 -0.089737863242296378 0 0.26883802324883782 -0.077063641498024305 0 0.27734124638624891 -0.089737863242296378 0 0.25202197504294188 -0.078400955310045109 0 0.28691460331806928 -0.079185378374353493 0 0.27809334201771629 -0.079209584513290715 0 0.27734124638624891 -0.089737863242296378 0 0.27734124638624891 -0.089737863242296378 0 0.26256105175446781 -0.092679464148907056 0 0.25202197504294188 -0.078400955310045109 0 0.27734124638624891 -0.089737863242296378 0 0.25202197504294188 -0.078400955310045109 0 0.26256105175446781 -0.092679464148907056 0 0.25304747237378489 -0.090741332181114118 0 0.25202197504294188 -0.078400955310045109 0 0.25304747237378489 -0.090741332181114118 0 0.25202197504294188 -0.078400955310045109 0 0.24624903761231479 -0.086847438891893419 0 0.26883802324883782 -0.077063641498024305 0 0.25202197504294188 -0.078400955310045109 0 0.25811154610651499 -0.066123023671663908 0 0.25811154610651499 -0.066123023671663908 0 0.26329678137076351 -0.053405898285071182 0 0.24870160087168189 -0.052882304334001928 0 0.26329678137076351 -0.053405898285071182 0 0.24870160087168189 -0.052882304334001928 0 0.24731406762381819 -0.035960341631652723 0 0.27927949511770961 -0.070851454938488739 0 0.26329678137076351 -0.053405898285071182 0 0.27868582307562201 -0.055886184139343542 0 0.27927949511770961 -0.070851454938488739 0 0.26329678137076351 -0.053405898285071182 0 0.26329678137076351 -0.053405898285071182 0 0.27868582307562201 -0.055886184139343542 0 0.27337213238318842 -0.044040078526876879 0 0.27868582307562201 -0.055886184139343542 0 0.27337213238318842 -0.044040078526876879 0 0.28525528160713332 -0.050154543613187753 0 0.26329678137076351 -0.053405898285071182 0 0.27337213238318842 -0.044040078526876879 0 0.26311483972878968 -0.036713614733010089 0 0.27337213238318842 -0.044040078526876879 0 0.27217486102646721 -0.027861542379398439 0 0.28494473946257981 -0.034556038004921102 0 0.27337213238318842 -0.044040078526876879 0 0.26311483972878968 -0.036713614733010089 0 0.27217486102646721 -0.027861542379398439 0 0.27337213238318842 -0.044040078526876879 0 0.28525528160713332 -0.050154543613187753 0 0.28494473946257981 -0.034556038004921102 0 0.26311483972878968 -0.036713614733010089 0 0.25941635623971138 -0.02230021284205122 0 0.24731406762381819 -0.035960341631652723 0 0.26329678137076351 -0.053405898285071182 0 0.24731406762381819 -0.035960341631652723 0 0.26329678137076351 -0.053405898285071182 0 0.26311483972878968 -0.036713614733010089 0 0.24731406762381819 -0.035960341631652723 0 0.25941635623971138 -0.02230021284205122 0 0.24731406762381819 -0.035960341631652723 0 0.2482857443068576 -0.021714794414400052 0 0.25941635623971138 -0.02230021284205122 0 0.25508119948702751 -0.010083838205662381 0 0.2482857443068576 -0.021714794414400052 0 0.26311483972878968 -0.036713614733010089 0 0.25941635623971138 -0.02230021284205122 0 0.27217486102646721 -0.027861542379398439 0 0.2541426920980116 -0.0036136263454906951 0 0.25508119948702751 -0.010083838205662381 0 0.24138147174972829 -0.0061427828714447699 0 0.2541426920980116 -0.0036136263454906951 0 0.25508119948702751 -0.010083838205662381 0 0.26047117107291767 -0.0019720443344692288 0 0.25446675038947358 0.0029162606258486688 0 0.2541426920980116 -0.0036136263454906951 0 0.26047117107291767 -0.0019720443344692288 0 0.25941635623971138 -0.02230021284205122 0 0.25508119948702751 -0.010083838205662381 0 0.26474460583379889 -0.01023883548432745 0 0.25941635623971138 -0.02230021284205122 0 0.26474460583379889 -0.01023883548432745 0 0.27166734417845928 -0.01430021117376327 0 0.25508119948702751 -0.010083838205662381 0 0.26474460583379889 -0.01023883548432745 0 0.26047117107291767 -0.0019720443344692288 0 0.26474460583379889 -0.01023883548432745 0 0.26047117107291767 -0.0019720443344692288 0 0.27708695819087842 -0.0025378708656911609 0 0.26474460583379889 -0.01023883548432745 0 0.27166734417845928 -0.01430021117376327 0 0.27708695819087842 -0.0025378708656911609 0 0.27166734417845928 -0.01430021117376327 0 0.27708695819087842 -0.0025378708656911609 0 0.28469269166600031 -0.01545933141113482 0 0.27217486102646721 -0.027861542379398439 0 0.28469269166600031 -0.01545933141113482 0 0.28494473946257981 -0.034556038004921102 0 0.25941635623971138 -0.02230021284205122 0 0.27166734417845928 -0.01430021117376327 0 0.27217486102646721 -0.027861542379398439 0 0.27166734417845928 -0.01430021117376327 0 0.27217486102646721 -0.027861542379398439 0 0.28469269166600031 -0.01545933141113482 0 0.28469269166600031 -0.01545933141113482 0 0.29727596499766062 -0.023933315692393788 0 0.28494473946257981 -0.034556038004921102 0 0.30352242257352219 0.0039185454548519476 0 0.28469269166600031 -0.01545933141113482 0 0.29727596499766062 -0.023933315692393788 0 0.30352242257352219 0.0039185454548519476 0 0.27708695819087842 -0.0025378708656911609 0 0.28469269166600031 -0.01545933141113482 0 0.30352242257352219 0.0039185454548519476 0 0.32469666258817742 -0.019557632270551 0 0.29727596499766062 -0.023933315692393788 0 0.32469666258817742 -0.019557632270551 0 0.31326255248553708 -0.043768501277314603 0 0.29727596499766062 -0.023933315692393788 0 0.31326255248553708 -0.043768501277314603 0 0.29727596499766062 -0.023933315692393788 0 0.2968975050950291 -0.045887416406534938 0 0.31326255248553708 -0.043768501277314603 0 0.29727596499766062 -0.023933315692393788 0 0.31326255248553708 -0.043768501277314603 0 0.2968975050950291 -0.045887416406534938 0 0.31014365419524398 -0.06072536978512106 0 0.2968975050950291 -0.045887416406534938 0 0.31014365419524398 -0.06072536978512106 0 0.29222542489931519 -0.060978945333093171 0 0.2968975050950291 -0.045887416406534938 0 0.29222542489931519 -0.060978945333093171 0 0.28525528160713332 -0.050154543613187753 0 0.27868582307562201 -0.055886184139343542 0 0.29222542489931519 -0.060978945333093171 0 0.28525528160713332 -0.050154543613187753 0 0.2968975050950291 -0.045887416406534938 0 0.28525528160713332 -0.050154543613187753 0 0.28494473946257981 -0.034556038004921102 0 0.29727596499766062 -0.023933315692393788 0 0.2968975050950291 -0.045887416406534938 0 0.28494473946257981 -0.034556038004921102 0 0.29579617193404978 -0.19432558104056491 0 0.30588539897632072 -0.22256652654210629 0 0.2776594049058328 -0.2175861504380624 0 0.29579617193404978 -0.19432558104056491 0 0.2776594049058328 -0.2175861504380624 0 0.2764107852420567 -0.19644220614923899 0 0.29579617193404978 -0.19432558104056491 0 0.2764107852420567 -0.19644220614923899 0 0.2792899687438003 -0.18116405860585089 0 0.29579617193404978 -0.19432558104056491 0 0.31045946319455608 -0.20263901644370941 0 0.31057073564158039 -0.17760626025882659 0 0.29579617193404978 -0.19432558104056491 0 0.30588539897632072 -0.22256652654210629 0 0.31045946319455608 -0.20263901644370941 0 0.30588539897632072 -0.22256652654210629 0 0.32020032842118662 -0.2136972324735969 0 0.29579617193404978 -0.19432558104056491 0 0.31045946319455608 -0.20263901644370941 0 0.30588539897632072 -0.22256652654210629 0 0.29681701546221179 -0.23419681124085551 0 0.31597462601859122 -0.25080747204364812 0 0.30111904597271899 -0.2536098058489899 0 0.30588539897632072 -0.22256652654210629 0 0.29681701546221179 -0.23419681124085551 0 0.31597462601859122 -0.25080747204364812 0 0.30588539897632072 -0.22256652654210629 0 0.31597462601859122 -0.25080747204364812 0 0.29681701546221179 -0.23419681124085551 0 0.31597462601859122 -0.25080747204364812 0 0.29681701546221179 -0.23419681124085551 0 0.30111904597271899 -0.2536098058489899 0 0.28456511698073272 -0.25518130134833977 0 0.29681701546221179 -0.23419681124085551 0 0.27830026498091959 -0.23745462562099759 0 0.28456511698073272 -0.25518130134833977 0 0.30588539897632072 -0.22256652654210629 0 0.29681701546221179 -0.23419681124085551 0 0.2776594049058328 -0.2175861504380624 0 0.29681701546221179 -0.23419681124085551 0 0.27830026498091959 -0.23745462562099759 0 0.2776594049058328 -0.2175861504380624 0 0.29681701546221179 -0.23419681124085551 0 0.2776594049058328 -0.2175861504380624 0 0.26584409390649738 -0.23415831621220631 0 0.27830026498091959 -0.23745462562099759 0 0.2776594049058328 -0.2175861504380624 0 0.26584409390649738 -0.23415831621220631 0 0.25658827463044448 -0.2222138965281123 0 0.2776594049058328 -0.2175861504380624 0 0.27830026498091959 -0.23745462562099759 0 0.28456511698073272 -0.25518130134833977 0 0.26629969424128969 -0.25192769388052821 0 0.26584409390649738 -0.23415831621220631 0 0.27830026498091959 -0.23745462562099759 0 0.26629969424128969 -0.25192769388052821 0 0.26584409390649738 -0.23415831621220631 0 0.25037283077400019 -0.2416092145933311 0 0.26629969424128969 -0.25192769388052821 0 0.25037283077400019 -0.2416092145933311 0 0.25658827463044448 -0.2222138965281123 0 0.2446094219978813 -0.2276121794933563 0 0.26584409390649738 -0.23415831621220631 0 0.25037283077400019 -0.2416092145933311 0 0.25658827463044448 -0.2222138965281123 0 0.25658827463044448 -0.2222138965281123 0 0.2776594049058328 -0.2175861504380624 0 0.25850179434945381 -0.20097548963526929 0 0.25658827463044448 -0.2222138965281123 0 0.25850179434945381 -0.20097548963526929 0 0.23907695871134879 -0.21289681242661959 0 0.2776594049058328 -0.2175861504380624 0 0.25850179434945381 -0.20097548963526929 0 0.2776594049058328 -0.2175861504380624 0 0.2764107852420567 -0.19644220614923899 0 0.25850179434945381 -0.20097548963526929 0 0.2764107852420567 -0.19644220614923899 0 0.25850179434945381 -0.20097548963526929 0 0.26539786460737957 -0.18100391429238191 0 0.25850179434945381 -0.20097548963526929 0 0.26539786460737957 -0.18100391429238191 0 0.23934418379307471 -0.18436482883247621 0 0.26539786460737957 -0.18100391429238191 0 0.25449645062408999 -0.16331052089379791 0 0.23934418379307471 -0.18436482883247621 0 0.26539786460737957 -0.18100391429238191 0 0.25449645062408999 -0.16331052089379791 0 0.27043371620885309 -0.16438603764101259 0 0.25449645062408999 -0.16331052089379791 0 0.27043371620885309 -0.16438603764101259 0 0.2633734196266177 -0.15149826902969399 0 0.27043371620885309 -0.16438603764101259 0 0.2792899687438003 -0.18116405860585089 0 0.28570694489177878 -0.1660846355390232 0 0.27043371620885309 -0.16438603764101259 0 0.27930784456020519 -0.15183985913025491 0 0.28570694489177878 -0.1660846355390232 0 0.26539786460737957 -0.18100391429238191 0 0.27043371620885309 -0.16438603764101259 0 0.2792899687438003 -0.18116405860585089 0 0.2764107852420567 -0.19644220614923899 0 0.26539786460737957 -0.18100391429238191 0 0.2792899687438003 -0.18116405860585089 0 0.26153006621115998 -0.13421007507225571 0 0.24375228786211539 -0.116580291014256 0 0.24955680073527009 -0.143898101237383 0 0.26153006621115998 -0.13421007507225571 0 0.24375228786211539 -0.116580291014256 0 0.25449645062408999 -0.16331052089379791 0 0.2633734196266177 -0.15149826902969399 0 0.24955680073527009 -0.143898101237383 0 0.26153006621115998 -0.13421007507225571 0 0.2633734196266177 -0.15149826902969399 0 0.24955680073527009 -0.143898101237383 0 0.27043371620885309 -0.16438603764101259 0 0.2633734196266177 -0.15149826902969399 0 0.27930784456020519 -0.15183985913025491 0 0.27561771784950778 -0.13784369003748159 0 0.28570694489177878 -0.1660846355390232 0 0.26153006621115998 -0.13421007507225571 0 0.27930784456020519 -0.15183985913025491 0 0.27561771784950778 -0.13784369003748159 0 0.27930784456020519 -0.15183985913025491 0 0.27561771784950778 -0.13784369003748159 0 0.28570694489177878 -0.1660846355390232 0 0.26153006621115998 -0.13421007507225571 0 0.2633734196266177 -0.15149826902969399 0 0.27930784456020519 -0.15183985913025491 0 0.26153006621115998 -0.13421007507225571 0 0.27930784456020519 -0.15183985913025491 0 0.26776517015272971 -0.1222840496799191 0 0.27561771784950778 -0.13784369003748159 0 0.28721398294742878 -0.13035474923543569 0 0.26776517015272971 -0.1222840496799191 0 0.26153006621115998 -0.13421007507225571 0 0.27561771784950778 -0.13784369003748159 0 0.27561771784950778 -0.13784369003748159 0 0.28721398294742878 -0.13035474923543569 0 0.28891568690104508 -0.14625428249578579 0 0.28721398294742878 -0.13035474923543569 0 0.28891568690104508 -0.14625428249578579 0 0.29920842625061578 -0.1386190615635868 0 0.28891568690104508 -0.14625428249578579 0 0.29920842625061578 -0.1386190615635868 0 0.29789574789403661 -0.15876522012859751 0 0.27561771784950778 -0.13784369003748159 0 0.28891568690104508 -0.14625428249578579 0 0.28570694489177878 -0.1660846355390232 0 0.30985117626407932 -0.1486491484402036 0 0.29920842625061578 -0.1386190615635868 0 0.29789574789403661 -0.15876522012859751 0 0.30985117626407932 -0.1486491484402036 0 0.29789574789403661 -0.15876522012859751 0 0.3134799250960158 -0.16133035304856411 0 0.30985117626407932 -0.1486491484402036 0 0.29920842625061578 -0.1386190615635868 0 0.31980994510895661 -0.13408045692276491 0 0.3092169746865393 -0.1198258623704429 0 0.28721398294742878 -0.13035474923543569 0 0.29920842625061578 -0.1386190615635868 0 0.3092169746865393 -0.1198258623704429 0 0.29920842625061578 -0.1386190615635868 0 0.31980994510895661 -0.13408045692276491 0 0.29579617193404978 -0.19432558104056491 0 0.2792899687438003 -0.18116405860585089 0 0.28570694489177878 -0.1660846355390232 0 0.29579617193404978 -0.19432558104056491 0 0.28570694489177878 -0.1660846355390232 0 0.29579617193404978 -0.19432558104056491 0 0.28570694489177878 -0.1660846355390232 0 0.29784246694311001 -0.17248502473641619 0 0.28891568690104508 -0.14625428249578579 0 0.28570694489177878 -0.1660846355390232 0 0.29789574789403661 -0.15876522012859751 0 0.28570694489177878 -0.1660846355390232 0 0.29789574789403661 -0.15876522012859751 0 0.29784246694311001 -0.17248502473641619 0 0.29789574789403661 -0.15876522012859751 0 0.31057073564158039 -0.17760626025882659 0 0.3134799250960158 -0.16133035304856411 0 0.29789574789403661 -0.15876522012859751 0 0.31057073564158039 -0.17760626025882659 0 0.29784246694311001 -0.17248502473641619 0 0.29789574789403661 -0.15876522012859751 0 0.31057073564158039 -0.17760626025882659 0 0.29579617193404978 -0.19432558104056491 0 0.31057073564158039 -0.17760626025882659 0 0.29784246694311001 -0.17248502473641619 0 0.31057073564158039 -0.17760626025882659 0 0.33117051957001492 -0.16690810347740409 0 0.33960500058918919 -0.18923554211963439 0 0.31057073564158039 -0.17760626025882659 0 0.32324572338912438 -0.19644730038905581 0 0.3134799250960158 -0.16133035304856411 0 0.33117051957001492 -0.16690810347740409 0 0.32297156368297691 -0.15191279281852399 0 0.31057073564158039 -0.17760626025882659 0 0.3134799250960158 -0.16133035304856411 0 0.33117051957001492 -0.16690810347740409 0 0.33117051957001492 -0.16690810347740409 0 0.34312821131240068 -0.1490342399984359 0 0.35150112372442083 -0.17432517416681301 0 0.33117051957001492 -0.16690810347740409 0 0.35150112372442083 -0.17432517416681301 0 0.33960500058918919 -0.18923554211963439 0 0.33587402752894302 -0.122350175475488 0 0.3092169746865393 -0.1198258623704429 0 0.31980994510895661 -0.13408045692276491 0 0.30985117626407932 -0.1486491484402036 0 0.31980994510895661 -0.13408045692276491 0 0.32297156368297691 -0.15191279281852399 0 0.30985117626407932 -0.1486491484402036 0 0.3134799250960158 -0.16133035304856411 0 0.32297156368297691 -0.15191279281852399 0 0.33117051957001492 -0.16690810347740409 0 0.32297156368297691 -0.15191279281852399 0 0.34312821131240068 -0.1490342399984359 0 0.31980994510895661 -0.13408045692276491 0 0.32297156368297691 -0.15191279281852399 0 0.34312821131240068 -0.1490342399984359 0 0.33587402752894302 -0.122350175475488 0 0.31980994510895661 -0.13408045692276491 0 0.34312821131240068 -0.1490342399984359 0 0.36253108037134668 -0.1248744885805331 0 0.33587402752894302 -0.122350175475488 0 0.3555623608711499 -0.1359942506039106 0 0.33587402752894302 -0.122350175475488 0 0.34312821131240068 -0.1490342399984359 0 0.3555623608711499 -0.1359942506039106 0 0.34312821131240068 -0.1490342399984359 0 0.3555623608711499 -0.1359942506039106 0 0.36858459771950869 -0.15733985743645959 0 0.3555623608711499 -0.1359942506039106 0 0.36652086356581781 -0.12946943863695781 0 0.36858459771950869 -0.15733985743645959 0 0.36652086356581781 -0.12946943863695781 0 0.36858459771950869 -0.15733985743645959 0 0.36652086356581781 -0.12946943863695781 0 0.36858459771950869 -0.15733985743645959 0 0.3787995421462832 -0.1425544525875144 0 0.36652086356581781 -0.12946943863695781 0 0.37808333446084269 -0.1309391893982525 0 0.3787995421462832 -0.1425544525875144 0 0.36253108037134668 -0.1248744885805331 0 0.36652086356581781 -0.12946943863695781 0 0.37808333446084269 -0.1309391893982525 0 0.36253108037134668 -0.1248744885805331 0 0.3555623608711499 -0.1359942506039106 0 0.36652086356581781 -0.12946943863695781 0 0.35150112372442083 -0.17432517416681301 0 0.37064833187319962 -0.1852102762359614 0 0.35587008128221181 -0.19822302573298239 0 0.35150112372442083 -0.17432517416681301 0 0.35587008128221181 -0.19822302573298239 0 0.33960500058918919 -0.18923554211963439 0 0.34312821131240068 -0.1490342399984359 0 0.35150112372442083 -0.17432517416681301 0 0.36858459771950869 -0.15733985743645959 0 0.36858459771950869 -0.15733985743645959 0 0.37064833187319962 -0.1852102762359614 0 0.35150112372442083 -0.17432517416681301 0 0.36858459771950869 -0.15733985743645959 0 0.37064833187319962 -0.1852102762359614 0 0.36858459771950869 -0.15733985743645959 0 0.37064833187319962 -0.1852102762359614 0 0.3834788620725188 -0.17954848884060079 0 0.37064833187319962 -0.1852102762359614 0 0.37271206602689039 -0.21308069503546309 0 0.38139900114097952 -0.20469292352659629 0 0.37064833187319962 -0.1852102762359614 0 0.37271206602689039 -0.21308069503546309 0 0.37064833187319962 -0.1852102762359614 0 0.37271206602689039 -0.21308069503546309 0 0.35587008128221181 -0.19822302573298239 0 0.37271206602689039 -0.21308069503546309 0 0.35603419272415182 -0.2169366224123114 0 0.35587008128221181 -0.19822302573298239 0 0.35603419272415182 -0.2169366224123114 0 0.35587008128221181 -0.19822302573298239 0 0.33592071113666833 -0.21528834051928489 0 0.35587008128221181 -0.19822302573298239 0 0.33960500058918919 -0.18923554211963439 0 0.33592071113666833 -0.21528834051928489 0 0.33960500058918919 -0.18923554211963439 0 0.33592071113666833 -0.21528834051928489 0 0.32324572338912438 -0.19644730038905581 0 0.33592071113666833 -0.21528834051928489 0 0.32324572338912438 -0.19644730038905581 0 0.33592071113666833 -0.21528834051928489 0 0.32020032842118662 -0.2136972324735969 0 0.32324572338912438 -0.19644730038905581 0 0.31045946319455608 -0.20263901644370941 0 0.32020032842118662 -0.2136972324735969 0 0.32324572338912438 -0.19644730038905581 0 0.31057073564158039 -0.17760626025882659 0 0.33960500058918919 -0.18923554211963439 0 0.32324572338912438 -0.19644730038905581 0 0.31045946319455608 -0.20263901644370941 0 0.31057073564158039 -0.17760626025882659 0 0.32324572338912438 -0.19644730038905581 0 0.32549034540926353 -0.23154497847382799 0 0.33517615116993849 -0.24743488902137309 0 0.31597462601859122 -0.25080747204364812 0 0.30588539897632072 -0.22256652654210629 0 0.32549034540926353 -0.23154497847382799 0 0.31597462601859122 -0.25080747204364812 0 0.30588539897632072 -0.22256652654210629 0 0.32020032842118662 -0.2136972324735969 0 0.32549034540926353 -0.23154497847382799 0 0.33592071113666833 -0.21528834051928489 0 0.32020032842118662 -0.2136972324735969 0 0.32549034540926353 -0.23154497847382799 0 0.33592071113666833 -0.21528834051928489 0 0.32549034540926353 -0.23154497847382799 0 0.34859569888421221 -0.23412938064951411 0 0.33592071113666833 -0.21528834051928489 0 0.34859569888421221 -0.23412938064951411 0 0.32549034540926353 -0.23154497847382799 0 0.33517615116993849 -0.24743488902137309 0 0.34859569888421221 -0.23412938064951411 0 0.33517615116993849 -0.24743488902137309 0 0.34859569888421221 -0.23412938064951411 0 0.35185333732921159 -0.25428502110151557 0 0.34859569888421221 -0.23412938064951411 0 0.36075586336603621 -0.2426037127049111 0 0.35185333732921159 -0.25428502110151557 0 0.34859569888421221 -0.23412938064951411 0 0.36291464790978972 -0.22902601310760301 0 0.36075586336603621 -0.2426037127049111 0 0.35603419272415182 -0.2169366224123114 0 0.34859569888421221 -0.23412938064951411 0 0.36291464790978972 -0.22902601310760301 0 0.35603419272415182 -0.2169366224123114 0 0.33592071113666833 -0.21528834051928489 0 0.34859569888421221 -0.23412938064951411 0 0.37271206602689039 -0.21308069503546309 0 0.35603419272415182 -0.2169366224123114 0 0.36291464790978972 -0.22902601310760301 0 0.37271206602689039 -0.21308069503546309 0 0.37477580018058132 -0.24095111383496479 0 0.37555308153547928 -0.22286467051027881 0 0.37271206602689039 -0.21308069503546309 0 0.37477580018058132 -0.24095111383496479 0 0.37271206602689039 -0.21308069503546309 0 0.36291464790978972 -0.22902601310760301 0 0.37477580018058132 -0.24095111383496479 0 0.36075586336603621 -0.2426037127049111 0 0.37477580018058132 -0.24095111383496479 0 0.36563983252638571 -0.25462703483095822 0 0.36291464790978972 -0.22902601310760301 0 0.36075586336603621 -0.2426037127049111 0 0.37477580018058132 -0.24095111383496479 0 0.37477580018058132 -0.24095111383496479 0 0.39321551516580561 -0.23618023300957031 0 0.38725375881062551 -0.25185160038302579 0 0.39321551516580561 -0.23618023300957031 0 0.41087794879613182 -0.2494957955088617 0 0.40741230325918792 -0.23450562481703699 0 0.39321551516580561 -0.23618023300957031 0 0.41087794879613182 -0.2494957955088617 0 0.39321551516580561 -0.23618023300957031 0 0.38725375881062551 -0.25185160038302579 0 0.39640803358832022 -0.25154779433757402 0 0.39321551516580561 -0.23618023300957031 0 0.41087794879613182 -0.2494957955088617 0 0.39640803358832022 -0.25154779433757402 0 0.4055308246994358 -0.22407667781788709 0 0.39424069285124719 -0.22310079746779379 0 0.40434357831770951 -0.21487406561090469 0 0.4055308246994358 -0.22407667781788709 0 0.39424069285124719 -0.22310079746779379 0 0.40741230325918792 -0.23450562481703699 0 0.39321551516580561 -0.23618023300957031 0 0.39424069285124719 -0.22310079746779379 0 0.40741230325918792 -0.23450562481703699 0 0.37477580018058132 -0.24095111383496479 0 0.39321551516580561 -0.23618023300957031 0 0.37555308153547928 -0.22286467051027881 0 0.39424069285124719 -0.22310079746779379 0 0.37555308153547928 -0.22286467051027881 0 0.38300691860546521 -0.21527996176244341 0 0.39321551516580561 -0.23618023300957031 0 0.37555308153547928 -0.22286467051027881 0 0.39321551516580561 -0.23618023300957031 0 0.39424069285124719 -0.22310079746779379 0 0.37555308153547928 -0.22286467051027881 0 0.37271206602689039 -0.21308069503546309 0 0.37555308153547928 -0.22286467051027881 0 0.38300691860546521 -0.21527996176244341 0 0.37271206602689039 -0.21308069503546309 0 0.38139900114097952 -0.20469292352659629 0 0.38300691860546521 -0.21527996176244341 0 0.38139900114097952 -0.20469292352659629 0 0.39078770323730427 -0.19674260859680251 0 0.39112975147272949 -0.2126607222720846 0 0.38139900114097952 -0.20469292352659629 0 0.38300691860546521 -0.21527996176244341 0 0.39112975147272949 -0.2126607222720846 0 0.39424069285124719 -0.22310079746779379 0 0.38300691860546521 -0.21527996176244341 0 0.39112975147272949 -0.2126607222720846 0 0.37064833187319962 -0.1852102762359614 0 0.38139900114097952 -0.20469292352659629 0 0.39078770323730427 -0.19674260859680251 0 0.39078770323730427 -0.19674260859680251 0 0.40475141021500721 -0.1910589369573561 0 0.39510197637232292 -0.1839605883432579 0 0.39078770323730427 -0.19674260859680251 0 0.40426546228868082 -0.20108352786525729 0 0.397631623829106 -0.20634023108626229 0 0.39078770323730427 -0.19674260859680251 0 0.40426546228868082 -0.20108352786525729 0 0.40475141021500721 -0.1910589369573561 0 0.39078770323730427 -0.19674260859680251 0 0.39112975147272949 -0.2126607222720846 0 0.397631623829106 -0.20634023108626229 0 0.39112975147272949 -0.2126607222720846 0 0.397631623829106 -0.20634023108626229 0 0.40434357831770951 -0.21487406561090469 0 0.39424069285124719 -0.22310079746779379 0 0.39112975147272949 -0.2126607222720846 0 0.40434357831770951 -0.21487406561090469 0 0.40426546228868082 -0.20108352786525729 0 0.397631623829106 -0.20634023108626229 0 0.40434357831770951 -0.21487406561090469 0 0.40434357831770951 -0.21487406561090469 0 0.41713092845542321 -0.20900944133272009 0 0.41612672436959858 -0.22382622337581301 0 0.40426546228868082 -0.20108352786525729 0 0.40434357831770951 -0.21487406561090469 0 0.41713092845542321 -0.20900944133272009 0 0.41713092845542321 -0.20900944133272009 0 0.42330136258736267 -0.2174116668913772 0 0.41612672436959858 -0.22382622337581301 0 0.40475141021500721 -0.1910589369573561 0 0.41487892771890261 -0.19826025474908979 0 0.4146572714410397 -0.186958864794112 0 0.40426546228868082 -0.20108352786525729 0 0.41713092845542321 -0.20900944133272009 0 0.41487892771890261 -0.19826025474908979 0 0.40426546228868082 -0.20108352786525729 0 0.40475141021500721 -0.1910589369573561 0 0.41487892771890261 -0.19826025474908979 0 0.41713092845542321 -0.20900944133272009 0 0.41487892771890261 -0.19826025474908979 0 0.42701217502226602 -0.19751647228806199 0 0.41487892771890261 -0.19826025474908979 0 0.42053294087941678 -0.1923617771039739 0 0.42701217502226602 -0.19751647228806199 0 0.42053294087941678 -0.1923617771039739 0 0.4146572714410397 -0.186958864794112 0 0.42558338933545942 -0.1867115165846317 0 0.41487892771890261 -0.19826025474908979 0 0.42053294087941678 -0.1923617771039739 0 0.4146572714410397 -0.186958864794112 0 0.42701217502226602 -0.19751647228806199 0 0.43844209377108118 -0.18689286854296691 0 0.44355474576021348 -0.2050869029196882 0 0.42053294087941678 -0.1923617771039739 0 0.42701217502226602 -0.19751647228806199 0 0.42558338933545942 -0.1867115165846317 0 0.42701217502226602 -0.19751647228806199 0 0.42558338933545942 -0.1867115165846317 0 0.43844209377108118 -0.18689286854296691 0 0.42701217502226602 -0.19751647228806199 0 0.43006687167525981 -0.21185300334864521 0 0.44355474576021348 -0.2050869029196882 0 0.41713092845542321 -0.20900944133272009 0 0.42330136258736267 -0.2174116668913772 0 0.43006687167525981 -0.21185300334864521 0 0.42330136258736267 -0.2174116668913772 0 0.43006687167525981 -0.21185300334864521 0 0.42988092584916948 -0.2249579995083304 0 0.41713092845542321 -0.20900944133272009 0 0.42701217502226602 -0.19751647228806199 0 0.43006687167525981 -0.21185300334864521 0 0.43006687167525981 -0.21185300334864521 0 0.42988092584916948 -0.2249579995083304 0 0.44009267276725389 -0.2176624614444449 0 0.42330136258736267 -0.2174116668913772 0 0.42988092584916948 -0.2249579995083304 0 0.41612672436959858 -0.22382622337581301 0 0.42988092584916948 -0.2249579995083304 0 0.43458399188612801 -0.2397076170126072 0 0.42159465327244361 -0.23640953485310751 0 0.42988092584916948 -0.2249579995083304 0 0.42159465327244361 -0.23640953485310751 0 0.41612672436959858 -0.22382622337581301 0 0.42988092584916948 -0.2249579995083304 0 0.43458399188612801 -0.2397076170126072 0 0.44416109061426973 -0.22983272991065171 0 0.43458399188612801 -0.2397076170126072 0 0.42656562700980838 -0.24831468624349931 0 0.4372088962240912 -0.25169219704383999 0 0.43458399188612801 -0.2397076170126072 0 0.42656562700980838 -0.24831468624349931 0 0.42159465327244361 -0.23640953485310751 0 0.42656562700980838 -0.24831468624349931 0 0.42159465327244361 -0.23640953485310751 0 0.41087794879613182 -0.2494957955088617 0 0.42159465327244361 -0.23640953485310751 0 0.41087794879613182 -0.2494957955088617 0 0.40741230325918792 -0.23450562481703699 0 0.4055308246994358 -0.22407667781788709 0 0.40741230325918792 -0.23450562481703699 0 0.41612672436959858 -0.22382622337581301 0 0.4055308246994358 -0.22407667781788709 0 0.40434357831770951 -0.21487406561090469 0 0.41612672436959858 -0.22382622337581301 0 0.42159465327244361 -0.23640953485310751 0 0.40741230325918792 -0.23450562481703699 0 0.41612672436959858 -0.22382622337581301 0 0.39823574772599779 -0.11763079726210079 0 0.40257569972698831 -0.13396225485532559 0 0.38918813321375051 -0.12739880168557821 0 0.40257569972698831 -0.13396225485532559 0 0.38918813321375051 -0.12739880168557821 0 0.39017348084279901 -0.13955387731924049 0 0.38918813321375051 -0.12739880168557821 0 0.37808333446084269 -0.1309391893982525 0 0.39017348084279901 -0.13955387731924049 0 0.37720890243704291 -0.12310924361699779 0 0.36253108037134668 -0.1248744885805331 0 0.38918813321375051 -0.12739880168557821 0 0.36253108037134668 -0.1248744885805331 0 0.38918813321375051 -0.12739880168557821 0 0.37808333446084269 -0.1309391893982525 0 0.36253108037134668 -0.1248744885805331 0 0.38918813321375051 -0.12739880168557821 0 0.37808333446084269 -0.1309391893982525 0 0.39017348084279901 -0.13955387731924049 0 0.3787995421462832 -0.1425544525875144 0 0.36858459771950869 -0.15733985743645959 0 0.3787995421462832 -0.1425544525875144 0 0.38535727780346091 -0.1527557998392445 0 0.39017348084279901 -0.13955387731924049 0 0.3787995421462832 -0.1425544525875144 0 0.38535727780346091 -0.1527557998392445 0 0.40257569972698831 -0.13396225485532559 0 0.39822107621443897 -0.1501202070538992 0 0.41732028123257531 -0.14286435439753159 0 0.40257569972698831 -0.13396225485532559 0 0.39017348084279901 -0.13955387731924049 0 0.39822107621443897 -0.1501202070538992 0 0.39017348084279901 -0.13955387731924049 0 0.38535727780346091 -0.1527557998392445 0 0.39822107621443897 -0.1501202070538992 0 0.39822107621443897 -0.1501202070538992 0 0.39107178753907162 -0.16851380255406381 0 0.40713652226246821 -0.16744863749245631 0 0.39107178753907162 -0.16851380255406381 0 0.40713652226246821 -0.16744863749245631 0 0.38535727780346091 -0.1527557998392445 0 0.39822107621443897 -0.1501202070538992 0 0.39107178753907162 -0.16851380255406381 0 0.39107178753907162 -0.16851380255406381 0 0.40460499843718001 -0.17902112385493851 0 0.40713652226246821 -0.16744863749245631 0 0.36858459771950869 -0.15733985743645959 0 0.38535727780346091 -0.1527557998392445 0 0.39107178753907162 -0.16851380255406381 0 0.36858459771950869 -0.15733985743645959 0 0.39107178753907162 -0.16851380255406381 0 0.3834788620725188 -0.17954848884060079 0 0.39107178753907162 -0.16851380255406381 0 0.3834788620725188 -0.17954848884060079 0 0.39510197637232292 -0.1839605883432579 0 0.39078770323730427 -0.19674260859680251 0 0.3834788620725188 -0.17954848884060079 0 0.39510197637232292 -0.1839605883432579 0 0.37064833187319962 -0.1852102762359614 0 0.39078770323730427 -0.19674260859680251 0 0.3834788620725188 -0.17954848884060079 0 0.39107178753907162 -0.16851380255406381 0 0.39510197637232292 -0.1839605883432579 0 0.40460499843718001 -0.17902112385493851 0 0.40475141021500721 -0.1910589369573561 0 0.39510197637232292 -0.1839605883432579 0 0.40460499843718001 -0.17902112385493851 0 0.40475141021500721 -0.1910589369573561 0 0.40460499843718001 -0.17902112385493851 0 0.4146572714410397 -0.186958864794112 0 0.40460499843718001 -0.17902112385493851 0 0.41491102279317088 -0.17618591298838529 0 0.4146572714410397 -0.186958864794112 0 0.40460499843718001 -0.17902112385493851 0 0.41491102279317088 -0.17618591298838529 0 0.40713652226246821 -0.16744863749245631 0 0.41491102279317088 -0.17618591298838529 0 0.42527009306055918 -0.1746571334479238 0 0.4232012569858648 -0.16638347243084889 0 0.41491102279317088 -0.17618591298838529 0 0.42095079563492938 -0.18072636251124541 0 0.42527009306055918 -0.1746571334479238 0 0.41491102279317088 -0.17618591298838529 0 0.42095079563492938 -0.18072636251124541 0 0.4146572714410397 -0.186958864794112 0 0.42095079563492938 -0.18072636251124541 0 0.4146572714410397 -0.186958864794112 0 0.42558338933545942 -0.1867115165846317 0 0.43180268423531071 -0.1802632517690351 0 0.42527009306055918 -0.1746571334479238 0 0.44880083799057491 -0.164686103644653 0 0.42095079563492938 -0.18072636251124541 0 0.42558338933545942 -0.1867115165846317 0 0.43180268423531071 -0.1802632517690351 0 0.42558338933545942 -0.1867115165846317 0 0.43180268423531071 -0.1802632517690351 0 0.43844209377108118 -0.18689286854296691 0 0.42095079563492938 -0.18072636251124541 0 0.43180268423531071 -0.1802632517690351 0 0.42527009306055918 -0.1746571334479238 0 0.42527009306055918 -0.1746571334479238 0 0.4232012569858648 -0.16638347243084889 0 0.44880083799057491 -0.164686103644653 0 0.4232012569858648 -0.16638347243084889 0 0.43334283997313311 -0.15135273030925811 0 0.44880083799057491 -0.164686103644653 0 0.4232012569858648 -0.16638347243084889 0 0.44880083799057491 -0.164686103644653 0 0.42527009306055918 -0.1746571334479238 0 0.4232012569858648 -0.16638347243084889 0 0.4232012569858648 -0.16638347243084889 0 0.40713652226246821 -0.16744863749245631 0 0.41732028123257531 -0.14286435439753159 0 0.41491102279317088 -0.17618591298838529 0 0.4232012569858648 -0.16638347243084889 0 0.40713652226246821 -0.16744863749245631 0 0.4232012569858648 -0.16638347243084889 0 0.40713652226246821 -0.16744863749245631 0 0.4232012569858648 -0.16638347243084889 0 0.41732028123257531 -0.14286435439753159 0 0.39822107621443897 -0.1501202070538992 0 0.40713652226246821 -0.16744863749245631 0 0.41732028123257531 -0.14286435439753159 0 0.41732028123257531 -0.14286435439753159 0 0.43334283997313311 -0.15135273030925811 0 0.43763345530417341 -0.13584027725706749 0 0.4232012569858648 -0.16638347243084889 0 0.41732028123257531 -0.14286435439753159 0 0.43334283997313311 -0.15135273030925811 0 0.42916935431308728 -0.1205456085246996 0 0.41732028123257531 -0.14286435439753159 0 0.43763345530417341 -0.13584027725706749 0 0.42916935431308728 -0.1205456085246996 0 0.4435038969132965 -0.12540022695152131 0 0.43763345530417341 -0.13584027725706749 0 0.41143930547928681 -0.11934523636421419 0 0.42916935431308728 -0.1205456085246996 0 0.41732028123257531 -0.14286435439753159 0 0.41143930547928681 -0.11934523636421419 0 0.40257569972698831 -0.13396225485532559 0 0.41732028123257531 -0.14286435439753159 0 0.41143930547928681 -0.11934523636421419 0 0.41732028123257531 -0.14286435439753159 0 0.46257396642688631 -0.12529077885077469 0 0.46381730130484328 -0.1363472541609663 0 0.4585659370706795 -0.1308283620105129 0 0.46381730130484328 -0.1363472541609663 0 0.4585659370706795 -0.1308283620105129 0 0.45274550479158487 -0.1345999168850856 0 0.46381730130484328 -0.1363472541609663 0 0.45274550479158487 -0.1345999168850856 0 0.46138481906560302 -0.14686228775601681 0 0.46257396642688631 -0.12529077885077469 0 0.4585659370706795 -0.1308283620105129 0 0.45239247298790419 -0.125419693033265 0 0.4585659370706795 -0.1308283620105129 0 0.45239247298790419 -0.125419693033265 0 0.45274550479158487 -0.1345999168850856 0 0.45239247298790419 -0.125419693033265 0 0.4435038969132965 -0.12540022695152131 0 0.45274550479158487 -0.1345999168850856 0 0.4435038969132965 -0.12540022695152131 0 0.43763345530417341 -0.13584027725706749 0 0.45274550479158487 -0.1345999168850856 0 0.43763345530417341 -0.13584027725706749 0 0.45274550479158487 -0.1345999168850856 0 0.44678149142501389 -0.1466682631704162 0 0.43334283997313311 -0.15135273030925811 0 0.44678149142501389 -0.1466682631704162 0 0.44880083799057491 -0.164686103644653 0 0.44678149142501389 -0.1466682631704162 0 0.46138481906560302 -0.14686228775601681 0 0.44880083799057491 -0.164686103644653 0 0.43334283997313311 -0.15135273030925811 0 0.43763345530417341 -0.13584027725706749 0 0.44678149142501389 -0.1466682631704162 0 0.45274550479158487 -0.1345999168850856 0 0.44678149142501389 -0.1466682631704162 0 0.46138481906560302 -0.14686228775601681 0 0.46138481906560302 -0.14686228775601681 0 0.44880083799057491 -0.164686103644653 0 0.47440041899528501 -0.16298873485845719 0 0.44880083799057491 -0.164686103644653 0 0.46834799031954211 -0.17915452781490099 0 0.47440041899528501 -0.16298873485845719 0 0.44880083799057491 -0.164686103644653 0 0.47440041899528501 -0.16298873485845719 0 0.43180268423531071 -0.1802632517690351 0 0.44880083799057491 -0.164686103644653 0 0.43844209377108118 -0.18689286854296691 0 0.44880083799057491 -0.164686103644653 0 0.43844209377108118 -0.18689286854296691 0 0.45508032593701309 -0.1914137801830845 0 0.44880083799057491 -0.164686103644653 0 0.46834799031954211 -0.17915452781490099 0 0.45508032593701309 -0.1914137801830845 0 0.46834799031954211 -0.17915452781490099 0 0.48419704391512092 -0.17843144908975531 0 0.47440041899528501 -0.16298873485845719 0 0.46834799031954211 -0.17915452781490099 0 0.48419704391512092 -0.17843144908975531 0 0.47823681026078202 -0.19812675643970101 0 0.48419704391512092 -0.17843144908975531 0 0.49999999999999523 -0.16129136607226169 0 0.5 -0.1905958602634561 0 0.49999999999999523 -0.16129136607226169 0 0.47440041899528501 -0.16298873485845719 0 0.50000000000000067 -0.1547763741112759 0 0.48419704391512092 -0.17843144908975531 0 0.49999999999999523 -0.16129136607226169 0 0.47440041899528501 -0.16298873485845719 0 0.49999999999999523 -0.16129136607226169 0 0.47440041899528501 -0.16298873485845719 0 0.46138481906560302 -0.14686228775601681 0 0.47440041899528501 -0.16298873485845719 0 0.48128698321344371 -0.14003357648102521 0 0.46381730130484328 -0.1363472541609663 0 0.46138481906560302 -0.14686228775601681 0 0.48128698321344371 -0.14003357648102521 0 0.50000000000000067 -0.1547763741112759 0 0.48128698321344371 -0.14003357648102521 0 0.50000000000000067 -0.1547763741112759 0 0.5 -0.13349841451636779 0 0.48128698321344371 -0.14003357648102521 0 0.47440041899528501 -0.16298873485845719 0 0.50000000000000067 -0.1547763741112759 0 0.48128698321344371 -0.14003357648102521 0 0.48087269318342413 -0.1216818802472065 0 0.5 -0.13349841451636779 0 0.48128698321344371 -0.14003357648102521 0 0.46257396642688631 -0.12529077885077469 0 0.48128698321344371 -0.14003357648102521 0 0.46257396642688631 -0.12529077885077469 0 0.46381730130484328 -0.1363472541609663 0 0.48128698321344371 -0.14003357648102521 0 0.47129126618897188 -0.1223351355815797 0 0.48087269318342413 -0.1216818802472065 0 0.48128698321344371 -0.14003357648102521 0 0.47129126618897188 -0.1223351355815797 0 0.46257396642688631 -0.12529077885077469 0 0.48128698321344371 -0.14003357648102521 0 0.46029750420545162 -0.23134667767863379 0 0.45079963313025367 -0.219495204315066 0 0.46126535540865482 -0.21094244298034759 0 0.46029750420545162 -0.23134667767863379 0 0.46126535540865482 -0.21094244298034759 0 0.47937109712497578 -0.22608105856418539 0 0.46029750420545162 -0.23134667767863379 0 0.44856132313442931 -0.24393079079591279 0 0.47387431588802909 -0.25499376211151131 0 0.46029750420545162 -0.23134667767863379 0 0.44856132313442931 -0.24393079079591279 0 0.44416109061426973 -0.22983272991065171 0 0.43458399188612801 -0.2397076170126072 0 0.44856132313442931 -0.24393079079591279 0 0.4372088962240912 -0.25169219704383999 0 0.43458399188612801 -0.2397076170126072 0 0.44856132313442931 -0.24393079079591279 0 0.44416109061426973 -0.22983272991065171 0 0.46029750420545162 -0.23134667767863379 0 0.44416109061426973 -0.22983272991065171 0 0.45079963313025367 -0.219495204315066 0 0.44416109061426973 -0.22983272991065171 0 0.45079963313025367 -0.219495204315066 0 0.44009267276725389 -0.2176624614444449 0 0.42988092584916948 -0.2249579995083304 0 0.44416109061426973 -0.22983272991065171 0 0.44009267276725389 -0.2176624614444449 0 0.45079963313025367 -0.219495204315066 0 0.44355474576021348 -0.2050869029196882 0 0.46126535540865482 -0.21094244298034759 0 0.43006687167525981 -0.21185300334864521 0 0.44009267276725389 -0.2176624614444449 0 0.44355474576021348 -0.2050869029196882 0 0.45079963313025367 -0.219495204315066 0 0.44009267276725389 -0.2176624614444449 0 0.44355474576021348 -0.2050869029196882 0 0.43844209377108118 -0.18689286854296691 0 0.44355474576021348 -0.2050869029196882 0 0.45508032593701309 -0.1914137801830845 0 0.46834799031954211 -0.17915452781490099 0 0.45508032593701309 -0.1914137801830845 0 0.47823681026078202 -0.19812675643970101 0 0.44355474576021348 -0.2050869029196882 0 0.45508032593701309 -0.1914137801830845 0 0.46126535540865482 -0.21094244298034759 0 0.45508032593701309 -0.1914137801830845 0 0.46126535540865482 -0.21094244298034759 0 0.47823681026078202 -0.19812675643970101 0 0.46126535540865482 -0.21094244298034759 0 0.47823681026078202 -0.19812675643970101 0 0.47937109712497578 -0.22608105856418539 0 0.48419704391512092 -0.17843144908975531 0 0.47823681026078202 -0.19812675643970101 0 0.5 -0.1905958602634561 0 0.47823681026078202 -0.19812675643970101 0 0.5 -0.1905958602634561 0 0.5 -0.21990035445465039 0 0.47823681026078202 -0.19812675643970101 0 0.5 -0.21990035445465039 0 0.47937109712497578 -0.22608105856418539 0 0.5 -0.21990035445465039 0 0.47937109712497578 -0.22608105856418539 0 0.50000000000000444 -0.24920484864584491 0 0.46029750420545162 -0.23134667767863379 0 0.47937109712497578 -0.22608105856418539 0 0.47387431588802909 -0.25499376211151131 0 0.47937109712497578 -0.22608105856418539 0 0.50000000000000444 -0.24920484864584491 0 0.47387431588802909 -0.25499376211151131 0 0.50000000000000444 -0.24920484864584491 0 0.4915669900217115 -0.25615479242606781 0 0.5 -0.27170772691138367 0 0.50000000000000444 -0.24920484864584491 0 0.4915669900217115 -0.25615479242606781 0 0.47387431588802909 -0.25499376211151131 0 0.50000000000000444 -0.24920484864584491 0 0.47387431588802909 -0.25499376211151131 0 0.4915669900217115 -0.25615479242606781 0 0.48280749151585822 -0.27129304150170008 0 0.47954864786353962 -0.26301133191085868 0 0.4915669900217115 -0.25615479242606781 0 0.5 -0.27170772691138367 0 0.48280749151585822 -0.27129304150170008 0 0.5 -0.27170772691138367 0 0.48280749151585822 -0.27129304150170008 0 0.48951500520952212 -0.28458010338455908 0 0.48280749151585822 -0.27129304150170008 0 0.47474596181800061 -0.28621450290334632 0 0.48951500520952212 -0.28458010338455908 0 0.48280749151585822 -0.27129304150170008 0 0.47416229901770612 -0.26612875971404459 0 0.47954864786353962 -0.26301133191085868 0 0.48280749151585822 -0.27129304150170008 0 0.47416229901770612 -0.26612875971404459 0 0.47052118473631321 -0.27447720361836658 0 0.47416229901770612 -0.26612875971404459 0 0.47052118473631321 -0.27447720361836658 0 0.46319689217890331 -0.26835660325056299 0 0.48280749151585822 -0.27129304150170008 0 0.47052118473631321 -0.27447720361836658 0 0.47474596181800061 -0.28621450290334632 0 0.4915669900217115 -0.25615479242606781 0 0.46965781089888248 -0.25846873400162218 0 0.4915669900217115 -0.25615479242606781 0 0.47387431588802909 -0.25499376211151131 0 0.46965781089888248 -0.25846873400162218 0 0.4915669900217115 -0.25615479242606781 0 0.47954864786353962 -0.26301133191085868 0 0.46965781089888248 -0.25846873400162218 0 0.47416229901770612 -0.26612875971404459 0 0.47954864786353962 -0.26301133191085868 0 0.46965781089888248 -0.25846873400162218 0 0.47416229901770612 -0.26612875971404459 0 0.46965781089888248 -0.25846873400162218 0 0.46319689217890331 -0.26835660325056299 0 0.46965781089888248 -0.25846873400162218 0 0.46319689217890331 -0.26835660325056299 0 0.4477486317760534 -0.26078267557717671 0 0.44856132313442931 -0.24393079079591279 0 0.47387431588802909 -0.25499376211151131 0 0.4477486317760534 -0.26078267557717671 0 0.47387431588802909 -0.25499376211151131 0 0.4477486317760534 -0.26078267557717671 0 0.46965781089888248 -0.25846873400162218 0 0.4477486317760534 -0.26078267557717671 0 0.47387431588802909 -0.25499376211151131 0 0.46965781089888248 -0.25846873400162218 0 0.4477486317760534 -0.26078267557717671 0 0.47052118473631321 -0.27447720361836658 0 0.45389453446556111 -0.28192564334160541 0 0.47474596181800061 -0.28621450290334632 0 0.47052118473631321 -0.27447720361836658 0 0.46319689217890331 -0.26835660325056299 0 0.45389453446556111 -0.28192564334160541 0 0.46319689217890331 -0.26835660325056299 0 0.4477486317760534 -0.26078267557717671 0 0.45389453446556111 -0.28192564334160541 0 0.45389453446556111 -0.28192564334160541 0 0.430823863629894 -0.26453285558412298 0 0.45389453446556111 -0.28192564334160541 0 0.430823863629894 -0.26453285558412298 0 0.43570592202634773 -0.28205449164250063 0 0.4477486317760534 -0.26078267557717671 0 0.45389453446556111 -0.28192564334160541 0 0.430823863629894 -0.26453285558412298 0 0.4477486317760534 -0.26078267557717671 0 0.42854038242645709 -0.26281135800815408 0 0.44856132313442931 -0.24393079079591279 0 0.4477486317760534 -0.26078267557717671 0 0.4372088962240912 -0.25169219704383999 0 0.4477486317760534 -0.26078267557717671 0 0.42854038242645709 -0.26281135800815408 0 0.4372088962240912 -0.25169219704383999 0 0.4477486317760534 -0.26078267557717671 0 0.430823863629894 -0.26453285558412298 0 0.44815314542162782 -0.30273998798419938 0 0.44271266904340639 -0.31513600928105973 0 0.43092107089682352 -0.30573631325696571 0 0.44815314542162782 -0.30273998798419938 0 0.43874415768382158 -0.29310671547163403 0 0.43092107089682352 -0.30573631325696571 0 0.43874415768382158 -0.29310671547163403 0 0.45389453446556111 -0.28192564334160541 0 0.43570592202634773 -0.28205449164250063 0 0.44815314542162782 -0.30273998798419938 0 0.43874415768382158 -0.29310671547163403 0 0.45389453446556111 -0.28192564334160541 0 0.45389453446556111 -0.28192564334160541 0 0.46668010371271101 -0.29937682325086112 0 0.47474596181800061 -0.28621450290334632 0 0.44815314542162782 -0.30273998798419938 0 0.45389453446556111 -0.28192564334160541 0 0.46668010371271101 -0.29937682325086112 0 0.46668010371271101 -0.29937682325086112 0 0.45907432653114449 -0.32014896664993769 0 0.44815314542162782 -0.30273998798419938 0 0.46668010371271101 -0.29937682325086112 0 0.45907432653114449 -0.32014896664993769 0 0.46668010371271101 -0.29937682325086112 0 0.48375110351916628 -0.30725513966339157 0 0.45907432653114449 -0.32014896664993769 0 0.46668010371271101 -0.29937682325086112 0 0.48375110351916628 -0.30725513966339157 0 0.47474596181800061 -0.28621450290334632 0 0.48375110351916628 -0.30725513966339157 0 0.47474596181800061 -0.28621450290334632 0 0.48951500520952212 -0.28458010338455908 0 0.48375110351916628 -0.30725513966339157 0 0.5 -0.29421060517692271 0 0.48951500520952212 -0.28458010338455908 0 0.5 -0.27170772691138367 0 0.5 -0.29421060517692271 0 0.48951500520952212 -0.28458010338455908 0 0.48375110351916628 -0.30725513966339157 0 0.5 -0.29421060517692271 0 0.49999999999999972 -0.31671348344246159 0 0.48375110351916628 -0.30725513966339157 0 0.49999999999999972 -0.31671348344246159 0 0.48658745812515303 -0.32591538654610069 0 0.49999999999999972 -0.31671348344246159 0 0.49107839048707969 -0.33844651150006611 0 0.49999999999999972 -0.31671348344246159 0 0.48658745812515303 -0.32591538654610069 0 0.49107839048707969 -0.33844651150006611 0 0.49999999999999972 -0.31671348344246159 0 0.5 -0.34354646621870782 0 0.49107839048707969 -0.33844651150006611 0 0.48658745812515303 -0.32591538654610069 0 0.49107839048707969 -0.33844651150006611 0 0.48013111160135669 -0.33592777501669763 0 0.48658745812515303 -0.32591538654610069 0 0.48013111160135669 -0.33592777501669763 0 0.47588582758327369 -0.32632043512378739 0 0.48013111160135669 -0.33592777501669763 0 0.46883970942210401 -0.33989811375075968 0 0.47588582758327369 -0.32632043512378739 0 0.48375110351916628 -0.30725513966339157 0 0.48658745812515303 -0.32591538654610069 0 0.47588582758327369 -0.32632043512378739 0 0.48375110351916628 -0.30725513966339157 0 0.47588582758327369 -0.32632043512378739 0 0.45907432653114449 -0.32014896664993769 0 0.5 -0.37037944899495368 0 0.48466784746851571 -0.3739080713738358 0 0.48215678097416009 -0.36017953955767068 0 0.5 -0.34354646621870782 0 0.49107839048707969 -0.33844651150006611 0 0.48215678097416009 -0.36017953955767068 0 0.49107839048707969 -0.33844651150006611 0 0.48013111160135669 -0.33592777501669763 0 0.48215678097416009 -0.36017953955767068 0 0.5 -0.34354646621870782 0 0.5 -0.37037944899495368 0 0.48215678097416009 -0.36017953955767068 0 0.49107839048707969 -0.33844651150006611 0 0.48215678097416009 -0.36017953955767068 0 0.48013111160135669 -0.33592777501669763 0 0.46883970942210401 -0.33989811375075968 0 0.48215678097416009 -0.36017953955767068 0 0.46883970942210401 -0.33989811375075968 0 0.48215678097416009 -0.36017953955767068 0 0.46166172922915721 -0.35810144835948332 0 0.48215678097416009 -0.36017953955767068 0 0.47323517146124039 -0.38191256761527542 0 0.48215678097416009 -0.36017953955767068 0 0.4671179630262795 -0.37324494563770522 0 0.47323517146124039 -0.38191256761527542 0 0.48466784746851571 -0.3739080713738358 0 0.48215678097416009 -0.36017953955767068 0 0.47323517146124039 -0.38191256761527542 0 0.48215678097416009 -0.36017953955767068 0 0.4671179630262795 -0.37324494563770522 0 0.46166172922915721 -0.35810144835948332 0 0.45652460043480969 -0.37267172771365881 0 0.46166172922915721 -0.35810144835948332 0 0.44386277216801179 -0.36169325344809122 0 0.45652460043480969 -0.37267172771365881 0 0.4671179630262795 -0.37324494563770522 0 0.46166172922915721 -0.35810144835948332 0 0.46883970942210401 -0.33989811375075968 0 0.46166172922915721 -0.35810144835948332 0 0.45146854934957792 -0.34092111004901438 0 0.43963091224731599 -0.34751792105314822 0 0.44386277216801179 -0.36169325344809122 0 0.45146854934957792 -0.34092111004901438 0 0.44386277216801179 -0.36169325344809122 0 0.45146854934957792 -0.34092111004901438 0 0.46166172922915721 -0.35810144835948332 0 0.44386277216801179 -0.36169325344809122 0 0.45146854934957792 -0.34092111004901438 0 0.44386277216801179 -0.36169325344809122 0 0.43376943787959182 -0.36708850497004442 0 0.43808065797110041 -0.37748478958974491 0 0.45652460043480969 -0.37267172771365881 0 0.44386277216801179 -0.36169325344809122 0 0.44783900322824399 -0.38008781189722518 0 0.44386277216801179 -0.36169325344809122 0 0.43808065797110041 -0.37748478958974491 0 0.44386277216801179 -0.36169325344809122 0 0.43808065797110041 -0.37748478958974491 0 0.44783900322824399 -0.38008781189722518 0 0.45652460043480969 -0.37267172771365881 0 0.44386277216801179 -0.36169325344809122 0 0.46883970942210401 -0.33989811375075968 0 0.45907432653114449 -0.32014896664993769 0 0.45146854934957792 -0.34092111004901438 0 0.45907432653114449 -0.32014896664993769 0 0.45146854934957792 -0.34092111004901438 0 0.46883970942210401 -0.33989811375075968 0 0.47588582758327369 -0.32632043512378739 0 0.45907432653114449 -0.32014896664993769 0 0.43963091224731599 -0.34751792105314822 0 0.45146854934957792 -0.34092111004901438 0 0.43565299676263758 -0.3352386806192425 0 0.45146854934957792 -0.34092111004901438 0 0.44493724809618768 -0.32603283426431229 0 0.43565299676263758 -0.3352386806192425 0 0.45907432653114449 -0.32014896664993769 0 0.45146854934957792 -0.34092111004901438 0 0.44493724809618768 -0.32603283426431229 0 0.45907432653114449 -0.32014896664993769 0 0.44493724809618768 -0.32603283426431229 0 0.44271266904340639 -0.31513600928105973 0 0.44493724809618768 -0.32603283426431229 0 0.44271266904340639 -0.31513600928105973 0 0.43047755427124879 -0.32102194424988317 0 0.44815314542162782 -0.30273998798419938 0 0.45907432653114449 -0.32014896664993769 0 0.44271266904340639 -0.31513600928105973 0 0.44271266904340639 -0.31513600928105973 0 0.43047755427124879 -0.32102194424988317 0 0.43092107089682352 -0.30573631325696571 0 0.43047755427124879 -0.32102194424988317 0 0.41919911313656122 -0.31385112706466711 0 0.41739686236043672 -0.32199345155319897 0 0.43047755427124879 -0.32102194424988317 0 0.41919911313656122 -0.31385112706466711 0 0.43092107089682352 -0.30573631325696571 0 0.43047755427124879 -0.32102194424988317 0 0.42053718701310799 -0.32957674384091618 0 0.41739686236043672 -0.32199345155319897 0 0.44493724809618768 -0.32603283426431229 0 0.43047755427124879 -0.32102194424988317 0 0.43565299676263758 -0.3352386806192425 0 0.43565299676263758 -0.3352386806192425 0 0.42053718701310799 -0.32957674384091618 0 0.4250793590774925 -0.34540704162396091 0 0.43963091224731599 -0.34751792105314822 0 0.43565299676263758 -0.3352386806192425 0 0.4250793590774925 -0.34540704162396091 0 0.43047755427124879 -0.32102194424988317 0 0.43565299676263758 -0.3352386806192425 0 0.42053718701310799 -0.32957674384091618 0 0.4062959459869725 -0.32912082979983148 0 0.4250793590774925 -0.34540704162396091 0 0.41055923831377589 -0.34398547157316572 0 0.42053718701310799 -0.32957674384091618 0 0.4062959459869725 -0.32912082979983148 0 0.4250793590774925 -0.34540704162396091 0 0.4062959459869725 -0.32912082979983148 0 0.4250793590774925 -0.34540704162396091 0 0.42053718701310799 -0.32957674384091618 0 0.4062959459869725 -0.32912082979983148 0 0.40802480504278882 -0.32457497099322458 0 0.4062959459869725 -0.32912082979983148 0 0.40802480504278882 -0.32457497099322458 0 0.4062959459869725 -0.32912082979983148 0 0.40802480504278882 -0.32457497099322458 0 0.40572459905769331 -0.31910551143285631 0 0.40802480504278882 -0.32457497099322458 0 0.4119015194344513 -0.31818912214386269 0 0.41739686236043672 -0.32199345155319897 0 0.40802480504278882 -0.32457497099322458 0 0.4119015194344513 -0.31818912214386269 0 0.40572459905769331 -0.31910551143285631 0 0.4119015194344513 -0.31818912214386269 0 0.41919911313656122 -0.31385112706466711 0 0.40916221757477672 -0.31142054967536659 0 0.4119015194344513 -0.31818912214386269 0 0.40572459905769331 -0.31910551143285631 0 0.40916221757477672 -0.31142054967536659 0 0.4119015194344513 -0.31818912214386269 0 0.41919911313656122 -0.31385112706466711 0 0.41739686236043672 -0.32199345155319897 0 0.42053718701310799 -0.32957674384091618 0 0.40802480504278882 -0.32457497099322458 0 0.41739686236043672 -0.32199345155319897 0 0.44386277216801179 -0.36169325344809122 0 0.43376943787959182 -0.36708850497004442 0 0.42728564025893462 -0.35958684797927032 0 0.42489657602010461 -0.37065940299189432 0 0.43376943787959182 -0.36708850497004442 0 0.43808065797110041 -0.37748478958974491 0 0.42489657602010461 -0.37065940299189432 0 0.43376943787959182 -0.36708850497004442 0 0.42728564025893462 -0.35958684797927032 0 0.44386277216801179 -0.36169325344809122 0 0.4250793590774925 -0.34540704162396091 0 0.43963091224731599 -0.34751792105314822 0 0.44386277216801179 -0.36169325344809122 0 0.4250793590774925 -0.34540704162396091 0 0.44386277216801179 -0.36169325344809122 0 0.42728564025893462 -0.35958684797927032 0 0.4250793590774925 -0.34540704162396091 0 0.42728564025893462 -0.35958684797927032 0 0.4250793590774925 -0.34540704162396091 0 0.41069622259092692 -0.35617360609135817 0 0.4250793590774925 -0.34540704162396091 0 0.41055923831377589 -0.34398547157316572 0 0.41069622259092692 -0.35617360609135817 0 0.41055923831377589 -0.34398547157316572 0 0.41069622259092692 -0.35617360609135817 0 0.40016542559971202 -0.34524040877751239 0 0.42489657602010461 -0.37065940299189432 0 0.42728564025893462 -0.35958684797927032 0 0.41069622259092692 -0.35617360609135817 0 0.42489657602010461 -0.37065940299189432 0 0.41069622259092692 -0.35617360609135817 0 0.4070765621089808 -0.37107032214525337 0 0.42489657602010461 -0.37065940299189432 0 0.41069622259092692 -0.35617360609135817 0 0.39585190457779329 -0.37201308858561799 0 0.3940349052124521 -0.36135998775519362 0 0.38601585554704992 -0.38244526212700758 0 0.41069622259092692 -0.35617360609135817 0 0.4070765621089808 -0.37107032214525337 0 0.3940349052124521 -0.36135998775519362 0 0.4070765621089808 -0.37107032214525337 0 0.39585190457779329 -0.37201308858561799 0 0.3940349052124521 -0.36135998775519362 0 0.39585190457779329 -0.37201308858561799 0 0.3940349052124521 -0.36135998775519362 0 0.3940349052124521 -0.36135998775519362 0 0.40016542559971202 -0.34524040877751239 0 0.38974443050024338 -0.33620485529262373 0 0.3940349052124521 -0.36135998775519362 0 0.38974443050024338 -0.33620485529262373 0 0.3940349052124521 -0.36135998775519362 0 0.40016542559971202 -0.34524040877751239 0 0.41069622259092692 -0.35617360609135817 0 0.3940349052124521 -0.36135998775519362 0 0.40016542559971202 -0.34524040877751239 0 0.3940349052124521 -0.36135998775519362 0 0.38974443050024338 -0.33620485529262373 0 0.37368731816096312 -0.34897020548070451 0 0.3940349052124521 -0.36135998775519362 0 0.38601585554704992 -0.38244526212700758 0 0.3940349052124521 -0.36135998775519362 0 0.38601585554704992 -0.38244526212700758 0 0.3689120952668708 -0.37284951495870189 0 0.3940349052124521 -0.36135998775519362 0 0.3689120952668708 -0.37284951495870189 0 0.37368731816096312 -0.34897020548070451 0 0.4062959459869725 -0.32912082979983148 0 0.40572459905769331 -0.31910551143285631 0 0.39816778062817881 -0.31191488097197773 0 0.4062959459869725 -0.32912082979983148 0 0.38974443050024338 -0.33620485529262373 0 0.38545395578803499 -0.31104972283005378 0 0.4062959459869725 -0.32912082979983148 0 0.38545395578803499 -0.31104972283005378 0 0.4062959459869725 -0.32912082979983148 0 0.38545395578803499 -0.31104972283005378 0 0.39816778062817881 -0.31191488097197773 0 0.40572459905769331 -0.31910551143285631 0 0.39816778062817881 -0.31191488097197773 0 0.40916221757477672 -0.31142054967536659 0 0.4062959459869725 -0.32912082979983148 0 0.40016542559971202 -0.34524040877751239 0 0.38974443050024338 -0.33620485529262373 0 0.4062959459869725 -0.32912082979983148 0 0.40016542559971202 -0.34524040877751239 0 0.4062959459869725 -0.32912082979983148 0 0.41055923831377589 -0.34398547157316572 0 0.40016542559971202 -0.34524040877751239 0 0.38974443050024338 -0.33620485529262373 0 0.36945761595668469 -0.32738841673247931 0 0.37368731816096312 -0.34897020548070451 0 0.38974443050024338 -0.33620485529262373 0 0.38545395578803499 -0.31104972283005378 0 0.36945761595668469 -0.32738841673247931 0 0.38974443050024338 -0.33620485529262373 0 0.38545395578803499 -0.31104972283005378 0 0.38545395578803499 -0.31104972283005378 0 0.38245755150739558 -0.29348174920317632 0 0.37101427446782781 -0.29852975601036341 0 0.38545395578803499 -0.31104972283005378 0 0.38245755150739558 -0.29348174920317632 0 0.38545395578803499 -0.31104972283005378 0 0.37101427446782781 -0.29852975601036341 0 0.38545395578803499 -0.31104972283005378 0 0.39567659353887108 -0.29306988619604551 0 0.38245755150739558 -0.29348174920317632 0 0.39816778062817881 -0.31191488097197773 0 0.40563314249086863 -0.30155395497769039 0 0.39567659353887108 -0.29306988619604551 0 0.38545395578803499 -0.31104972283005378 0 0.39816778062817881 -0.31191488097197773 0 0.39567659353887108 -0.29306988619604551 0 0.39816778062817881 -0.31191488097197773 0 0.40563314249086863 -0.30155395497769039 0 0.40916221757477672 -0.31142054967536659 0 0.39567659353887108 -0.29306988619604551 0 0.40514250542832608 -0.27022331558021301 0 0.41160024963212011 -0.28933460066763711 0 0.40563314249086863 -0.30155395497769039 0 0.39567659353887108 -0.29306988619604551 0 0.41160024963212011 -0.28933460066763711 0 0.38245755150739558 -0.29348174920317632 0 0.37946114722675722 -0.27591377557629859 0 0.39567659353887108 -0.29306988619604551 0 0.38245755150739558 -0.29348174920317632 0 0.37946114722675722 -0.27591377557629859 0 0.38245755150739558 -0.29348174920317632 0 0.37795999762798671 -0.28395322059410122 0 0.37946114722675722 -0.27591377557629859 0 0.37519981906117678 -0.29055939022370142 0 0.38245755150739558 -0.29348174920317632 0 0.37101427446782781 -0.29852975601036341 0 0.37519981906117678 -0.29055939022370142 0 0.38245755150739558 -0.29348174920317632 0 0.37795999762798671 -0.28395322059410122 0 0.37795999762798671 -0.28395322059410122 0 0.37946114722675722 -0.27591377557629859 0 0.37739853904771847 -0.27637080706343392 0 0.37739853904771847 -0.27637080706343392 0 0.37683953433427181 -0.26882153263446662 0 0.37273728942595791 -0.27740364396778311 0 0.37795999762798671 -0.28395322059410122 0 0.37739853904771847 -0.27637080706343392 0 0.37273728942595791 -0.27740364396778311 0 0.37946114722675722 -0.27591377557629859 0 0.38774772661347989 -0.26664574742688191 0 0.3964002279028962 -0.26984905957103239 0 0.37946114722675722 -0.27591377557629859 0 0.3964002279028962 -0.26984905957103239 0 0.37795999762798671 -0.28395322059410122 0 0.37739853904771847 -0.27637080706343392 0 0.37739853904771847 -0.27637080706343392 0 0.37273728942595791 -0.27740364396778311 0 0.37946114722675722 -0.27591377557629859 0 0.37739853904771847 -0.27637080706343392 0 0.37683953433427181 -0.26882153263446662 0 0.37946114722675722 -0.27591377557629859 0 0.37739853904771847 -0.27637080706343392 0 0.37946114722675722 -0.27591377557629859 0 0.37843581040967561 -0.26746760801825881 0 0.38284686623937531 -0.26497045393317709 0 0.37946114722675722 -0.27591377557629859 0 0.37683953433427181 -0.26882153263446662 0 0.37843581040967561 -0.26746760801825881 0 0.37739853904771847 -0.27637080706343392 0 0.37683953433427181 -0.26882153263446662 0 0.37683953433427181 -0.26882153263446662 0 0.37843581040967561 -0.26746760801825881 0 0.37946114722675722 -0.27591377557629859 0 0.38774772661347989 -0.26664574742688191 0 0.38284686623937531 -0.26497045393317709 0 0.37477580018058132 -0.24095111383496479 0 0.37683953433427181 -0.26882153263446662 0 0.38107906364546162 -0.25934379353391329 0 0.37477580018058132 -0.24095111383496479 0 0.37683953433427181 -0.26882153263446662 0 0.37477580018058132 -0.24095111383496479 0 0.38107906364546162 -0.25934379353391329 0 0.38725375881062551 -0.25185160038302579 0 0.37843581040967561 -0.26746760801825881 0 0.38107906364546162 -0.25934379353391329 0 0.38284686623937531 -0.26497045393317709 0 0.37683953433427181 -0.26882153263446662 0 0.37843581040967561 -0.26746760801825881 0 0.38107906364546162 -0.25934379353391329 0 0.38107906364546162 -0.25934379353391329 0 0.38632261189823958 -0.26200045239958702 0 0.38284686623937531 -0.26497045393317709 0 0.38774772661347989 -0.26664574742688191 0 0.38632261189823958 -0.26200045239958702 0 0.38284686623937531 -0.26497045393317709 0 0.38774772661347989 -0.26664574742688191 0 0.38955528694719099 -0.2630172622662057 0 0.39295554709344072 -0.26445586107842978 0 0.38774772661347989 -0.26664574742688191 0 0.38632261189823958 -0.26200045239958702 0 0.38955528694719099 -0.2630172622662057 0 0.38632261189823958 -0.26200045239958702 0 0.38955528694719099 -0.2630172622662057 0 0.39119526218360401 -0.25896698815992442 0 0.38632261189823958 -0.26200045239958702 0 0.38725375881062551 -0.25185160038302579 0 0.39119526218360401 -0.25896698815992442 0 0.38107906364546162 -0.25934379353391329 0 0.38632261189823958 -0.26200045239958702 0 0.38725375881062551 -0.25185160038302579 0 0.40314688718896508 -0.2619981766022052 0 0.39707581272688741 -0.26613449373937459 0 0.41345304600685079 -0.26440480953867462 0 0.39707581272688741 -0.26613449373937459 0 0.41345304600685079 -0.26440480953867462 0 0.38725375881062551 -0.25185160038302579 0 0.39640803358832022 -0.25154779433757402 0 0.39119526218360401 -0.25896698815992442 0 0.39640803358832022 -0.25154779433757402 0 0.39702034872720737 -0.26014738253762237 0 0.39119526218360401 -0.25896698815992442 0 0.39702034872720737 -0.26014738253762237 0 0.39119526218360401 -0.25896698815992442 0 0.39295554709344072 -0.26445586107842978 0 0.38955528694719099 -0.2630172622662057 0 0.39119526218360401 -0.25896698815992442 0 0.39295554709344072 -0.26445586107842978 0 0.39702034872720737 -0.26014738253762237 0 0.39295554709344072 -0.26445586107842978 0 0.39707581272688741 -0.26613449373937459 0 0.39702034872720737 -0.26014738253762237 0 0.40314688718896508 -0.2619981766022052 0 0.39707581272688741 -0.26613449373937459 0 0.40314688718896508 -0.2619981766022052 0 0.40257909468765629 -0.25704117102420471 0 0.40998094690083942 -0.2590606397541646 0 0.39702034872720737 -0.26014738253762237 0 0.40314688718896508 -0.2619981766022052 0 0.40257909468765629 -0.25704117102420471 0 0.39640803358832022 -0.25154779433757402 0 0.39702034872720737 -0.26014738253762237 0 0.40257909468765629 -0.25704117102420471 0 0.41087794879613182 -0.2494957955088617 0 0.39640803358832022 -0.25154779433757402 0 0.40257909468765629 -0.25704117102420471 0 0.40514250542832608 -0.27022331558021301 0 0.3964002279028962 -0.26984905957103239 0 0.41345304600685079 -0.26440480953867462 0 0.37946114722675722 -0.27591377557629859 0 0.40514250542832608 -0.27022331558021301 0 0.3964002279028962 -0.26984905957103239 0 0.39707581272688741 -0.26613449373937459 0 0.3964002279028962 -0.26984905957103239 0 0.41345304600685079 -0.26440480953867462 0 0.37946114722675722 -0.27591377557629859 0 0.40514250542832608 -0.27022331558021301 0 0.3964002279028962 -0.26984905957103239 0 0.41345304600685079 -0.26440480953867462 0 0.39567659353887108 -0.29306988619604551 0 0.37946114722675722 -0.27591377557629859 0 0.40514250542832608 -0.27022331558021301 0 0.38774772661347989 -0.26664574742688191 0 0.39295554709344072 -0.26445586107842978 0 0.3964002279028962 -0.26984905957103239 0 0.39295554709344072 -0.26445586107842978 0 0.39707581272688741 -0.26613449373937459 0 0.3964002279028962 -0.26984905957103239 0 0.40514250542832608 -0.27022331558021301 0 0.41345304600685079 -0.26440480953867462 0 0.430823863629894 -0.26453285558412298 0 0.40514250542832608 -0.27022331558021301 0 0.430823863629894 -0.26453285558412298 0 0.40514250542832608 -0.27022331558021301 0 0.42166373126508722 -0.27984448092147479 0 0.41160024963212011 -0.28933460066763711 0 0.40514250542832608 -0.27022331558021301 0 0.42166373126508722 -0.27984448092147479 0 0.430823863629894 -0.26453285558412298 0 0.41087794879613182 -0.2494957955088617 0 0.41984775782459283 -0.2623632460968765 0 0.42854038242645709 -0.26281135800815408 0 0.41087794879613182 -0.2494957955088617 0 0.42854038242645709 -0.26281135800815408 0 0.41087794879613182 -0.2494957955088617 0 0.40257909468765629 -0.25704117102420471 0 0.40998094690083942 -0.2590606397541646 0 0.41087794879613182 -0.2494957955088617 0 0.40998094690083942 -0.2590606397541646 0 0.41984775782459283 -0.2623632460968765 0 0.40314688718896508 -0.2619981766022052 0 0.40998094690083942 -0.2590606397541646 0 0.41345304600685079 -0.26440480953867462 0 0.41345304600685079 -0.26440480953867462 0 0.41984775782459283 -0.2623632460968765 0 0.42854038242645709 -0.26281135800815408 0 0.40998094690083942 -0.2590606397541646 0 0.41345304600685079 -0.26440480953867462 0 0.41984775782459283 -0.2623632460968765 0 0.41345304600685079 -0.26440480953867462 0 0.42854038242645709 -0.26281135800815408 0 0.41345304600685079 -0.26440480953867462 0 0.41984775782459283 -0.2623632460968765 0 0.42656562700980838 -0.24831468624349931 0 0.41087794879613182 -0.2494957955088617 0 0.42854038242645709 -0.26281135800815408 0 0.4477486317760534 -0.26078267557717671 0 0.42854038242645709 -0.26281135800815408 0 0.430823863629894 -0.26453285558412298 0 0.41345304600685079 -0.26440480953867462 0 0.42854038242645709 -0.26281135800815408 0 0.430823863629894 -0.26453285558412298 0 0.42854038242645709 -0.26281135800815408 0 0.430823863629894 -0.26453285558412298 0 0.42656562700980838 -0.24831468624349931 0 0.42854038242645709 -0.26281135800815408 0 0.4372088962240912 -0.25169219704383999 0 0.42166373126508722 -0.27984448092147479 0 0.430823863629894 -0.26453285558412298 0 0.43570592202634773 -0.28205449164250063 0 0.42166373126508722 -0.27984448092147479 0 0.43570592202634773 -0.28205449164250063 0 0.42504611560874761 -0.29307714113289868 0 0.43874415768382158 -0.29310671547163403 0 0.43570592202634773 -0.28205449164250063 0 0.42504611560874761 -0.29307714113289868 0 0.43874415768382158 -0.29310671547163403 0 0.42504611560874761 -0.29307714113289868 0 0.43092107089682352 -0.30573631325696571 0 0.41919911313656122 -0.31385112706466711 0 0.43092107089682352 -0.30573631325696571 0 0.41692698488998292 -0.30249561446253759 0 0.42504611560874761 -0.29307714113289868 0 0.43092107089682352 -0.30573631325696571 0 0.41692698488998292 -0.30249561446253759 0 0.41919911313656122 -0.31385112706466711 0 0.41692698488998292 -0.30249561446253759 0 0.40916221757477672 -0.31142054967536659 0 0.40563314249086863 -0.30155395497769039 0 0.41692698488998292 -0.30249561446253759 0 0.40916221757477672 -0.31142054967536659 0 0.40563314249086863 -0.30155395497769039 0 0.41692698488998292 -0.30249561446253759 0 0.41160024963212011 -0.28933460066763711 0 0.42166373126508722 -0.27984448092147479 0 0.42504611560874761 -0.29307714113289868 0 0.41160024963212011 -0.28933460066763711 0 0.42504611560874761 -0.29307714113289868 0 0.41692698488998292 -0.30249561446253759 0 0.41160024963212011 -0.28933460066763711 0 0.5 -0.5 0 0.47532784176218862 -0.47257481327436679 0 0.43264288253940292 -0.48275234633568048 0 0.5 -0.5 0 0.41749257905485199 -0.50000000000000033 0 0.43264288253940292 -0.48275234633568048 0 0.47532784176218862 -0.47257481327436679 0 0.44779318602395363 -0.46550469267136052 0 0.43264288253940292 -0.48275234633568048 0 0.44779318602395363 -0.46550469267136052 0 0.43264288253940292 -0.48275234633568048 0 0.5 -0.5 0 0.47532784176218862 -0.47257481327436679 0 0.49999999999999828 -0.44642064777577001 0 0.47532784176218862 -0.47257481327436679 0 0.47918453573141367 -0.4495963838019249 0 0.46294348950850428 -0.44825703900704061 0 0.47532784176218862 -0.47257481327436679 0 0.49999999999999828 -0.44642064777577001 0 0.47918453573141367 -0.4495963838019249 0 0.49999999999999828 -0.44642064777577001 0 0.47846681165496419 -0.4311330351505217 0 0.49999999999999828 -0.44642064777577001 0 0.47918453573141367 -0.4495963838019249 0 0.47846681165496419 -0.4311330351505217 0 0.47918453573141367 -0.4495963838019249 0 0.46294348950850428 -0.44825703900704061 0 0.47846681165496419 -0.4311330351505217 0 0.46294348950850428 -0.44825703900704061 0 0.44442683605218691 -0.44583817528272968 0 0.45721208074107311 -0.43281318479414382 0 0.46294348950850428 -0.44825703900704061 0 0.44779318602395363 -0.46550469267136052 0 0.47532784176218862 -0.47257481327436679 0 0.46294348950850428 -0.44825703900704061 0 0.44779318602395363 -0.46550469267136052 0 0.44779318602395363 -0.46550469267136052 0 0.44442683605218691 -0.44583817528272968 0 0.43057418754349119 -0.46211781715143319 0 0.46294348950850428 -0.44825703900704061 0 0.44779318602395363 -0.46550469267136052 0 0.44442683605218691 -0.44583817528272968 0 0.44442683605218691 -0.44583817528272968 0 0.44324354583686831 -0.42153379012121539 0 0.45721208074107311 -0.43281318479414382 0 0.44442683605218691 -0.44583817528272968 0 0.44324354583686831 -0.42153379012121539 0 0.42653452723640378 -0.44279137365393179 0 0.44324354583686831 -0.42153379012121539 0 0.45693362330993059 -0.41584542252527262 0 0.45721208074107311 -0.43281318479414382 0 0.45693362330993059 -0.41584542252527262 0 0.4354004349648965 -0.40055780990002432 0 0.44324354583686831 -0.42153379012121539 0 0.45693362330993059 -0.41584542252527262 0 0.4354004349648965 -0.40055780990002432 0 0.45693362330993059 -0.41584542252527262 0 0.46461049463358839 -0.41117161714406408 0 0.47846681165496419 -0.4311330351505217 0 0.45693362330993059 -0.41584542252527262 0 0.46461049463358839 -0.41117161714406408 0 0.45329728287846061 -0.39963099679296588 0 0.46294348950850428 -0.44825703900704061 0 0.45721208074107311 -0.43281318479414382 0 0.47846681165496419 -0.4311330351505217 0 0.45693362330993059 -0.41584542252527262 0 0.45721208074107311 -0.43281318479414382 0 0.47846681165496419 -0.4311330351505217 0 0.45693362330993059 -0.41584542252527262 0 0.47846681165496419 -0.4311330351505217 0 0.49999999999999828 -0.44642064777577001 0 0.47846681165496419 -0.4311330351505217 0 0.5 -0.42181653977348488 0 0.5 -0.42181653977348488 0 0.48394518954555588 -0.41195106762427058 0 0.49999999999999789 -0.3972124317711998 0 0.47846681165496419 -0.4311330351505217 0 0.5 -0.42181653977348488 0 0.48394518954555588 -0.41195106762427058 0 0.46461049463358839 -0.41117161714406408 0 0.47846681165496419 -0.4311330351505217 0 0.48394518954555588 -0.41195106762427058 0 0.46461049463358839 -0.41117161714406408 0 0.48394518954555588 -0.41195106762427058 0 0.47664864143922919 -0.39842171428208217 0 0.47664864143922919 -0.39842171428208217 0 0.47975395238035062 -0.3854291032725421 0 0.46812846895096999 -0.38912968091376021 0 0.47664864143922919 -0.39842171428208217 0 0.49999999999999789 -0.3972124317711998 0 0.48779058149940679 -0.38751051868815611 0 0.48394518954555588 -0.41195106762427058 0 0.47664864143922919 -0.39842171428208217 0 0.49999999999999789 -0.3972124317711998 0 0.47664864143922919 -0.39842171428208217 0 0.49999999999999789 -0.3972124317711998 0 0.5 -0.37037944899495368 0 0.49999999999999789 -0.3972124317711998 0 0.48779058149940679 -0.38751051868815611 0 0.5 -0.37037944899495368 0 0.48466784746851571 -0.3739080713738358 0 0.48779058149940679 -0.38751051868815611 0 0.48466784746851571 -0.3739080713738358 0 0.47975395238035062 -0.3854291032725421 0 0.47323517146124039 -0.38191256761527542 0 0.48466784746851571 -0.3739080713738358 0 0.48779058149940679 -0.38751051868815611 0 0.47975395238035062 -0.3854291032725421 0 0.47664864143922919 -0.39842171428208217 0 0.48779058149940679 -0.38751051868815611 0 0.47975395238035062 -0.3854291032725421 0 0.47975395238035062 -0.3854291032725421 0 0.47323517146124039 -0.38191256761527542 0 0.46812846895096999 -0.38912968091376021 0 0.46918642870160698 -0.38365020197922722 0 0.47323517146124039 -0.38191256761527542 0 0.46812846895096999 -0.38912968091376021 0 0.4671179630262795 -0.37324494563770522 0 0.46918642870160698 -0.38365020197922722 0 0.47323517146124039 -0.38191256761527542 0 0.45652460043480969 -0.37267172771365881 0 0.4671179630262795 -0.37324494563770522 0 0.46918642870160698 -0.38365020197922722 0 0.45652460043480969 -0.37267172771365881 0 0.46918642870160698 -0.38365020197922722 0 0.45652460043480969 -0.37267172771365881 0 0.45606522570456098 -0.38599652494351028 0 0.44783900322824399 -0.38008781189722518 0 0.45652460043480969 -0.37267172771365881 0 0.46918642870160698 -0.38365020197922722 0 0.45606522570456098 -0.38599652494351028 0 0.46918642870160698 -0.38365020197922722 0 0.45606522570456098 -0.38599652494351028 0 0.46812846895096999 -0.38912968091376021 0 0.46461049463358839 -0.41117161714406408 0 0.47664864143922919 -0.39842171428208217 0 0.45329728287846061 -0.39963099679296588 0 0.47664864143922919 -0.39842171428208217 0 0.45329728287846061 -0.39963099679296588 0 0.47664864143922919 -0.39842171428208217 0 0.46812846895096999 -0.38912968091376021 0 0.45329728287846061 -0.39963099679296588 0 0.46461049463358839 -0.41117161714406408 0 0.45329728287846061 -0.39963099679296588 0 0.45606522570456098 -0.38599652494351028 0 0.46812846895096999 -0.38912968091376021 0 0.45329728287846061 -0.39963099679296588 0 0.45693362330993059 -0.41584542252527262 0 0.45329728287846061 -0.39963099679296588 0 0.4354004349648965 -0.40055780990002432 0 0.45329728287846061 -0.39963099679296588 0 0.4354004349648965 -0.40055780990002432 0 0.45329728287846061 -0.39963099679296588 0 0.4390969294492823 -0.3851451998924304 0 0.4354004349648965 -0.40055780990002432 0 0.45329728287846061 -0.39963099679296588 0 0.4390969294492823 -0.3851451998924304 0 0.45606522570456098 -0.38599652494351028 0 0.4390969294492823 -0.3851451998924304 0 0.44783900322824399 -0.38008781189722518 0 0.45606522570456098 -0.38599652494351028 0 0.45329728287846061 -0.39963099679296588 0 0.4390969294492823 -0.3851451998924304 0 0.4390969294492823 -0.3851451998924304 0 0.43808065797110041 -0.37748478958974491 0 0.44783900322824399 -0.38008781189722518 0 0.42782015831496062 -0.38505662608606978 0 0.4354004349648965 -0.40055780990002432 0 0.41188669282555868 -0.38386409155992901 0 0.42489657602010461 -0.37065940299189432 0 0.4390969294492823 -0.3851451998924304 0 0.42782015831496062 -0.38505662608606978 0 0.42489657602010461 -0.37065940299189432 0 0.4390969294492823 -0.3851451998924304 0 0.43808065797110041 -0.37748478958974491 0 0.42489657602010461 -0.37065940299189432 0 0.4390969294492823 -0.3851451998924304 0 0.4390969294492823 -0.3851451998924304 0 0.42782015831496062 -0.38505662608606978 0 0.4354004349648965 -0.40055780990002432 0 0.4354004349648965 -0.40055780990002432 0 0.41188669282555868 -0.38386409155992901 0 0.4354004349648965 -0.40055780990002432 0 0.40669862042327182 -0.40204417319942209 0 0.4354004349648965 -0.40055780990002432 0 0.40669862042327182 -0.40204417319942209 0 0.41188669282555868 -0.38386409155992901 0 0.42489657602010461 -0.37065940299189432 0 0.42782015831496062 -0.38505662608606978 0 0.41188669282555868 -0.38386409155992901 0 0.42489657602010461 -0.37065940299189432 0 0.4070765621089808 -0.37107032214525337 0 0.41188669282555868 -0.38386409155992901 0 0.4070765621089808 -0.37107032214525337 0 0.39585190457779329 -0.37201308858561799 0 0.39886607975096749 -0.38470810625682389 0 0.40669862042327182 -0.40204417319942209 0 0.41188669282555868 -0.38386409155992901 0 0.39886607975096749 -0.38470810625682389 0 0.4070765621089808 -0.37107032214525337 0 0.41188669282555868 -0.38386409155992901 0 0.39886607975096749 -0.38470810625682389 0 0.39585190457779329 -0.37201308858561799 0 0.39886607975096749 -0.38470810625682389 0 0.38601585554704992 -0.38244526212700758 0 0.39886607975096749 -0.38470810625682389 0 0.38601585554704992 -0.38244526212700758 0 0.37799680588164719 -0.40353053649882148 0 0.38601585554704992 -0.38244526212700758 0 0.37799680588164719 -0.40353053649882148 0 0.38601585554704992 -0.38244526212700758 0 0.37799680588164719 -0.40353053649882148 0 0.36816388811638329 -0.39545065246060412 0 0.37799680588164719 -0.40353053649882148 0 0.37635446215448021 -0.40784891206015261 0 0.37799680588164719 -0.40353053649882148 0 0.37505152225636262 -0.40368306209891941 0 0.37635446215448021 -0.40784891206015261 0 0.37799680588164719 -0.40353053649882148 0 0.37505152225636262 -0.40368306209891941 0 0.40669862042327182 -0.40204417319942209 0 0.39886607975096749 -0.38470810625682389 0 0.37799680588164719 -0.40353053649882148 0 0.40669862042327182 -0.40204417319942209 0 0.37799680588164719 -0.40353053649882148 0 0.40669862042327182 -0.40204417319942209 0 0.38553791301154328 -0.41840677215457472 0 0.40567792500840172 -0.4277251834563135 0 0.40669862042327182 -0.40204417319942209 0 0.37799680588164719 -0.40353053649882148 0 0.38553791301154328 -0.41840677215457472 0 0.38553791301154328 -0.41840677215457472 0 0.36905142820508552 -0.42917232846767789 0 0.37241381966677689 -0.417360225696081 0 0.38553791301154328 -0.41840677215457472 0 0.37635446215448021 -0.40784891206015261 0 0.37241381966677689 -0.417360225696081 0 0.37799680588164719 -0.40353053649882148 0 0.38553791301154328 -0.41840677215457472 0 0.37635446215448021 -0.40784891206015261 0 0.38553791301154328 -0.41840677215457472 0 0.38807715457860831 -0.4388905332329941 0 0.36905142820508552 -0.42917232846767789 0 0.38553791301154328 -0.41840677215457472 0 0.40567792500840172 -0.4277251834563135 0 0.38807715457860831 -0.4388905332329941 0 0.40567792500840172 -0.4277251834563135 0 0.42351101069396863 -0.41893046606618117 0 0.42653452723640378 -0.44279137365393179 0 0.4354004349648965 -0.40055780990002432 0 0.40669862042327182 -0.40204417319942209 0 0.42351101069396863 -0.41893046606618117 0 0.40669862042327182 -0.40204417319942209 0 0.40567792500840172 -0.4277251834563135 0 0.42351101069396863 -0.41893046606618117 0 0.44324354583686831 -0.42153379012121539 0 0.4354004349648965 -0.40055780990002432 0 0.42351101069396863 -0.41893046606618117 0 0.44324354583686831 -0.42153379012121539 0 0.42653452723640378 -0.44279137365393179 0 0.44324354583686831 -0.42153379012121539 0 0.42351101069396863 -0.41893046606618117 0 0.42653452723640378 -0.44279137365393179 0 0.44442683605218691 -0.44583817528272968 0 0.42653452723640378 -0.44279137365393179 0 0.43057418754349119 -0.46211781715143319 0 0.42653452723640378 -0.44279137365393179 0 0.43057418754349119 -0.46211781715143319 0 0.40982550863593931 -0.46404895718664829 0 0.42653452723640378 -0.44279137365393179 0 0.40982550863593931 -0.46404895718664829 0 0.42653452723640378 -0.44279137365393179 0 0.40982550863593931 -0.46404895718664829 0 0.4036378289262339 -0.44671034290208689 0 0.40567792500840172 -0.4277251834563135 0 0.42653452723640378 -0.44279137365393179 0 0.4036378289262339 -0.44671034290208689 0 0.40567792500840172 -0.4277251834563135 0 0.4036378289262339 -0.44671034290208689 0 0.38807715457860831 -0.4388905332329941 0 0.4036378289262339 -0.44671034290208689 0 0.38807715457860831 -0.4388905332329941 0 0.38807402917181633 -0.46009566698054732 0 0.38807715457860831 -0.4388905332329941 0 0.3733961412993268 -0.45022493016754961 0 0.36905142820508552 -0.42917232846767789 0 0.38807715457860831 -0.4388905332329941 0 0.38807402917181633 -0.46009566698054732 0 0.3733961412993268 -0.45022493016754961 0 0.38807402917181633 -0.46009566698054732 0 0.36593927904035028 -0.47432204071884282 0 0.3733961412993268 -0.45022493016754961 0 0.40982550863593931 -0.46404895718664829 0 0.4036378289262339 -0.44671034290208689 0 0.38807402917181633 -0.46009566698054732 0 0.40982550863593931 -0.46404895718664829 0 0.39311649003547477 -0.48530654071936469 0 0.40982550863593931 -0.46404895718664829 0 0.38807402917181633 -0.46009566698054732 0 0.39311649003547477 -0.48530654071936469 0 0.38807402917181633 -0.46009566698054732 0 0.39311649003547477 -0.48530654071936469 0 0.36593927904035028 -0.47432204071884282 0 0.37603974257992701 -0.49999999999999978 0 0.39311649003547477 -0.48530654071936469 0 0.36593927904035028 -0.47432204071884282 0 0.37603974257992701 -0.49999999999999978 0 0.39676616081738958 -0.5 0 0.39311649003547477 -0.48530654071936469 0 0.39676616081738958 -0.5 0 0.39311649003547477 -0.48530654071936469 0 0.41749257905485199 -0.50000000000000033 0 0.40982550863593931 -0.46404895718664829 0 0.41749257905485199 -0.50000000000000033 0 0.43264288253940292 -0.48275234633568048 0 0.40982550863593931 -0.46404895718664829 0 0.39311649003547477 -0.48530654071936469 0 0.41749257905485199 -0.50000000000000033 0 0.43057418754349119 -0.46211781715143319 0 0.40982550863593931 -0.46404895718664829 0 0.43264288253940292 -0.48275234633568048 0 0.44779318602395363 -0.46550469267136052 0 0.43057418754349119 -0.46211781715143319 0 0.43264288253940292 -0.48275234633568048 0 0.41749257905485199 -0.50000000000000033 0 0.43264288253940292 -0.48275234633568048 0 0.32215468257820618 -0.5 0 0.33760568703239408 -0.47417818032706111 0 0.31005432530219129 -0.48106067464861729 0 0.33760568703239408 -0.47417818032706111 0 0.3189449745883719 -0.46117016543644002 0 0.31005432530219129 -0.48106067464861729 0 0.32215468257820618 -0.5 0 0.33760568703239408 -0.47417818032706111 0 0.34909721257906662 -0.5 0 0.37603974257992701 -0.49999999999999978 0 0.34909721257906662 -0.5 0 0.36593927904035028 -0.47432204071884282 0 0.37603974257992701 -0.49999999999999978 0 0.36593927904035028 -0.47432204071884282 0 0.33760568703239408 -0.47417818032706111 0 0.34909721257906662 -0.5 0 0.36593927904035028 -0.47432204071884282 0 0.33760568703239408 -0.47417818032706111 0 0.36593927904035028 -0.47432204071884282 0 0.35583881550077368 -0.44864408143768569 0 0.36593927904035028 -0.47432204071884282 0 0.35583881550077368 -0.44864408143768569 0 0.36593927904035028 -0.47432204071884282 0 0.3733961412993268 -0.45022493016754961 0 0.35583881550077368 -0.44864408143768569 0 0.3733961412993268 -0.45022493016754961 0 0.35583881550077368 -0.44864408143768569 0 0.36905142820508552 -0.42917232846767789 0 0.35583881550077368 -0.44864408143768569 0 0.33540415989768779 -0.44905252560006492 0 0.34573835196119679 -0.42296612215652868 0 0.33760568703239408 -0.47417818032706111 0 0.35583881550077368 -0.44864408143768569 0 0.33540415989768779 -0.44905252560006492 0 0.33760568703239408 -0.47417818032706111 0 0.33540415989768779 -0.44905252560006492 0 0.3189449745883719 -0.46117016543644002 0 0.33540415989768779 -0.44905252560006492 0 0.3189449745883719 -0.46117016543644002 0 0.32126124445813709 -0.43429719032362252 0 0.3189449745883719 -0.46117016543644002 0 0.32126124445813709 -0.43429719032362252 0 0.30480654487456732 -0.44641521679941309 0 0.32126124445813709 -0.43429719032362252 0 0.3193156137706864 -0.40941365839269389 0 0.29937418247959258 -0.41817563384508599 0 0.3193156137706864 -0.40941365839269389 0 0.34573835196119679 -0.42296612215652868 0 0.33563788842162012 -0.39728816287537172 0 0.34573835196119679 -0.42296612215652868 0 0.33563788842162012 -0.39728816287537172 0 0.33540415989768779 -0.44905252560006492 0 0.32126124445813709 -0.43429719032362252 0 0.34573835196119679 -0.42296612215652868 0 0.32126124445813709 -0.43429719032362252 0 0.3193156137706864 -0.40941365839269389 0 0.34573835196119679 -0.42296612215652868 0 0.35583881550077368 -0.44864408143768569 0 0.34573835196119679 -0.42296612215652868 0 0.36905142820508552 -0.42917232846767789 0 0.35583881550077368 -0.44864408143768569 0 0.34573835196119679 -0.42296612215652868 0 0.36905142820508552 -0.42917232846767789 0 0.37241381966677689 -0.417360225696081 0 0.36195200988480669 -0.41065981681110758 0 0.36990343230398692 -0.40830781576793279 0 0.37241381966677689 -0.417360225696081 0 0.36195200988480669 -0.41065981681110758 0 0.37635446215448021 -0.40784891206015261 0 0.36990343230398692 -0.40830781576793279 0 0.37241381966677689 -0.417360225696081 0 0.37505152225636262 -0.40368306209891941 0 0.37635446215448021 -0.40784891206015261 0 0.36990343230398692 -0.40830781576793279 0 0.36990343230398692 -0.40830781576793279 0 0.36195200988480669 -0.41065981681110758 0 0.36876771314038492 -0.40452533678464098 0 0.34573835196119679 -0.42296612215652868 0 0.36195200988480669 -0.41065981681110758 0 0.35211107663302149 -0.40015425695529971 0 0.34573835196119679 -0.42296612215652868 0 0.36905142820508552 -0.42917232846767789 0 0.36195200988480669 -0.41065981681110758 0 0.34573835196119679 -0.42296612215652868 0 0.35211107663302149 -0.40015425695529971 0 0.33563788842162012 -0.39728816287537172 0 0.35211107663302149 -0.40015425695529971 0 0.35352794608594401 -0.38791341326287138 0 0.33563788842162012 -0.39728816287537172 0 0.35211107663302149 -0.40015425695529971 0 0.36816388811638329 -0.39545065246060412 0 0.35352794608594401 -0.38791341326287138 0 0.36195200988480669 -0.41065981681110758 0 0.36816388811638329 -0.39545065246060412 0 0.36876771314038492 -0.40452533678464098 0 0.36195200988480669 -0.41065981681110758 0 0.35211107663302149 -0.40015425695529971 0 0.36816388811638329 -0.39545065246060412 0 0.37505152225636262 -0.40368306209891941 0 0.36816388811638329 -0.39545065246060412 0 0.36876771314038492 -0.40452533678464098 0 0.37799680588164719 -0.40353053649882148 0 0.37505152225636262 -0.40368306209891941 0 0.36816388811638329 -0.39545065246060412 0 0.37505152225636262 -0.40368306209891941 0 0.36990343230398692 -0.40830781576793279 0 0.36876771314038492 -0.40452533678464098 0 0.38601585554704992 -0.38244526212700758 0 0.36816388811638329 -0.39545065246060412 0 0.3689120952668708 -0.37284951495870189 0 0.36816388811638329 -0.39545065246060412 0 0.35352794608594401 -0.38791341326287138 0 0.3689120952668708 -0.37284951495870189 0 0.35352794608594401 -0.38791341326287138 0 0.33563788842162012 -0.39728816287537172 0 0.34467783115022588 -0.37252705130409253 0 0.35352794608594401 -0.38791341326287138 0 0.3689120952668708 -0.37284951495870189 0 0.34467783115022588 -0.37252705130409253 0 0.33563788842162012 -0.39728816287537172 0 0.3255374248820434 -0.37161020359421471 0 0.33563788842162012 -0.39728816287537172 0 0.34467783115022588 -0.37252705130409253 0 0.3255374248820434 -0.37161020359421471 0 0.3193156137706864 -0.40941365839269389 0 0.33563788842162012 -0.39728816287537172 0 0.30534853388527528 -0.38930881101125692 0 0.33563788842162012 -0.39728816287537172 0 0.30534853388527528 -0.38930881101125692 0 0.3255374248820434 -0.37161020359421471 0 0.30534853388527528 -0.38930881101125692 0 0.3255374248820434 -0.37161020359421471 0 0.30525369772634148 -0.37164386163485291 0 0.30534853388527528 -0.38930881101125692 0 0.28783989868818821 -0.37644057584389279 0 0.30525369772634148 -0.37164386163485291 0 0.3193156137706864 -0.40941365839269389 0 0.30534853388527528 -0.38930881101125692 0 0.29937418247959258 -0.41817563384508599 0 0.30534853388527528 -0.38930881101125692 0 0.28922044672054198 -0.39637746652331562 0 0.29937418247959258 -0.41817563384508599 0 0.28922044672054198 -0.39637746652331562 0 0.27510086349567708 -0.39798721671617321 0 0.28320928432356041 -0.41012407252970262 0 0.28922044672054198 -0.39637746652331562 0 0.28783989868818821 -0.37644057584389279 0 0.27924907625512951 -0.38731579260330862 0 0.30534853388527528 -0.38930881101125692 0 0.28922044672054198 -0.39637746652331562 0 0.28783989868818821 -0.37644057584389279 0 0.30534853388527528 -0.38930881101125692 0 0.28783989868818821 -0.37644057584389279 0 0.28783989868818821 -0.37644057584389279 0 0.27447250226623809 -0.37821124143188289 0 0.27924907625512951 -0.38731579260330862 0 0.27447250226623809 -0.37821124143188289 0 0.27924907625512951 -0.38731579260330862 0 0.26961167010500181 -0.38756246250127813 0 0.27447250226623809 -0.37821124143188289 0 0.26961167010500181 -0.38756246250127813 0 0.26423397132697279 -0.37890457124200982 0 0.26961167010500181 -0.38756246250127813 0 0.26423397132697279 -0.37890457124200982 0 0.25687819372407023 -0.38903915957053298 0 0.26423397132697279 -0.37890457124200982 0 0.25687819372407023 -0.38903915957053298 0 0.24987622704845311 -0.37613765202982719 0 0.25108303853213881 -0.40002667887407228 0 0.26390234922262928 -0.39930308446362528 0 0.256136481120742 -0.41447562176841068 0 0.25687819372407023 -0.38903915957053298 0 0.25108303853213881 -0.40002667887407228 0 0.24309899287842279 -0.39271330151873202 0 0.25687819372407023 -0.38903915957053298 0 0.25108303853213881 -0.40002667887407228 0 0.26390234922262928 -0.39930308446362528 0 0.26961167010500181 -0.38756246250127813 0 0.25687819372407023 -0.38903915957053298 0 0.26390234922262928 -0.39930308446362528 0 0.26390234922262928 -0.39930308446362528 0 0.27510086349567708 -0.39798721671617321 0 0.2708804648698091 -0.41009655218672442 0 0.26961167010500181 -0.38756246250127813 0 0.26390234922262928 -0.39930308446362528 0 0.27510086349567708 -0.39798721671617321 0 0.28922044672054198 -0.39637746652331562 0 0.27924907625512951 -0.38731579260330862 0 0.27510086349567708 -0.39798721671617321 0 0.27924907625512951 -0.38731579260330862 0 0.26961167010500181 -0.38756246250127813 0 0.27510086349567708 -0.39798721671617321 0 0.27510086349567708 -0.39798721671617321 0 0.2708804648698091 -0.41009655218672442 0 0.28320928432356041 -0.41012407252970262 0 0.2708804648698091 -0.41009655218672442 0 0.256136481120742 -0.41447562176841068 0 0.27433621812851161 -0.42550461519375637 0 0.2708804648698091 -0.41009655218672442 0 0.27433621812851161 -0.42550461519375637 0 0.28320928432356041 -0.41012407252970262 0 0.26390234922262928 -0.39930308446362528 0 0.2708804648698091 -0.41009655218672442 0 0.256136481120742 -0.41447562176841068 0 0.25108303853213881 -0.40002667887407228 0 0.256136481120742 -0.41447562176841068 0 0.24629253832767661 -0.41022035877505542 0 0.256136481120742 -0.41447562176841068 0 0.25513396950241118 -0.43290986753561628 0 0.2453827316299185 -0.42192330194190181 0 0.256136481120742 -0.41447562176841068 0 0.25513396950241118 -0.43290986753561628 0 0.27433621812851161 -0.42550461519375637 0 0.25513396950241118 -0.43290986753561628 0 0.27433621812851161 -0.42550461519375637 0 0.26752346795397081 -0.44788636482661331 0 0.27433621812851161 -0.42550461519375637 0 0.29937418247959258 -0.41817563384508599 0 0.28546596250580908 -0.44246723239800262 0 0.29937418247959258 -0.41817563384508599 0 0.30480654487456732 -0.44641521679941309 0 0.28546596250580908 -0.44246723239800262 0 0.28922044672054198 -0.39637746652331562 0 0.28320928432356041 -0.41012407252970262 0 0.29937418247959258 -0.41817563384508599 0 0.27433621812851161 -0.42550461519375637 0 0.28320928432356041 -0.41012407252970262 0 0.29937418247959258 -0.41817563384508599 0 0.32126124445813709 -0.43429719032362252 0 0.29937418247959258 -0.41817563384508599 0 0.30480654487456732 -0.44641521679941309 0 0.3189449745883719 -0.46117016543644002 0 0.30480654487456732 -0.44641521679941309 0 0.28880919487484108 -0.4658549053918814 0 0.30480654487456732 -0.44641521679941309 0 0.28880919487484108 -0.4658549053918814 0 0.28546596250580908 -0.44246723239800262 0 0.27433621812851161 -0.42550461519375637 0 0.28546596250580908 -0.44246723239800262 0 0.26752346795397081 -0.44788636482661331 0 0.28880919487484108 -0.4658549053918814 0 0.28546596250580908 -0.44246723239800262 0 0.26752346795397081 -0.44788636482661331 0 0.25513396950241118 -0.43290986753561628 0 0.26752346795397081 -0.44788636482661331 0 0.24480843210435321 -0.45079661158300749 0 0.26752346795397081 -0.44788636482661331 0 0.2588368117714554 -0.46700690363883102 0 0.24480843210435321 -0.45079661158300749 0 0.28880919487484108 -0.4658549053918814 0 0.26752346795397081 -0.44788636482661331 0 0.2588368117714554 -0.46700690363883102 0 0.28880919487484108 -0.4658549053918814 0 0.2588368117714554 -0.46700690363883102 0 0.27227655507569209 -0.48076744006000099 0 0.2588368117714554 -0.46700690363883102 0 0.27227655507569209 -0.48076744006000099 0 0.25270961841775552 -0.48460016746525392 0 0.2588368117714554 -0.46700690363883102 0 0.25270961841775552 -0.48460016746525392 0 0.23949561189523169 -0.47426551941090739 0 0.25270961841775552 -0.48460016746525392 0 0.26826962257648529 -0.5 0 0.2413270925756249 -0.5 0 0.27227655507569209 -0.48076744006000099 0 0.25270961841775552 -0.48460016746525392 0 0.26826962257648529 -0.5 0 0.27227655507569209 -0.48076744006000099 0 0.26826962257648529 -0.5 0 0.29521215257734579 -0.5 0 0.28880919487484108 -0.4658549053918814 0 0.27227655507569209 -0.48076744006000099 0 0.29521215257734579 -0.5 0 0.28880919487484108 -0.4658549053918814 0 0.29521215257734579 -0.5 0 0.31005432530219129 -0.48106067464861729 0 0.3189449745883719 -0.46117016543644002 0 0.28880919487484108 -0.4658549053918814 0 0.31005432530219129 -0.48106067464861729 0 0.32215468257820618 -0.5 0 0.29521215257734579 -0.5 0 0.31005432530219129 -0.48106067464861729 0 0.33463237856908817 -0.28956894479377399 0 0.33485830675890288 -0.30442904333306592 0 0.35657459314761941 -0.2860097891906741 0 0.33463237856908817 -0.28956894479377399 0 0.32894302133540282 -0.28710755170783531 0 0.35195887039823659 -0.28200771363307098 0 0.32894302133540282 -0.28710755170783531 0 0.35195887039823659 -0.28200771363307098 0 0.32894302133540282 -0.28710755170783531 0 0.33255663915089151 -0.29722249741805129 0 0.33463237856908817 -0.28956894479377399 0 0.32894302133540282 -0.28710755170783531 0 0.33255663915089151 -0.29722249741805129 0 0.32894302133540282 -0.28710755170783531 0 0.33255663915089151 -0.29722249741805129 0 0.32301709761150521 -0.2972128627914089 0 0.33485830675890288 -0.30442904333306592 0 0.34824447571033601 -0.30253517369681238 0 0.34533870308018377 -0.31598934501886372 0 0.33485830675890288 -0.30442904333306592 0 0.33255663915089151 -0.29722249741805129 0 0.32434770264142349 -0.30499280498860082 0 0.33463237856908817 -0.28956894479377399 0 0.33485830675890288 -0.30442904333306592 0 0.33255663915089151 -0.29722249741805129 0 0.32301709761150521 -0.2972128627914089 0 0.32434770264142349 -0.30499280498860082 0 0.3171485971304504 -0.30589952111326829 0 0.32434770264142349 -0.30499280498860082 0 0.3171485971304504 -0.30589952111326829 0 0.31314202037018413 -0.32284829747545468 0 0.33485830675890288 -0.30442904333306592 0 0.32434770264142349 -0.30499280498860082 0 0.31314202037018413 -0.32284829747545468 0 0.33255663915089151 -0.29722249741805129 0 0.32301709761150521 -0.2972128627914089 0 0.32434770264142349 -0.30499280498860082 0 0.3171485971304504 -0.30589952111326829 0 0.31208952779935789 -0.2908419387292881 0 0.30833746379913463 -0.30503745501229762 0 0.32301709761150521 -0.2972128627914089 0 0.3171485971304504 -0.30589952111326829 0 0.31208952779935789 -0.2908419387292881 0 0.32894302133540282 -0.28710755170783531 0 0.31611371382327402 -0.28007222207304999 0 0.31208952779935789 -0.2908419387292881 0 0.32894302133540282 -0.28710755170783531 0 0.32301709761150521 -0.2972128627914089 0 0.31208952779935789 -0.2908419387292881 0 0.32894302133540282 -0.28710755170783531 0 0.31208952779935789 -0.2908419387292881 0 0.32894302133540282 -0.28710755170783531 0 0.32245882367699719 -0.26895751187574157 0 0.32894302133540282 -0.28710755170783531 0 0.31611371382327402 -0.28007222207304999 0 0.32245882367699719 -0.26895751187574157 0 0.31611371382327402 -0.28007222207304999 0 0.32245882367699719 -0.26895751187574157 0 0.30706455279928557 -0.27339796693147528 0 0.32245882367699719 -0.26895751187574157 0 0.30981211567343969 -0.26250129009931661 0 0.30706455279928557 -0.27339796693147528 0 0.32245882367699719 -0.26895751187574157 0 0.31597462601859122 -0.25080747204364812 0 0.32245882367699719 -0.26895751187574157 0 0.31597462601859122 -0.25080747204364812 0 0.30981211567343969 -0.26250129009931661 0 0.32245882367699719 -0.26895751187574157 0 0.31597462601859122 -0.25080747204364812 0 0.33396674820841349 -0.26640759283836002 0 0.31597462601859122 -0.25080747204364812 0 0.33396674820841349 -0.26640759283836002 0 0.33517615116993849 -0.24743488902137309 0 0.33396674820841349 -0.26640759283836002 0 0.35185333732921159 -0.25428502110151557 0 0.33517615116993849 -0.24743488902137309 0 0.31597462601859122 -0.25080747204364812 0 0.33396674820841349 -0.26640759283836002 0 0.32894302133540282 -0.28710755170783531 0 0.32245882367699719 -0.26895751187574157 0 0.33396674820841349 -0.26640759283836002 0 0.33396674820841349 -0.26640759283836002 0 0.35195887039823659 -0.28200771363307098 0 0.32894302133540282 -0.28710755170783531 0 0.33396674820841349 -0.26640759283836002 0 0.35195887039823659 -0.28200771363307098 0 0.33396674820841349 -0.26640759283836002 0 0.35159414215374007 -0.26901089914998932 0 0.35195887039823659 -0.28200771363307098 0 0.35159414215374007 -0.26901089914998932 0 0.36459381448795669 -0.2792080702757721 0 0.35195887039823659 -0.28200771363307098 0 0.36459381448795669 -0.2792080702757721 0 0.35195887039823659 -0.28200771363307098 0 0.33396674820841349 -0.26640759283836002 0 0.35159414215374007 -0.26901089914998932 0 0.35185333732921159 -0.25428502110151557 0 0.35159414215374007 -0.26901089914998932 0 0.35185333732921159 -0.25428502110151557 0 0.36435388824524378 -0.26651308148643732 0 0.37477580018058132 -0.24095111383496479 0 0.37683953433427181 -0.26882153263446662 0 0.36563983252638571 -0.25462703483095822 0 0.36075586336603621 -0.2426037127049111 0 0.35185333732921159 -0.25428502110151557 0 0.36563983252638571 -0.25462703483095822 0 0.35185333732921159 -0.25428502110151557 0 0.36563983252638571 -0.25462703483095822 0 0.36435388824524378 -0.26651308148643732 0 0.37683953433427181 -0.26882153263446662 0 0.36563983252638571 -0.25462703483095822 0 0.36435388824524378 -0.26651308148643732 0 0.36459381448795669 -0.2792080702757721 0 0.36308990924476459 -0.28048364807874221 0 0.35195887039823659 -0.28200771363307098 0 0.36459381448795669 -0.2792080702757721 0 0.36308990924476459 -0.28048364807874221 0 0.37273728942595791 -0.27740364396778311 0 0.36459381448795669 -0.2792080702757721 0 0.36308990924476459 -0.28048364807874221 0 0.35159414215374007 -0.26901089914998932 0 0.36459381448795669 -0.2792080702757721 0 0.36435388824524378 -0.26651308148643732 0 0.37683953433427181 -0.26882153263446662 0 0.36459381448795669 -0.2792080702757721 0 0.36435388824524378 -0.26651308148643732 0 0.36459381448795669 -0.2792080702757721 0 0.37273728942595791 -0.27740364396778311 0 0.37683953433427181 -0.26882153263446662 0 0.36459381448795669 -0.2792080702757721 0 0.37273728942595791 -0.27740364396778311 0 0.37683953433427181 -0.26882153263446662 0 0.36459381448795669 -0.2792080702757721 0 0.36308990924476459 -0.28048364807874221 0 0.37273728942595791 -0.27740364396778311 0 0.37795999762798671 -0.28395322059410122 0 0.37273728942595791 -0.27740364396778311 0 0.36936745264149701 -0.28627283508716472 0 0.35657459314761941 -0.2860097891906741 0 0.35620629985463748 -0.30371251724464648 0 0.37101427446782781 -0.29852975601036341 0 0.36308990924476459 -0.28048364807874221 0 0.37273728942595791 -0.27740364396778311 0 0.36936745264149701 -0.28627283508716472 0 0.37519981906117678 -0.29055939022370142 0 0.37795999762798671 -0.28395322059410122 0 0.36936745264149701 -0.28627283508716472 0 0.37519981906117678 -0.29055939022370142 0 0.36936745264149701 -0.28627283508716472 0 0.37101427446782781 -0.29852975601036341 0 0.36936745264149701 -0.28627283508716472 0 0.35657459314761941 -0.2860097891906741 0 0.37101427446782781 -0.29852975601036341 0 0.35657459314761941 -0.2860097891906741 0 0.37101427446782781 -0.29852975601036341 0 0.36308990924476459 -0.28048364807874221 0 0.36936745264149701 -0.28627283508716472 0 0.35657459314761941 -0.2860097891906741 0 0.36308990924476459 -0.28048364807874221 0 0.35657459314761941 -0.2860097891906741 0 0.36308990924476459 -0.28048364807874221 0 0.35366972758071469 -0.28349111722646431 0 0.33463237856908817 -0.28956894479377399 0 0.35366972758071469 -0.28349111722646431 0 0.33463237856908817 -0.28956894479377399 0 0.35366972758071469 -0.28349111722646431 0 0.35195887039823659 -0.28200771363307098 0 0.36308990924476459 -0.28048364807874221 0 0.35366972758071469 -0.28349111722646431 0 0.35195887039823659 -0.28200771363307098 0 0.33485830675890288 -0.30442904333306592 0 0.35657459314761941 -0.2860097891906741 0 0.36308990924476459 -0.28048364807874221 0 0.35366972758071469 -0.28349111722646431 0 0.35657459314761941 -0.2860097891906741 0 0.33463237856908817 -0.28956894479377399 0 0.35366972758071469 -0.28349111722646431 0 0.35657459314761941 -0.2860097891906741 0 0.35366972758071469 -0.28349111722646431 0 0.35657459314761941 -0.2860097891906741 0 0.35366972758071469 -0.28349111722646431 0 0.35195887039823659 -0.28200771363307098 0 0.35620629985463748 -0.30371251724464648 0 0.36380134767337091 -0.31365371592763602 0 0.34533870308018377 -0.31598934501886372 0 0.35657459314761941 -0.2860097891906741 0 0.34824447571033601 -0.30253517369681238 0 0.35620629985463748 -0.30371251724464648 0 0.33485830675890288 -0.30442904333306592 0 0.35657459314761941 -0.2860097891906741 0 0.34824447571033601 -0.30253517369681238 0 0.34824447571033601 -0.30253517369681238 0 0.35620629985463748 -0.30371251724464648 0 0.34533870308018377 -0.31598934501886372 0 0.38545395578803499 -0.31104972283005378 0 0.37101427446782781 -0.29852975601036341 0 0.36380134767337091 -0.31365371592763602 0 0.35620629985463748 -0.30371251724464648 0 0.37101427446782781 -0.29852975601036341 0 0.36380134767337091 -0.31365371592763602 0 0.38545395578803499 -0.31104972283005378 0 0.36380134767337091 -0.31365371592763602 0 0.36945761595668469 -0.32738841673247931 0 0.36380134767337091 -0.31365371592763602 0 0.36945761595668469 -0.32738841673247931 0 0.35533723689285712 -0.32525253772940937 0 0.36945761595668469 -0.32738841673247931 0 0.35618710249729552 -0.34088690244721892 0 0.35533723689285712 -0.32525253772940937 0 0.36945761595668469 -0.32738841673247931 0 0.35618710249729552 -0.34088690244721892 0 0.37368731816096312 -0.34897020548070451 0 0.35618710249729552 -0.34088690244721892 0 0.33810128782584858 -0.35072533414536311 0 0.34064131712366241 -0.33181983138849169 0 0.35618710249729552 -0.34088690244721892 0 0.35533723689285712 -0.32525253772940937 0 0.34064131712366241 -0.33181983138849169 0 0.34533870308018377 -0.31598934501886372 0 0.35533723689285712 -0.32525253772940937 0 0.34064131712366241 -0.33181983138849169 0 0.36380134767337091 -0.31365371592763602 0 0.34533870308018377 -0.31598934501886372 0 0.35533723689285712 -0.32525253772940937 0 0.3689120952668708 -0.37284951495870189 0 0.37368731816096312 -0.34897020548070451 0 0.35738528973841999 -0.35772904562383351 0 0.35618710249729552 -0.34088690244721892 0 0.37368731816096312 -0.34897020548070451 0 0.35738528973841999 -0.35772904562383351 0 0.35618710249729552 -0.34088690244721892 0 0.35738528973841999 -0.35772904562383351 0 0.33810128782584858 -0.35072533414536311 0 0.35738528973841999 -0.35772904562383351 0 0.34467783115022588 -0.37252705130409253 0 0.33810128782584858 -0.35072533414536311 0 0.3689120952668708 -0.37284951495870189 0 0.35738528973841999 -0.35772904562383351 0 0.34467783115022588 -0.37252705130409253 0 0.34467783115022588 -0.37252705130409253 0 0.33810128782584858 -0.35072533414536311 0 0.3255374248820434 -0.37161020359421471 0 0.31543696134246668 -0.34593224431305769 0 0.3255374248820434 -0.37161020359421471 0 0.30900602422585888 -0.35865430802761772 0 0.31543696134246668 -0.34593224431305769 0 0.3255374248820434 -0.37161020359421471 0 0.33810128782584858 -0.35072533414536311 0 0.31543696134246668 -0.34593224431305769 0 0.3255374248820434 -0.37161020359421471 0 0.3255374248820434 -0.37161020359421471 0 0.30525369772634148 -0.37164386163485291 0 0.30900602422585888 -0.35865430802761772 0 0.34533870308018377 -0.31598934501886372 0 0.33130220335757699 -0.32186248444176119 0 0.34064131712366241 -0.33181983138849169 0 0.33485830675890288 -0.30442904333306592 0 0.34533870308018377 -0.31598934501886372 0 0.33130220335757699 -0.32186248444176119 0 0.33810128782584858 -0.35072533414536311 0 0.34064131712366241 -0.33181983138849169 0 0.3268430880468266 -0.33457206034663262 0 0.33130220335757699 -0.32186248444176119 0 0.34064131712366241 -0.33181983138849169 0 0.3268430880468266 -0.33457206034663262 0 0.31543696134246668 -0.34593224431305769 0 0.3268430880468266 -0.33457206034663262 0 0.31314202037018413 -0.32284829747545468 0 0.33810128782584858 -0.35072533414536311 0 0.31543696134246668 -0.34593224431305769 0 0.3268430880468266 -0.33457206034663262 0 0.33130220335757699 -0.32186248444176119 0 0.3268430880468266 -0.33457206034663262 0 0.31314202037018413 -0.32284829747545468 0 0.33485830675890288 -0.30442904333306592 0 0.31314202037018413 -0.32284829747545468 0 0.3171485971304504 -0.30589952111326829 0 0.31314202037018413 -0.32284829747545468 0 0.3109911447756647 -0.31350988965823029 0 0.33485830675890288 -0.30442904333306592 0 0.33130220335757699 -0.32186248444176119 0 0.31314202037018413 -0.32284829747545468 0 0.31314202037018413 -0.32284829747545468 0 0.30533649780288991 -0.32025428503190068 0 0.3109911447756647 -0.31350988965823029 0 0.30533649780288991 -0.32025428503190068 0 0.3109911447756647 -0.31350988965823029 0 0.30833746379913463 -0.30503745501229762 0 0.31543696134246668 -0.34593224431305769 0 0.30533649780288991 -0.32025428503190068 0 0.30314188851555429 -0.3464145030398364 0 0.30533649780288991 -0.32025428503190068 0 0.29792146783109758 -0.32077626486014349 0 0.30314188851555429 -0.3464145030398364 0 0.31543696134246668 -0.34593224431305769 0 0.31314202037018413 -0.32284829747545468 0 0.30533649780288991 -0.32025428503190068 0 0.29792146783109758 -0.32077626486014349 0 0.30314188851555429 -0.3464145030398364 0 0.31543696134246668 -0.34593224431305769 0 0.30533649780288991 -0.32025428503190068 0 0.29792146783109758 -0.32077626486014349 0 0.29422135484035322 -0.33366994296298719 0 0.30314188851555429 -0.3464145030398364 0 0.29422135484035322 -0.33366994296298719 0 0.29546103181119637 -0.34185893253319311 0 0.30314188851555429 -0.3464145030398364 0 0.29422135484035322 -0.33366994296298719 0 0.29546103181119637 -0.34185893253319311 0 0.28827175492889229 -0.34275780055790278 0 0.29546103181119637 -0.34185893253319311 0 0.28827175492889229 -0.34275780055790278 0 0.29811044553331972 -0.34650788457159087 0 0.29422135484035322 -0.33366994296298719 0 0.28827175492889229 -0.34275780055790278 0 0.27955848846152698 -0.33666113426449551 0 0.29422135484035322 -0.33366994296298719 0 0.28744860979629389 -0.32474860906702402 0 0.27955848846152698 -0.33666113426449551 0 0.28744860979629389 -0.32474860906702402 0 0.29019889155513462 -0.31620785207956748 0 0.28097437988070417 -0.31138482246715898 0 0.29792146783109758 -0.32077626486014349 0 0.29019889155513462 -0.31620785207956748 0 0.29244758100571983 -0.32385066724243061 0 0.29422135484035322 -0.33366994296298719 0 0.28744860979629389 -0.32474860906702402 0 0.29244758100571983 -0.32385066724243061 0 0.29792146783109758 -0.32077626486014349 0 0.29422135484035322 -0.33366994296298719 0 0.29244758100571983 -0.32385066724243061 0 0.28744860979629389 -0.32474860906702402 0 0.29019889155513462 -0.31620785207956748 0 0.29244758100571983 -0.32385066724243061 0 0.30525369772634148 -0.37164386163485291 0 0.30031449930387721 -0.36082981960256849 0 0.30900602422585888 -0.35865430802761772 0 0.30525369772634148 -0.37164386163485291 0 0.30031449930387721 -0.36082981960256849 0 0.29483415024835152 -0.36747827247447862 0 0.30080593951138668 -0.35381036279877531 0 0.30900602422585888 -0.35865430802761772 0 0.30314188851555429 -0.3464145030398364 0 0.30080593951138668 -0.35381036279877531 0 0.29811044553331972 -0.34650788457159087 0 0.29345683997832372 -0.35664529875226292 0 0.30031449930387721 -0.36082981960256849 0 0.30080593951138668 -0.35381036279877531 0 0.30900602422585888 -0.35865430802761772 0 0.30031449930387721 -0.36082981960256849 0 0.30080593951138668 -0.35381036279877531 0 0.29345683997832372 -0.35664529875226292 0 0.31543696134246668 -0.34593224431305769 0 0.30900602422585888 -0.35865430802761772 0 0.30314188851555429 -0.3464145030398364 0 0.30080593951138668 -0.35381036279877531 0 0.30314188851555429 -0.3464145030398364 0 0.29811044553331972 -0.34650788457159087 0 0.29546103181119637 -0.34185893253319311 0 0.30314188851555429 -0.3464145030398364 0 0.29811044553331972 -0.34650788457159087 0 0.29811044553331972 -0.34650788457159087 0 0.29345683997832372 -0.35664529875226292 0 0.28122462644821988 -0.35688066365974619 0 0.28827175492889229 -0.34275780055790278 0 0.29811044553331972 -0.34650788457159087 0 0.28122462644821988 -0.35688066365974619 0 0.28827175492889229 -0.34275780055790278 0 0.28122462644821988 -0.35688066365974619 0 0.27955848846152698 -0.33666113426449551 0 0.29811044553331972 -0.34650788457159087 0 0.28122462644821988 -0.35688066365974619 0 0.29345683997832372 -0.35664529875226292 0 0.28676543400443838 -0.36101512068260139 0 0.28122462644821988 -0.35688066365974619 0 0.28676543400443838 -0.36101512068260139 0 0.28122462644821988 -0.35688066365974619 0 0.28783989868818821 -0.37644057584389279 0 0.30525369772634148 -0.37164386163485291 0 0.29483415024835152 -0.36747827247447862 0 0.28783989868818821 -0.37644057584389279 0 0.28676543400443838 -0.36101512068260139 0 0.27033126349110148 -0.36357234067652822 0 0.29357505063040601 -0.36145191270551408 0 0.28676543400443838 -0.36101512068260139 0 0.29483415024835152 -0.36747827247447862 0 0.30031449930387721 -0.36082981960256849 0 0.29357505063040601 -0.36145191270551408 0 0.29483415024835152 -0.36747827247447862 0 0.30031449930387721 -0.36082981960256849 0 0.29345683997832372 -0.35664529875226292 0 0.29357505063040601 -0.36145191270551408 0 0.29345683997832372 -0.35664529875226292 0 0.29357505063040601 -0.36145191270551408 0 0.28676543400443838 -0.36101512068260139 0 0.28783989868818821 -0.37644057584389279 0 0.28676543400443838 -0.36101512068260139 0 0.29483415024835152 -0.36747827247447862 0 0.28783989868818821 -0.37644057584389279 0 0.27033126349110148 -0.36357234067652822 0 0.28783989868818821 -0.37644057584389279 0 0.27447250226623809 -0.37821124143188289 0 0.27033126349110148 -0.36357234067652822 0 0.28676543400443838 -0.36101512068260139 0 0.27033126349110148 -0.36357234067652822 0 0.28122462644821988 -0.35688066365974619 0 0.27447250226623809 -0.37821124143188289 0 0.26423397132697279 -0.37890457124200982 0 0.27033126349110148 -0.36357234067652822 0 0.27033126349110148 -0.36357234067652822 0 0.28122462644821988 -0.35688066365974619 0 0.28122462644821988 -0.35688066365974619 0 0.26082083375001269 -0.34165569813656432 0 0.27033126349110148 -0.36357234067652822 0 0.28122462644821988 -0.35688066365974619 0 0.26082083375001269 -0.34165569813656432 0 0.28122462644821988 -0.35688066365974619 0 0.27955848846152698 -0.33666113426449551 0 0.26082083375001269 -0.34165569813656432 0 0.27033126349110148 -0.36357234067652822 0 0.25099839141978419 -0.34936335514031408 0 0.27033126349110148 -0.36357234067652822 0 0.25099839141978419 -0.34936335514031408 0 0.26082083375001269 -0.34165569813656432 0 0.27033126349110148 -0.36357234067652822 0 0.25099839141978419 -0.34936335514031408 0 0.24534349961555019 -0.36253701182870851 0 0.26423397132697279 -0.37890457124200982 0 0.27033126349110148 -0.36357234067652822 0 0.24987622704845311 -0.37613765202982719 0 0.27033126349110148 -0.36357234067652822 0 0.24534349961555019 -0.36253701182870851 0 0.24987622704845311 -0.37613765202982719 0 0.27033126349110148 -0.36357234067652822 0 0.24987622704845311 -0.37613765202982719 0 0.28744860979629389 -0.32474860906702402 0 0.26598899428458778 -0.32103793389256657 0 0.27955848846152698 -0.33666113426449551 0 0.28744860979629389 -0.32474860906702402 0 0.26598899428458778 -0.32103793389256657 0 0.28097437988070417 -0.31138482246715898 0 0.26598899428458778 -0.32103793389256657 0 0.27955848846152698 -0.33666113426449551 0 0.26082083375001269 -0.34165569813656432 0 0.26082083375001269 -0.34165569813656432 0 0.2404170410518052 -0.32643073261338312 0 0.26598899428458778 -0.32103793389256657 0 0.26082083375001269 -0.34165569813656432 0 0.2404170410518052 -0.32643073261338312 0 0.25099839141978419 -0.34936335514031408 0 0.26082083375001269 -0.34165569813656432 0 0.2404170410518052 -0.32643073261338312 0 0.26598899428458778 -0.32103793389256657 0 0.24423538898563429 -0.30587701823941071 0 0.2404170410518052 -0.32643073261338312 0 0.26846821806613752 -0.30050752245993012 0 0.24423538898563429 -0.30587701823941071 0 0.25301376652256202 -0.2892367573709661 0 0.26846821806613752 -0.30050752245993012 0 0.24423538898563429 -0.30587701823941071 0 0.26598899428458778 -0.32103793389256657 0 0.26846821806613752 -0.30050752245993012 0 0.24423538898563429 -0.30587701823941071 0 0.25301376652256202 -0.2892367573709661 0 0.26500420865911251 -0.28331687632378699 0 0.26846821806613752 -0.30050752245993012 0 0.25301376652256202 -0.2892367573709661 0 0.26500420865911251 -0.28331687632378699 0 0.2507153324002197 -0.27704953531328702 0 0.26500420865911251 -0.28331687632378699 0 0.27805302037335089 -0.28584974436810762 0 0.26846821806613752 -0.30050752245993012 0 0.27805302037335089 -0.28584974436810762 0 0.26846821806613752 -0.30050752245993012 0 0.29270104714664102 -0.29513802668045069 0 0.26500420865911251 -0.28331687632378699 0 0.27805302037335089 -0.28584974436810762 0 0.27342558025451552 -0.27498979272208851 0 0.26598899428458778 -0.32103793389256657 0 0.26846821806613752 -0.30050752245993012 0 0.28097437988070417 -0.31138482246715898 0 0.26846821806613752 -0.30050752245993012 0 0.28097437988070417 -0.31138482246715898 0 0.29270104714664102 -0.29513802668045069 0 0.26846821806613752 -0.30050752245993012 0 0.29270104714664102 -0.29513802668045069 0 0.29792146783109758 -0.32077626486014349 0 0.29270104714664102 -0.29513802668045069 0 0.29019889155513462 -0.31620785207956748 0 0.28097437988070417 -0.31138482246715898 0 0.29270104714664102 -0.29513802668045069 0 0.29792146783109758 -0.32077626486014349 0 0.29019889155513462 -0.31620785207956748 0 0.29270104714664102 -0.29513802668045069 0 0.29792146783109758 -0.32077626486014349 0 0.29270104714664102 -0.29513802668045069 0 0.29523603426331357 -0.29457632575074338 0 0.27805302037335089 -0.28584974436810762 0 0.29026987947112831 -0.28319821192468808 0 0.29270104714664102 -0.29513802668045069 0 0.27805302037335089 -0.28584974436810762 0 0.29026987947112831 -0.28319821192468808 0 0.28863308206368682 -0.27515966401439529 0 0.29026987947112831 -0.28319821192468808 0 0.29523603426331357 -0.29457632575074338 0 0.29026987947112831 -0.28319821192468808 0 0.29523603426331357 -0.29457632575074338 0 0.30320790951940702 -0.28313078900162059 0 0.29026987947112831 -0.28319821192468808 0 0.29270104714664102 -0.29513802668045069 0 0.29523603426331357 -0.29457632575074338 0 0.29026987947112831 -0.28319821192468808 0 0.29270104714664102 -0.29513802668045069 0 0.29270104714664102 -0.29513802668045069 0 0.29523603426331357 -0.29457632575074338 0 0.29523603426331357 -0.29457632575074338 0 0.31208952779935789 -0.2908419387292881 0 0.29523603426331357 -0.29457632575074338 0 0.30320790951940702 -0.28313078900162059 0 0.31208952779935789 -0.2908419387292881 0 0.29523603426331357 -0.29457632575074338 0 0.31208952779935789 -0.2908419387292881 0 0.30833746379913463 -0.30503745501229762 0 0.31611371382327402 -0.28007222207304999 0 0.30320790951940702 -0.28313078900162059 0 0.31208952779935789 -0.2908419387292881 0 0.30533649780288991 -0.32025428503190068 0 0.29523603426331357 -0.29457632575074338 0 0.30833746379913463 -0.30503745501229762 0 0.30533649780288991 -0.32025428503190068 0 0.29792146783109758 -0.32077626486014349 0 0.29523603426331357 -0.29457632575074338 0 0.30533649780288991 -0.32025428503190068 0 0.29523603426331357 -0.29457632575074338 0 0.3171485971304504 -0.30589952111326829 0 0.3109911447756647 -0.31350988965823029 0 0.30833746379913463 -0.30503745501229762 0 0.29812220868357159 -0.26533402464574418 0 0.30111904597271899 -0.2536098058489899 0 0.30981211567343969 -0.26250129009931661 0 0.31597462601859122 -0.25080747204364812 0 0.30111904597271899 -0.2536098058489899 0 0.30981211567343969 -0.26250129009931661 0 0.29812220868357159 -0.26533402464574418 0 0.30981211567343969 -0.26250129009931661 0 0.30706455279928557 -0.27339796693147528 0 0.31611371382327402 -0.28007222207304999 0 0.30320790951940702 -0.28313078900162059 0 0.30706455279928557 -0.27339796693147528 0 0.29026987947112831 -0.28319821192468808 0 0.30320790951940702 -0.28313078900162059 0 0.29755036247591721 -0.27602563541609298 0 0.30320790951940702 -0.28313078900162059 0 0.30706455279928557 -0.27339796693147528 0 0.29755036247591721 -0.27602563541609298 0 0.29812220868357159 -0.26533402464574418 0 0.30706455279928557 -0.27339796693147528 0 0.29755036247591721 -0.27602563541609298 0 0.29812220868357159 -0.26533402464574418 0 0.29755036247591721 -0.27602563541609298 0 0.28863308206368682 -0.27515966401439529 0 0.29026987947112831 -0.28319821192468808 0 0.28863308206368682 -0.27515966401439529 0 0.29026987947112831 -0.28319821192468808 0 0.29755036247591721 -0.27602563541609298 0 0.28863308206368682 -0.27515966401439529 0 0.28863308206368682 -0.27515966401439529 0 0.28456511698073272 -0.25518130134833977 0 0.29812220868357159 -0.26533402464574418 0 0.28863308206368682 -0.27515966401439529 0 0.28456511698073272 -0.25518130134833977 0 0.29812220868357159 -0.26533402464574418 0 0.30111904597271899 -0.2536098058489899 0 0.28456511698073272 -0.25518130134833977 0 0.28863308206368682 -0.27515966401439529 0 0.28456511698073272 -0.25518130134833977 0 0.27223885194073971 -0.26265851400849172 0 0.28456511698073272 -0.25518130134833977 0 0.27223885194073971 -0.26265851400849172 0 0.26629969424128969 -0.25192769388052821 0 0.27223885194073971 -0.26265851400849172 0 0.26629969424128969 -0.25192769388052821 0 0.2629172406837702 -0.26740365320709081 0 0.26500420865911251 -0.28331687632378699 0 0.27342558025451552 -0.27498979272208851 0 0.2629172406837702 -0.26740365320709081 0 0.28863308206368682 -0.27515966401439529 0 0.27223885194073971 -0.26265851400849172 0 0.27342558025451552 -0.27498979272208851 0 0.27805302037335089 -0.28584974436810762 0 0.28863308206368682 -0.27515966401439529 0 0.27342558025451552 -0.27498979272208851 0 0.27223885194073971 -0.26265851400849172 0 0.27342558025451552 -0.27498979272208851 0 0.2629172406837702 -0.26740365320709081 0 0.26500420865911251 -0.28331687632378699 0 0.2629172406837702 -0.26740365320709081 0 0.2507153324002197 -0.27704953531328702 0 0.2629172406837702 -0.26740365320709081 0 0.2507153324002197 -0.27704953531328702 0 0.2466218950091964 -0.26012473444713258 0 0.25037283077400019 -0.2416092145933311 0 0.26629969424128969 -0.25192769388052821 0 0.2466218950091964 -0.26012473444713258 0 0.26629969424128969 -0.25192769388052821 0 0.2629172406837702 -0.26740365320709081 0 0.2466218950091964 -0.26012473444713258 0 0.25037283077400019 -0.2416092145933311 0 0.2466218950091964 -0.26012473444713258 0 0.2339549802858914 -0.24933471903745599 0 0.2466218950091964 -0.26012473444713258 0 0.22717476572977791 -0.26325637954660608 0 0.2339549802858914 -0.24933471903745599 0 0.2466218950091964 -0.26012473444713258 0 0.23628574795648369 -0.27498419313581679 0 0.22717476572977791 -0.26325637954660608 0 0.2507153324002197 -0.27704953531328702 0 0.2466218950091964 -0.26012473444713258 0 0.23628574795648369 -0.27498419313581679 0 0.2507153324002197 -0.27704953531328702 0 0.23628574795648369 -0.27498419313581679 0 0.24044913557019401 -0.28723099739492908 0 0.2247339410531527 -0.27667652802353632 0 0.21554844428562811 -0.26491471108287651 0 0.21653111649902579 -0.28712771180040292 0 0.23628574795648369 -0.27498419313581679 0 0.2247339410531527 -0.27667652802353632 0 0.22717476572977791 -0.26325637954660608 0 0.2247339410531527 -0.27667652802353632 0 0.22717476572977791 -0.26325637954660608 0 0.21554844428562811 -0.26491471108287651 0 0.22717476572977791 -0.26325637954660608 0 0.22331750647786899 -0.25281133177650322 0 0.2339549802858914 -0.24933471903745599 0 0.22717476572977791 -0.26325637954660608 0 0.22331750647786899 -0.25281133177650322 0 0.21554844428562811 -0.26491471108287651 0 0.2084475354763706 -0.25511513831035743 0 0.21554844428562811 -0.26491471108287651 0 0.1982966667633215 -0.26354120971092698 0 0.21554844428562811 -0.26491471108287651 0 0.21456577207223029 -0.24270171036535029 0 0.22331750647786899 -0.25281133177650322 0 0.21554844428562811 -0.26491471108287651 0 0.21456577207223029 -0.24270171036535029 0 0.2084475354763706 -0.25511513831035743 0 0.21554844428562811 -0.26491471108287651 0 0.21336353465090491 -0.24693864317134839 0 0.21554844428562811 -0.26491471108287651 0 0.21336353465090491 -0.24693864317134839 0 0.21456577207223029 -0.24270171036535029 0 0.2084475354763706 -0.25511513831035743 0 0.1982966667633215 -0.26354120971092698 0 0.2080714594183444 -0.2424179483002232 0 0.1982966667633215 -0.26354120971092698 0 0.2080714594183444 -0.2424179483002232 0 0.21554844428562811 -0.26491471108287651 0 0.21653111649902579 -0.28712771180040292 0 0.21554844428562811 -0.26491471108287651 0 0.20859607852913339 -0.28093905456482821 0 0.21653111649902579 -0.28712771180040292 0 0.21554844428562811 -0.26491471108287651 0 0.20859607852913339 -0.28093905456482821 0 0.2011380539128553 -0.27767933622792518 0 0.21554844428562811 -0.26491471108287651 0 0.2011380539128553 -0.27767933622792518 0 0.1982966667633215 -0.26354120971092698 0 0.1982966667633215 -0.26354120971092698 0 0.18852187410829821 -0.28466447112163068 0 0.1982966667633215 -0.26354120971092698 0 0.18852187410829821 -0.28466447112163068 0 0.1845366839674035 -0.26640487959885623 0 0.2011380539128553 -0.27767933622792518 0 0.1982966667633215 -0.26354120971092698 0 0.18852187410829821 -0.28466447112163068 0 0.1982966667633215 -0.26354120971092698 0 0.2080714594183444 -0.2424179483002232 0 0.19254414318066221 -0.24961624770678509 0 0.1982966667633215 -0.26354120971092698 0 0.18706352147094041 -0.25756661524031438 0 0.1845366839674035 -0.26640487959885623 0 0.1982966667633215 -0.26354120971092698 0 0.18706352147094041 -0.25756661524031438 0 0.19254414318066221 -0.24961624770678509 0 0.18706352147094041 -0.25756661524031438 0 0.19254414318066221 -0.24961624770678509 0 0.18399505531774341 -0.24981832115951039 0 0.20249447748908611 -0.29813355613580778 0 0.1976485991634879 -0.30796138879627621 0 0.19462594870140809 -0.30164723750547567 0 0.20249447748908611 -0.29813355613580778 0 0.19462594870140809 -0.30164723750547567 0 0.19392418081794471 -0.29575522021664652 0 0.20249447748908611 -0.29813355613580778 0 0.1976485991634879 -0.30796138879627621 0 0.20782414549410869 -0.30817847155873718 0 0.1976485991634879 -0.30796138879627621 0 0.20782414549410869 -0.30817847155873718 0 0.20282381327660201 -0.31505297042611552 0 0.1976485991634879 -0.30796138879627621 0 0.19009702279388629 -0.3064242775921906 0 0.18802618722583669 -0.31833181955932999 0 0.1976485991634879 -0.30796138879627621 0 0.19009702279388629 -0.3064242775921906 0 0.19462594870140809 -0.30164723750547567 0 0.19009702279388629 -0.3064242775921906 0 0.19462594870140809 -0.30164723750547567 0 0.1880606218677118 -0.30022154946313712 0 0.19462594870140809 -0.30164723750547567 0 0.19110113081553529 -0.29631368747161629 0 0.19392418081794471 -0.29575522021664652 0 0.1880606218677118 -0.30022154946313712 0 0.19110113081553529 -0.29631368747161629 0 0.18734834214976739 -0.29514628785519947 0 0.19462594870140809 -0.30164723750547567 0 0.1880606218677118 -0.30022154946313712 0 0.19110113081553529 -0.29631368747161629 0 0.20249447748908611 -0.29813355613580778 0 0.18747516626574931 -0.28692639975368628 0 0.20249447748908611 -0.29813355613580778 0 0.19392418081794471 -0.29575522021664652 0 0.18747516626574931 -0.28692639975368628 0 0.19110113081553529 -0.29631368747161629 0 0.19392418081794471 -0.29575522021664652 0 0.18747516626574931 -0.28692639975368628 0 0.19110113081553529 -0.29631368747161629 0 0.18747516626574931 -0.28692639975368628 0 0.18734834214976739 -0.29514628785519947 0 0.18852187410829821 -0.28466447112163068 0 0.19787122383615691 -0.29172525818392958 0 0.18852187410829821 -0.28466447112163068 0 0.19731262536099689 -0.28481999283041842 0 0.19787122383615691 -0.29172525818392958 0 0.18852187410829821 -0.28466447112163068 0 0.19787122383615691 -0.29172525818392958 0 0.18747516626574931 -0.28692639975368628 0 0.18852187410829821 -0.28466447112163068 0 0.18747516626574931 -0.28692639975368628 0 0.2011380539128553 -0.27767933622792518 0 0.18852187410829821 -0.28466447112163068 0 0.19731262536099689 -0.28481999283041842 0 0.201719349586677 -0.2852109057881882 0 0.19787122383615691 -0.29172525818392958 0 0.206049533411369 -0.28982701925762389 0 0.19731262536099689 -0.28481999283041842 0 0.201719349586677 -0.2852109057881882 0 0.19787122383615691 -0.29172525818392958 0 0.2011380539128553 -0.27767933622792518 0 0.19731262536099689 -0.28481999283041842 0 0.201719349586677 -0.2852109057881882 0 0.20249447748908611 -0.29813355613580778 0 0.19787122383615691 -0.29172525818392958 0 0.18747516626574931 -0.28692639975368628 0 0.20249447748908611 -0.29813355613580778 0 0.19787122383615691 -0.29172525818392958 0 0.206049533411369 -0.28982701925762389 0 0.20249447748908611 -0.29813355613580778 0 0.206049533411369 -0.28982701925762389 0 0.20903552332543929 -0.29406903275804652 0 0.206049533411369 -0.28982701925762389 0 0.20903552332543929 -0.29406903275804652 0 0.21653111649902579 -0.28712771180040292 0 0.20249447748908611 -0.29813355613580778 0 0.20903552332543929 -0.29406903275804652 0 0.2123558614978226 -0.29827812898856709 0 0.20859607852913339 -0.28093905456482821 0 0.206049533411369 -0.28982701925762389 0 0.21653111649902579 -0.28712771180040292 0 0.20859607852913339 -0.28093905456482821 0 0.201719349586677 -0.2852109057881882 0 0.206049533411369 -0.28982701925762389 0 0.20859607852913339 -0.28093905456482821 0 0.2011380539128553 -0.27767933622792518 0 0.201719349586677 -0.2852109057881882 0 0.20903552332543929 -0.29406903275804652 0 0.21653111649902579 -0.28712771180040292 0 0.2123558614978226 -0.29827812898856709 0 0.21653111649902579 -0.28712771180040292 0 0.2175137887124228 -0.30934071251792922 0 0.21653111649902579 -0.28712771180040292 0 0.2123558614978226 -0.29827812898856709 0 0.2175137887124228 -0.30934071251792922 0 0.20249447748908611 -0.29813355613580778 0 0.2123558614978226 -0.29827812898856709 0 0.2175137887124228 -0.30934071251792922 0 0.20249447748908611 -0.29813355613580778 0 0.2175137887124228 -0.30934071251792922 0 0.20782414549410869 -0.30817847155873718 0 0.2176214393273678 -0.31177412129290383 0 0.20282381327660201 -0.31505297042611552 0 0.20249447748908611 -0.29813355613580778 0 0.20782414549410869 -0.30817847155873718 0 0.2175137887124228 -0.30934071251792922 0 0.20782414549410869 -0.30817847155873718 0 0.2175137887124228 -0.30934071251792922 0 0.2176214393273678 -0.31177412129290383 0 0.2175137887124228 -0.30934071251792922 0 0.2176214393273678 -0.31177412129290383 0 0.2175137887124228 -0.30934071251792922 0 0.2176214393273678 -0.31177412129290383 0 0.21999804566891551 -0.31122614102315033 0 0.21999804566891551 -0.31122614102315033 0 0.24423538898563429 -0.30587701823941071 0 0.2175137887124228 -0.30934071251792922 0 0.21999804566891551 -0.31122614102315033 0 0.22812963079484819 -0.29309964455197901 0 0.21999804566891551 -0.31122614102315033 0 0.22812963079484819 -0.29309964455197901 0 0.21999804566891551 -0.31122614102315033 0 0.22812963079484819 -0.29309964455197901 0 0.24423538898563429 -0.30587701823941071 0 0.2176214393273678 -0.31177412129290383 0 0.21999804566891551 -0.31122614102315033 0 0.2175137887124228 -0.30934071251792922 0 0.21999804566891551 -0.31122614102315033 0 0.23628574795648369 -0.27498419313581679 0 0.22812963079484819 -0.29309964455197901 0 0.2247339410531527 -0.27667652802353632 0 0.21653111649902579 -0.28712771180040292 0 0.22812963079484819 -0.29309964455197901 0 0.23628574795648369 -0.27498419313581679 0 0.2247339410531527 -0.27667652802353632 0 0.22812963079484819 -0.29309964455197901 0 0.21653111649902579 -0.28712771180040292 0 0.2175137887124228 -0.30934071251792922 0 0.22812963079484819 -0.29309964455197901 0 0.23628574795648369 -0.27498419313581679 0 0.22812963079484819 -0.29309964455197901 0 0.24044913557019401 -0.28723099739492908 0 0.25301376652256202 -0.2892367573709661 0 0.24044913557019401 -0.28723099739492908 0 0.24423538898563429 -0.30587701823941071 0 0.22812963079484819 -0.29309964455197901 0 0.24044913557019401 -0.28723099739492908 0 0.24423538898563429 -0.30587701823941071 0 0.25301376652256202 -0.2892367573709661 0 0.2507153324002197 -0.27704953531328702 0 0.24044913557019401 -0.28723099739492908 0 0.21999804566891551 -0.31122614102315033 0 0.24423538898563429 -0.30587701823941071 0 0.2404170410518052 -0.32643073261338312 0 0.25099839141978419 -0.34936335514031408 0 0.2316655193484673 -0.33515436960409939 0 0.25099839141978419 -0.34936335514031408 0 0.2404170410518052 -0.32643073261338312 0 0.2316655193484673 -0.33515436960409939 0 0.2404170410518052 -0.32643073261338312 0 0.2316655193484673 -0.33515436960409939 0 0.2247705650129608 -0.32491873692320528 0 0.2316655193484673 -0.33515436960409939 0 0.22208049410379579 -0.34309390150507102 0 0.22867514261462599 -0.34782526071452929 0 0.2316655193484673 -0.33515436960409939 0 0.22208049410379579 -0.34309390150507102 0 0.220555537226792 -0.33578323097752499 0 0.22208049410379579 -0.34309390150507102 0 0.220555537226792 -0.33578323097752499 0 0.21451162402718699 -0.34512658597487872 0 0.220555537226792 -0.33578323097752499 0 0.2247705650129608 -0.32491873692320528 0 0.21820242441149371 -0.32490710899175251 0 0.2316655193484673 -0.33515436960409939 0 0.220555537226792 -0.33578323097752499 0 0.2247705650129608 -0.32491873692320528 0 0.21999804566891551 -0.31122614102315033 0 0.2404170410518052 -0.32643073261338312 0 0.2247705650129608 -0.32491873692320528 0 0.21999804566891551 -0.31122614102315033 0 0.2404170410518052 -0.32643073261338312 0 0.2247705650129608 -0.32491873692320528 0 0.21780935440599439 -0.31602188338433101 0 0.21820242441149371 -0.32490710899175251 0 0.21999804566891551 -0.31122614102315033 0 0.2247705650129608 -0.32491873692320528 0 0.21780935440599439 -0.31602188338433101 0 0.21999804566891551 -0.31122614102315033 0 0.21780935440599439 -0.31602188338433101 0 0.23679608458568241 -0.3713456781615978 0 0.24534349961555019 -0.36253701182870851 0 0.24987622704845311 -0.37613765202982719 0 0.23679608458568241 -0.3713456781615978 0 0.24534349961555019 -0.36253701182870851 0 0.23133102347449649 -0.35950822589080189 0 0.25099839141978419 -0.34936335514031408 0 0.2316655193484673 -0.33515436960409939 0 0.23760271529458479 -0.35087764463569071 0 0.24534349961555019 -0.36253701182870851 0 0.23760271529458479 -0.35087764463569071 0 0.23133102347449649 -0.35950822589080189 0 0.25099839141978419 -0.34936335514031408 0 0.24534349961555019 -0.36253701182870851 0 0.23760271529458479 -0.35087764463569071 0 0.2316655193484673 -0.33515436960409939 0 0.23760271529458479 -0.35087764463569071 0 0.22867514261462599 -0.34782526071452929 0 0.22208049410379579 -0.34309390150507102 0 0.22076837523631451 -0.35267920974236072 0 0.21451162402718699 -0.34512658597487872 0 0.22208049410379579 -0.34309390150507102 0 0.22867514261462599 -0.34782526071452929 0 0.22076837523631451 -0.35267920974236072 0 0.22076837523631451 -0.35267920974236072 0 0.22341137818785181 -0.36337688942730773 0 0.21609027172906259 -0.36087537471117581 0 0.22076837523631451 -0.35267920974236072 0 0.23133102347449649 -0.35950822589080189 0 0.22341137818785181 -0.36337688942730773 0 0.22867514261462599 -0.34782526071452929 0 0.22076837523631451 -0.35267920974236072 0 0.23133102347449649 -0.35950822589080189 0 0.23760271529458479 -0.35087764463569071 0 0.22867514261462599 -0.34782526071452929 0 0.23133102347449649 -0.35950822589080189 0 0.23133102347449649 -0.35950822589080189 0 0.22341137818785181 -0.36337688942730773 0 0.22699371624108439 -0.37103399677892651 0 0.22341137818785181 -0.36337688942730773 0 0.22699371624108439 -0.37103399677892651 0 0.21663927632257499 -0.37152038636996992 0 0.22699371624108439 -0.37103399677892651 0 0.21663927632257499 -0.37152038636996992 0 0.22189277223980711 -0.38054577212349588 0 0.23679608458568241 -0.3713456781615978 0 0.22699371624108439 -0.37103399677892651 0 0.23010576568282681 -0.37607478874810818 0 0.23679608458568241 -0.3713456781615978 0 0.23133102347449649 -0.35950822589080189 0 0.22699371624108439 -0.37103399677892651 0 0.21663927632257499 -0.37152038636996992 0 0.20683644217058031 -0.36558797855932218 0 0.20576161095015591 -0.37595213443190167 0 0.22341137818785181 -0.36337688942730773 0 0.21663927632257499 -0.37152038636996992 0 0.21609027172906259 -0.36087537471117581 0 0.21609027172906259 -0.36087537471117581 0 0.20683644217058031 -0.36558797855932218 0 0.21089823393406021 -0.35324530101306001 0 0.21663927632257499 -0.37152038636996992 0 0.21609027172906259 -0.36087537471117581 0 0.20683644217058031 -0.36558797855932218 0 0.19940837682496099 -0.35689206815154528 0 0.20777431361625601 -0.33831058893907762 0 0.21089823393406021 -0.35324530101306001 0 0.19940837682496099 -0.35689206815154528 0 0.20777431361625601 -0.33831058893907762 0 0.20683644217058031 -0.36558797855932218 0 0.21089823393406021 -0.35324530101306001 0 0.19940837682496099 -0.35689206815154528 0 0.22076837523631451 -0.35267920974236072 0 0.21609027172906259 -0.36087537471117581 0 0.21089823393406021 -0.35324530101306001 0 0.21089823393406021 -0.35324530101306001 0 0.21451162402718699 -0.34512658597487872 0 0.20777431361625601 -0.33831058893907762 0 0.22076837523631451 -0.35267920974236072 0 0.21089823393406021 -0.35324530101306001 0 0.21451162402718699 -0.34512658597487872 0 0.1971616983813648 -0.34495631128618592 0 0.19940837682496099 -0.35689206815154528 0 0.20777431361625601 -0.33831058893907762 0 0.1971616983813648 -0.34495631128618592 0 0.18787137947787569 -0.35180034780069419 0 0.18864170350563411 -0.33720407153827198 0 0.1971616983813648 -0.34495631128618592 0 0.18787137947787569 -0.35180034780069419 0 0.19940837682496099 -0.35689206815154528 0 0.20683644217058031 -0.36558797855932218 0 0.20576161095015591 -0.37595213443190167 0 0.1910424400336663 -0.37547354736401328 0 0.18787137947787569 -0.35180034780069419 0 0.19940837682496099 -0.35689206815154528 0 0.1910424400336663 -0.37547354736401328 0 0.19940837682496099 -0.35689206815154528 0 0.1910424400336663 -0.37547354736401328 0 0.20683644217058031 -0.36558797855932218 0 0.19940837682496099 -0.35689206815154528 0 0.1910424400336663 -0.37547354736401328 0 0.21780935440599439 -0.31602188338433101 0 0.20777431361625601 -0.33831058893907762 0 0.21780935440599439 -0.31602188338433101 0 0.20777431361625601 -0.33831058893907762 0 0.20282381327660201 -0.31505297042611552 0 0.21780935440599439 -0.31602188338433101 0 0.21820242441149371 -0.32490710899175251 0 0.20777431361625601 -0.33831058893907762 0 0.2176214393273678 -0.31177412129290383 0 0.20282381327660201 -0.31505297042611552 0 0.2176214393273678 -0.31177412129290383 0 0.21780935440599439 -0.31602188338433101 0 0.20282381327660201 -0.31505297042611552 0 0.2176214393273678 -0.31177412129290383 0 0.21780935440599439 -0.31602188338433101 0 0.2176214393273678 -0.31177412129290383 0 0.21999804566891551 -0.31122614102315033 0 0.21780935440599439 -0.31602188338433101 0 0.21780935440599439 -0.31602188338433101 0 0.21820242441149371 -0.32490710899175251 0 0.220555537226792 -0.33578323097752499 0 0.21820242441149371 -0.32490710899175251 0 0.20777431361625601 -0.33831058893907762 0 0.220555537226792 -0.33578323097752499 0 0.21451162402718699 -0.34512658597487872 0 0.20777431361625601 -0.33831058893907762 0 0.21451162402718699 -0.34512658597487872 0 0.20777431361625601 -0.33831058893907762 0 0.1971616983813648 -0.34495631128618592 0 0.20777431361625601 -0.33831058893907762 0 0.18864170350563411 -0.33720407153827198 0 0.20777431361625601 -0.33831058893907762 0 0.18802618722583669 -0.31833181955932999 0 0.20777431361625601 -0.33831058893907762 0 0.18864170350563411 -0.33720407153827198 0 0.18802618722583669 -0.31833181955932999 0 0.20777431361625601 -0.33831058893907762 0 0.20282381327660201 -0.31505297042611552 0 0.18802618722583669 -0.31833181955932999 0 0.20282381327660201 -0.31505297042611552 0 0.18802618722583669 -0.31833181955932999 0 0.1976485991634879 -0.30796138879627621 0 0.20282381327660201 -0.31505297042611552 0 0.18802618722583669 -0.31833181955932999 0 0.18802618722583669 -0.31833181955932999 0 0.1791507244663583 -0.32983729973660558 0 0.16791254130802971 -0.3227885891963716 0 0.18802618722583669 -0.31833181955932999 0 0.17151825735526699 -0.31325416760549368 0 0.16791254130802971 -0.3227885891963716 0 0.18802618722583669 -0.31833181955932999 0 0.16791254130802971 -0.3227885891963716 0 0.18864170350563411 -0.33720407153827198 0 0.18802618722583669 -0.31833181955932999 0 0.1791507244663583 -0.32983729973660558 0 0.17202246582593331 -0.34102471865244838 0 0.1791507244663583 -0.32983729973660558 0 0.16791254130802971 -0.3227885891963716 0 0.18787137947787569 -0.35180034780069419 0 0.18864170350563411 -0.33720407153827198 0 0.17202246582593331 -0.34102471865244838 0 0.18864170350563411 -0.33720407153827198 0 0.17202246582593331 -0.34102471865244838 0 0.1791507244663583 -0.32983729973660558 0 0.17202246582593331 -0.34102471865244838 0 0.1546435437787094 -0.34381338892778002 0 0.1557586906108582 -0.32786840018592928 0 0.17202246582593331 -0.34102471865244838 0 0.16791254130802971 -0.3227885891963716 0 0.1557586906108582 -0.32786840018592928 0 0.16791254130802971 -0.3227885891963716 0 0.1557586906108582 -0.32786840018592928 0 0.1602411687519314 -0.31190927739118429 0 0.17151825735526699 -0.31325416760549368 0 0.16791254130802971 -0.3227885891963716 0 0.1602411687519314 -0.31190927739118429 0 0.18787137947787569 -0.35180034780069419 0 0.17662324672053431 -0.35795823269279659 0 0.1910424400336663 -0.37547354736401328 0 0.17662324672053431 -0.35795823269279659 0 0.17035242753357599 -0.36877211446365682 0 0.1910424400336663 -0.37547354736401328 0 0.17035242753357599 -0.36877211446365682 0 0.1910424400336663 -0.37547354736401328 0 0.1737051017910701 -0.38004230502140057 0 0.18787137947787569 -0.35180034780069419 0 0.17202246582593331 -0.34102471865244838 0 0.17662324672053431 -0.35795823269279659 0 0.17202246582593331 -0.34102471865244838 0 0.17662324672053431 -0.35795823269279659 0 0.16265844046108829 -0.35526087104265458 0 0.17202246582593331 -0.34102471865244838 0 0.16265844046108829 -0.35526087104265458 0 0.1546435437787094 -0.34381338892778002 0 0.17662324672053431 -0.35795823269279659 0 0.16265844046108829 -0.35526087104265458 0 0.17035242753357599 -0.36877211446365682 0 0.16265844046108829 -0.35526087104265458 0 0.1569593121701936 -0.36832063090657668 0 0.17035242753357599 -0.36877211446365682 0 0.1569593121701936 -0.36832063090657668 0 0.17035242753357599 -0.36877211446365682 0 0.16307541855137739 -0.37743582412871929 0 0.14536400873927011 -0.3681220756701501 0 0.1426630499740982 -0.35652090160864008 0 0.13524945632583441 -0.37311377610700652 0 0.16265844046108829 -0.35526087104265458 0 0.1569593121701936 -0.36832063090657668 0 0.1426630499740982 -0.35652090160864008 0 0.14536400873927011 -0.3681220756701501 0 0.13524945632583441 -0.37311377610700652 0 0.14973869037300869 -0.38096853745143089 0 0.1569593121701936 -0.36832063090657668 0 0.14536400873927011 -0.3681220756701501 0 0.14973869037300869 -0.38096853745143089 0 0.1569593121701936 -0.36832063090657668 0 0.14536400873927011 -0.3681220756701501 0 0.1426630499740982 -0.35652090160864008 0 0.1546435437787094 -0.34381338892778002 0 0.1426630499740982 -0.35652090160864008 0 0.1424354920479888 -0.33775294740649747 0 0.16265844046108829 -0.35526087104265458 0 0.1546435437787094 -0.34381338892778002 0 0.1426630499740982 -0.35652090160864008 0 0.13449730155472761 -0.34743155680512378 0 0.12784456261830821 -0.36308533366748658 0 0.123981461538115 -0.35128285539313481 0 0.1426630499740982 -0.35652090160864008 0 0.13449730155472761 -0.34743155680512378 0 0.1424354920479888 -0.33775294740649747 0 0.1426630499740982 -0.35652090160864008 0 0.13449730155472761 -0.34743155680512378 0 0.12784456261830821 -0.36308533366748658 0 0.13449730155472761 -0.34743155680512378 0 0.13051916655351839 -0.33696304048325831 0 0.123981461538115 -0.35128285539313481 0 0.1426630499740982 -0.35652090160864008 0 0.12784456261830821 -0.36308533366748658 0 0.13524945632583441 -0.37311377610700652 0 0.12784456261830821 -0.36308533366748658 0 0.13524945632583441 -0.37311377610700652 0 0.12609635470998201 -0.38402791619100712 0 0.14855409589738661 -0.31441038212804873 0 0.1557586906108582 -0.32786840018592928 0 0.1602411687519314 -0.31190927739118429 0 0.1445015266660287 -0.32337949759917511 0 0.14855409589738661 -0.31441038212804873 0 0.13871327718005111 -0.31332369293528212 0 0.1445015266660287 -0.32337949759917511 0 0.14855409589738661 -0.31441038212804873 0 0.1557586906108582 -0.32786840018592928 0 0.1546435437787094 -0.34381338892778002 0 0.1557586906108582 -0.32786840018592928 0 0.1424354920479888 -0.33775294740649747 0 0.1445015266660287 -0.32337949759917511 0 0.1557586906108582 -0.32786840018592928 0 0.1424354920479888 -0.33775294740649747 0 0.1445015266660287 -0.32337949759917511 0 0.1424354920479888 -0.33775294740649747 0 0.13219802669416811 -0.32498852212276208 0 0.1424354920479888 -0.33775294740649747 0 0.13051916655351839 -0.33696304048325831 0 0.13219802669416811 -0.32498852212276208 0 0.13449730155472761 -0.34743155680512378 0 0.1424354920479888 -0.33775294740649747 0 0.13051916655351839 -0.33696304048325831 0 0.13051916655351839 -0.33696304048325831 0 0.13219802669416811 -0.32498852212276208 0 0.12260601330919629 -0.33072698382653798 0 0.1445015266660287 -0.32337949759917511 0 0.13219802669416811 -0.32498852212276208 0 0.13871327718005111 -0.31332369293528212 0 0.13219802669416811 -0.32498852212276208 0 0.1265219532001009 -0.3124330460259736 0 0.1192961391526948 -0.32261879728377291 0 0.13219802669416811 -0.32498852212276208 0 0.13871327718005111 -0.31332369293528212 0 0.1265219532001009 -0.3124330460259736 0 0.1265219532001009 -0.3124330460259736 0 0.1332586495603032 -0.30031372317270688 0 0.1198701537204314 -0.30089140532399938 0 0.1332586495603032 -0.30031372317270688 0 0.1242383748246253 -0.29131174999725179 0 0.1198701537204314 -0.30089140532399938 0 0.13871327718005111 -0.31332369293528212 0 0.1265219532001009 -0.3124330460259736 0 0.1332586495603032 -0.30031372317270688 0 0.13871327718005111 -0.31332369293528212 0 0.1332586495603032 -0.30031372317270688 0 0.147245411062319 -0.30441698656302629 0 0.14855409589738661 -0.31441038212804873 0 0.13871327718005111 -0.31332369293528212 0 0.147245411062319 -0.30441698656302629 0 0.147245411062319 -0.30441698656302629 0 0.15432967412725099 -0.29846298066074151 0 0.14327492933615671 -0.29425024746867751 0 0.1332586495603032 -0.30031372317270688 0 0.147245411062319 -0.30441698656302629 0 0.14327492933615671 -0.29425024746867751 0 0.147245411062319 -0.30441698656302629 0 0.15432967412725099 -0.29846298066074151 0 0.1602411687519314 -0.31190927739118429 0 0.14855409589738661 -0.31441038212804873 0 0.147245411062319 -0.30441698656302629 0 0.1602411687519314 -0.31190927739118429 0 0.15432967412725099 -0.29846298066074151 0 0.1517600770447052 -0.28164214899084639 0 0.14327492933615671 -0.29425024746867751 0 0.1517600770447052 -0.28164214899084639 0 0.14327492933615671 -0.29425024746867751 0 0.13646338677899769 -0.28546266283427663 0 0.1332586495603032 -0.30031372317270688 0 0.14327492933615671 -0.29425024746867751 0 0.13646338677899769 -0.28546266283427663 0 0.1332586495603032 -0.30031372317270688 0 0.13646338677899769 -0.28546266283427663 0 0.1242383748246253 -0.29131174999725179 0 0.13646338677899769 -0.28546266283427663 0 0.1233023238440631 -0.28097148456094378 0 0.1242383748246253 -0.29131174999725179 0 0.1517600770447052 -0.28164214899084639 0 0.13646338677899769 -0.28546266283427663 0 0.1311170075682456 -0.27142576198599933 0 0.1517600770447052 -0.28164214899084639 0 0.1311170075682456 -0.27142576198599933 0 0.1364827709165429 -0.26618641562940759 0 0.13646338677899769 -0.28546266283427663 0 0.1311170075682456 -0.27142576198599933 0 0.1233023238440631 -0.28097148456094378 0 0.1311170075682456 -0.27142576198599933 0 0.1364827709165429 -0.26618641562940759 0 0.1212054647883809 -0.25073068226796852 0 0.1364827709165429 -0.26618641562940759 0 0.13217397618885759 -0.25462043987800831 0 0.1212054647883809 -0.25073068226796852 0 0.1364827709165429 -0.26618641562940759 0 0.1212054647883809 -0.25073068226796852 0 0.1364827709165429 -0.26618641562940759 0 0.13217397618885759 -0.25462043987800831 0 0.14275904560399111 -0.25945725309375861 0 0.13217397618885759 -0.25462043987800831 0 0.1429630926125974 -0.2502577086919005 0 0.14275904560399111 -0.25945725309375861 0 0.1429630926125974 -0.2502577086919005 0 0.16574248336044761 -0.26746108990676593 0 0.1429630926125974 -0.2502577086919005 0 0.15128247879849499 -0.26292486595599002 0 0.16574248336044761 -0.26746108990676593 0 0.1429630926125974 -0.2502577086919005 0 0.16574248336044761 -0.26746108990676593 0 0.16001236861667459 -0.2513654190734112 0 0.1429630926125974 -0.2502577086919005 0 0.14275904560399111 -0.25945725309375861 0 0.15128247879849499 -0.26292486595599002 0 0.1364827709165429 -0.26618641562940759 0 0.14275904560399111 -0.25945725309375861 0 0.15128247879849499 -0.26292486595599002 0 0.1517600770447052 -0.28164214899084639 0 0.1364827709165429 -0.26618641562940759 0 0.15128247879849499 -0.26292486595599002 0 0.1517600770447052 -0.28164214899084639 0 0.15128247879849499 -0.26292486595599002 0 0.15776774232478771 -0.26956647822523339 0 0.1517600770447052 -0.28164214899084639 0 0.1311170075682456 -0.27142576198599933 0 0.1517600770447052 -0.28164214899084639 0 0.1364827709165429 -0.26618641562940759 0 0.1517600770447052 -0.28164214899084639 0 0.16209364730358741 -0.27452888323759039 0 0.16594555478614451 -0.28284233368471318 0 0.1517600770447052 -0.28164214899084639 0 0.16209364730358741 -0.27452888323759039 0 0.15776774232478771 -0.26956647822523339 0 0.16209364730358741 -0.27452888323759039 0 0.15776774232478771 -0.26956647822523339 0 0.16574248336044761 -0.26746108990676593 0 0.15128247879849499 -0.26292486595599002 0 0.15776774232478771 -0.26956647822523339 0 0.16574248336044761 -0.26746108990676593 0 0.16209364730358741 -0.27452888323759039 0 0.16574248336044761 -0.26746108990676593 0 0.16920230535812411 -0.27329149954452342 0 0.16209364730358741 -0.27452888323759039 0 0.16920230535812411 -0.27329149954452342 0 0.16594555478614451 -0.28284233368471318 0 0.16920230535812411 -0.27329149954452342 0 0.1710222018321049 -0.28124575318360368 0 0.16594555478614451 -0.28284233368471318 0 0.16574248336044761 -0.26746108990676593 0 0.16001236861667459 -0.2513654190734112 0 0.16988601458932601 -0.2589500224365659 0 0.16574248336044761 -0.26746108990676593 0 0.16988601458932601 -0.2589500224365659 0 0.17628584543496439 -0.26683535894776161 0 0.16001236861667459 -0.2513654190734112 0 0.16988601458932601 -0.2589500224365659 0 0.16978669848249819 -0.25098739912941831 0 0.1767458594742066 -0.25730285456071711 0 0.17619278994504239 -0.24587918172992959 0 0.18399505531774341 -0.24981832115951039 0 0.16978669848249819 -0.25098739912941831 0 0.1767458594742066 -0.25730285456071711 0 0.17619278994504239 -0.24587918172992959 0 0.16988601458932601 -0.2589500224365659 0 0.16978669848249819 -0.25098739912941831 0 0.1767458594742066 -0.25730285456071711 0 0.16988601458932601 -0.2589500224365659 0 0.1767458594742066 -0.25730285456071711 0 0.17628584543496439 -0.26683535894776161 0 0.1767458594742066 -0.25730285456071711 0 0.17628584543496439 -0.26683535894776161 0 0.1845366839674035 -0.26640487959885623 0 0.1767458594742066 -0.25730285456071711 0 0.18706352147094041 -0.25756661524031438 0 0.1845366839674035 -0.26640487959885623 0 0.1767458594742066 -0.25730285456071711 0 0.18706352147094041 -0.25756661524031438 0 0.18399505531774341 -0.24981832115951039 0 0.18852187410829821 -0.28466447112163068 0 0.17628584543496439 -0.26683535894776161 0 0.1845366839674035 -0.26640487959885623 0 0.18852187410829821 -0.28466447112163068 0 0.16574248336044761 -0.26746108990676593 0 0.18852187410829821 -0.28466447112163068 0 0.16574248336044761 -0.26746108990676593 0 0.17628584543496439 -0.26683535894776161 0 0.16920230535812411 -0.27329149954452342 0 0.18747516626574931 -0.28692639975368628 0 0.17602993407772211 -0.2832030986568283 0 0.18852187410829821 -0.28466447112163068 0 0.16574248336044761 -0.26746108990676593 0 0.16920230535812411 -0.27329149954452342 0 0.16920230535812411 -0.27329149954452342 0 0.18747516626574931 -0.28692639975368628 0 0.16920230535812411 -0.27329149954452342 0 0.1710222018321049 -0.28124575318360368 0 0.17602993407772211 -0.2832030986568283 0 0.18747516626574931 -0.28692639975368628 0 0.1806905449634813 -0.28832929748571318 0 0.17602993407772211 -0.2832030986568283 0 0.18852187410829821 -0.28466447112163068 0 0.16920230535812411 -0.27329149954452342 0 0.18747516626574931 -0.28692639975368628 0 0.18747516626574931 -0.28692639975368628 0 0.1806905449634813 -0.28832929748571318 0 0.18301660310609241 -0.29114958545392738 0 0.17291101310642881 -0.28564608084835003 0 0.17864991096044419 -0.29495009963706692 0 0.16594555478614451 -0.28284233368471318 0 0.1806905449634813 -0.28832929748571318 0 0.17602993407772211 -0.2832030986568283 0 0.17673138357400531 -0.28840876668861409 0 0.17602993407772211 -0.2832030986568283 0 0.17673138357400531 -0.28840876668861409 0 0.17291101310642881 -0.28564608084835003 0 0.1710222018321049 -0.28124575318360368 0 0.17602993407772211 -0.2832030986568283 0 0.17291101310642881 -0.28564608084835003 0 0.17673138357400531 -0.28840876668861409 0 0.17291101310642881 -0.28564608084835003 0 0.17864991096044419 -0.29495009963706692 0 0.17673138357400531 -0.28840876668861409 0 0.17909088347012619 -0.29088019083727579 0 0.17864991096044419 -0.29495009963706692 0 0.1806905449634813 -0.28832929748571318 0 0.17673138357400531 -0.28840876668861409 0 0.17909088347012619 -0.29088019083727579 0 0.17909088347012619 -0.29088019083727579 0 0.17864991096044419 -0.29495009963706692 0 0.18114425154506539 -0.29221912984395187 0 0.18747516626574931 -0.28692639975368628 0 0.18734834214976739 -0.29514628785519947 0 0.1827564496500734 -0.29712351473235832 0 0.18747516626574931 -0.28692639975368628 0 0.18301660310609241 -0.29114958545392738 0 0.1827564496500734 -0.29712351473235832 0 0.18114425154506539 -0.29221912984395187 0 0.18301660310609241 -0.29114958545392738 0 0.1827564496500734 -0.29712351473235832 0 0.17864991096044419 -0.29495009963706692 0 0.18114425154506539 -0.29221912984395187 0 0.1827564496500734 -0.29712351473235832 0 0.18747516626574931 -0.28692639975368628 0 0.1827564496500734 -0.29712351473235832 0 0.1806905449634813 -0.28832929748571318 0 0.18114425154506539 -0.29221912984395187 0 0.18301660310609241 -0.29114958545392738 0 0.1806905449634813 -0.28832929748571318 0 0.17909088347012619 -0.29088019083727579 0 0.18114425154506539 -0.29221912984395187 0 0.18802618722583669 -0.31833181955932999 0 0.18221347423979239 -0.30458962683289892 0 0.1698931321352706 -0.29998698427508858 0 0.1880606218677118 -0.30022154946313712 0 0.18734834214976739 -0.29514628785519947 0 0.1827564496500734 -0.29712351473235832 0 0.19009702279388629 -0.3064242775921906 0 0.1880606218677118 -0.30022154946313712 0 0.18221347423979239 -0.30458962683289892 0 0.18802618722583669 -0.31833181955932999 0 0.17151825735526699 -0.31325416760549368 0 0.1698931321352706 -0.29998698427508858 0 0.1880606218677118 -0.30022154946313712 0 0.18221347423979239 -0.30458962683289892 0 0.1827564496500734 -0.29712351473235832 0 0.18802618722583669 -0.31833181955932999 0 0.1698931321352706 -0.29998698427508858 0 0.17864991096044419 -0.29495009963706692 0 0.1827564496500734 -0.29712351473235832 0 0.17837824174639511 -0.29916255636935318 0 0.18221347423979239 -0.30458962683289892 0 0.1827564496500734 -0.29712351473235832 0 0.17837824174639511 -0.29916255636935318 0 0.19009702279388629 -0.3064242775921906 0 0.18802618722583669 -0.31833181955932999 0 0.18221347423979239 -0.30458962683289892 0 0.18221347423979239 -0.30458962683289892 0 0.17837824174639511 -0.29916255636935318 0 0.1698931321352706 -0.29998698427508858 0 0.17864991096044419 -0.29495009963706692 0 0.17837824174639511 -0.29916255636935318 0 0.1698931321352706 -0.29998698427508858 0 0.17151825735526699 -0.31325416760549368 0 0.1698931321352706 -0.29998698427508858 0 0.1602411687519314 -0.31190927739118429 0 0.15432967412725099 -0.29846298066074151 0 0.1698931321352706 -0.29998698427508858 0 0.1602411687519314 -0.31190927739118429 0 0.1517600770447052 -0.28164214899084639 0 0.17864991096044419 -0.29495009963706692 0 0.1698931321352706 -0.29998698427508858 0 0.1517600770447052 -0.28164214899084639 0 0.1698931321352706 -0.29998698427508858 0 0.15432967412725099 -0.29846298066074151 0 0.1517600770447052 -0.28164214899084639 0 0.1698931321352706 -0.29998698427508858 0 0.1517600770447052 -0.28164214899084639 0 0.17864991096044419 -0.29495009963706692 0 0.1517600770447052 -0.28164214899084639 0 0.17864991096044419 -0.29495009963706692 0 0.16594555478614451 -0.28284233368471318 0 0.1710222018321049 -0.28124575318360368 0 0.17291101310642881 -0.28564608084835003 0 0.16594555478614451 -0.28284233368471318 0 0.21438456257476449 -0.5 0 0.2048745361024723 -0.48472171768082351 0 0.18744203257390391 -0.5 0 0.19122796324104871 -0.48466606029959602 0 0.2048745361024723 -0.48472171768082351 0 0.18744203257390391 -0.5 0 0.19122796324104871 -0.48466606029959602 0 0.20365346230900849 -0.47086657296764728 0 0.1938641377332887 -0.4633108835168005 0 0.19122796324104871 -0.48466606029959602 0 0.20365346230900849 -0.47086657296764728 0 0.2048745361024723 -0.48472171768082351 0 0.21766866328091511 -0.47157360957620892 0 0.2048745361024723 -0.48472171768082351 0 0.22288060450936709 -0.48400008360299168 0 0.20365346230900849 -0.47086657296764728 0 0.21766866328091511 -0.47157360957620892 0 0.2048745361024723 -0.48472171768082351 0 0.21438456257476449 -0.5 0 0.2048745361024723 -0.48472171768082351 0 0.22288060450936709 -0.48400008360299168 0 0.21438456257476449 -0.5 0 0.23633351028628971 -0.48712361601618398 0 0.2413270925756249 -0.5 0 0.21438456257476449 -0.5 0 0.23633351028628971 -0.48712361601618398 0 0.22288060450936709 -0.48400008360299168 0 0.25270961841775552 -0.48460016746525392 0 0.23633351028628971 -0.48712361601618398 0 0.2413270925756249 -0.5 0 0.25270961841775552 -0.48460016746525392 0 0.23633351028628971 -0.48712361601618398 0 0.23949561189523169 -0.47426551941090739 0 0.23949561189523169 -0.47426551941090739 0 0.22288060450936709 -0.48400008360299168 0 0.22545312399173489 -0.46028769725088831 0 0.21766866328091511 -0.47157360957620892 0 0.22288060450936709 -0.48400008360299168 0 0.22545312399173489 -0.46028769725088831 0 0.23633351028628971 -0.48712361601618398 0 0.23949561189523169 -0.47426551941090739 0 0.22288060450936709 -0.48400008360299168 0 0.22288060450936709 -0.48400008360299168 0 0.22545312399173489 -0.46028769725088831 0 0.21766866328091511 -0.47157360957620892 0 0.22545312399173489 -0.46028769725088831 0 0.2186728293425339 -0.44755637628226819 0 0.2588368117714554 -0.46700690363883102 0 0.23949561189523169 -0.47426551941090739 0 0.2409729068143365 -0.46262444708906358 0 0.22545312399173489 -0.46028769725088831 0 0.2409729068143365 -0.46262444708906358 0 0.24480843210435321 -0.45079661158300749 0 0.2588368117714554 -0.46700690363883102 0 0.2409729068143365 -0.46262444708906358 0 0.24480843210435321 -0.45079661158300749 0 0.23949561189523169 -0.47426551941090739 0 0.22545312399173489 -0.46028769725088831 0 0.2409729068143365 -0.46262444708906358 0 0.24480843210435321 -0.45079661158300749 0 0.22802564347410281 -0.43657531089878487 0 0.2418992233321238 -0.43333026798624508 0 0.25513396950241118 -0.43290986753561628 0 0.24480843210435321 -0.45079661158300749 0 0.2418992233321238 -0.43333026798624508 0 0.22545312399173489 -0.46028769725088831 0 0.22802564347410281 -0.43657531089878487 0 0.2186728293425339 -0.44755637628226819 0 0.21246462128442831 -0.43168381348743168 0 0.22802564347410281 -0.43657531089878487 0 0.22545312399173489 -0.46028769725088831 0 0.2186728293425339 -0.44755637628226819 0 0.22802564347410281 -0.43657531089878487 0 0.22545312399173489 -0.46028769725088831 0 0.24480843210435321 -0.45079661158300749 0 0.22802564347410281 -0.43657531089878487 0 0.20442019459899149 -0.44533796874460208 0 0.2186728293425339 -0.44755637628226819 0 0.21246462128442831 -0.43168381348743168 0 0.21766866328091511 -0.47157360957620892 0 0.20442019459899149 -0.44533796874460208 0 0.21766866328091511 -0.47157360957620892 0 0.20442019459899149 -0.44533796874460208 0 0.2186728293425339 -0.44755637628226819 0 0.20365346230900849 -0.47086657296764728 0 0.21766866328091511 -0.47157360957620892 0 0.20442019459899149 -0.44533796874460208 0 0.20365346230900849 -0.47086657296764728 0 0.20442019459899149 -0.44533796874460208 0 0.1938641377332887 -0.4633108835168005 0 0.20442019459899149 -0.44533796874460208 0 0.18484232774876749 -0.43033534366960768 0 0.18590039067086719 -0.44115637567916172 0 0.20442019459899149 -0.44533796874460208 0 0.18923595964957429 -0.45067509688328122 0 0.18590039067086719 -0.44115637567916172 0 0.20442019459899149 -0.44533796874460208 0 0.1938641377332887 -0.4633108835168005 0 0.18923595964957429 -0.45067509688328122 0 0.20442019459899149 -0.44533796874460208 0 0.1911717259170673 -0.41910232791299562 0 0.20473537155931409 -0.42802668409371708 0 0.20442019459899149 -0.44533796874460208 0 0.1911717259170673 -0.41910232791299562 0 0.20442019459899149 -0.44533796874460208 0 0.1911717259170673 -0.41910232791299562 0 0.18484232774876749 -0.43033534366960768 0 0.1911717259170673 -0.41910232791299562 0 0.21088494443676881 -0.41598262622983972 0 0.20473537155931409 -0.42802668409371708 0 0.18851111772050869 -0.41383358608972459 0 0.208966154163157 -0.40126827473642579 0 0.1911717259170673 -0.41910232791299562 0 0.21088494443676881 -0.41598262622983972 0 0.1911717259170673 -0.41910232791299562 0 0.18851111772050869 -0.41383358608972459 0 0.21088494443676881 -0.41598262622983972 0 0.18851111772050869 -0.41383358608972459 0 0.21088494443676881 -0.41598262622983972 0 0.208966154163157 -0.40126827473642579 0 0.1911717259170673 -0.41910232791299562 0 0.18851111772050869 -0.41383358608972459 0 0.21088494443676881 -0.41598262622983972 0 0.22155668588658281 -0.40529615173032069 0 0.208966154163157 -0.40126827473642579 0 0.21088494443676881 -0.41598262622983972 0 0.20473537155931409 -0.42802668409371708 0 0.21246462128442831 -0.43168381348743168 0 0.21088494443676881 -0.41598262622983972 0 0.21246462128442831 -0.43168381348743168 0 0.21959695705502991 -0.42408781639437282 0 0.20442019459899149 -0.44533796874460208 0 0.20473537155931409 -0.42802668409371708 0 0.21246462128442831 -0.43168381348743168 0 0.21246462128442831 -0.43168381348743168 0 0.21959695705502991 -0.42408781639437282 0 0.22802564347410281 -0.43657531089878487 0 0.22802564347410281 -0.43657531089878487 0 0.23614533994983331 -0.4244462479719151 0 0.23059816295646979 -0.4128629245466815 0 0.22802564347410281 -0.43657531089878487 0 0.23059816295646979 -0.4128629245466815 0 0.21959695705502991 -0.42408781639437282 0 0.22802564347410281 -0.43657531089878487 0 0.23059816295646979 -0.4128629245466815 0 0.22802564347410281 -0.43657531089878487 0 0.2418992233321238 -0.43333026798624508 0 0.23614533994983331 -0.4244462479719151 0 0.2418992233321238 -0.43333026798624508 0 0.23614533994983331 -0.4244462479719151 0 0.2453827316299185 -0.42192330194190181 0 0.25513396950241118 -0.43290986753561628 0 0.2418992233321238 -0.43333026798624508 0 0.2453827316299185 -0.42192330194190181 0 0.256136481120742 -0.41447562176841068 0 0.2453827316299185 -0.42192330194190181 0 0.24629253832767661 -0.41022035877505542 0 0.2453827316299185 -0.42192330194190181 0 0.24629253832767661 -0.41022035877505542 0 0.2366098857920339 -0.41191154353144788 0 0.23614533994983331 -0.4244462479719151 0 0.2366098857920339 -0.41191154353144788 0 0.23059816295646979 -0.4128629245466815 0 0.23614533994983331 -0.4244462479719151 0 0.2453827316299185 -0.42192330194190181 0 0.2366098857920339 -0.41191154353144788 0 0.24629253832767661 -0.41022035877505542 0 0.2366098857920339 -0.41191154353144788 0 0.2422505545635501 -0.40276464775944387 0 0.21088494443676881 -0.41598262622983972 0 0.23059816295646979 -0.4128629245466815 0 0.2366098857920339 -0.41191154353144788 0 0.23059816295646979 -0.4128629245466815 0 0.23156745731421779 -0.4039283829592023 0 0.23059816295646979 -0.4128629245466815 0 0.22155668588658281 -0.40529615173032069 0 0.23156745731421779 -0.4039283829592023 0 0.23059816295646979 -0.4128629245466815 0 0.23156745731421779 -0.4039283829592023 0 0.21088494443676881 -0.41598262622983972 0 0.23059816295646979 -0.4128629245466815 0 0.22155668588658281 -0.40529615173032069 0 0.21088494443676881 -0.41598262622983972 0 0.21959695705502991 -0.42408781639437282 0 0.23059816295646979 -0.4128629245466815 0 0.2366098857920339 -0.41191154353144788 0 0.23059816295646979 -0.4128629245466815 0 0.22155668588658281 -0.40529615173032069 0 0.22942119060580499 -0.38870296338312649 0 0.208966154163157 -0.40126827473642579 0 0.22155668588658281 -0.40529615173032069 0 0.23156745731421779 -0.4039283829592023 0 0.22942119060580499 -0.38870296338312649 0 0.22942119060580499 -0.38870296338312649 0 0.208966154163157 -0.40126827473642579 0 0.23156745731421779 -0.4039283829592023 0 0.24309899287842279 -0.39271330151873202 0 0.2422505545635501 -0.40276464775944387 0 0.2366098857920339 -0.41191154353144788 0 0.23156745731421779 -0.4039283829592023 0 0.2422505545635501 -0.40276464775944387 0 0.23156745731421779 -0.4039283829592023 0 0.24309899287842279 -0.39271330151873202 0 0.22942119060580499 -0.38870296338312649 0 0.25108303853213881 -0.40002667887407228 0 0.24629253832767661 -0.41022035877505542 0 0.2422505545635501 -0.40276464775944387 0 0.25108303853213881 -0.40002667887407228 0 0.24309899287842279 -0.39271330151873202 0 0.2422505545635501 -0.40276464775944387 0 0.24987622704845311 -0.37613765202982719 0 0.22942119060580499 -0.38870296338312649 0 0.24309899287842279 -0.39271330151873202 0 0.24987622704845311 -0.37613765202982719 0 0.22942119060580499 -0.38870296338312649 0 0.24987622704845311 -0.37613765202982719 0 0.23474048966473349 -0.38137370792841258 0 0.22942119060580499 -0.38870296338312649 0 0.25687819372407023 -0.38903915957053298 0 0.24309899287842279 -0.39271330151873202 0 0.24987622704845311 -0.37613765202982719 0 0.23679608458568241 -0.3713456781615978 0 0.24987622704845311 -0.37613765202982719 0 0.23474048966473349 -0.38137370792841258 0 0.23474048966473349 -0.38137370792841258 0 0.23010576568282681 -0.37607478874810818 0 0.22189277223980711 -0.38054577212349588 0 0.23474048966473349 -0.38137370792841258 0 0.22189277223980711 -0.38054577212349588 0 0.20961824525516401 -0.3936281247522696 0 0.23474048966473349 -0.38137370792841258 0 0.22942119060580499 -0.38870296338312649 0 0.20961824525516401 -0.3936281247522696 0 0.23679608458568241 -0.3713456781615978 0 0.23474048966473349 -0.38137370792841258 0 0.23010576568282681 -0.37607478874810818 0 0.23474048966473349 -0.38137370792841258 0 0.20961824525516401 -0.3936281247522696 0 0.22699371624108439 -0.37103399677892651 0 0.23010576568282681 -0.37607478874810818 0 0.22189277223980711 -0.38054577212349588 0 0.21663927632257499 -0.37152038636996992 0 0.22189277223980711 -0.38054577212349588 0 0.21119602619295649 -0.38157571206759561 0 0.21663927632257499 -0.37152038636996992 0 0.21119602619295649 -0.38157571206759561 0 0.20576161095015591 -0.37595213443190167 0 0.21119602619295649 -0.38157571206759561 0 0.20576161095015591 -0.37595213443190167 0 0.20229958674085519 -0.38616776423662919 0 0.21119602619295649 -0.38157571206759561 0 0.20961824525516401 -0.3936281247522696 0 0.20229958674085519 -0.38616776423662919 0 0.22189277223980711 -0.38054577212349588 0 0.21119602619295649 -0.38157571206759561 0 0.20961824525516401 -0.3936281247522696 0 0.22942119060580499 -0.38870296338312649 0 0.208966154163157 -0.40126827473642579 0 0.20961824525516401 -0.3936281247522696 0 0.20961824525516401 -0.3936281247522696 0 0.18449600084559339 -0.40588254157612419 0 0.20961824525516401 -0.3936281247522696 0 0.19262774622386039 -0.39991289132556063 0 0.20229958674085519 -0.38616776423662919 0 0.18851111772050869 -0.41383358608972459 0 0.20961824525516401 -0.3936281247522696 0 0.18449600084559339 -0.40588254157612419 0 0.19262774622386039 -0.39991289132556063 0 0.193172237845981 -0.38760648281860499 0 0.20229958674085519 -0.38616776423662919 0 0.20961824525516401 -0.3936281247522696 0 0.19262774622386039 -0.39991289132556063 0 0.18449600084559339 -0.40588254157612419 0 0.18851111772050869 -0.41383358608972459 0 0.208966154163157 -0.40126827473642579 0 0.20961824525516401 -0.3936281247522696 0 0.19262774622386039 -0.39991289132556063 0 0.18963514604776821 -0.39361523539988952 0 0.193172237845981 -0.38760648281860499 0 0.19262774622386039 -0.39991289132556063 0 0.18963514604776821 -0.39361523539988952 0 0.18221634088723479 -0.40136818287387582 0 0.18963514604776821 -0.39361523539988952 0 0.193172237845981 -0.38760648281860499 0 0.18267650324237161 -0.39405502657648112 0 0.193172237845981 -0.38760648281860499 0 0.1910424400336663 -0.37547354736401328 0 0.18267650324237161 -0.39405502657648112 0 0.20576161095015591 -0.37595213443190167 0 0.1910424400336663 -0.37547354736401328 0 0.20229958674085519 -0.38616776423662919 0 0.193172237845981 -0.38760648281860499 0 0.1910424400336663 -0.37547354736401328 0 0.20229958674085519 -0.38616776423662919 0 0.1910424400336663 -0.37547354736401328 0 0.17822948803450961 -0.38676940160015832 0 0.1737051017910701 -0.38004230502140057 0 0.1910424400336663 -0.37547354736401328 0 0.18267650324237161 -0.39405502657648112 0 0.1910424400336663 -0.37547354736401328 0 0.17822948803450961 -0.38676940160015832 0 0.18267650324237161 -0.39405502657648112 0 0.17822948803450961 -0.38676940160015832 0 0.17910183421640119 -0.39520059623836468 0 0.1646215608890387 -0.38907553280053181 0 0.17822948803450961 -0.38676940160015832 0 0.1737051017910701 -0.38004230502140057 0 0.1646215608890387 -0.38907553280053181 0 0.17822948803450961 -0.38676940160015832 0 0.18267650324237161 -0.39405502657648112 0 0.17910183421640119 -0.39520059623836468 0 0.18221634088723479 -0.40136818287387582 0 0.17910183421640119 -0.39520059623836468 0 0.15805845094365739 -0.40474493864538458 0 0.18963514604776821 -0.39361523539988952 0 0.18267650324237161 -0.39405502657648112 0 0.18221634088723479 -0.40136818287387582 0 0.18267650324237161 -0.39405502657648112 0 0.18221634088723479 -0.40136818287387582 0 0.17910183421640119 -0.39520059623836468 0 0.18221634088723479 -0.40136818287387582 0 0.17910183421640119 -0.39520059623836468 0 0.19262774622386039 -0.39991289132556063 0 0.18221634088723479 -0.40136818287387582 0 0.19262774622386039 -0.39991289132556063 0 0.18449600084559339 -0.40588254157612419 0 0.18221634088723479 -0.40136818287387582 0 0.18449600084559339 -0.40588254157612419 0 0.18221634088723479 -0.40136818287387582 0 0.17910183421640119 -0.39520059623836468 0 0.15805845094365739 -0.40474493864538458 0 0.1646215608890387 -0.38907553280053181 0 0.18221634088723479 -0.40136818287387582 0 0.15805845094365739 -0.40474493864538458 0 0.15805845094365739 -0.40474493864538458 0 0.1646215608890387 -0.38907553280053181 0 0.14706277844018539 -0.39464292458295508 0 0.1737051017910701 -0.38004230502140057 0 0.1646215608890387 -0.38907553280053181 0 0.16307541855137739 -0.37743582412871929 0 0.17035242753357599 -0.36877211446365682 0 0.1737051017910701 -0.38004230502140057 0 0.16307541855137739 -0.37743582412871929 0 0.1569593121701936 -0.36832063090657668 0 0.16307541855137739 -0.37743582412871929 0 0.14973869037300869 -0.38096853745143089 0 0.1646215608890387 -0.38907553280053181 0 0.16307541855137739 -0.37743582412871929 0 0.14973869037300869 -0.38096853745143089 0 0.1646215608890387 -0.38907553280053181 0 0.14973869037300869 -0.38096853745143089 0 0.14706277844018539 -0.39464292458295508 0 0.14973869037300869 -0.38096853745143089 0 0.1375772795987745 -0.38493757303029391 0 0.14706277844018539 -0.39464292458295508 0 0.13524945632583441 -0.37311377610700652 0 0.14973869037300869 -0.38096853745143089 0 0.1375772795987745 -0.38493757303029391 0 0.13524945632583441 -0.37311377610700652 0 0.1375772795987745 -0.38493757303029391 0 0.12609635470998201 -0.38402791619100712 0 0.1375772795987745 -0.38493757303029391 0 0.12609635470998201 -0.38402791619100712 0 0.13569313113510631 -0.39589912548093298 0 0.12645644117523869 -0.39722706905544619 0 0.13569313113510631 -0.39589912548093298 0 0.1339005610000801 -0.40812169441689322 0 0.12645644117523869 -0.39722706905544619 0 0.1339005610000801 -0.40812169441689322 0 0.1250254850364893 -0.40936224001308058 0 0.12609635470998201 -0.38402791619100712 0 0.12645644117523869 -0.39722706905544619 0 0.13569313113510631 -0.39589912548093298 0 0.1375772795987745 -0.38493757303029391 0 0.13569313113510631 -0.39589912548093298 0 0.14706277844018539 -0.39464292458295508 0 0.13569313113510631 -0.39589912548093298 0 0.14706277844018539 -0.39464292458295508 0 0.1339005610000801 -0.40812169441689322 0 0.13569313113510631 -0.39589912548093298 0 0.1339005610000801 -0.40812169441689322 0 0.15805845094365739 -0.40474493864538458 0 0.14706277844018539 -0.39464292458295508 0 0.1339005610000801 -0.40812169441689322 0 0.15805845094365739 -0.40474493864538458 0 0.1339005610000801 -0.40812169441689322 0 0.15805845094365739 -0.40474493864538458 0 0.15398562739609989 -0.414436145328195 0 0.14500783119440661 -0.41410657591589572 0 0.15805845094365739 -0.40474493864538458 0 0.14500783119440661 -0.41410657591589572 0 0.1339005610000801 -0.40812169441689322 0 0.15398562739609989 -0.414436145328195 0 0.15088002640467921 -0.42009116626417142 0 0.14500783119440661 -0.41410657591589572 0 0.15088002640467921 -0.42009116626417142 0 0.15979138776423191 -0.42406840149736191 0 0.15636365466176849 -0.41960526040447821 0 0.15398562739609989 -0.414436145328195 0 0.15088002640467921 -0.42009116626417142 0 0.15636365466176849 -0.41960526040447821 0 0.15088002640467921 -0.42009116626417142 0 0.14500783119440661 -0.41410657591589572 0 0.14354831806896931 -0.42663893719234869 0 0.14500783119440661 -0.41410657591589572 0 0.1339005610000801 -0.40812169441689322 0 0.13212255532719441 -0.42024495614079282 0 0.14500783119440661 -0.41410657591589572 0 0.13212255532719441 -0.42024495614079282 0 0.14354831806896931 -0.42663893719234869 0 0.1339005610000801 -0.40812169441689322 0 0.13212255532719441 -0.42024495614079282 0 0.13212255532719441 -0.42024495614079282 0 0.1250254850364893 -0.40936224001308058 0 0.117866085899093 -0.41583132647739651 0 0.13212255532719441 -0.42024495614079282 0 0.1250254850364893 -0.40936224001308058 0 0.1339005610000801 -0.40812169441689322 0 0.13212255532719441 -0.42024495614079282 0 0.1250254850364893 -0.40936224001308058 0 0.1339005610000801 -0.40812169441689322 0 0.1250254850364893 -0.40936224001308058 0 0.13212255532719441 -0.42024495614079282 0 0.14354831806896931 -0.42663893719234869 0 0.1460535583969573 -0.44160689079445481 0 0.13212255532719441 -0.42024495614079282 0 0.128223579302082 -0.44682997076052833 0 0.13212255532719441 -0.42024495614079282 0 0.128223579302082 -0.44682997076052833 0 0.1159996351348133 -0.43474120747525058 0 0.13212255532719441 -0.42024495614079282 0 0.1460535583969573 -0.44160689079445481 0 0.13212255532719441 -0.42024495614079282 0 0.1460535583969573 -0.44160689079445481 0 0.128223579302082 -0.44682997076052833 0 0.15088002640467921 -0.42009116626417142 0 0.14354831806896931 -0.42663893719234869 0 0.15979138776423191 -0.42406840149736191 0 0.14354831806896931 -0.42663893719234869 0 0.15979138776423191 -0.42406840149736191 0 0.14354831806896931 -0.42663893719234869 0 0.15423293294423909 -0.43386412417913311 0 0.1460535583969573 -0.44160689079445481 0 0.14354831806896931 -0.42663893719234869 0 0.15423293294423909 -0.43386412417913311 0 0.15979138776423191 -0.42406840149736191 0 0.15423293294423909 -0.43386412417913311 0 0.16088991666547389 -0.43196094602310392 0 0.16557730454712019 -0.44172028084172121 0 0.1713980071398 -0.42434598792645378 0 0.15979138776423191 -0.42406840149736191 0 0.1760344574594947 -0.42149786580237669 0 0.15423293294423909 -0.43386412417913311 0 0.16088991666547389 -0.43196094602310392 0 0.15979138776423191 -0.42406840149736191 0 0.15979138776423191 -0.42406840149736191 0 0.1760344574594947 -0.42149786580237669 0 0.16626302434537371 -0.43076979168845952 0 0.17509911994716071 -0.43336510097506958 0 0.16557730454712019 -0.44172028084172121 0 0.16088991666547389 -0.43196094602310392 0 0.16626302434537371 -0.43076979168845952 0 0.16557730454712019 -0.44172028084172121 0 0.16626302434537371 -0.43076979168845952 0 0.1713980071398 -0.42434598792645378 0 0.17509911994716071 -0.43336510097506958 0 0.16626302434537371 -0.43076979168845952 0 0.1713980071398 -0.42434598792645378 0 0.15979138776423191 -0.42406840149736191 0 0.16088991666547389 -0.43196094602310392 0 0.16626302434537371 -0.43076979168845952 0 0.15979138776423191 -0.42406840149736191 0 0.15636365466176849 -0.41960526040447821 0 0.16176651730702801 -0.41283252991975622 0 0.17042982775368151 -0.41274390099030239 0 0.18221634088723479 -0.40136818287387582 0 0.15805845094365739 -0.40474493864538458 0 0.17042982775368151 -0.41274390099030239 0 0.15979138776423191 -0.42406840149736191 0 0.15636365466176849 -0.41960526040447821 0 0.17042982775368151 -0.41274390099030239 0 0.15636365466176849 -0.41960526040447821 0 0.17042982775368151 -0.41274390099030239 0 0.15979138776423191 -0.42406840149736191 0 0.17042982775368151 -0.41274390099030239 0 0.1760344574594947 -0.42149786580237669 0 0.15398562739609989 -0.414436145328195 0 0.15636365466176849 -0.41960526040447821 0 0.16176651730702801 -0.41283252991975622 0 0.15805845094365739 -0.40474493864538458 0 0.15398562739609989 -0.414436145328195 0 0.16176651730702801 -0.41283252991975622 0 0.15805845094365739 -0.40474493864538458 0 0.16176651730702801 -0.41283252991975622 0 0.17042982775368151 -0.41274390099030239 0 0.17042982775368151 -0.41274390099030239 0 0.1760344574594947 -0.42149786580237669 0 0.17986785094481991 -0.4134894736146324 0 0.18449600084559339 -0.40588254157612419 0 0.17042982775368151 -0.41274390099030239 0 0.18449600084559339 -0.40588254157612419 0 0.18221634088723479 -0.40136818287387582 0 0.17042982775368151 -0.41274390099030239 0 0.18449600084559339 -0.40588254157612419 0 0.17042982775368151 -0.41274390099030239 0 0.17986785094481991 -0.4134894736146324 0 0.18851111772050869 -0.41383358608972459 0 0.18449600084559339 -0.40588254157612419 0 0.18851111772050869 -0.41383358608972459 0 0.18449600084559339 -0.40588254157612419 0 0.17986785094481991 -0.4134894736146324 0 0.18851111772050869 -0.41383358608972459 0 0.1760344574594947 -0.42149786580237669 0 0.1911717259170673 -0.41910232791299562 0 0.1760344574594947 -0.42149786580237669 0 0.18851111772050869 -0.41383358608972459 0 0.1760344574594947 -0.42149786580237669 0 0.17986785094481991 -0.4134894736146324 0 0.1911717259170673 -0.41910232791299562 0 0.18851111772050869 -0.41383358608972459 0 0.1760344574594947 -0.42149786580237669 0 0.1911717259170673 -0.41910232791299562 0 0.1760344574594947 -0.42149786580237669 0 0.18484232774876749 -0.43033534366960768 0 0.18484232774876749 -0.43033534366960768 0 0.17509911994716071 -0.43336510097506958 0 0.18590039067086719 -0.44115637567916172 0 0.18484232774876749 -0.43033534366960768 0 0.17509911994716071 -0.43336510097506958 0 0.17653319474121221 -0.42750765242104072 0 0.1713980071398 -0.42434598792645378 0 0.17509911994716071 -0.43336510097506958 0 0.17653319474121221 -0.42750765242104072 0 0.1760344574594947 -0.42149786580237669 0 0.18484232774876749 -0.43033534366960768 0 0.17653319474121221 -0.42750765242104072 0 0.1713980071398 -0.42434598792645378 0 0.1760344574594947 -0.42149786580237669 0 0.17653319474121221 -0.42750765242104072 0 0.1713980071398 -0.42434598792645378 0 0.1760344574594947 -0.42149786580237669 0 0.17791556380287959 -0.4455361086535346 0 0.17376504419967539 -0.46076368888843938 0 0.16557730454712019 -0.44172028084172121 0 0.17509911994716071 -0.43336510097506958 0 0.17791556380287959 -0.4455361086535346 0 0.18590039067086719 -0.44115637567916172 0 0.17509911994716071 -0.43336510097506958 0 0.17791556380287959 -0.4455361086535346 0 0.16557730454712019 -0.44172028084172121 0 0.18923595964957429 -0.45067509688328122 0 0.17791556380287959 -0.4455361086535346 0 0.18590039067086719 -0.44115637567916172 0 0.18923595964957429 -0.45067509688328122 0 0.17791556380287959 -0.4455361086535346 0 0.17376504419967539 -0.46076368888843938 0 0.1938641377332887 -0.4633108835168005 0 0.18923595964957429 -0.45067509688328122 0 0.17376504419967539 -0.46076368888843938 0 0.1938641377332887 -0.4633108835168005 0 0.17376504419967539 -0.46076368888843938 0 0.17718182015316611 -0.48165544175840053 0 0.17376504419967539 -0.46076368888843938 0 0.15550290350416551 -0.45157236434768988 0 0.1539044029471725 -0.46809795184702829 0 0.17376504419967539 -0.46076368888843938 0 0.16557730454712019 -0.44172028084172121 0 0.15550290350416551 -0.45157236434768988 0 0.15423293294423909 -0.43386412417913311 0 0.16557730454712019 -0.44172028084172121 0 0.15550290350416551 -0.45157236434768988 0 0.15423293294423909 -0.43386412417913311 0 0.15550290350416551 -0.45157236434768988 0 0.1460535583969573 -0.44160689079445481 0 0.15550290350416551 -0.45157236434768988 0 0.1460535583969573 -0.44160689079445481 0 0.14153074802588431 -0.45654190970348868 0 0.1460535583969573 -0.44160689079445481 0 0.128223579302082 -0.44682997076052833 0 0.14153074802588431 -0.45654190970348868 0 0.128223579302082 -0.44682997076052833 0 0.12432460327697011 -0.47341498538026422 0 0.128223579302082 -0.44682997076052833 0 0.14153074802588431 -0.45654190970348868 0 0.12432460327697011 -0.47341498538026422 0 0.1539044029471725 -0.46809795184702829 0 0.14153074802588431 -0.45654190970348868 0 0.12432460327697011 -0.47341498538026422 0 0.15550290350416551 -0.45157236434768988 0 0.1539044029471725 -0.46809795184702829 0 0.14153074802588431 -0.45654190970348868 0 0.1539044029471725 -0.46809795184702829 0 0.15048103374274721 -0.48484579871078243 0 0.12432460327697011 -0.47341498538026422 0 0.1404625649124509 -0.5 0 0.15048103374274721 -0.48484579871078243 0 0.12432460327697011 -0.47341498538026422 0 0.1404625649124509 -0.5 0 0.12042562725185831 -0.49999999999999989 0 0.12432460327697011 -0.47341498538026422 0 0.1404625649124509 -0.5 0 0.15048103374274721 -0.48484579871078243 0 0.16049950257304349 -0.50000000000000033 0 0.16049950257304349 -0.50000000000000033 0 0.17718182015316611 -0.48165544175840053 0 0.15048103374274721 -0.48484579871078243 0 0.16049950257304349 -0.50000000000000033 0 0.17718182015316611 -0.48165544175840053 0 0.17376504419967539 -0.46076368888843938 0 0.1539044029471725 -0.46809795184702829 0 0.17718182015316611 -0.48165544175840053 0 0.1539044029471725 -0.46809795184702829 0 0.15048103374274721 -0.48484579871078243 0 0.17718182015316611 -0.48165544175840053 0 0.1938641377332887 -0.4633108835168005 0 0.17718182015316611 -0.48165544175840053 0 0.19122796324104871 -0.48466606029959602 0 0.1938641377332887 -0.4633108835168005 0 0.17718182015316611 -0.48165544175840053 0 0.16049950257304349 -0.50000000000000033 0 0.17718182015316611 -0.48165544175840053 0 0.18744203257390391 -0.5 0 0.19122796324104871 -0.48466606029959602 0 0.17718182015316611 -0.48165544175840053 0 0.18744203257390391 -0.5 0 0.072018957471098571 -0.48629524479662273 0 0.069142552082564368 -0.5 0 0.082735946582200875 -0.4892045976485363 0 0.072018957471098571 -0.48629524479662273 0 0.079568506083734697 -0.4785915255016745 0 0.082735946582200875 -0.4892045976485363 0 0.072018957471098571 -0.48629524479662273 0 0.062670741706174135 -0.48944359682069549 0 0.064881374578912687 -0.4815757870058418 0 0.072018957471098571 -0.48629524479662273 0 0.069142552082564368 -0.5 0 0.062670741706174135 -0.48944359682069549 0 0.073180054077148754 -0.46968413697177741 0 0.079568506083734697 -0.4785915255016745 0 0.081395248040860374 -0.46160025678040811 0 0.067447632246636219 -0.45716428258124142 0 0.05849497948899289 -0.47642287528831911 0 0.061758178687080389 -0.47580514524370598 0 0.072018957471098571 -0.48629524479662273 0 0.064881374578912687 -0.4815757870058418 0 0.070673492561877091 -0.4782128222507579 0 0.064881374578912687 -0.4815757870058418 0 0.066280053791524171 -0.47680462027284459 0 0.061758178687080389 -0.47580514524370598 0 0.064881374578912687 -0.4815757870058418 0 0.066280053791524171 -0.47680462027284459 0 0.070673492561877091 -0.4782128222507579 0 0.066280053791524171 -0.47680462027284459 0 0.067807169338226503 -0.47162472659107291 0 0.061758178687080389 -0.47580514524370598 0 0.066280053791524171 -0.47680462027284459 0 0.067807169338226503 -0.47162472659107291 0 0.070673492561877091 -0.4782128222507579 0 0.067807169338226503 -0.47162472659107291 0 0.073180054077148754 -0.46968413697177741 0 0.070673492561877091 -0.4782128222507579 0 0.073180054077148754 -0.46968413697177741 0 0.070673492561877091 -0.4782128222507579 0 0.079568506083734697 -0.4785915255016745 0 0.072018957471098571 -0.48629524479662273 0 0.070673492561877091 -0.4782128222507579 0 0.079568506083734697 -0.4785915255016745 0 0.096876661376123455 -0.48080012839020431 0 0.081395248040860374 -0.46160025678040811 0 0.096876661376123455 -0.48080012839020431 0 0.095349939854524335 -0.46404107218864848 0 0.081395248040860374 -0.46160025678040811 0 0.079568506083734697 -0.4785915255016745 0 0.082735946582200875 -0.4892045976485363 0 0.096876661376123455 -0.48080012839020431 0 0.079568506083734697 -0.4785915255016745 0 0.096876661376123455 -0.48080012839020431 0 0.081395248040860374 -0.46160025678040811 0 0.090750313396975479 -0.5 0 0.082735946582200875 -0.4892045976485363 0 0.096876661376123455 -0.48080012839020431 0 0.069142552082564368 -0.5 0 0.090750313396975479 -0.5 0 0.082735946582200875 -0.4892045976485363 0 0.1123580747113867 -0.50000000000000033 0 0.1124728586670535 -0.48406595427175642 0 0.096876661376123455 -0.48080012839020431 0 0.090750313396975479 -0.5 0 0.1123580747113867 -0.50000000000000033 0 0.096876661376123455 -0.48080012839020431 0 0.1123580747113867 -0.50000000000000033 0 0.096876661376123455 -0.48080012839020431 0 0.1123580747113867 -0.50000000000000033 0 0.12042562725185831 -0.49999999999999989 0 0.1124728586670535 -0.48406595427175642 0 0.12042562725185831 -0.49999999999999989 0 0.1124728586670535 -0.48406595427175642 0 0.12432460327697011 -0.47341498538026422 0 0.12042562725185831 -0.49999999999999989 0 0.12432460327697011 -0.47341498538026422 0 0.1124728586670535 -0.48406595427175642 0 0.12432460327697011 -0.47341498538026422 0 0.1082250197838846 -0.46311527911574241 0 0.096876661376123455 -0.48080012839020431 0 0.095349939854524335 -0.46404107218864848 0 0.1082250197838846 -0.46311527911574241 0 0.1124728586670535 -0.48406595427175642 0 0.096876661376123455 -0.48080012839020431 0 0.1082250197838846 -0.46311527911574241 0 0.095349939854524335 -0.46404107218864848 0 0.1082250197838846 -0.46311527911574241 0 0.094902830217228867 -0.45064862446823939 0 0.128223579302082 -0.44682997076052833 0 0.12432460327697011 -0.47341498538026422 0 0.1082250197838846 -0.46311527911574241 0 0.128223579302082 -0.44682997076052833 0 0.1069391861142964 -0.44299064961396012 0 0.1159996351348133 -0.43474120747525058 0 0.128223579302082 -0.44682997076052833 0 0.1082250197838846 -0.46311527911574241 0 0.1069391861142964 -0.44299064961396012 0 0.1082250197838846 -0.46311527911574241 0 0.1069391861142964 -0.44299064961396012 0 0.094902830217228867 -0.45064862446823939 0 0.1069391861142964 -0.44299064961396012 0 0.091812697424993442 -0.4386357446441016 0 0.098414951810672224 -0.43233268446502993 0 0.1069391861142964 -0.44299064961396012 0 0.094902830217228867 -0.45064862446823939 0 0.091812697424993442 -0.4386357446441016 0 0.094902830217228867 -0.45064862446823939 0 0.091812697424993442 -0.4386357446441016 0 0.082434724511159588 -0.44537142502386151 0 0.094902830217228867 -0.45064862446823939 0 0.082434724511159588 -0.44537142502386151 0 0.081395248040860374 -0.46160025678040811 0 0.091812697424993442 -0.4386357446441016 0 0.082434724511159588 -0.44537142502386151 0 0.078149012167117934 -0.43357211405594609 0 0.095349939854524335 -0.46404107218864848 0 0.094902830217228867 -0.45064862446823939 0 0.081395248040860374 -0.46160025678040811 0 0.067447632246636219 -0.45716428258124142 0 0.065913834705597293 -0.44240038517061198 0 0.057068655694905858 -0.46015288389510001 0 0.067447632246636219 -0.45716428258124142 0 0.05849497948899289 -0.47642287528831911 0 0.067807169338226503 -0.47162472659107291 0 0.067447632246636219 -0.45716428258124142 0 0.061758178687080389 -0.47580514524370598 0 0.081395248040860374 -0.46160025678040811 0 0.067447632246636219 -0.45716428258124142 0 0.065913834705597293 -0.44240038517061198 0 0.073180054077148754 -0.46968413697177741 0 0.081395248040860374 -0.46160025678040811 0 0.067447632246636219 -0.45716428258124142 0 0.067807169338226503 -0.47162472659107291 0 0.073180054077148754 -0.46968413697177741 0 0.067447632246636219 -0.45716428258124142 0 0.081395248040860374 -0.46160025678040811 0 0.065913834705597293 -0.44240038517061198 0 0.082434724511159588 -0.44537142502386151 0 0.081395248040860374 -0.46160025678040811 0 0.065913834705597293 -0.44240038517061198 0 0.082434724511159588 -0.44537142502386151 0 0.065913834705597293 -0.44240038517061198 0 0.078149012167117934 -0.43357211405594609 0 0.065921365320016911 -0.4273577277455588 0 0.073982485551444349 -0.42005290588181732 0 0.078149012167117934 -0.43357211405594609 0 0.065913834705597293 -0.44240038517061198 0 0.065921365320016911 -0.4273577277455588 0 0.078149012167117934 -0.43357211405594609 0 0.073982485551444349 -0.42005290588181732 0 0.069775570718114244 -0.40426700169235308 0 0.060774245729122177 -0.41691050055794487 0 0.065921365320016911 -0.4273577277455588 0 0.073982485551444349 -0.42005290588181732 0 0.060774245729122177 -0.41691050055794487 0 0.073982485551444349 -0.42005290588181732 0 0.086447448161059384 -0.41120764722282821 0 0.069775570718114244 -0.40426700169235308 0 0.073982485551444349 -0.42005290588181732 0 0.086447448161059384 -0.41120764722282821 0 0.088692331433278357 -0.42535053834926723 0 0.086447448161059384 -0.41120764722282821 0 0.093827427438274241 -0.41775801958915132 0 0.099702730965631758 -0.41290181884877419 0 0.086447448161059384 -0.41120764722282821 0 0.088692331433278357 -0.42535053834926723 0 0.093827427438274241 -0.41775801958915132 0 0.088692331433278357 -0.42535053834926723 0 0.097645949564215143 -0.42435504664253748 0 0.093827427438274241 -0.41775801958915132 0 0.073982485551444349 -0.42005290588181732 0 0.088692331433278357 -0.42535053834926723 0 0.078149012167117934 -0.43357211405594609 0 0.091812697424993442 -0.4386357446441016 0 0.088692331433278357 -0.42535053834926723 0 0.078149012167117934 -0.43357211405594609 0 0.091812697424993442 -0.4386357446441016 0 0.088692331433278357 -0.42535053834926723 0 0.098414951810672224 -0.43233268446502993 0 0.098414951810672224 -0.43233268446502993 0 0.097645949564215143 -0.42435504664253748 0 0.1061961683754654 -0.43004895598907111 0 0.088692331433278357 -0.42535053834926723 0 0.098414951810672224 -0.43233268446502993 0 0.097645949564215143 -0.42435504664253748 0 0.1061961683754654 -0.43004895598907111 0 0.11152958735588871 -0.42539382439527612 0 0.1045809803654715 -0.42051706085107571 0 0.097645949564215143 -0.42435504664253748 0 0.1061961683754654 -0.43004895598907111 0 0.1045809803654715 -0.42051706085107571 0 0.1069391861142964 -0.44299064961396012 0 0.098414951810672224 -0.43233268446502993 0 0.1061961683754654 -0.43004895598907111 0 0.1061961683754654 -0.43004895598907111 0 0.1159996351348133 -0.43474120747525058 0 0.11152958735588871 -0.42539382439527612 0 0.13212255532719441 -0.42024495614079282 0 0.1159996351348133 -0.43474120747525058 0 0.11851153239627241 -0.42275952171654291 0 0.1069391861142964 -0.44299064961396012 0 0.1061961683754654 -0.43004895598907111 0 0.1159996351348133 -0.43474120747525058 0 0.1159996351348133 -0.43474120747525058 0 0.11152958735588871 -0.42539382439527612 0 0.11851153239627241 -0.42275952171654291 0 0.11152958735588871 -0.42539382439527612 0 0.11851153239627241 -0.42275952171654291 0 0.1123596205074209 -0.41890237594444008 0 0.1250254850364893 -0.40936224001308058 0 0.117866085899093 -0.41583132647739651 0 0.1096180349996463 -0.41151587164058129 0 0.1250254850364893 -0.40936224001308058 0 0.1096180349996463 -0.41151587164058129 0 0.13212255532719441 -0.42024495614079282 0 0.11851153239627241 -0.42275952171654291 0 0.117866085899093 -0.41583132647739651 0 0.117866085899093 -0.41583132647739651 0 0.1123596205074209 -0.41890237594444008 0 0.1096180349996463 -0.41151587164058129 0 0.11851153239627241 -0.42275952171654291 0 0.117866085899093 -0.41583132647739651 0 0.1123596205074209 -0.41890237594444008 0 0.11152958735588871 -0.42539382439527612 0 0.1123596205074209 -0.41890237594444008 0 0.1045809803654715 -0.42051706085107571 0 0.1123596205074209 -0.41890237594444008 0 0.1096180349996463 -0.41151587164058129 0 0.1065506547415149 -0.41613106226330793 0 0.1096180349996463 -0.41151587164058129 0 0.1065506547415149 -0.41613106226330793 0 0.099702730965631758 -0.41290181884877419 0 0.1096180349996463 -0.41151587164058129 0 0.099702730965631758 -0.41290181884877419 0 0.1096180349996463 -0.41151587164058129 0 0.099702730965631758 -0.41290181884877419 0 0.1041447551606165 -0.40305668800175581 0 0.1123596205074209 -0.41890237594444008 0 0.1065506547415149 -0.41613106226330793 0 0.1045809803654715 -0.42051706085107571 0 0.1065506547415149 -0.41613106226330793 0 0.1045809803654715 -0.42051706085107571 0 0.099702730965631758 -0.41290181884877419 0 0.1045809803654715 -0.42051706085107571 0 0.093827427438274241 -0.41775801958915132 0 0.099702730965631758 -0.41290181884877419 0 0.097645949564215143 -0.42435504664253748 0 0.1045809803654715 -0.42051706085107571 0 0.093827427438274241 -0.41775801958915132 0 0.086447448161059384 -0.41120764722282821 0 0.099702730965631758 -0.41290181884877419 0 0.095691580682652475 -0.39908469234235189 0 0.095691580682652475 -0.39908469234235189 0 0.1041447551606165 -0.40305668800175581 0 0.1115666739945345 -0.38872436917531578 0 0.099702730965631758 -0.41290181884877419 0 0.095691580682652475 -0.39908469234235189 0 0.1041447551606165 -0.40305668800175581 0 0.1096180349996463 -0.41151587164058129 0 0.1041447551606165 -0.40305668800175581 0 0.1115666739945345 -0.38872436917531578 0 0.1250254850364893 -0.40936224001308058 0 0.1115666739945345 -0.38872436917531578 0 0.1096180349996463 -0.41151587164058129 0 0.1115666739945345 -0.38872436917531578 0 0.1250254850364893 -0.40936224001308058 0 0.1096180349996463 -0.41151587164058129 0 0.1115666739945345 -0.38872436917531578 0 0.12645644117523869 -0.39722706905544619 0 0.1250254850364893 -0.40936224001308058 0 0.1115666739945345 -0.38872436917531578 0 0.12609635470998201 -0.38402791619100712 0 0.1115666739945345 -0.38872436917531578 0 0.113745377556003 -0.36324200547299851 0 0.1115666739945345 -0.38872436917531578 0 0.113745377556003 -0.36324200547299851 0 0.12609635470998201 -0.38402791619100712 0 0.12645644117523869 -0.39722706905544619 0 0.1115666739945345 -0.38872436917531578 0 0.1115666739945345 -0.38872436917531578 0 0.096372132326470572 -0.36542491223168638 0 0.1115666739945345 -0.38872436917531578 0 0.089853218628298884 -0.38394717958202601 0 0.096372132326470572 -0.36542491223168638 0 0.095691580682652475 -0.39908469234235189 0 0.1115666739945345 -0.38872436917531578 0 0.089853218628298884 -0.38394717958202601 0 0.089853218628298884 -0.38394717958202601 0 0.082924844884061683 -0.39714926844771359 0 0.072939106935086151 -0.38728773006234168 0 0.089853218628298884 -0.38394717958202601 0 0.072939106935086151 -0.38728773006234168 0 0.07582030708563034 -0.37256671738353597 0 0.095691580682652475 -0.39908469234235189 0 0.089853218628298884 -0.38394717958202601 0 0.082924844884061683 -0.39714926844771359 0 0.086447448161059384 -0.41120764722282821 0 0.082924844884061683 -0.39714926844771359 0 0.069775570718114244 -0.40426700169235308 0 0.086447448161059384 -0.41120764722282821 0 0.095691580682652475 -0.39908469234235189 0 0.082924844884061683 -0.39714926844771359 0 0.069775570718114244 -0.40426700169235308 0 0.072939106935086151 -0.38728773006234168 0 0.058313699768321348 -0.39007371912844929 0 0.082924844884061683 -0.39714926844771359 0 0.069775570718114244 -0.40426700169235308 0 0.072939106935086151 -0.38728773006234168 0 0.072939106935086151 -0.38728773006234168 0 0.05933500968155693 -0.37671477575793533 0 0.058313699768321348 -0.39007371912844929 0 0.072939106935086151 -0.38728773006234168 0 0.05933500968155693 -0.37671477575793533 0 0.07582030708563034 -0.37256671738353597 0 0.05933500968155693 -0.37671477575793533 0 0.043300396670470892 -0.38581293046691678 0 0.039079294002052851 -0.37065651216905859 0 0.05933500968155693 -0.37671477575793533 0 0.058313699768321348 -0.39007371912844929 0 0.043300396670470892 -0.38581293046691678 0 0.058313699768321348 -0.39007371912844929 0 0.0466875803122518 -0.39705513158652528 0 0.054373060569327003 -0.40663711634463268 0 0.069775570718114244 -0.40426700169235308 0 0.058313699768321348 -0.39007371912844929 0 0.054373060569327003 -0.40663711634463268 0 0.058313699768321348 -0.39007371912844929 0 0.054373060569327003 -0.40663711634463268 0 0.0466875803122518 -0.39705513158652528 0 0.042121557959679479 -0.40689397827368962 0 0.054373060569327003 -0.40663711634463268 0 0.058313699768321348 -0.39007371912844929 0 0.0466875803122518 -0.39705513158652528 0 0.043300396670470892 -0.38581293046691678 0 0.0466875803122518 -0.39705513158652528 0 0.032645317368698572 -0.39721328630736241 0 0.043300396670470892 -0.38581293046691678 0 0.0466875803122518 -0.39705513158652528 0 0.032645317368698572 -0.39721328630736241 0 0.042121557959679479 -0.40689397827368962 0 0.032645317368698572 -0.39721328630736241 0 0.043300396670470892 -0.38581293046691678 0 0.025542853711361019 -0.38384675294920401 0 0.043300396670470892 -0.38581293046691678 0 0.025542853711361019 -0.38384675294920401 0 0.039079294002052851 -0.37065651216905859 0 0.025542853711361019 -0.38384675294920401 0 0.009690974369139977 -0.39295199195252922 0 0.016784443680880379 -0.36713146693108112 0 -0.0064694903547723136 -0.38059021958606692 0 0.009690974369139977 -0.39295199195252922 0 0.016784443680880379 -0.36713146693108112 0 0.032645317368698572 -0.39721328630736241 0 0.009690974369139977 -0.39295199195252922 0 0.030062121183744069 -0.41560348860952728 0 0.032645317368698572 -0.39721328630736241 0 0.025542853711361019 -0.38384675294920401 0 0.009690974369139977 -0.39295199195252922 0 0.009690974369139977 -0.39295199195252922 0 0.030062121183744069 -0.41560348860952728 0 0.01224976062295041 -0.42183763890738629 0 -0.0080625817845775948 -0.40608726553411861 0 0.009690974369139977 -0.39295199195252922 0 0.01224976062295041 -0.42183763890738629 0 0.009690974369139977 -0.39295199195252922 0 0.01224976062295041 -0.42183763890738629 0 0.01224976062295041 -0.42183763890738629 0 0.01480854687676085 -0.45072328586224342 0 0.030062121183744069 -0.41560348860952728 0 0.01224976062295041 -0.42183763890738629 0 0.028535899264767479 -0.43733174884408438 0 0.01224976062295041 -0.42183763890738629 0 0.028535899264767479 -0.43733174884408438 0 0.01480854687676085 -0.45072328586224342 0 0.030062121183744069 -0.41560348860952728 0 0.028535899264767479 -0.43733174884408438 0 0.039909128579099777 -0.42893709763038412 0 0.039909128579099777 -0.42893709763038412 0 0.050432421370333713 -0.42320051356081623 0 0.04400553312424714 -0.45021417746364167 0 0.039909128579099777 -0.42893709763038412 0 0.046509667952406512 -0.41833555967385072 0 0.050432421370333713 -0.42320051356081623 0 0.032645317368698572 -0.39721328630736241 0 0.030062121183744069 -0.41560348860952728 0 0.042121557959679479 -0.40689397827368962 0 0.030062121183744069 -0.41560348860952728 0 0.039909128579099777 -0.42893709763038412 0 0.046509667952406512 -0.41833555967385072 0 0.030062121183744069 -0.41560348860952728 0 0.042121557959679479 -0.40689397827368962 0 0.046509667952406512 -0.41833555967385072 0 0.054373060569327003 -0.40663711634463268 0 0.050432421370333713 -0.42320051356081623 0 0.046509667952406512 -0.41833555967385072 0 0.054373060569327003 -0.40663711634463268 0 0.050432421370333713 -0.42320051356081623 0 0.054373060569327003 -0.40663711634463268 0 0.060774245729122177 -0.41691050055794487 0 0.050432421370333713 -0.42320051356081623 0 0.046509667952406512 -0.41833555967385072 0 0.050432421370333713 -0.42320051356081623 0 0.042121557959679479 -0.40689397827368962 0 0.046509667952406512 -0.41833555967385072 0 0.054373060569327003 -0.40663711634463268 0 0.069775570718114244 -0.40426700169235308 0 0.054373060569327003 -0.40663711634463268 0 0.060774245729122177 -0.41691050055794487 0 0.050432421370333713 -0.42320051356081623 0 0.04400553312424714 -0.45021417746364167 0 0.065913834705597293 -0.44240038517061198 0 0.050432421370333713 -0.42320051356081623 0 0.065913834705597293 -0.44240038517061198 0 0.065921365320016911 -0.4273577277455588 0 0.050432421370333713 -0.42320051356081623 0 0.065921365320016911 -0.4273577277455588 0 0.060774245729122177 -0.41691050055794487 0 0.050432421370333713 -0.42320051356081623 0 0.065913834705597293 -0.44240038517061198 0 0.050432421370333713 -0.42320051356081623 0 0.04400553312424714 -0.45021417746364167 0 0.065913834705597293 -0.44240038517061198 0 0.057068655694905858 -0.46015288389510001 0 0.04400553312424714 -0.45021417746364167 0 0.057068655694905858 -0.46015288389510001 0 0.048043393468649283 -0.46676160836513853 0 0.04400553312424714 -0.45021417746364167 0 0.067447632246636219 -0.45716428258124142 0 0.057068655694905858 -0.46015288389510001 0 0.05849497948899289 -0.47642287528831911 0 0.057068655694905858 -0.46015288389510001 0 0.048043393468649283 -0.46676160836513853 0 0.052635520687858477 -0.47072247146996382 0 0.04400553312424714 -0.45021417746364167 0 0.037578644878161642 -0.47722784136646751 0 0.048043393468649283 -0.46676160836513853 0 0.04400553312424714 -0.45021417746364167 0 0.037578644878161642 -0.47722784136646751 0 0.04400553312424714 -0.45021417746364167 0 0.030366658319331299 -0.45781827645911538 0 0.037578644878161642 -0.47722784136646751 0 0.028535899264767479 -0.43733174884408438 0 0.039909128579099777 -0.42893709763038412 0 0.04400553312424714 -0.45021417746364167 0 0.028535899264767479 -0.43733174884408438 0 0.04400553312424714 -0.45021417746364167 0 0.030366658319331299 -0.45781827645911538 0 0.028535899264767479 -0.43733174884408438 0 0.01480854687676085 -0.45072328586224342 0 0.030366658319331299 -0.45781827645911538 0 -0.008216644178786571 -0.4466179140804285 0 0.01224976062295041 -0.42183763890738629 0 0.01480854687676085 -0.45072328586224342 0 0.01480854687676085 -0.45072328586224342 0 0.017367333130571299 -0.47960893281710049 0 0.0084119176919832291 -0.471974008478943 0 -0.0021957942935651631 -0.46571035637089769 0 0.01480854687676085 -0.45072328586224342 0 0.0084119176919832291 -0.471974008478943 0 -0.008216644178786571 -0.4466179140804285 0 -0.0021957942935651631 -0.46571035637089769 0 0.01480854687676085 -0.45072328586224342 0 0.01480854687676085 -0.45072328586224342 0 0.017367333130571299 -0.47960893281710049 0 0.01480854687676085 -0.45072328586224342 0 0.030366658319331299 -0.45781827645911538 0 0.0269046674527194 -0.47359432875914009 0 0.01480854687676085 -0.45072328586224342 0 0.0269046674527194 -0.47359432875914009 0 0.017367333130571299 -0.47960893281710049 0 0.017367333130571299 -0.47960893281710049 0 0.012735562036971701 -0.48508522326900949 0 0.035615270762982369 -0.48075404927866472 0 0.012735562036971701 -0.48508522326900949 0 0.035615270762982369 -0.48075404927866472 0 0.0269046674527194 -0.47359432875914009 0 0.017367333130571299 -0.47960893281710049 0 0.035615270762982369 -0.48075404927866472 0 0.017367333130571299 -0.47960893281710049 0 0.0084119176919832291 -0.471974008478943 0 0.012735562036971701 -0.48508522326900949 0 -0.00065605929082254884 -0.47874224407546379 0 0.0084119176919832291 -0.471974008478943 0 0.012735562036971701 -0.48508522326900949 0 -0.0021957942935651631 -0.46571035637089769 0 -0.00065605929082254884 -0.47874224407546379 0 0.0084119176919832291 -0.471974008478943 0 -0.010144146689038991 -0.48941639725935437 0 -0.00065605929082254884 -0.47874224407546379 0 0.012735562036971701 -0.48508522326900949 0 -0.010144146689038991 -0.48941639725935437 0 0.012735562036971701 -0.48508522326900949 0 -0.011489863113854141 -0.5 0 0.012735562036971701 -0.48508522326900949 0 0.01802246382714956 -0.5 0 0.01802246382714956 -0.5 0 0.025329369399590369 -0.48901546815995378 0 0.047534790768153173 -0.50000000000000044 0 0.012735562036971701 -0.48508522326900949 0 0.025329369399590369 -0.48901546815995378 0 0.035615270762982369 -0.48075404927866472 0 0.012735562036971701 -0.48508522326900949 0 0.01802246382714956 -0.5 0 0.025329369399590369 -0.48901546815995378 0 0.025329369399590369 -0.48901546815995378 0 0.035615270762982369 -0.48075404927866472 0 0.047534790768153173 -0.50000000000000044 0 0.030366658319331299 -0.45781827645911538 0 0.0269046674527194 -0.47359432875914009 0 0.037578644878161642 -0.47722784136646751 0 0.0269046674527194 -0.47359432875914009 0 0.037578644878161642 -0.47722784136646751 0 0.035615270762982369 -0.48075404927866472 0 0.048043393468649283 -0.46676160836513853 0 0.037578644878161642 -0.47722784136646751 0 0.046296380844488463 -0.47463440362945558 0 0.035615270762982369 -0.48075404927866472 0 0.046296380844488463 -0.47463440362945558 0 0.049693011087844949 -0.4756354888466594 0 0.037578644878161642 -0.47722784136646751 0 0.035615270762982369 -0.48075404927866472 0 0.046296380844488463 -0.47463440362945558 0 0.057068655694905858 -0.46015288389510001 0 0.052635520687858477 -0.47072247146996382 0 0.05849497948899289 -0.47642287528831911 0 0.035615270762982369 -0.48075404927866472 0 0.049693011087844949 -0.4756354888466594 0 0.05849497948899289 -0.47642287528831911 0 0.035615270762982369 -0.48075404927866472 0 0.05849497948899289 -0.47642287528831911 0 0.048043393468649283 -0.46676160836513853 0 0.046296380844488463 -0.47463440362945558 0 0.052635520687858477 -0.47072247146996382 0 0.049693011087844949 -0.4756354888466594 0 0.052635520687858477 -0.47072247146996382 0 0.05849497948899289 -0.47642287528831911 0 0.046296380844488463 -0.47463440362945558 0 0.049693011087844949 -0.4756354888466594 0 0.052635520687858477 -0.47072247146996382 0 0.05849497948899289 -0.47642287528831911 0 0.061758178687080389 -0.47580514524370598 0 0.062670741706174135 -0.48944359682069549 0 0.064881374578912687 -0.4815757870058418 0 0.05849497948899289 -0.47642287528831911 0 0.064881374578912687 -0.4815757870058418 0 0.05849497948899289 -0.47642287528831911 0 0.061758178687080389 -0.47580514524370598 0 0.069142552082564368 -0.5 0 0.062670741706174135 -0.48944359682069549 0 0.047534790768153173 -0.50000000000000044 0 0.05849497948899289 -0.47642287528831911 0 0.047534790768153173 -0.50000000000000044 0 0.035615270762982369 -0.48075404927866472 0 0.05849497948899289 -0.47642287528831911 0 0.047534790768153173 -0.50000000000000044 0 0.062670741706174135 -0.48944359682069549 0 0.05849497948899289 -0.47642287528831911 0 0.047534790768153173 -0.50000000000000044 0 0.089727975817252392 -0.29646224842349211 0 0.069967983226982527 -0.30495776272600778 0 0.075483032258224086 -0.28815868119130272 0 0.089727975817252392 -0.29646224842349211 0 0.088503230311337153 -0.27716835087377989 0 0.101883582619993 -0.28460947857741209 0 0.089727975817252392 -0.29646224842349211 0 0.075483032258224086 -0.28815868119130272 0 0.088503230311337153 -0.27716835087377989 0 0.089727975817252392 -0.29646224842349211 0 0.086214248119208581 -0.31193359067875348 0 0.069967983226982527 -0.30495776272600778 0 0.089727975817252392 -0.29646224842349211 0 0.086214248119208581 -0.31193359067875348 0 0.10049372866807189 -0.31082656242210721 0 0.069967983226982527 -0.30495776272600778 0 0.075483032258224086 -0.28815868119130272 0 0.059449054433483903 -0.28956707473318272 0 0.075483032258224086 -0.28815868119130272 0 0.0646939085167762 -0.2722383315448984 0 0.059449054433483903 -0.28956707473318272 0 0.0646939085167762 -0.2722383315448984 0 0.077350866508299074 -0.27549126298099152 0 0.080723294946858856 -0.26439968831398508 0 0.075483032258224086 -0.28815868119130272 0 0.0646939085167762 -0.2722383315448984 0 0.077350866508299074 -0.27549126298099152 0 0.0646939085167762 -0.2722383315448984 0 0.070005134957367529 -0.25889031236374099 0 0.080723294946858856 -0.26439968831398508 0 0.070005134957367529 -0.25889031236374099 0 0.061490933840310687 -0.25382890142296882 0 0.070069103552599196 -0.24823964670048029 0 0.0646939085167762 -0.2722383315448984 0 0.070005134957367529 -0.25889031236374099 0 0.060614126731859473 -0.2624009925450973 0 0.070005134957367529 -0.25889031236374099 0 0.061490933840310687 -0.25382890142296882 0 0.060614126731859473 -0.2624009925450973 0 0.070005134957367529 -0.25889031236374099 0 0.080071368274292315 -0.25145738896057979 0 0.080723294946858856 -0.26439968831398508 0 0.070005134957367529 -0.25889031236374099 0 0.080071368274292315 -0.25145738896057979 0 0.070069103552599196 -0.24823964670048029 0 0.080071368274292315 -0.25145738896057979 0 0.080723294946858856 -0.26439968831398508 0 0.090706365013478091 -0.25245448435890872 0 0.080723294946858856 -0.26439968831398508 0 0.090706365013478091 -0.25245448435890872 0 0.095060577752172304 -0.26241188567384149 0 0.075483032258224086 -0.28815868119130272 0 0.077350866508299074 -0.27549126298099152 0 0.088503230311337153 -0.27716835087377989 0 0.077350866508299074 -0.27549126298099152 0 0.080723294946858856 -0.26439968831398508 0 0.088503230311337153 -0.27716835087377989 0 0.080723294946858856 -0.26439968831398508 0 0.088503230311337153 -0.27716835087377989 0 0.095060577752172304 -0.26241188567384149 0 0.088503230311337153 -0.27716835087377989 0 0.1016952336099234 -0.27235330725820578 0 0.101883582619993 -0.28460947857741209 0 0.088503230311337153 -0.27716835087377989 0 0.1016952336099234 -0.27235330725820578 0 0.095060577752172304 -0.26241188567384149 0 0.1016952336099234 -0.27235330725820578 0 0.1104739380917857 -0.2612093749811526 0 0.1125548392743288 -0.27636744618484282 0 0.1016952336099234 -0.27235330725820578 0 0.1125548392743288 -0.27636744618484282 0 0.101883582619993 -0.28460947857741209 0 0.090706365013478091 -0.25245448435890872 0 0.099550463170151926 -0.25262580003909579 0 0.095060577752172304 -0.26241188567384149 0 0.1016952336099234 -0.27235330725820578 0 0.095060577752172304 -0.26241188567384149 0 0.1104739380917857 -0.2612093749811526 0 0.099550463170151926 -0.25262580003909579 0 0.095060577752172304 -0.26241188567384149 0 0.1104739380917857 -0.2612093749811526 0 0.099550463170151926 -0.25262580003909579 0 0.1104739380917857 -0.2612093749811526 0 0.1078238037173969 -0.24832262031645649 0 0.1311170075682456 -0.27142576198599933 0 0.1104739380917857 -0.2612093749811526 0 0.1212054647883809 -0.25073068226796852 0 0.1104739380917857 -0.2612093749811526 0 0.1212054647883809 -0.25073068226796852 0 0.1078238037173969 -0.24832262031645649 0 0.1311170075682456 -0.27142576198599933 0 0.1104739380917857 -0.2612093749811526 0 0.1311170075682456 -0.27142576198599933 0 0.1104739380917857 -0.2612093749811526 0 0.1193620271946058 -0.27249351692823448 0 0.1104739380917857 -0.2612093749811526 0 0.1125548392743288 -0.27636744618484282 0 0.1193620271946058 -0.27249351692823448 0 0.1125548392743288 -0.27636744618484282 0 0.1193620271946058 -0.27249351692823448 0 0.1233023238440631 -0.28097148456094378 0 0.1311170075682456 -0.27142576198599933 0 0.1193620271946058 -0.27249351692823448 0 0.1233023238440631 -0.28097148456094378 0 0.1233023238440631 -0.28097148456094378 0 0.1242383748246253 -0.29131174999725179 0 0.1141297936923768 -0.28878453930630188 0 0.1242383748246253 -0.29131174999725179 0 0.1141297936923768 -0.28878453930630188 0 0.1198701537204314 -0.30089140532399938 0 0.1141297936923768 -0.28878453930630188 0 0.10622170970645189 -0.29895353846799488 0 0.1198701537204314 -0.30089140532399938 0 0.1125548392743288 -0.27636744618484282 0 0.1233023238440631 -0.28097148456094378 0 0.1141297936923768 -0.28878453930630188 0 0.1125548392743288 -0.27636744618484282 0 0.1141297936923768 -0.28878453930630188 0 0.101883582619993 -0.28460947857741209 0 0.089727975817252392 -0.29646224842349211 0 0.101883582619993 -0.28460947857741209 0 0.10622170970645189 -0.29895353846799488 0 0.1141297936923768 -0.28878453930630188 0 0.101883582619993 -0.28460947857741209 0 0.10622170970645189 -0.29895353846799488 0 0.089727975817252392 -0.29646224842349211 0 0.10049372866807189 -0.31082656242210721 0 0.10622170970645189 -0.29895353846799488 0 0.10049372866807189 -0.31082656242210721 0 0.10622170970645189 -0.29895353846799488 0 0.1134387524627216 -0.31086840579325631 0 0.10622170970645189 -0.29895353846799488 0 0.1134387524627216 -0.31086840579325631 0 0.1198701537204314 -0.30089140532399938 0 0.1265219532001009 -0.3124330460259736 0 0.1134387524627216 -0.31086840579325631 0 0.1198701537204314 -0.30089140532399938 0 0.1265219532001009 -0.3124330460259736 0 0.1134387524627216 -0.31086840579325631 0 0.1192961391526948 -0.32261879728377291 0 0.1134387524627216 -0.31086840579325631 0 0.1192961391526948 -0.32261879728377291 0 0.1082288303285789 -0.31948708523568958 0 0.1192961391526948 -0.32261879728377291 0 0.1093748658769356 -0.32997486192450581 0 0.1082288303285789 -0.31948708523568958 0 0.1192961391526948 -0.32261879728377291 0 0.1168506625355451 -0.3296807312869221 0 0.1093748658769356 -0.32997486192450581 0 0.1192961391526948 -0.32261879728377291 0 0.12260601330919629 -0.33072698382653798 0 0.1168506625355451 -0.3296807312869221 0 0.13219802669416811 -0.32498852212276208 0 0.1192961391526948 -0.32261879728377291 0 0.12260601330919629 -0.33072698382653798 0 0.13051916655351839 -0.33696304048325831 0 0.12260601330919629 -0.33072698382653798 0 0.1159240811174677 -0.33775964177068091 0 0.12260601330919629 -0.33072698382653798 0 0.1159240811174677 -0.33775964177068091 0 0.1161256318033537 -0.33540228211287182 0 0.12260601330919629 -0.33072698382653798 0 0.1168506625355451 -0.3296807312869221 0 0.1161256318033537 -0.33540228211287182 0 0.13051916655351839 -0.33696304048325831 0 0.1159240811174677 -0.33775964177068091 0 0.13051916655351839 -0.33696304048325831 0 0.1159240811174677 -0.33775964177068091 0 0.123981461538115 -0.35128285539313481 0 0.1159240811174677 -0.33775964177068091 0 0.1161256318033537 -0.33540228211287182 0 0.1168506625355451 -0.3296807312869221 0 0.1161256318033537 -0.33540228211287182 0 0.1093748658769356 -0.32997486192450581 0 0.1159240811174677 -0.33775964177068091 0 0.1161256318033537 -0.33540228211287182 0 0.1093748658769356 -0.32997486192450581 0 0.1159240811174677 -0.33775964177068091 0 0.092335912071574502 -0.33904708650077298 0 0.1159240811174677 -0.33775964177068091 0 0.1093748658769356 -0.32997486192450581 0 0.092335912071574502 -0.33904708650077298 0 0.1093748658769356 -0.32997486192450581 0 0.096347407600029022 -0.32440529872184809 0 0.092335912071574502 -0.33904708650077298 0 0.1159240811174677 -0.33775964177068091 0 0.10211321446004019 -0.35101158716873732 0 0.092335912071574502 -0.33904708650077298 0 0.086214248119208581 -0.31193359067875348 0 0.10049372866807189 -0.31082656242210721 0 0.096347407600029022 -0.32440529872184809 0 0.10049372866807189 -0.31082656242210721 0 0.1134387524627216 -0.31086840579325631 0 0.1082288303285789 -0.31948708523568958 0 0.10049372866807189 -0.31082656242210721 0 0.096347407600029022 -0.32440529872184809 0 0.1082288303285789 -0.31948708523568958 0 0.1093748658769356 -0.32997486192450581 0 0.096347407600029022 -0.32440529872184809 0 0.1082288303285789 -0.31948708523568958 0 0.12784456261830821 -0.36308533366748658 0 0.12609635470998201 -0.38402791619100712 0 0.113745377556003 -0.36324200547299851 0 0.1159240811174677 -0.33775964177068091 0 0.113745377556003 -0.36324200547299851 0 0.123981461538115 -0.35128285539313481 0 0.1159240811174677 -0.33775964177068091 0 0.113745377556003 -0.36324200547299851 0 0.1159240811174677 -0.33775964177068091 0 0.113745377556003 -0.36324200547299851 0 0.10211321446004019 -0.35101158716873732 0 0.12784456261830821 -0.36308533366748658 0 0.113745377556003 -0.36324200547299851 0 0.123981461538115 -0.35128285539313481 0 0.1115666739945345 -0.38872436917531578 0 0.113745377556003 -0.36324200547299851 0 0.096372132326470572 -0.36542491223168638 0 0.113745377556003 -0.36324200547299851 0 0.10211321446004019 -0.35101158716873732 0 0.096372132326470572 -0.36542491223168638 0 0.089853218628298884 -0.38394717958202601 0 0.096372132326470572 -0.36542491223168638 0 0.07582030708563034 -0.37256671738353597 0 0.096372132326470572 -0.36542491223168638 0 0.082110249222110576 -0.35466523699539548 0 0.07582030708563034 -0.37256671738353597 0 0.10211321446004019 -0.35101158716873732 0 0.096372132326470572 -0.36542491223168638 0 0.082110249222110576 -0.35466523699539548 0 0.082110249222110576 -0.35466523699539548 0 0.092335912071574502 -0.33904708650077298 0 0.068747743025681235 -0.34033453123086538 0 0.10211321446004019 -0.35101158716873732 0 0.082110249222110576 -0.35466523699539548 0 0.092335912071574502 -0.33904708650077298 0 0.082110249222110576 -0.35466523699539548 0 0.068747743025681235 -0.34033453123086538 0 0.057272186363266697 -0.35960658745677498 0 0.082110249222110576 -0.35466523699539548 0 0.07582030708563034 -0.37256671738353597 0 0.057272186363266697 -0.35960658745677498 0 0.05933500968155693 -0.37671477575793533 0 0.07582030708563034 -0.37256671738353597 0 0.057272186363266697 -0.35960658745677498 0 0.086214248119208581 -0.31193359067875348 0 0.096347407600029022 -0.32440529872184809 0 0.078030795921920637 -0.32434601069550512 0 0.092335912071574502 -0.33904708650077298 0 0.068747743025681235 -0.34033453123086538 0 0.078030795921920637 -0.32434601069550512 0 0.092335912071574502 -0.33904708650077298 0 0.068747743025681235 -0.34033453123086538 0 0.096347407600029022 -0.32440529872184809 0 0.092335912071574502 -0.33904708650077298 0 0.078030795921920637 -0.32434601069550512 0 0.068747743025681235 -0.34033453123086538 0 0.078030795921920637 -0.32434601069550512 0 0.053863538987460123 -0.3232816795844588 0 0.069967983226982527 -0.30495776272600778 0 0.078030795921920637 -0.32434601069550512 0 0.053863538987460123 -0.3232816795844588 0 0.086214248119208581 -0.31193359067875348 0 0.069967983226982527 -0.30495776272600778 0 0.078030795921920637 -0.32434601069550512 0 0.068747743025681235 -0.34033453123086538 0 0.045159573979787898 -0.34162197596095778 0 0.068747743025681235 -0.34033453123086538 0 0.053863538987460123 -0.3232816795844588 0 0.045159573979787898 -0.34162197596095778 0 0.053863538987460123 -0.3232816795844588 0 0.034832013842728909 -0.33032259781876938 0 0.045159573979787898 -0.34162197596095778 0 0.034832013842728909 -0.33032259781876938 0 0.045159573979787898 -0.34162197596095778 0 0.02157140493389462 -0.34290942069105018 0 0.045159573979787898 -0.34162197596095778 0 0.02157140493389462 -0.34290942069105018 0 0.053863538987460123 -0.3232816795844588 0 0.034832013842728909 -0.33032259781876938 0 0.03621734991660093 -0.31670946998547028 0 0.053863538987460123 -0.3232816795844588 0 0.03621734991660093 -0.31670946998547028 0 0.048768037075517537 -0.30442990221103089 0 0.05933500968155693 -0.37671477575793533 0 0.057272186363266697 -0.35960658745677498 0 0.039079294002052851 -0.37065651216905859 0 0.068747743025681235 -0.34033453123086538 0 0.045159573979787898 -0.34162197596095778 0 0.057272186363266697 -0.35960658745677498 0 0.045159573979787898 -0.34162197596095778 0 0.034512899630155462 -0.3545258348651717 0 0.02157140493389462 -0.34290942069105018 0 0.045159573979787898 -0.34162197596095778 0 0.057272186363266697 -0.35960658745677498 0 0.034512899630155462 -0.3545258348651717 0 0.057272186363266697 -0.35960658745677498 0 0.034512899630155462 -0.3545258348651717 0 0.039079294002052851 -0.37065651216905859 0 0.025542853711361019 -0.38384675294920401 0 0.039079294002052851 -0.37065651216905859 0 0.016784443680880379 -0.36713146693108112 0 0.034512899630155462 -0.3545258348651717 0 0.039079294002052851 -0.37065651216905859 0 0.016784443680880379 -0.36713146693108112 0 0.034512899630155462 -0.3545258348651717 0 0.016784443680880379 -0.36713146693108112 0 0.02157140493389462 -0.34290942069105018 0 -0.0043130761299947744 -0.35643483176966217 0 0.016784443680880379 -0.36713146693108112 0 0.02157140493389462 -0.34290942069105018 0 -0.0038616663111063101 -0.33241552487502413 0 -0.0043130761299947744 -0.35643483176966217 0 0.02157140493389462 -0.34290942069105018 0 -0.0043130761299947744 -0.35643483176966217 0 -0.0064694903547723136 -0.38059021958606692 0 0.016784443680880379 -0.36713146693108112 0 0.03621734991660093 -0.31670946998547028 0 0.020048637459846991 -0.32439583124448262 0 0.029165048793799431 -0.30349547286963757 0 0.034832013842728909 -0.33032259781876938 0 0.03621734991660093 -0.31670946998547028 0 0.020048637459846991 -0.32439583124448262 0 0.020048637459846991 -0.32439583124448262 0 0.0094652366165251054 -0.31053241408104548 0 0.029165048793799431 -0.30349547286963757 0 0.034832013842728909 -0.33032259781876938 0 0.020048637459846991 -0.32439583124448262 0 0.02157140493389462 -0.34290942069105018 0 -0.0038616663111063101 -0.33241552487502413 0 0.020048637459846991 -0.32439583124448262 0 0.02157140493389462 -0.34290942069105018 0 -0.0038616663111063101 -0.33241552487502413 0 0.020048637459846991 -0.32439583124448262 0 0.0094652366165251054 -0.31053241408104548 0 -0.01007927323019326 -0.3103345258507364 0 0.0094652366165251054 -0.31053241408104548 0 0.0017563221397047381 -0.2997067901486577 0 0.0094652366165251054 -0.31053241408104548 0 0.0017563221397047381 -0.2997067901486577 0 0.017453688627786131 -0.29322190620108468 0 0.0017563221397047381 -0.2997067901486577 0 0.0066437179820165657 -0.2861171845936395 0 0.017453688627786131 -0.29322190620108468 0 -0.0080748459131490501 -0.2914060437848453 0 0.0017563221397047381 -0.2997067901486577 0 0.0066437179820165657 -0.2861171845936395 0 0.0066437179820165657 -0.2861171845936395 0 0.017453688627786131 -0.29322190620108468 0 0.01908241754038794 -0.28073467218482329 0 0.017453688627786131 -0.29322190620108468 0 0.029398966714908509 -0.28692964748338379 0 0.029165048793799431 -0.30349547286963757 0 0.017453688627786131 -0.29322190620108468 0 0.029398966714908509 -0.28692964748338379 0 0.01908241754038794 -0.28073467218482329 0 0.0094652366165251054 -0.31053241408104548 0 0.017453688627786131 -0.29322190620108468 0 0.029165048793799431 -0.30349547286963757 0 0.03621734991660093 -0.31670946998547028 0 0.029165048793799431 -0.30349547286963757 0 0.048768037075517537 -0.30442990221103089 0 0.029165048793799431 -0.30349547286963757 0 0.043029943860180789 -0.28970337243015992 0 0.048768037075517537 -0.30442990221103089 0 0.029398966714908509 -0.28692964748338379 0 0.029165048793799431 -0.30349547286963757 0 0.043029943860180789 -0.28970337243015992 0 0.029398966714908509 -0.28692964748338379 0 0.043029943860180789 -0.28970337243015992 0 0.038396769586432553 -0.27977596087564799 0 0.043029943860180789 -0.28970337243015992 0 0.051749435803858171 -0.27840569125857739 0 0.038396769586432553 -0.27977596087564799 0 0.043029943860180789 -0.28970337243015992 0 0.059449054433483903 -0.28956707473318272 0 0.051749435803858171 -0.27840569125857739 0 0.043029943860180789 -0.28970337243015992 0 0.059449054433483903 -0.28956707473318272 0 0.048768037075517537 -0.30442990221103089 0 0.069967983226982527 -0.30495776272600778 0 0.059449054433483903 -0.28956707473318272 0 0.048768037075517537 -0.30442990221103089 0 0.069967983226982527 -0.30495776272600778 0 0.053863538987460123 -0.3232816795844588 0 0.048768037075517537 -0.30442990221103089 0 0.053380735395516472 -0.25867595766617779 0 0.04428054005230446 -0.26275141268032309 0 0.045372505498807933 -0.25408090721008542 0 0.053380735395516472 -0.25867595766617779 0 0.053158010572478251 -0.26777612517812432 0 0.04428054005230446 -0.26275141268032309 0 0.053380735395516472 -0.25867595766617779 0 0.045372505498807933 -0.25408090721008542 0 0.05268811686830014 -0.24901610311096159 0 0.053380735395516472 -0.25867595766617779 0 0.061490933840310687 -0.25382890142296882 0 0.05268811686830014 -0.24901610311096159 0 0.053380735395516472 -0.25867595766617779 0 0.060614126731859473 -0.2624009925450973 0 0.053158010572478251 -0.26777612517812432 0 0.053380735395516472 -0.25867595766617779 0 0.061490933840310687 -0.25382890142296882 0 0.060614126731859473 -0.2624009925450973 0 0.0646939085167762 -0.2722383315448984 0 0.060614126731859473 -0.2624009925450973 0 0.053158010572478251 -0.26777612517812432 0 0.0646939085167762 -0.2722383315448984 0 0.059449054433483903 -0.28956707473318272 0 0.051749435803858171 -0.27840569125857739 0 0.0646939085167762 -0.2722383315448984 0 0.051749435803858171 -0.27840569125857739 0 0.053158010572478251 -0.26777612517812432 0 0.053158010572478251 -0.26777612517812432 0 0.044229316934554799 -0.27218436537367241 0 0.04428054005230446 -0.26275141268032309 0 0.051749435803858171 -0.27840569125857739 0 0.053158010572478251 -0.26777612517812432 0 0.044229316934554799 -0.27218436537367241 0 0.044229316934554799 -0.27218436537367241 0 0.031885251388666561 -0.26470215361104171 0 0.04428054005230446 -0.26275141268032309 0 0.051749435803858171 -0.27840569125857739 0 0.044229316934554799 -0.27218436537367241 0 0.038396769586432553 -0.27977596087564799 0 0.044229316934554799 -0.27218436537367241 0 0.038396769586432553 -0.27977596087564799 0 0.029696712261103771 -0.27487286106778819 0 0.029398966714908509 -0.28692964748338379 0 0.038396769586432553 -0.27977596087564799 0 0.029696712261103771 -0.27487286106778819 0 0.044229316934554799 -0.27218436537367241 0 0.031885251388666561 -0.26470215361104171 0 0.029696712261103771 -0.27487286106778819 0 0.037315510146954597 -0.25849363249326118 0 0.031885251388666561 -0.26470215361104171 0 0.04428054005230446 -0.26275141268032309 0 0.037315510146954597 -0.25849363249326118 0 0.031885251388666561 -0.26470215361104171 0 0.03069464768829987 -0.25176037071845259 0 0.037315510146954597 -0.25849363249326118 0 0.04428054005230446 -0.26275141268032309 0 0.045372505498807933 -0.25408090721008542 0 0.045372505498807933 -0.25408090721008542 0 0.03069464768829987 -0.25176037071845259 0 0.042588116356466379 -0.2448823624008481 0 0.037315510146954597 -0.25849363249326118 0 0.045372505498807933 -0.25408090721008542 0 0.03069464768829987 -0.25176037071845259 0 0.031885251388666561 -0.26470215361104171 0 0.021199614426200629 -0.26114166245967918 0 0.019908913466960752 -0.27058631964059482 0 0.031885251388666561 -0.26470215361104171 0 0.03069464768829987 -0.25176037071845259 0 0.021199614426200629 -0.26114166245967918 0 0.03069464768829987 -0.25176037071845259 0 0.021199614426200629 -0.26114166245967918 0 0.016145176335298529 -0.25210595968411048 0 0.029398966714908509 -0.28692964748338379 0 0.029696712261103771 -0.27487286106778819 0 0.01908241754038794 -0.28073467218482329 0 0.031885251388666561 -0.26470215361104171 0 0.029696712261103771 -0.27487286106778819 0 0.019908913466960752 -0.27058631964059482 0 0.019908913466960752 -0.27058631964059482 0 0.01908241754038794 -0.28073467218482329 0 0.01128192931255503 -0.27464126756021451 0 0.029696712261103771 -0.27487286106778819 0 0.019908913466960752 -0.27058631964059482 0 0.01908241754038794 -0.28073467218482329 0 -0.01145854626600548 -0.26602311564559261 0 0.01128192931255503 -0.27464126756021451 0 0.0057158633005241696 -0.26337829885565528 0 0.0066437179820165657 -0.2861171845936395 0 0.01908241754038794 -0.28073467218482329 0 0.01128192931255503 -0.27464126756021451 0 0.019908913466960752 -0.27058631964059482 0 0.01128192931255503 -0.27464126756021451 0 0.0057158633005241696 -0.26337829885565528 0 -0.002848760243290064 -0.27761611820401882 0 0.0066437179820165657 -0.2861171845936395 0 0.01128192931255503 -0.27464126756021451 0 0.016145176335298529 -0.25210595968411048 0 0.0057158633005241696 -0.26337829885565528 0 0.0054759062840018038 -0.25064707341720888 0 0.021199614426200629 -0.26114166245967918 0 0.019908913466960752 -0.27058631964059482 0 0.0057158633005241696 -0.26337829885565528 0 0.021199614426200629 -0.26114166245967918 0 0.016145176335298529 -0.25210595968411048 0 0.0057158633005241696 -0.26337829885565528 0 -0.0009620894167222515 -0.25496392916579452 0 0.0057158633005241696 -0.26337829885565528 0 0.0054759062840018038 -0.25064707341720888 0 -0.0009620894167222515 -0.25496392916579452 0 -0.0029313858115674811 -0.24854412401401971 0 0.0054759062840018038 -0.25064707341720888 0 0.0054759062840018038 -0.25064707341720888 0 0.0026199421412959989 -0.2430643023623929 0 0.011589873569895199 -0.24127835128668559 0 -0.0029313858115674811 -0.24854412401401971 0 0.0054759062840018038 -0.25064707341720888 0 0.0026199421412959989 -0.2430643023623929 0 0.016145176335298529 -0.25210595968411048 0 0.0054759062840018038 -0.25064707341720888 0 0.011589873569895199 -0.24127835128668559 0 0.011589873569895199 -0.24127835128668559 0 0.010668172172219499 -0.2272828987723072 0 0.020574075722817331 -0.2351284197632682 0 0.0026199421412959989 -0.2430643023623929 0 0.011589873569895199 -0.24127835128668559 0 0.0017465435191736189 -0.23378549097037141 0 -0.00080535468136348092 -0.21995366459000901 0 0.010668172172219499 -0.2272828987723072 0 0.01016515501406726 -0.20926501301563591 0 -0.00080535468136348092 -0.21995366459000901 0 0.0017465435191736189 -0.23378549097037141 0 0.010668172172219499 -0.2272828987723072 0 0.010668172172219499 -0.2272828987723072 0 0.02170661161633574 -0.22145314359659171 0 0.01016515501406726 -0.20926501301563591 0 0.011589873569895199 -0.24127835128668559 0 0.0017465435191736189 -0.23378549097037141 0 0.010668172172219499 -0.2272828987723072 0 0.010668172172219499 -0.2272828987723072 0 0.02170661161633574 -0.22145314359659171 0 0.020574075722817331 -0.2351284197632682 0 0.02170661161633574 -0.22145314359659171 0 0.02866695829179056 -0.22960637228307629 0 0.036392787169896093 -0.22322562645731159 0 0.02170661161633574 -0.22145314359659171 0 0.02866695829179056 -0.22960637228307629 0 0.020574075722817331 -0.2351284197632682 0 0.02866695829179056 -0.22960637228307629 0 0.020574075722817331 -0.2351284197632682 0 0.032071787069821417 -0.24054619649286721 0 0.022195152742869501 -0.2444300013669817 0 0.020574075722817331 -0.2351284197632682 0 0.032071787069821417 -0.24054619649286721 0 0.03069464768829987 -0.25176037071845259 0 0.022195152742869501 -0.2444300013669817 0 0.032071787069821417 -0.24054619649286721 0 0.03069464768829987 -0.25176037071845259 0 0.016145176335298529 -0.25210595968411048 0 0.022195152742869501 -0.2444300013669817 0 0.016145176335298529 -0.25210595968411048 0 0.011589873569895199 -0.24127835128668559 0 0.022195152742869501 -0.2444300013669817 0 0.011589873569895199 -0.24127835128668559 0 0.022195152742869501 -0.2444300013669817 0 0.020574075722817331 -0.2351284197632682 0 -0.003739977245034012 -0.19168309442994089 0 0.010514116253606281 -0.1925853606064957 0 0.01016515501406726 -0.20926501301563591 0 0.010514116253606281 -0.1925853606064957 0 0.01016515501406726 -0.20926501301563591 0 0.018596641755985681 -0.20049862993462389 0 0.02170661161633574 -0.22145314359659171 0 0.01016515501406726 -0.20926501301563591 0 0.028304225500431591 -0.20785134554231141 0 0.01016515501406726 -0.20926501301563591 0 0.028304225500431591 -0.20785134554231141 0 0.018596641755985681 -0.20049862993462389 0 0.02170661161633574 -0.22145314359659171 0 0.028304225500431591 -0.20785134554231141 0 0.036392787169896093 -0.22322562645731159 0 0.028304225500431591 -0.20785134554231141 0 0.018596641755985681 -0.20049862993462389 0 0.02540307025583758 -0.19229280057405279 0 0.010514116253606281 -0.1925853606064957 0 0.018596641755985681 -0.20049862993462389 0 0.02540307025583758 -0.19229280057405279 0 0.010514116253606281 -0.1925853606064957 0 0.02540307025583758 -0.19229280057405279 0 0.015764016274472759 -0.1812646672695073 0 0.02540307025583758 -0.19229280057405279 0 0.041440672425083092 -0.19607701236864419 0 0.030421272951226121 -0.1778391783376792 0 0.028304225500431591 -0.20785134554231141 0 0.02540307025583758 -0.19229280057405279 0 0.041440672425083092 -0.19607701236864419 0 0.041440672425083092 -0.19607701236864419 0 0.042310424588804782 -0.2140630995529598 0 0.055497750511994078 -0.2086068857692274 0 0.028304225500431591 -0.20785134554231141 0 0.041440672425083092 -0.19607701236864419 0 0.042310424588804782 -0.2140630995529598 0 0.028304225500431591 -0.20785134554231141 0 0.042310424588804782 -0.2140630995529598 0 0.036392787169896093 -0.22322562645731159 0 0.042310424588804782 -0.2140630995529598 0 0.055497750511994078 -0.2086068857692274 0 0.052955454276687589 -0.2198291654371925 0 0.062338921595789062 -0.21792006704763969 0 0.055497750511994078 -0.2086068857692274 0 0.052955454276687589 -0.2198291654371925 0 0.062338921595789062 -0.21792006704763969 0 0.055497750511994078 -0.2086068857692274 0 0.067863046951983474 -0.20503048868511209 0 0.055497750511994078 -0.2086068857692274 0 0.056257937900538298 -0.19577788601322099 0 0.067863046951983474 -0.20503048868511209 0 0.041440672425083092 -0.19607701236864419 0 0.056257937900538298 -0.19577788601322099 0 0.051449240160577621 -0.1762857105508405 0 0.041440672425083092 -0.19607701236864419 0 0.055497750511994078 -0.2086068857692274 0 0.056257937900538298 -0.19577788601322099 0 0.040491861427302538 -0.2355872617630255 0 0.042588116356466379 -0.2448823624008481 0 0.052307832003780613 -0.23884346229351339 0 0.040491861427302538 -0.2355872617630255 0 0.045866106706223042 -0.22907627795895011 0 0.052307832003780613 -0.23884346229351339 0 0.03069464768829987 -0.25176037071845259 0 0.042588116356466379 -0.2448823624008481 0 0.032071787069821417 -0.24054619649286721 0 0.040491861427302538 -0.2355872617630255 0 0.042588116356466379 -0.2448823624008481 0 0.032071787069821417 -0.24054619649286721 0 0.02866695829179056 -0.22960637228307629 0 0.040491861427302538 -0.2355872617630255 0 0.032071787069821417 -0.24054619649286721 0 0.02866695829179056 -0.22960637228307629 0 0.040491861427302538 -0.2355872617630255 0 0.036392787169896093 -0.22322562645731159 0 0.042310424588804782 -0.2140630995529598 0 0.036392787169896093 -0.22322562645731159 0 0.045866106706223042 -0.22907627795895011 0 0.040491861427302538 -0.2355872617630255 0 0.036392787169896093 -0.22322562645731159 0 0.045866106706223042 -0.22907627795895011 0 0.045866106706223042 -0.22907627795895011 0 0.058764067980626958 -0.22947949685718549 0 0.052307832003780613 -0.23884346229351339 0 0.045866106706223042 -0.22907627795895011 0 0.052955454276687589 -0.2198291654371925 0 0.058764067980626958 -0.22947949685718549 0 0.042310424588804782 -0.2140630995529598 0 0.045866106706223042 -0.22907627795895011 0 0.052955454276687589 -0.2198291654371925 0 0.062338921595789062 -0.21792006704763969 0 0.058764067980626958 -0.22947949685718549 0 0.065719467571416057 -0.22489822263154319 0 0.062338921595789062 -0.21792006704763969 0 0.052955454276687589 -0.2198291654371925 0 0.058764067980626958 -0.22947949685718549 0 0.058764067980626958 -0.22947949685718549 0 0.062159259289524899 -0.2368834247622158 0 0.052307832003780613 -0.23884346229351339 0 0.062159259289524899 -0.2368834247622158 0 0.052307832003780613 -0.23884346229351339 0 0.061229972926465738 -0.2445427902389527 0 0.045372505498807933 -0.25408090721008542 0 0.042588116356466379 -0.2448823624008481 0 0.05268811686830014 -0.24901610311096159 0 0.042588116356466379 -0.2448823624008481 0 0.052307832003780613 -0.23884346229351339 0 0.05268811686830014 -0.24901610311096159 0 0.061490933840310687 -0.25382890142296882 0 0.05268811686830014 -0.24901610311096159 0 0.061229972926465738 -0.2445427902389527 0 0.052307832003780613 -0.23884346229351339 0 0.05268811686830014 -0.24901610311096159 0 0.061229972926465738 -0.2445427902389527 0 0.061490933840310687 -0.25382890142296882 0 0.061229972926465738 -0.2445427902389527 0 0.070069103552599196 -0.24823964670048029 0 0.061229972926465738 -0.2445427902389527 0 0.070069103552599196 -0.24823964670048029 0 0.069856411684105391 -0.23913895996007839 0 0.062159259289524899 -0.2368834247622158 0 0.061229972926465738 -0.2445427902389527 0 0.069856411684105391 -0.23913895996007839 0 0.062159259289524899 -0.2368834247622158 0 0.069856411684105391 -0.23913895996007839 0 0.067142239376285745 -0.23139328163069281 0 0.069856411684105391 -0.23913895996007839 0 0.077788170153509889 -0.24196191377257101 0 0.076767606518392539 -0.23187249677345001 0 0.080071368274292315 -0.25145738896057979 0 0.070069103552599196 -0.24823964670048029 0 0.077788170153509889 -0.24196191377257101 0 0.070069103552599196 -0.24823964670048029 0 0.069856411684105391 -0.23913895996007839 0 0.077788170153509889 -0.24196191377257101 0 0.080071368274292315 -0.25145738896057979 0 0.090706365013478091 -0.25245448435890872 0 0.085906732882507178 -0.24385162082211831 0 0.080071368274292315 -0.25145738896057979 0 0.077788170153509889 -0.24196191377257101 0 0.085906732882507178 -0.24385162082211831 0 0.077788170153509889 -0.24196191377257101 0 0.085906732882507178 -0.24385162082211831 0 0.083256636250354649 -0.23616880796388259 0 0.077788170153509889 -0.24196191377257101 0 0.083256636250354649 -0.23616880796388259 0 0.076767606518392539 -0.23187249677345001 0 0.085906732882507178 -0.24385162082211831 0 0.089657973372422345 -0.23730775202069579 0 0.094006026236525903 -0.2441335510050745 0 0.085906732882507178 -0.24385162082211831 0 0.083256636250354649 -0.23616880796388259 0 0.089657973372422345 -0.23730775202069579 0 0.083256636250354649 -0.23616880796388259 0 0.089657973372422345 -0.23730775202069579 0 0.089763789457938253 -0.2306791647953326 0 0.089657973372422345 -0.23730775202069579 0 0.089763789457938253 -0.2306791647953326 0 0.096012267649498176 -0.23702186761809721 0 0.089657973372422345 -0.23730775202069579 0 0.094006026236525903 -0.2441335510050745 0 0.096012267649498176 -0.23702186761809721 0 0.090706365013478091 -0.25245448435890872 0 0.085906732882507178 -0.24385162082211831 0 0.094006026236525903 -0.2441335510050745 0 0.086446736705125371 -0.22420087797706609 0 0.091303359373345411 -0.22339335178318359 0 0.089763789457938253 -0.2306791647953326 0 0.086446736705125371 -0.22420087797706609 0 0.091303359373345411 -0.22339335178318359 0 0.086853981468707001 -0.2185547472363609 0 0.091303359373345411 -0.22339335178318359 0 0.086853981468707001 -0.2185547472363609 0 0.09077468002378962 -0.21857675351640271 0 0.091303359373345411 -0.22339335178318359 0 0.09077468002378962 -0.21857675351640271 0 0.094530837428433365 -0.22086489816084981 0 0.091303359373345411 -0.22339335178318359 0 0.089763789457938253 -0.2306791647953326 0 0.098670227838192195 -0.22970514568366851 0 0.086446736705125371 -0.22420087797706609 0 0.089763789457938253 -0.2306791647953326 0 0.083020570332336119 -0.22791650227557511 0 0.083256636250354649 -0.23616880796388259 0 0.083020570332336119 -0.22791650227557511 0 0.076767606518392539 -0.23187249677345001 0 0.083256636250354649 -0.23616880796388259 0 0.089763789457938253 -0.2306791647953326 0 0.083020570332336119 -0.22791650227557511 0 0.083020570332336119 -0.22791650227557511 0 0.077930889523722374 -0.22519622511208121 0 0.076767606518392539 -0.23187249677345001 0 0.083020570332336119 -0.22791650227557511 0 0.081291982893300085 -0.22046062379487821 0 0.077930889523722374 -0.22519622511208121 0 0.086446736705125371 -0.22420087797706609 0 0.083020570332336119 -0.22791650227557511 0 0.081291982893300085 -0.22046062379487821 0 0.086446736705125371 -0.22420087797706609 0 0.081291982893300085 -0.22046062379487821 0 0.086853981468707001 -0.2185547472363609 0 0.081291982893300085 -0.22046062379487821 0 0.077930889523722374 -0.22519622511208121 0 0.073706539318973169 -0.21796036257100029 0 0.072234091795087663 -0.22574485878751241 0 0.065719467571416057 -0.22489822263154319 0 0.073706539318973169 -0.21796036257100029 0 0.077930889523722374 -0.22519622511208121 0 0.072234091795087663 -0.22574485878751241 0 0.073706539318973169 -0.21796036257100029 0 0.069856411684105391 -0.23913895996007839 0 0.076767606518392539 -0.23187249677345001 0 0.067142239376285745 -0.23139328163069281 0 0.072234091795087663 -0.22574485878751241 0 0.076767606518392539 -0.23187249677345001 0 0.067142239376285745 -0.23139328163069281 0 0.077930889523722374 -0.22519622511208121 0 0.072234091795087663 -0.22574485878751241 0 0.076767606518392539 -0.23187249677345001 0 0.058764067980626958 -0.22947949685718549 0 0.062159259289524899 -0.2368834247622158 0 0.067142239376285745 -0.23139328163069281 0 0.058764067980626958 -0.22947949685718549 0 0.067142239376285745 -0.23139328163069281 0 0.065719467571416057 -0.22489822263154319 0 0.072234091795087663 -0.22574485878751241 0 0.067142239376285745 -0.23139328163069281 0 0.065719467571416057 -0.22489822263154319 0 0.062338921595789062 -0.21792006704763969 0 0.065719467571416057 -0.22489822263154319 0 0.073706539318973169 -0.21796036257100029 0 0.062338921595789062 -0.21792006704763969 0 0.067863046951983474 -0.20503048868511209 0 0.073706539318973169 -0.21796036257100029 0 0.067863046951983474 -0.20503048868511209 0 0.073706539318973169 -0.21796036257100029 0 0.079094442607528917 -0.20913243433380641 0 0.067863046951983474 -0.20503048868511209 0 0.081482512553192915 -0.1953056794767786 0 0.079094442607528917 -0.20913243433380641 0 0.056257937900538298 -0.19577788601322099 0 0.067863046951983474 -0.20503048868511209 0 0.066040058368007956 -0.18964665730407451 0 0.067863046951983474 -0.20503048868511209 0 0.066040058368007956 -0.18964665730407451 0 0.081482512553192915 -0.1953056794767786 0 0.081482512553192915 -0.1953056794767786 0 0.095454742848087734 -0.19451486061966669 0 0.093505174579280592 -0.1731787749771625 0 0.081482512553192915 -0.1953056794767786 0 0.08833530696517819 -0.21036332105093219 0 0.095454742848087734 -0.19451486061966669 0 0.08833530696517819 -0.21036332105093219 0 0.097404311116896569 -0.21585094626217091 0 0.095454742848087734 -0.19451486061966669 0 0.081291982893300085 -0.22046062379487821 0 0.073706539318973169 -0.21796036257100029 0 0.082946926161669862 -0.2149195339015407 0 0.082946926161669862 -0.2149195339015407 0 0.079094442607528917 -0.20913243433380641 0 0.08833530696517819 -0.21036332105093219 0 0.073706539318973169 -0.21796036257100029 0 0.082946926161669862 -0.2149195339015407 0 0.079094442607528917 -0.20913243433380641 0 0.081291982893300085 -0.22046062379487821 0 0.082946926161669862 -0.2149195339015407 0 0.086853981468707001 -0.2185547472363609 0 0.081482512553192915 -0.1953056794767786 0 0.079094442607528917 -0.20913243433380641 0 0.08833530696517819 -0.21036332105093219 0 0.082946926161669862 -0.2149195339015407 0 0.08833530696517819 -0.21036332105093219 0 0.086853981468707001 -0.2185547472363609 0 0.08833530696517819 -0.21036332105093219 0 0.086853981468707001 -0.2185547472363609 0 0.09077468002378962 -0.21857675351640271 0 0.08833530696517819 -0.21036332105093219 0 0.09077468002378962 -0.21857675351640271 0 0.092213447725184278 -0.21529843562297729 0 0.08833530696517819 -0.21036332105093219 0 0.092213447725184278 -0.21529843562297729 0 0.097404311116896569 -0.21585094626217091 0 0.09077468002378962 -0.21857675351640271 0 0.094501608789943028 -0.21679829355882299 0 0.094530837428433365 -0.22086489816084981 0 0.09077468002378962 -0.21857675351640271 0 0.092213447725184278 -0.21529843562297729 0 0.094501608789943028 -0.21679829355882299 0 0.094501608789943028 -0.21679829355882299 0 0.097404311116896569 -0.21585094626217091 0 0.094530837428433365 -0.22086489816084981 0 0.092213447725184278 -0.21529843562297729 0 0.094501608789943028 -0.21679829355882299 0 0.097404311116896569 -0.21585094626217091 0 0.097404311116896569 -0.21585094626217091 0 0.095454742848087734 -0.19451486061966669 0 0.097404311116896569 -0.21585094626217091 0 0.1059898830346106 -0.20430933332548051 0 0.095454742848087734 -0.19451486061966669 0 0.097404311116896569 -0.21585094626217091 0 0.1089347031997706 -0.21297733173581901 0 0.1146171121197104 -0.21980430615730401 0 0.097404311116896569 -0.21585094626217091 0 0.1059898830346106 -0.20430933332548051 0 0.1089347031997706 -0.21297733173581901 0 0.095454742848087734 -0.19451486061966669 0 0.1128143282819509 -0.19216489626002589 0 0.10772522460311169 -0.17968171223372481 0 0.1059898830346106 -0.20430933332548051 0 0.095454742848087734 -0.19451486061966669 0 0.1128143282819509 -0.19216489626002589 0 0.1128143282819509 -0.19216489626002589 0 0.1237689835273371 -0.19605207676116951 0 0.1178461100078927 -0.20838697738218431 0 0.1059898830346106 -0.20430933332548051 0 0.1128143282819509 -0.19216489626002589 0 0.1178461100078927 -0.20838697738218431 0 0.1128143282819509 -0.19216489626002589 0 0.1237689835273371 -0.19605207676116951 0 0.1232013989280239 -0.1819146573535104 0 0.1089347031997706 -0.21297733173581901 0 0.1178461100078927 -0.20838697738218431 0 0.1146171121197104 -0.21980430615730401 0 0.1059898830346106 -0.20430933332548051 0 0.1089347031997706 -0.21297733173581901 0 0.1178461100078927 -0.20838697738218431 0 0.1178461100078927 -0.20838697738218431 0 0.1146171121197104 -0.21980430615730401 0 0.12895394136930069 -0.22163642029703709 0 0.1146171121197104 -0.21980430615730401 0 0.12018370186474731 -0.23305432747703519 0 0.12895394136930069 -0.22163642029703709 0 0.097404311116896569 -0.21585094626217091 0 0.1146171121197104 -0.21980430615730401 0 0.12018370186474731 -0.23305432747703519 0 0.1212054647883809 -0.25073068226796852 0 0.12018370186474731 -0.23305432747703519 0 0.1059281586602189 -0.23527494890652931 0 0.13217397618885759 -0.25462043987800831 0 0.1212054647883809 -0.25073068226796852 0 0.12018370186474731 -0.23305432747703519 0 0.1212054647883809 -0.25073068226796852 0 0.1059281586602189 -0.23527494890652931 0 0.1078238037173969 -0.24832262031645649 0 0.1212054647883809 -0.25073068226796852 0 0.1059281586602189 -0.23527494890652931 0 0.099550463170151926 -0.25262580003909579 0 0.1078238037173969 -0.24832262031645649 0 0.10103467245524091 -0.24298905409433241 0 0.1059281586602189 -0.23527494890652931 0 0.1078238037173969 -0.24832262031645649 0 0.10103467245524091 -0.24298905409433241 0 0.099550463170151926 -0.25262580003909579 0 0.10103467245524091 -0.24298905409433241 0 0.094006026236525903 -0.2441335510050745 0 0.090706365013478091 -0.25245448435890872 0 0.099550463170151926 -0.25262580003909579 0 0.094006026236525903 -0.2441335510050745 0 0.1059281586602189 -0.23527494890652931 0 0.10103467245524091 -0.24298905409433241 0 0.096012267649498176 -0.23702186761809721 0 0.10103467245524091 -0.24298905409433241 0 0.094006026236525903 -0.2441335510050745 0 0.096012267649498176 -0.23702186761809721 0 0.1059281586602189 -0.23527494890652931 0 0.096012267649498176 -0.23702186761809721 0 0.098670227838192195 -0.22970514568366851 0 0.089763789457938253 -0.2306791647953326 0 0.096012267649498176 -0.23702186761809721 0 0.098670227838192195 -0.22970514568366851 0 0.097404311116896569 -0.21585094626217091 0 0.12018370186474731 -0.23305432747703519 0 0.097404311116896569 -0.21585094626217091 0 0.12018370186474731 -0.23305432747703519 0 0.1059281586602189 -0.23527494890652931 0 0.097404311116896569 -0.21585094626217091 0 0.1059281586602189 -0.23527494890652931 0 0.098670227838192195 -0.22970514568366851 0 0.091303359373345411 -0.22339335178318359 0 0.098670227838192195 -0.22970514568366851 0 0.094530837428433365 -0.22086489816084981 0 0.097404311116896569 -0.21585094626217091 0 0.098670227838192195 -0.22970514568366851 0 0.094530837428433365 -0.22086489816084981 0 0.097404311116896569 -0.21585094626217091 0 0.098670227838192195 -0.22970514568366851 0 0.1071373084330472 -0.14482826815459701 0 0.1035248479174861 -0.15311019857333261 0 0.098760878024456711 -0.14050656481393209 0 0.1071373084330472 -0.14482826815459701 0 0.1035248479174861 -0.15311019857333261 0 0.1121477659277255 -0.1503271840913511 0 0.1035248479174861 -0.15311019857333261 0 0.098760878024456711 -0.14050656481393209 0 0.091560400862706559 -0.15189516094014111 0 0.098760878024456711 -0.14050656481393209 0 0.099399694252258627 -0.1328638184600745 0 0.089615627146132512 -0.13061154690311971 0 0.099399694252258627 -0.1328638184600745 0 0.099525338641528904 -0.12611341339503321 0 0.089615627146132512 -0.13061154690311971 0 0.099525338641528904 -0.12611341339503321 0 0.1096969331969164 -0.13422374872821319 0 0.1121708616464093 -0.1216807098986791 0 0.099399694252258627 -0.1328638184600745 0 0.099525338641528904 -0.12611341339503321 0 0.1096969331969164 -0.13422374872821319 0 0.098760878024456711 -0.14050656481393209 0 0.099399694252258627 -0.1328638184600745 0 0.1096969331969164 -0.13422374872821319 0 0.1071373084330472 -0.14482826815459701 0 0.098760878024456711 -0.14050656481393209 0 0.1096969331969164 -0.13422374872821319 0 0.1096969331969164 -0.13422374872821319 0 0.1155243526086871 -0.14484298486410191 0 0.12532898621889721 -0.13663811256420449 0 0.1096969331969164 -0.13422374872821319 0 0.11997683785091839 -0.1276371159963853 0 0.12532898621889721 -0.13663811256420449 0 0.1096969331969164 -0.13422374872821319 0 0.11997683785091839 -0.1276371159963853 0 0.1121708616464093 -0.1216807098986791 0 0.1217036921304827 -0.1482443959076799 0 0.1155243526086871 -0.14484298486410191 0 0.12532898621889721 -0.13663811256420449 0 0.1217036921304827 -0.1482443959076799 0 0.1155243526086871 -0.14484298486410191 0 0.1179114041550178 -0.15136128022523329 0 0.1071373084330472 -0.14482826815459701 0 0.1155243526086871 -0.14484298486410191 0 0.1121477659277255 -0.1503271840913511 0 0.1071373084330472 -0.14482826815459701 0 0.1096969331969164 -0.13422374872821319 0 0.1155243526086871 -0.14484298486410191 0 0.1035248479174861 -0.15311019857333261 0 0.1121477659277255 -0.1503271840913511 0 0.1169082366172023 -0.15609331882735419 0 0.1155243526086871 -0.14484298486410191 0 0.1121477659277255 -0.1503271840913511 0 0.1179114041550178 -0.15136128022523329 0 0.1121477659277255 -0.1503271840913511 0 0.1169082366172023 -0.15609331882735419 0 0.1179114041550178 -0.15136128022523329 0 0.1169082366172023 -0.15609331882735419 0 0.1179114041550178 -0.15136128022523329 0 0.12324902196630889 -0.15465793599018671 0 0.1217036921304827 -0.1482443959076799 0 0.1179114041550178 -0.15136128022523329 0 0.12324902196630889 -0.15465793599018671 0 0.1217036921304827 -0.1482443959076799 0 0.12324902196630889 -0.15465793599018671 0 0.12831016946945831 -0.1492440347933528 0 0.1035248479174861 -0.15311019857333261 0 0.12443417021765769 -0.1709717485187108 0 0.1227471198665283 -0.15880086614903269 0 0.12098675462827781 -0.16200852072179159 0 0.1290045142054978 -0.1612372837293575 0 0.1035248479174861 -0.15311019857333261 0 0.12443417021765769 -0.1709717485187108 0 0.12083528946942131 -0.1711597280255607 0 0.1035248479174861 -0.15311019857333261 0 0.12098675462827781 -0.16200852072179159 0 0.12443417021765769 -0.1709717485187108 0 0.1035248479174861 -0.15311019857333261 0 0.1169082366172023 -0.15609331882735419 0 0.12098675462827781 -0.16200852072179159 0 0.1169082366172023 -0.15609331882735419 0 0.1227471198665283 -0.15880086614903269 0 0.12098675462827781 -0.16200852072179159 0 0.1169082366172023 -0.15609331882735419 0 0.12324902196630889 -0.15465793599018671 0 0.1227471198665283 -0.15880086614903269 0 0.12098675462827781 -0.16200852072179159 0 0.12443417021765769 -0.1709717485187108 0 0.12715697753007521 -0.16591248018761531 0 0.1128143282819509 -0.19216489626002589 0 0.1232013989280239 -0.1819146573535104 0 0.1157139550245927 -0.18029465614444529 0 0.12083528946942131 -0.1711597280255607 0 0.1232013989280239 -0.1819146573535104 0 0.1157139550245927 -0.18029465614444529 0 0.12443417021765769 -0.1709717485187108 0 0.12083528946942131 -0.1711597280255607 0 0.1232013989280239 -0.1819146573535104 0 0.12083528946942131 -0.1711597280255607 0 0.1157139550245927 -0.18029465614444529 0 0.10772522460311169 -0.17968171223372481 0 0.1128143282819509 -0.19216489626002589 0 0.1157139550245927 -0.18029465614444529 0 0.10772522460311169 -0.17968171223372481 0 0.095454742848087734 -0.19451486061966669 0 0.10772522460311169 -0.17968171223372481 0 0.093505174579280592 -0.1731787749771625 0 0.12083528946942131 -0.1711597280255607 0 0.093505174579280592 -0.1731787749771625 0 0.095454742848087734 -0.19451486061966669 0 0.093505174579280592 -0.1731787749771625 0 0.12083528946942131 -0.1711597280255607 0 0.10772522460311169 -0.17968171223372481 0 0.093505174579280592 -0.1731787749771625 0 0.1035248479174861 -0.15311019857333261 0 0.093505174579280592 -0.1731787749771625 0 0.091560400862706559 -0.15189516094014111 0 0.1035248479174861 -0.15311019857333261 0 0.12083528946942131 -0.1711597280255607 0 0.093505174579280592 -0.1731787749771625 0 0.078133883947979807 -0.15717501910519549 0 0.093505174579280592 -0.1731787749771625 0 0.091560400862706559 -0.15189516094014111 0 0.078133883947979807 -0.15717501910519549 0 0.093505174579280592 -0.1731787749771625 0 0.072477207369929117 -0.17473224276400179 0 0.093505174579280592 -0.1731787749771625 0 0.091560400862706559 -0.15189516094014111 0 0.081482512553192915 -0.1953056794767786 0 0.093505174579280592 -0.1731787749771625 0 0.072477207369929117 -0.17473224276400179 0 0.093505174579280592 -0.1731787749771625 0 0.072477207369929117 -0.17473224276400179 0 0.066040058368007956 -0.18964665730407451 0 0.072477207369929117 -0.17473224276400179 0 0.051449240160577621 -0.1762857105508405 0 0.066040058368007956 -0.18964665730407451 0 0.081482512553192915 -0.1953056794767786 0 0.072477207369929117 -0.17473224276400179 0 0.078133883947979807 -0.15717501910519549 0 0.072477207369929117 -0.17473224276400179 0 0.063878974636528515 -0.16401540189567099 0 0.072477207369929117 -0.17473224276400179 0 0.063878974636528515 -0.16401540189567099 0 0.051449240160577621 -0.1762857105508405 0 0.078133883947979807 -0.15717501910519549 0 0.063878974636528515 -0.16401540189567099 0 0.06522271263887458 -0.15305574504012881 0 0.06522271263887458 -0.15305574504012881 0 0.069316279952888193 -0.14186668388360371 0 0.075278834721760557 -0.14616760919767161 0 0.06522271263887458 -0.15305574504012881 0 0.069316279952888193 -0.14186668388360371 0 0.05757515479497001 -0.1486962131740798 0 0.069316279952888193 -0.14186668388360371 0 0.075278834721760557 -0.14616760919767161 0 0.079765110473415279 -0.13788087003968491 0 0.078133883947979807 -0.15717501910519549 0 0.06522271263887458 -0.15305574504012881 0 0.075278834721760557 -0.14616760919767161 0 0.098760878024456711 -0.14050656481393209 0 0.091560400862706559 -0.15189516094014111 0 0.089615627146132512 -0.13061154690311971 0 0.078133883947979807 -0.15717501910519549 0 0.083611330147541921 -0.14459745320402559 0 0.091560400862706559 -0.15189516094014111 0 0.091560400862706559 -0.15189516094014111 0 0.089615627146132512 -0.13061154690311971 0 0.078133883947979807 -0.15717501910519549 0 0.075278834721760557 -0.14616760919767161 0 0.083611330147541921 -0.14459745320402559 0 0.083611330147541921 -0.14459745320402559 0 0.091560400862706559 -0.15189516094014111 0 0.089615627146132512 -0.13061154690311971 0 0.075278834721760557 -0.14616760919767161 0 0.083611330147541921 -0.14459745320402559 0 0.079765110473415279 -0.13788087003968491 0 0.099525338641528904 -0.12611341339503321 0 0.089615627146132512 -0.13061154690311971 0 0.081894058627025895 -0.12584863130967919 0 0.083611330147541921 -0.14459745320402559 0 0.089615627146132512 -0.13061154690311971 0 0.079765110473415279 -0.13788087003968491 0 0.089615627146132512 -0.13061154690311971 0 0.079765110473415279 -0.13788087003968491 0 0.081894058627025895 -0.12584863130967919 0 0.081894058627025895 -0.12584863130967919 0 0.065576399090336079 -0.13067912082877309 0 0.057907204523981459 -0.13951585418161591 0 0.081894058627025895 -0.12584863130967919 0 0.057907204523981459 -0.13951585418161591 0 0.069316279952888193 -0.14186668388360371 0 0.081894058627025895 -0.12584863130967919 0 0.057907204523981459 -0.13951585418161591 0 0.081894058627025895 -0.12584863130967919 0 0.068207364780656948 -0.12563827965844471 0 0.065576399090336079 -0.13067912082877309 0 0.069316279952888193 -0.14186668388360371 0 0.079765110473415279 -0.13788087003968491 0 0.081894058627025895 -0.12584863130967919 0 0.068207364780656948 -0.12563827965844471 0 0.065576399090336079 -0.13067912082877309 0 0.054296968429680029 -0.13171371816535249 0 0.054296968429680029 -0.13171371816535249 0 0.057907204523981459 -0.13951585418161591 0 0.034849001543539322 -0.1503583031021323 0 0.054296968429680029 -0.13171371816535249 0 0.045553716665441668 -0.12681104972785159 0 0.052448498866582129 -0.1166826243517366 0 0.065576399090336079 -0.13067912082877309 0 0.054296968429680029 -0.13171371816535249 0 0.057907204523981459 -0.13951585418161591 0 0.069316279952888193 -0.14186668388360371 0 0.057907204523981459 -0.13951585418161591 0 0.05757515479497001 -0.1486962131740798 0 0.06522271263887458 -0.15305574504012881 0 0.05757515479497001 -0.1486962131740798 0 0.052111829065281459 -0.15882829201818821 0 0.046808539919221563 -0.15014413002933799 0 0.052111829065281459 -0.15882829201818821 0 0.043031393960321331 -0.1571354857308308 0 0.05757515479497001 -0.1486962131740798 0 0.046808539919221563 -0.15014413002933799 0 0.052111829065281459 -0.15882829201818821 0 0.057907204523981459 -0.13951585418161591 0 0.05757515479497001 -0.1486962131740798 0 0.046808539919221563 -0.15014413002933799 0 0.057907204523981459 -0.13951585418161591 0 0.046808539919221563 -0.15014413002933799 0 0.033920350420936912 -0.1531830770535528 0 0.057907204523981459 -0.13951585418161591 0 0.034849001543539322 -0.1503583031021323 0 0.033920350420936912 -0.1531830770535528 0 0.054296968429680029 -0.13171371816535249 0 0.034849001543539322 -0.1503583031021323 0 0.038558521200612962 -0.14006542407622449 0 0.054296968429680029 -0.13171371816535249 0 0.034849001543539322 -0.1503583031021323 0 0.057907204523981459 -0.13951585418161591 0 0.033920350420936912 -0.1531830770535528 0 0.046808539919221563 -0.15014413002933799 0 0.040219483271594643 -0.15466785876887121 0 0.033920350420936912 -0.1531830770535528 0 0.046808539919221563 -0.15014413002933799 0 0.040219483271594643 -0.15466785876887121 0 0.043031393960321331 -0.1571354857308308 0 0.040219483271594643 -0.15466785876887121 0 0.033920350420936912 -0.1531830770535528 0 0.037117648785898759 -0.15820874226176301 0 0.034849001543539322 -0.1503583031021323 0 0.031672068294339203 -0.14528428076340441 0 0.030051573782975471 -0.15027594372919439 0 0.034849001543539322 -0.1503583031021323 0 0.033920350420936912 -0.1531830770535528 0 0.030051573782975471 -0.15027594372919439 0 0.034849001543539322 -0.1503583031021323 0 0.031672068294339203 -0.14528428076340441 0 0.038558521200612962 -0.14006542407622449 0 0.031672068294339203 -0.14528428076340441 0 0.038558521200612962 -0.14006542407622449 0 0.030566093298411881 -0.13865773310914861 0 0.054296968429680029 -0.13171371816535249 0 0.038558521200612962 -0.14006542407622449 0 0.040644455285911409 -0.1338393175667463 0 0.038558521200612962 -0.14006542407622449 0 0.040644455285911409 -0.1338393175667463 0 0.030566093298411881 -0.13865773310914861 0 0.034824944079593127 -0.12500853882757099 0 0.040644455285911409 -0.1338393175667463 0 0.030566093298411881 -0.13865773310914861 0 0.034824944079593127 -0.12500853882757099 0 0.045553716665441668 -0.12681104972785159 0 0.040644455285911409 -0.1338393175667463 0 0.054296968429680029 -0.13171371816535249 0 0.045553716665441668 -0.12681104972785159 0 0.040644455285911409 -0.1338393175667463 0 0.072477207369929117 -0.17473224276400179 0 0.051449240160577621 -0.1762857105508405 0 0.056257937900538298 -0.19577788601322099 0 0.066040058368007956 -0.18964665730407451 0 0.051449240160577621 -0.1762857105508405 0 0.063878974636528515 -0.16401540189567099 0 0.051449240160577621 -0.1762857105508405 0 0.052111829065281459 -0.15882829201818821 0 0.051449240160577621 -0.1762857105508405 0 0.052111829065281459 -0.15882829201818821 0 0.040502396519655252 -0.1663673850483231 0 0.063878974636528515 -0.16401540189567099 0 0.06522271263887458 -0.15305574504012881 0 0.052111829065281459 -0.15882829201818821 0 0.043031393960321331 -0.1571354857308308 0 0.037117648785898759 -0.15820874226176301 0 0.040502396519655252 -0.1663673850483231 0 0.052111829065281459 -0.15882829201818821 0 0.043031393960321331 -0.1571354857308308 0 0.040502396519655252 -0.1663673850483231 0 0.040219483271594643 -0.15466785876887121 0 0.043031393960321331 -0.1571354857308308 0 0.037117648785898759 -0.15820874226176301 0 0.033920350420936912 -0.1531830770535528 0 0.033509818979212957 -0.15868168045615499 0 0.027465449436243041 -0.1628752445715565 0 0.037117648785898759 -0.15820874226176301 0 0.034071859908748191 -0.1623715567021686 0 0.040502396519655252 -0.1663673850483231 0 0.033920350420936912 -0.1531830770535528 0 0.037117648785898759 -0.15820874226176301 0 0.033509818979212957 -0.15868168045615499 0 0.037117648785898759 -0.15820874226176301 0 0.033509818979212957 -0.15868168045615499 0 0.034071859908748191 -0.1623715567021686 0 0.033509818979212957 -0.15868168045615499 0 0.034071859908748191 -0.1623715567021686 0 0.027465449436243041 -0.1628752445715565 0 0.031586668938662611 -0.1691709391612749 0 0.040502396519655252 -0.1663673850483231 0 0.030421272951226121 -0.1778391783376792 0 0.034071859908748191 -0.1623715567021686 0 0.031586668938662611 -0.1691709391612749 0 0.040502396519655252 -0.1663673850483231 0 0.051449240160577621 -0.1762857105508405 0 0.040502396519655252 -0.1663673850483231 0 0.030421272951226121 -0.1778391783376792 0 0.041440672425083092 -0.19607701236864419 0 0.051449240160577621 -0.1762857105508405 0 0.030421272951226121 -0.1778391783376792 0 0.051449240160577621 -0.1762857105508405 0 0.030421272951226121 -0.1778391783376792 0 0.02540307025583758 -0.19229280057405279 0 0.015764016274472759 -0.1812646672695073 0 0.030421272951226121 -0.1778391783376792 0 0.031586668938662611 -0.1691709391612749 0 0.030421272951226121 -0.1778391783376792 0 0.021575687727073561 -0.1734893605992324 0 0.015764016274472759 -0.1812646672695073 0 0.021575687727073561 -0.1734893605992324 0 0.012676990919703311 -0.16924925594887871 0 0.015764016274472759 -0.1812646672695073 0 0.030421272951226121 -0.1778391783376792 0 0.021575687727073561 -0.1734893605992324 0 0.033920350420936912 -0.1531830770535528 0 0.009933496317892726 -0.16685029992549011 0 0.02294500892830088 -0.1542832107784407 0 0.033920350420936912 -0.1531830770535528 0 0.027465449436243041 -0.1628752445715565 0 0.009933496317892726 -0.16685029992549011 0 0.019596439448784399 -0.16744493330375371 0 0.027465449436243041 -0.1628752445715565 0 0.009933496317892726 -0.16685029992549011 0 0.033920350420936912 -0.1531830770535528 0 0.009933496317892726 -0.16685029992549011 0 0.021575687727073561 -0.1734893605992324 0 0.019596439448784399 -0.16744493330375371 0 0.012676990919703311 -0.16924925594887871 0 0.021575687727073561 -0.1734893605992324 0 0.019596439448784399 -0.16744493330375371 0 0.025540403417393751 -0.1677775419388785 0 0.031586668938662611 -0.1691709391612749 0 0.021575687727073561 -0.1734893605992324 0 0.025540403417393751 -0.1677775419388785 0 0.019596439448784399 -0.16744493330375371 0 0.025540403417393751 -0.1677775419388785 0 0.027465449436243041 -0.1628752445715565 0 0.034071859908748191 -0.1623715567021686 0 0.031586668938662611 -0.1691709391612749 0 0.027465449436243041 -0.1628752445715565 0 0.031586668938662611 -0.1691709391612749 0 0.025540403417393751 -0.1677775419388785 0 0.027465449436243041 -0.1628752445715565 0 0.009933496317892726 -0.16685029992549011 0 0.01648447247354291 -0.15404273338364399 0 0.02294500892830088 -0.1542832107784407 0 0.009933496317892726 -0.16685029992549011 0 0.01648447247354291 -0.15404273338364399 0 0.0068311679390763679 -0.1533437069849535 0 0.019596439448784399 -0.16744493330375371 0 0.009933496317892726 -0.16685029992549011 0 0.012676990919703311 -0.16924925594887871 0 0.009933496317892726 -0.16685029992549011 0 0.012676990919703311 -0.16924925594887871 0 0.0034571977838801569 -0.17702496179755631 0 0.009933496317892726 -0.16685029992549011 0 0.012676990919703311 -0.16924925594887871 0 -0.0085976242789068957 -0.177408956520272 0 0.009933496317892726 -0.16685029992549011 0 -0.0085976242789068957 -0.177408956520272 0 0.009933496317892726 -0.16685029992549011 0 0.0034571977838801569 -0.17702496179755631 0 0.015764016274472759 -0.1812646672695073 0 0.012676990919703311 -0.16924925594887871 0 0.0034571977838801569 -0.17702496179755631 0 -0.003739977245034012 -0.19168309442994089 0 0.010514116253606281 -0.1925853606064957 0 0.0034571977838801569 -0.17702496179755631 0 0.010514116253606281 -0.1925853606064957 0 0.015764016274472759 -0.1812646672695073 0 0.0034571977838801569 -0.17702496179755631 0 0.02166725362828328 -0.1398342401410575 0 0.019282665512654749 -0.1297026577714144 0 0.01241268948209219 -0.14437852502616319 0 0.034824944079593127 -0.12500853882757099 0 0.019282665512654749 -0.1297026577714144 0 0.030566093298411881 -0.13865773310914861 0 0.02166725362828328 -0.1398342401410575 0 0.019282665512654749 -0.1297026577714144 0 0.030566093298411881 -0.13865773310914861 0 0.031672068294339203 -0.14528428076340441 0 0.030566093298411881 -0.13865773310914861 0 0.024335151646156381 -0.14706399980032239 0 0.02166725362828328 -0.1398342401410575 0 0.030566093298411881 -0.13865773310914861 0 0.024335151646156381 -0.14706399980032239 0 0.031672068294339203 -0.14528428076340441 0 0.024335151646156381 -0.14706399980032239 0 0.030051573782975471 -0.15027594372919439 0 0.033920350420936912 -0.1531830770535528 0 0.030051573782975471 -0.15027594372919439 0 0.02294500892830088 -0.1542832107784407 0 0.024335151646156381 -0.14706399980032239 0 0.030051573782975471 -0.15027594372919439 0 0.02294500892830088 -0.1542832107784407 0 0.024335151646156381 -0.14706399980032239 0 0.01648447247354291 -0.15404273338364399 0 0.01241268948209219 -0.14437852502616319 0 0.024335151646156381 -0.14706399980032239 0 0.01648447247354291 -0.15404273338364399 0 0.02294500892830088 -0.1542832107784407 0 0.02166725362828328 -0.1398342401410575 0 0.024335151646156381 -0.14706399980032239 0 0.01241268948209219 -0.14437852502616319 0 -0.011505986517222349 -0.14810326960451681 0 0.01241268948209219 -0.14437852502616319 0 0.0068311679390763679 -0.1533437069849535 0 -0.011505986517222349 -0.14810326960451681 0 0.009933496317892726 -0.16685029992549011 0 0.0068311679390763679 -0.1533437069849535 0 -0.011505986517222349 -0.14810326960451681 0 0.01241268948209219 -0.14437852502616319 0 0.0027021066240326768 -0.1317064378292063 0 0.01648447247354291 -0.15404273338364399 0 0.01241268948209219 -0.14437852502616319 0 0.0068311679390763679 -0.1533437069849535 0 0.019282665512654749 -0.1297026577714144 0 0.01241268948209219 -0.14437852502616319 0 0.0027021066240326768 -0.1317064378292063 0 0.019282665512654749 -0.1297026577714144 0 0.0027021066240326768 -0.1317064378292063 0 0.005085065621477718 -0.1151057880332567 0 0.019282665512654749 -0.1297026577714144 0 0.005085065621477718 -0.1151057880332567 0 0.024129304522527751 -0.1089818526354679 0 0.034824944079593127 -0.12500853882757099 0 0.019282665512654749 -0.1297026577714144 0 0.024129304522527751 -0.1089818526354679 0 0.024129304522527751 -0.1089818526354679 0 0.01380815825635252 -0.094132232187142617 0 0.031293966725895003 -0.08518965294817829 0 -0.00044729776891663488 -0.1011528385718463 0 0.005085065621477718 -0.1151057880332567 0 0.01380815825635252 -0.094132232187142617 0 0.005085065621477718 -0.1151057880332567 0 0.024129304522527751 -0.1089818526354679 0 0.01380815825635252 -0.094132232187142617 0 0.01380815825635252 -0.094132232187142617 0 0.0042106568376920582 -0.081118225430045127 0 0.020039989671696231 -0.071989185162356889 0 -0.00044729776891663488 -0.1011528385718463 0 0.01380815825635252 -0.094132232187142617 0 0.0042106568376920582 -0.081118225430045127 0 0.0042106568376920582 -0.081118225430045127 0 0.0052181775422467033 -0.064346337314722044 0 0.020039989671696231 -0.071989185162356889 0 -0.0043762627118289626 -0.071729097412358583 0 0.0042106568376920582 -0.081118225430045127 0 0.0052181775422467033 -0.064346337314722044 0 0.0052181775422467033 -0.064346337314722044 0 0.020039989671696231 -0.071989185162356889 0 0.0052181775422467033 -0.064346337314722044 0 0.020039989671696231 -0.071989185162356889 0 0.017880224012190679 -0.058506375123621113 0 0.020039989671696231 -0.071989185162356889 0 0.017880224012190679 -0.058506375123621113 0 0.035073137211611732 -0.060365082031122411 0 0.020039989671696231 -0.071989185162356889 0 0.031293966725895003 -0.08518965294817829 0 0.035073137211611732 -0.060365082031122411 0 0.01380815825635252 -0.094132232187142617 0 0.020039989671696231 -0.071989185162356889 0 0.031293966725895003 -0.08518965294817829 0 0.031293966725895003 -0.08518965294817829 0 0.050629459546369923 -0.074776417317023003 0 0.042727201812981508 -0.099892478072297022 0 0.050629459546369923 -0.074776417317023003 0 0.042727201812981508 -0.099892478072297022 0 0.031293966725895003 -0.08518965294817829 0 0.050629459546369923 -0.074776417317023003 0 0.035073137211611732 -0.060365082031122411 0 0.050629459546369923 -0.074776417317023003 0 0.058531717279758283 -0.049660356561749108 0 0.072219385832792832 -0.066659644627356851 0 0.050629459546369923 -0.074776417317023003 0 0.042727201812981508 -0.099892478072297022 0 0.069701838591585213 -0.089386546866783212 0 0.059655618646742382 -0.10475769562984739 0 0.052448498866582129 -0.1166826243517366 0 0.042727201812981508 -0.099892478072297022 0 0.059655618646742382 -0.10475769562984739 0 0.042727201812981508 -0.099892478072297022 0 0.069701838591585213 -0.089386546866783212 0 0.054296968429680029 -0.13171371816535249 0 0.052448498866582129 -0.1166826243517366 0 0.073744935315820714 -0.1130691332285727 0 0.059655618646742382 -0.10475769562984739 0 0.052448498866582129 -0.1166826243517366 0 0.073744935315820714 -0.1130691332285727 0 0.034824944079593127 -0.12500853882757099 0 0.045553716665441668 -0.12681104972785159 0 0.052448498866582129 -0.1166826243517366 0 0.034824944079593127 -0.12500853882757099 0 0.052448498866582129 -0.1166826243517366 0 0.042727201812981508 -0.099892478072297022 0 0.034824944079593127 -0.12500853882757099 0 0.024129304522527751 -0.1089818526354679 0 0.042727201812981508 -0.099892478072297022 0 0.034824944079593127 -0.12500853882757099 0 0.042727201812981508 -0.099892478072297022 0 0.024129304522527751 -0.1089818526354679 0 0.031293966725895003 -0.08518965294817829 0 0.042727201812981508 -0.099892478072297022 0 0.034885408484197772 0.0062912350017927032 0 0.01265631079038235 -0.01012693536007268 0 0.042517259973231587 -0.011683923625132649 0 -0.00118246574067416 -0.01324232368796026 0 0.0012074066645448821 -0.00065723147797176382 0 0.01265631079038235 -0.01012693536007268 0 0.01265631079038235 -0.01012693536007268 0 0.02406773205363014 -0.026959444655171291 0 0.0015263381015913891 -0.033415212413580753 0 0.01265631079038235 -0.01012693536007268 0 0.0015263381015913891 -0.033415212413580753 0 -0.00118246574067416 -0.01324232368796026 0 0.01265631079038235 -0.01012693536007268 0 0.0015263381015913891 -0.033415212413580753 0 0.01265631079038235 -0.01012693536007268 0 0.02406773205363014 -0.026959444655171291 0 0.042517259973231587 -0.011683923625132649 0 0.02406773205363014 -0.026959444655171291 0 0.021771409900077709 -0.044354063799483319 0 0.04186734150286768 -0.035217088077587062 0 0.02406773205363014 -0.026959444655171291 0 0.021771409900077709 -0.044354063799483319 0 0.0015263381015913891 -0.033415212413580753 0 0.021771409900077709 -0.044354063799483319 0 0.0015263381015913891 -0.033415212413580753 0 0.007298405735321048 -0.051477207310420908 0 -0.0096036345872028556 -0.056703489467087059 0 0.0052181775422467033 -0.064346337314722044 0 0.007298405735321048 -0.051477207310420908 0 0.0052181775422467033 -0.064346337314722044 0 0.007298405735321048 -0.051477207310420908 0 0.017880224012190679 -0.058506375123621113 0 0.021771409900077709 -0.044354063799483319 0 0.017880224012190679 -0.058506375123621113 0 0.035073137211611732 -0.060365082031122411 0 0.021771409900077709 -0.044354063799483319 0 0.007298405735321048 -0.051477207310420908 0 0.017880224012190679 -0.058506375123621113 0 0.035073137211611732 -0.060365082031122411 0 0.058531717279758283 -0.049660356561749108 0 0.04186734150286768 -0.035217088077587062 0 0.050629459546369923 -0.074776417317023003 0 0.058531717279758283 -0.049660356561749108 0 0.050629459546369923 -0.074776417317023003 0 0.035073137211611732 -0.060365082031122411 0 0.058531717279758283 -0.049660356561749108 0 0.058531717279758283 -0.049660356561749108 0 0.066433975013146629 -0.02454429580647528 0 0.058531717279758283 -0.049660356561749108 0 0.04186734150286768 -0.035217088077587062 0 0.066433975013146629 -0.02454429580647528 0 0.021771409900077709 -0.044354063799483319 0 0.035073137211611732 -0.060365082031122411 0 0.04186734150286768 -0.035217088077587062 0 0.02406773205363014 -0.026959444655171291 0 0.04186734150286768 -0.035217088077587062 0 0.042517259973231587 -0.011683923625132649 0 0.04186734150286768 -0.035217088077587062 0 0.042517259973231587 -0.011683923625132649 0 0.066433975013146629 -0.02454429580647528 0 0.052968053050369737 0.0090809173488315582 0 0.042517259973231587 -0.011683923625132649 0 0.067492943165135169 -0.0019794682467893379 0 0.042517259973231587 -0.011683923625132649 0 0.067492943165135169 -0.0019794682467893379 0 0.066433975013146629 -0.02454429580647528 0 0.087040675587819916 -0.0096101539263870796 0 0.066433975013146629 -0.02454429580647528 0 0.098032226742104309 -0.02831505409649597 0 0.083930998993742512 0.0059737405228527038 0 0.087040675587819916 -0.0096101539263870796 0 0.067492943165135169 -0.0019794682467893379 0 0.083930998993742512 0.0059737405228527038 0 0.098495163759696414 0.0029673617968291321 0 0.087040675587819916 -0.0096101539263870796 0 0.087040675587819916 -0.0096101539263870796 0 0.067492943165135169 -0.0019794682467893379 0 0.066433975013146629 -0.02454429580647528 0 0.066433975013146629 -0.02454429580647528 0 0.080663194565618018 -0.042742664855397232 0 0.098032226742104309 -0.02831505409649597 0 0.080663194565618018 -0.042742664855397232 0 0.099119978598511321 -0.045144617550746849 0 0.098032226742104309 -0.02831505409649597 0 0.058531717279758283 -0.049660356561749108 0 0.066433975013146629 -0.02454429580647528 0 0.080663194565618018 -0.042742664855397232 0 0.058531717279758283 -0.049660356561749108 0 0.080663194565618018 -0.042742664855397232 0 0.072219385832792832 -0.066659644627356851 0 0.080663194565618018 -0.042742664855397232 0 0.091985945990252393 -0.059557823171565508 0 0.072219385832792832 -0.066659644627356851 0 0.080663194565618018 -0.042742664855397232 0 0.091985945990252393 -0.059557823171565508 0 0.099119978598511321 -0.045144617550746849 0 0.091985945990252393 -0.059557823171565508 0 0.109385226414503 -0.056941989317685793 0 0.099119978598511321 -0.045144617550746849 0 0.109385226414503 -0.056941989317685793 0 0.1174221699598199 -0.069046986946925279 0 0.12664898879935529 -0.055605769639440771 0 0.109385226414503 -0.056941989317685793 0 0.1155332992800789 -0.038165556312589707 0 0.12664898879935529 -0.055605769639440771 0 0.1155332992800789 -0.038165556312589707 0 0.12954193793015309 -0.041748568408345607 0 0.12664898879935529 -0.055605769639440771 0 0.1155332992800789 -0.038165556312589707 0 0.1294320674019063 -0.023146095115484211 0 0.12954193793015309 -0.041748568408345607 0 0.109385226414503 -0.056941989317685793 0 0.1155332992800789 -0.038165556312589707 0 0.099119978598511321 -0.045144617550746849 0 0.1155332992800789 -0.038165556312589707 0 0.099119978598511321 -0.045144617550746849 0 0.098032226742104309 -0.02831505409649597 0 0.1155332992800789 -0.038165556312589707 0 0.098032226742104309 -0.02831505409649597 0 0.1112777463759113 -0.012222875866518469 0 0.087040675587819916 -0.0096101539263870796 0 0.098032226742104309 -0.02831505409649597 0 0.1112777463759113 -0.012222875866518469 0 0.1155332992800789 -0.038165556312589707 0 0.1112777463759113 -0.012222875866518469 0 0.1294320674019063 -0.023146095115484211 0 0.1158546052028349 0.0064685721448778594 0 0.13464870039648349 0.00080453217212592717 0 0.1112777463759113 -0.012222875866518469 0 0.098495163759696414 0.0029673617968291321 0 0.087040675587819916 -0.0096101539263870796 0 0.1112777463759113 -0.012222875866518469 0 0.1158546052028349 0.0064685721448778594 0 0.098495163759696414 0.0029673617968291321 0 0.1112777463759113 -0.012222875866518469 0 0.093192902201961414 -0.094424548291792879 0 0.088899626305776192 -0.1113374325741409 0 0.073744935315820714 -0.1130691332285727 0 0.093192902201961414 -0.094424548291792879 0 0.073744935315820714 -0.1130691332285727 0 0.069701838591585213 -0.089386546866783212 0 0.093192902201961414 -0.094424548291792879 0 0.073744935315820714 -0.1130691332285727 0 0.081894058627025895 -0.12584863130967919 0 0.088899626305776192 -0.1113374325741409 0 0.09397493983509804 -0.11322330148444169 0 0.081894058627025895 -0.12584863130967919 0 0.079920122843727764 -0.11786127252462281 0 0.075141871126288284 -0.1211898929860986 0 0.081894058627025895 -0.12584863130967919 0 0.088899626305776192 -0.1113374325741409 0 0.079920122843727764 -0.11786127252462281 0 0.088899626305776192 -0.1113374325741409 0 0.079920122843727764 -0.11786127252462281 0 0.073744935315820714 -0.1130691332285727 0 0.068207364780656948 -0.12563827965844471 0 0.054296968429680029 -0.13171371816535249 0 0.073744935315820714 -0.1130691332285727 0 0.054296968429680029 -0.13171371816535249 0 0.073744935315820714 -0.1130691332285727 0 0.068207364780656948 -0.12563827965844471 0 0.073744935315820714 -0.1130691332285727 0 0.075141871126288284 -0.1211898929860986 0 0.079920122843727764 -0.11786127252462281 0 0.073744935315820714 -0.1130691332285727 0 0.075141871126288284 -0.1211898929860986 0 0.081894058627025895 -0.12584863130967919 0 0.068207364780656948 -0.12563827965844471 0 0.075141871126288284 -0.1211898929860986 0 0.059655618646742382 -0.10475769562984739 0 0.073744935315820714 -0.1130691332285727 0 0.069701838591585213 -0.089386546866783212 0 0.050629459546369923 -0.074776417317023003 0 0.069701838591585213 -0.089386546866783212 0 0.072219385832792832 -0.066659644627356851 0 0.069701838591585213 -0.089386546866783212 0 0.072219385832792832 -0.066659644627356851 0 0.089711563165187497 -0.078251462936863553 0 0.091985945990252393 -0.059557823171565508 0 0.072219385832792832 -0.066659644627356851 0 0.089711563165187497 -0.078251462936863553 0 0.093192902201961414 -0.094424548291792879 0 0.069701838591585213 -0.089386546866783212 0 0.089711563165187497 -0.078251462936863553 0 0.093192902201961414 -0.094424548291792879 0 0.089711563165187497 -0.078251462936863553 0 0.1048667032735431 -0.089595599910983495 0 0.089711563165187497 -0.078251462936863553 0 0.1048667032735431 -0.089595599910983495 0 0.1056935618466131 -0.072691272791708894 0 0.1048667032735431 -0.089595599910983495 0 0.1056935618466131 -0.072691272791708894 0 0.11564058922802831 -0.08068930143821873 0 0.091985945990252393 -0.059557823171565508 0 0.089711563165187497 -0.078251462936863553 0 0.1056935618466131 -0.072691272791708894 0 0.091985945990252393 -0.059557823171565508 0 0.109385226414503 -0.056941989317685793 0 0.1056935618466131 -0.072691272791708894 0 0.1174221699598199 -0.069046986946925279 0 0.12840026197867099 -0.078951386265116219 0 0.12664898879935529 -0.055605769639440771 0 0.109385226414503 -0.056941989317685793 0 0.1056935618466131 -0.072691272791708894 0 0.1174221699598199 -0.069046986946925279 0 0.1056935618466131 -0.072691272791708894 0 0.1174221699598199 -0.069046986946925279 0 0.11564058922802831 -0.08068930143821873 0 0.1174221699598199 -0.069046986946925279 0 0.11564058922802831 -0.08068930143821873 0 0.12840026197867099 -0.078951386265116219 0 0.1048667032735431 -0.089595599910983495 0 0.11564058922802831 -0.08068930143821873 0 0.1191358060176364 -0.092450830711447801 0 0.1191358060176364 -0.092450830711447801 0 0.12840026197867099 -0.078951386265116219 0 0.11564058922802831 -0.08068930143821873 0 0.1191358060176364 -0.092450830711447801 0 0.12840026197867099 -0.078951386265116219 0 0.1058809127300703 -0.11218140843774239 0 0.12023297736745781 -0.1110263554770618 0 0.12986776683311119 -0.098514185565799078 0 0.1058809127300703 -0.11218140843774239 0 0.12986776683311119 -0.098514185565799078 0 0.1048667032735431 -0.089595599910983495 0 0.1191358060176364 -0.092450830711447801 0 0.10987135005660249 -0.1059502751577799 0 0.10987135005660249 -0.1059502751577799 0 0.1058809127300703 -0.11218140843774239 0 0.12986776683311119 -0.098514185565799078 0 0.1191358060176364 -0.092450830711447801 0 0.10987135005660249 -0.1059502751577799 0 0.12986776683311119 -0.098514185565799078 0 0.1191358060176364 -0.092450830711447801 0 0.10987135005660249 -0.1059502751577799 0 0.093192902201961414 -0.094424548291792879 0 0.088899626305776192 -0.1113374325741409 0 0.099225161677519755 -0.1035257336162041 0 0.1048667032735431 -0.089595599910983495 0 0.10987135005660249 -0.1059502751577799 0 0.099225161677519755 -0.1035257336162041 0 0.10987135005660249 -0.1059502751577799 0 0.099225161677519755 -0.1035257336162041 0 0.1058809127300703 -0.11218140843774239 0 0.088899626305776192 -0.1113374325741409 0 0.099225161677519755 -0.1035257336162041 0 0.09397493983509804 -0.11322330148444169 0 0.093192902201961414 -0.094424548291792879 0 0.1048667032735431 -0.089595599910983495 0 0.099225161677519755 -0.1035257336162041 0 0.081894058627025895 -0.12584863130967919 0 0.1058809127300703 -0.11218140843774239 0 0.099525338641528904 -0.12611341339503321 0 0.081894058627025895 -0.12584863130967919 0 0.1058809127300703 -0.11218140843774239 0 0.081894058627025895 -0.12584863130967919 0 0.09397493983509804 -0.11322330148444169 0 0.1058809127300703 -0.11218140843774239 0 0.099225161677519755 -0.1035257336162041 0 0.09397493983509804 -0.11322330148444169 0 0.1058809127300703 -0.11218140843774239 0 0.099525338641528904 -0.12611341339503321 0 0.1058809127300703 -0.11218140843774239 0 0.1121708616464093 -0.1216807098986791 0 0.1058809127300703 -0.11218140843774239 0 0.1121708616464093 -0.1216807098986791 0 0.12023297736745781 -0.1110263554770618 0 0.11997683785091839 -0.1276371159963853 0 0.121067612134044 -0.1214532534018402 0 0.13188977167139071 -0.12546883223523481 0 0.12023297736745781 -0.1110263554770618 0 0.121067612134044 -0.1214532534018402 0 0.13188977167139071 -0.12546883223523481 0 0.11997683785091839 -0.1276371159963853 0 0.1121708616464093 -0.1216807098986791 0 0.121067612134044 -0.1214532534018402 0 0.1121708616464093 -0.1216807098986791 0 0.12023297736745781 -0.1110263554770618 0 0.121067612134044 -0.1214532534018402 0 0.12023297736745781 -0.1110263554770618 0 0.12986776683311119 -0.098514185565799078 0 0.13188977167139071 -0.12546883223523481 0 0.12986776683311119 -0.098514185565799078 0 0.13188977167139071 -0.12546883223523481 0 0.14925441928633251 -0.10969288085116551 0 0.13995942417209239 -0.1034127274713456 0 0.13188977167139071 -0.12546883223523481 0 0.14724036225017881 -0.1245170930860646 0 0.14925441928633251 -0.10969288085116551 0 0.13188977167139071 -0.12546883223523481 0 0.14925441928633251 -0.10969288085116551 0 0.15485465026004211 -0.11932571079310079 0 0.15999890680388329 -0.1096406796162286 0 0.14724036225017881 -0.1245170930860646 0 0.15485465026004211 -0.11932571079310079 0 0.15557261582888751 -0.13003178131142151 0 0.14724036225017881 -0.1245170930860646 0 0.14925441928633251 -0.10969288085116551 0 0.15485465026004211 -0.11932571079310079 0 0.14925441928633251 -0.10969288085116551 0 0.14348993397904131 -0.092765062884646393 0 0.1620153957752187 -0.097165399419701551 0 0.14348993397904131 -0.092765062884646393 0 0.1620153957752187 -0.097165399419701551 0 0.14925441928633251 -0.10969288085116551 0 0.13995942417209239 -0.1034127274713456 0 0.14348993397904131 -0.092765062884646393 0 0.13995942417209239 -0.1034127274713456 0 0.12986776683311119 -0.098514185565799078 0 0.13188977167139071 -0.12546883223523481 0 0.13995942417209239 -0.1034127274713456 0 0.12986776683311119 -0.098514185565799078 0 0.14348993397904131 -0.092765062884646393 0 0.12986776683311119 -0.098514185565799078 0 0.12840026197867099 -0.078951386265116219 0 0.1428482005174804 -0.076716741777837147 0 0.1191358060176364 -0.092450830711447801 0 0.12986776683311119 -0.098514185565799078 0 0.12840026197867099 -0.078951386265116219 0 0.12986776683311119 -0.098514185565799078 0 0.12840026197867099 -0.078951386265116219 0 0.12840026197867099 -0.078951386265116219 0 0.12664898879935529 -0.055605769639440771 0 0.12840026197867099 -0.078951386265116219 0 0.12664898879935529 -0.055605769639440771 0 0.14464694777039611 -0.055277979731059648 0 0.12840026197867099 -0.078951386265116219 0 0.1428482005174804 -0.076716741777837147 0 0.14464694777039611 -0.055277979731059648 0 0.12840026197867099 -0.078951386265116219 0 0.14464694777039611 -0.055277979731059648 0 0.1428482005174804 -0.076716741777837147 0 0.15680899227989839 -0.06637062400294011 0 0.14464694777039611 -0.055277979731059648 0 0.1428482005174804 -0.076716741777837147 0 0.15451703372532541 -0.084469533324270707 0 0.15680899227989839 -0.06637062400294011 0 0.12986776683311119 -0.098514185565799078 0 0.15451703372532541 -0.084469533324270707 0 0.12986776683311119 -0.098514185565799078 0 0.14348993397904131 -0.092765062884646393 0 0.15451703372532541 -0.084469533324270707 0 0.14348993397904131 -0.092765062884646393 0 0.15451703372532541 -0.084469533324270707 0 0.1620153957752187 -0.097165399419701551 0 0.12986776683311119 -0.098514185565799078 0 0.1428482005174804 -0.076716741777837147 0 0.15451703372532541 -0.084469533324270707 0 0.15451703372532541 -0.084469533324270707 0 0.1674193516126988 -0.088794767656503876 0 0.1620153957752187 -0.097165399419701551 0 0.15451703372532541 -0.084469533324270707 0 0.1674193516126988 -0.088794767656503876 0 0.16389165652408541 -0.076485311925560115 0 0.1674193516126988 -0.088794767656503876 0 0.16389165652408541 -0.076485311925560115 0 0.17613181446746839 -0.084287857658230353 0 0.15451703372532541 -0.084469533324270707 0 0.15680899227989839 -0.06637062400294011 0 0.16389165652408541 -0.076485311925560115 0 0.16389165652408541 -0.076485311925560115 0 0.1717227713635387 -0.067009979361705274 0 0.17613181446746839 -0.084287857658230353 0 0.15680899227989839 -0.06637062400294011 0 0.16389165652408541 -0.076485311925560115 0 0.1717227713635387 -0.067009979361705274 0 0.15680899227989839 -0.06637062400294011 0 0.1717227713635387 -0.067009979361705274 0 0.1652446184022294 -0.054500080927008407 0 0.1717227713635387 -0.067009979361705274 0 0.17613181446746839 -0.084287857658230353 0 0.1717227713635387 -0.067009979361705274 0 0.18346211879182289 -0.064955309332027283 0 0.18137547142311691 -0.085525622921553163 0 0.18346211879182289 -0.064955309332027283 0 0.18137547142311691 -0.085525622921553163 0 0.1952329782378138 -0.068464889048657496 0 0.1717227713635387 -0.067009979361705274 0 0.18137547142311691 -0.085525622921553163 0 0.1717227713635387 -0.067009979361705274 0 0.18346211879182289 -0.064955309332027283 0 0.1746283364613696 -0.057560297553190053 0 0.18137547142311691 -0.085525622921553163 0 0.17613181446746839 -0.084287857658230353 0 0.18054085757139629 -0.1015657359547559 0 0.17613181446746839 -0.084287857658230353 0 0.18054085757139629 -0.1015657359547559 0 0.1674193516126988 -0.088794767656503876 0 0.17613181446746839 -0.084287857658230353 0 0.18054085757139629 -0.1015657359547559 0 0.1717227713635387 -0.067009979361705274 0 0.18137547142311691 -0.085525622921553163 0 0.17613181446746839 -0.084287857658230353 0 0.18137547142311691 -0.085525622921553163 0 0.19100769245097829 -0.1040519139747048 0 0.18137547142311691 -0.085525622921553163 0 0.18054085757139629 -0.1015657359547559 0 0.19100769245097829 -0.1040519139747048 0 0.18054085757139629 -0.1015657359547559 0 0.1749190978293893 -0.1165979942053425 0 0.16884250162088479 -0.1080310140379921 0 0.18054085757139629 -0.1015657359547559 0 0.19100769245097829 -0.1040519139747048 0 0.18054085757139629 -0.1015657359547559 0 0.1862357176231304 -0.1238823921021804 0 0.1749190978293893 -0.1165979942053425 0 0.18054085757139629 -0.1015657359547559 0 0.1862357176231304 -0.1238823921021804 0 0.19100769245097829 -0.1040519139747048 0 0.18054085757139629 -0.1015657359547559 0 0.1862357176231304 -0.1238823921021804 0 0.1862357176231304 -0.1238823921021804 0 0.1749190978293893 -0.1165979942053425 0 0.17324983187337631 -0.13165498831909611 0 0.1749190978293893 -0.1165979942053425 0 0.16471491079178111 -0.1205264202314431 0 0.16884250162088479 -0.1080310140379921 0 0.16471491079178111 -0.1205264202314431 0 0.15999890680388329 -0.1096406796162286 0 0.16884250162088479 -0.1080310140379921 0 0.1749190978293893 -0.1165979942053425 0 0.16471491079178111 -0.1205264202314431 0 0.17324983187337631 -0.13165498831909611 0 0.15485465026004211 -0.11932571079310079 0 0.16471491079178111 -0.1205264202314431 0 0.15557261582888751 -0.13003178131142151 0 0.15485465026004211 -0.11932571079310079 0 0.16471491079178111 -0.1205264202314431 0 0.15999890680388329 -0.1096406796162286 0 0.18054085757139629 -0.1015657359547559 0 0.1620153957752187 -0.097165399419701551 0 0.1674193516126988 -0.088794767656503876 0 0.18054085757139629 -0.1015657359547559 0 0.1620153957752187 -0.097165399419701551 0 0.14925441928633251 -0.10969288085116551 0 0.15999890680388329 -0.1096406796162286 0 0.1620153957752187 -0.097165399419701551 0 0.15999890680388329 -0.1096406796162286 0 0.1620153957752187 -0.097165399419701551 0 0.16884250162088479 -0.1080310140379921 0 0.18054085757139629 -0.1015657359547559 0 0.1620153957752187 -0.097165399419701551 0 0.16884250162088479 -0.1080310140379921 0 0.13464870039648349 0.00080453217212592717 0 0.15480995508657039 -0.001084596553268768 0 0.14892696920713289 -0.018041582065753459 0 0.13464870039648349 0.00080453217212592717 0 0.1294320674019063 -0.023146095115484211 0 0.14892696920713289 -0.018041582065753459 0 0.13464870039648349 0.00080453217212592717 0 0.1112777463759113 -0.012222875866518469 0 0.1294320674019063 -0.023146095115484211 0 0.1294320674019063 -0.023146095115484211 0 0.14892696920713289 -0.018041582065753459 0 0.14270131340979469 -0.036531096068384838 0 0.14892696920713289 -0.018041582065753459 0 0.14270131340979469 -0.036531096068384838 0 0.16089363356212191 -0.031604573197003549 0 0.14270131340979469 -0.036531096068384838 0 0.14464694777039611 -0.055277979731059648 0 0.16089363356212191 -0.031604573197003549 0 0.14464694777039611 -0.055277979731059648 0 0.15561449558007559 -0.051164132387281437 0 0.16089363356212191 -0.031604573197003549 0 0.14464694777039611 -0.055277979731059648 0 0.16089363356212191 -0.031604573197003549 0 0.14270131340979469 -0.036531096068384838 0 0.12954193793015309 -0.041748568408345607 0 0.14464694777039611 -0.055277979731059648 0 0.1294320674019063 -0.023146095115484211 0 0.14270131340979469 -0.036531096068384838 0 0.12954193793015309 -0.041748568408345607 0 0.12954193793015309 -0.041748568408345607 0 0.12664898879935529 -0.055605769639440771 0 0.14464694777039611 -0.055277979731059648 0 0.15680899227989839 -0.06637062400294011 0 0.14464694777039611 -0.055277979731059648 0 0.15561449558007559 -0.051164132387281437 0 0.15680899227989839 -0.06637062400294011 0 0.15561449558007559 -0.051164132387281437 0 0.1652446184022294 -0.054500080927008407 0 0.15561449558007559 -0.051164132387281437 0 0.1652446184022294 -0.054500080927008407 0 0.1617942405007988 -0.043199732881276223 0 0.1652446184022294 -0.054500080927008407 0 0.1746283364613696 -0.057560297553190053 0 0.1617942405007988 -0.043199732881276223 0 0.1717227713635387 -0.067009979361705274 0 0.1652446184022294 -0.054500080927008407 0 0.1717227713635387 -0.067009979361705274 0 0.1652446184022294 -0.054500080927008407 0 0.1746283364613696 -0.057560297553190053 0 0.1746283364613696 -0.057560297553190053 0 0.1828119860636557 -0.050363577362968731 0 0.1617942405007988 -0.043199732881276223 0 0.18346211879182289 -0.064955309332027283 0 0.1746283364613696 -0.057560297553190053 0 0.1828119860636557 -0.050363577362968731 0 0.18346211879182289 -0.064955309332027283 0 0.1828119860636557 -0.050363577362968731 0 0.19188844298534441 -0.056659859735039647 0 0.1617942405007988 -0.043199732881276223 0 0.18853740735089011 -0.033706188378118708 0 0.1828119860636557 -0.050363577362968731 0 0.1617942405007988 -0.043199732881276223 0 0.18853740735089011 -0.033706188378118708 0 0.15561449558007559 -0.051164132387281437 0 0.16089363356212191 -0.031604573197003549 0 0.1617942405007988 -0.043199732881276223 0 0.16089363356212191 -0.031604573197003549 0 0.1617942405007988 -0.043199732881276223 0 0.18853740735089011 -0.033706188378118708 0 0.16089363356212191 -0.031604573197003549 0 0.17714031935384769 -0.0079311666629475405 0 0.14892696920713289 -0.018041582065753459 0 0.16089363356212191 -0.031604573197003549 0 0.17714031935384769 -0.0079311666629475405 0 0.16089363356212191 -0.031604573197003549 0 0.17714031935384769 -0.0079311666629475405 0 0.18853740735089011 -0.033706188378118708 0 0.1657030786406338 0.0084270166623369204 0 0.15480995508657039 -0.001084596553268768 0 0.17714031935384769 -0.0079311666629475405 0 0.15480995508657039 -0.001084596553268768 0 0.14892696920713289 -0.018041582065753459 0 0.17714031935384769 -0.0079311666629475405 0 0.21351355446813719 -0.0021103410187178909 0 0.2110126965438916 -0.012672932103663791 0 0.2228246624943325 -0.0092295053444410857 0 0.2110126965438916 -0.012672932103663791 0 0.21911622703360889 -0.015650702578479541 0 0.2228246624943325 -0.0092295053444410857 0 0.21351355446813719 -0.0021103410187178909 0 0.2110126965438916 -0.012672932103663791 0 0.19836939172364151 -0.01016904411482358 0 0.1998105265397013 0.00335350757378736 0 0.21351355446813719 -0.0021103410187178909 0 0.19836939172364151 -0.01016904411482358 0 0.1998105265397013 0.00335350757378736 0 0.17714031935384769 -0.0079311666629475405 0 0.19836939172364151 -0.01016904411482358 0 0.17714031935384769 -0.0079311666629475405 0 0.19836939172364151 -0.01016904411482358 0 0.18853740735089011 -0.033706188378118708 0 0.2110126965438916 -0.012672932103663791 0 0.19836939172364151 -0.01016904411482358 0 0.18853740735089011 -0.033706188378118708 0 0.21528057420098159 -0.024212643874961401 0 0.18853740735089011 -0.033706188378118708 0 0.2110126965438916 -0.012672932103663791 0 0.21528057420098159 -0.024212643874961401 0 0.18853740735089011 -0.033706188378118708 0 0.21528057420098159 -0.024212643874961401 0 0.20886364623554921 -0.031523512657201581 0 0.18853740735089011 -0.033706188378118708 0 0.2110126965438916 -0.012672932103663791 0 0.21528057420098159 -0.024212643874961401 0 0.21911622703360889 -0.015650702578479541 0 0.21528057420098159 -0.024212643874961401 0 0.2158000993154765 -0.027276596113623111 0 0.21360323626451261 -0.02858374534336202 0 0.21528057420098159 -0.024212643874961401 0 0.2158000993154765 -0.027276596113623111 0 0.21995729679401421 -0.029331280632926501 0 0.2158000993154765 -0.027276596113623111 0 0.21503400689837671 -0.030930810510401429 0 0.21995729679401421 -0.029331280632926501 0 0.2158000993154765 -0.027276596113623111 0 0.21503400689837671 -0.030930810510401429 0 0.21360323626451261 -0.02858374534336202 0 0.21528057420098159 -0.024212643874961401 0 0.21360323626451261 -0.02858374534336202 0 0.20886364623554921 -0.031523512657201581 0 0.21503400689837671 -0.030930810510401429 0 0.21360323626451261 -0.02858374534336202 0 0.20886364623554921 -0.031523512657201581 0 0.2128060919330283 -0.035124071741943173 0 0.2180191377477218 -0.035203133534298187 0 0.2167024847658664 -0.043974661413588162 0 0.21503400689837671 -0.030930810510401429 0 0.2128060919330283 -0.035124071741943173 0 0.20886364623554921 -0.031523512657201581 0 0.21503400689837671 -0.030930810510401429 0 0.2128060919330283 -0.035124071741943173 0 0.2180191377477218 -0.035203133534298187 0 0.21503400689837671 -0.030930810510401429 0 0.2180191377477218 -0.035203133534298187 0 0.21995729679401421 -0.029331280632926501 0 0.2167024847658664 -0.043974661413588162 0 0.20890374551960481 -0.040729144831228678 0 0.20897987019450001 -0.050060865146210963 0 0.2128060919330283 -0.035124071741943173 0 0.2167024847658664 -0.043974661413588162 0 0.20890374551960481 -0.040729144831228678 0 0.20890374551960481 -0.040729144831228678 0 0.19655169947710091 -0.043788383486002072 0 0.20897987019450001 -0.050060865146210963 0 0.2128060919330283 -0.035124071741943173 0 0.20890374551960481 -0.040729144831228678 0 0.20886364623554921 -0.031523512657201581 0 0.20890374551960481 -0.040729144831228678 0 0.20886364623554921 -0.031523512657201581 0 0.19655169947710091 -0.043788383486002072 0 0.1828119860636557 -0.050363577362968731 0 0.18853740735089011 -0.033706188378118708 0 0.19655169947710091 -0.043788383486002072 0 0.20886364623554921 -0.031523512657201581 0 0.18853740735089011 -0.033706188378118708 0 0.19655169947710091 -0.043788383486002072 0 0.19655169947710091 -0.043788383486002072 0 0.20138343235632811 -0.055727139445542639 0 0.20897987019450001 -0.050060865146210963 0 0.19655169947710091 -0.043788383486002072 0 0.19188844298534441 -0.056659859735039647 0 0.20138343235632811 -0.055727139445542639 0 0.1828119860636557 -0.050363577362968731 0 0.19655169947710091 -0.043788383486002072 0 0.19188844298534441 -0.056659859735039647 0 0.19188844298534441 -0.056659859735039647 0 0.20138343235632811 -0.055727139445542639 0 0.1952329782378138 -0.068464889048657496 0 0.20138343235632811 -0.055727139445542639 0 0.22670270369963491 -0.067064047377793826 0 0.20138343235632811 -0.055727139445542639 0 0.21577564808412511 -0.056666161138016313 0 0.22670270369963491 -0.067064047377793826 0 0.20138343235632811 -0.055727139445542639 0 0.20897987019450001 -0.050060865146210963 0 0.21577564808412511 -0.056666161138016313 0 0.2167024847658664 -0.043974661413588162 0 0.20897987019450001 -0.050060865146210963 0 0.21577564808412511 -0.056666161138016313 0 0.21577564808412511 -0.056666161138016313 0 0.23694359709532001 -0.061394592404840097 0 0.22670270369963491 -0.067064047377793826 0 0.21577564808412511 -0.056666161138016313 0 0.22648325856373289 -0.049317463857355977 0 0.23694359709532001 -0.061394592404840097 0 0.21577564808412511 -0.056666161138016313 0 0.23694359709532001 -0.061394592404840097 0 0.2167024847658664 -0.043974661413588162 0 0.21577564808412511 -0.056666161138016313 0 0.22648325856373289 -0.049317463857355977 0 0.22648325856373289 -0.049317463857355977 0 0.23694359709532001 -0.061394592404840097 0 0.23716366819637241 -0.046229271507985323 0 0.25811154610651499 -0.066123023671663908 0 0.23694359709532001 -0.061394592404840097 0 0.24870160087168189 -0.052882304334001928 0 0.23694359709532001 -0.061394592404840097 0 0.24870160087168189 -0.052882304334001928 0 0.23716366819637241 -0.046229271507985323 0 0.24870160087168189 -0.052882304334001928 0 0.23716366819637241 -0.046229271507985323 0 0.24731406762381819 -0.035960341631652723 0 0.23716366819637241 -0.046229271507985323 0 0.24731406762381819 -0.035960341631652723 0 0.23342582712955959 -0.033308149953783547 0 0.23342582712955959 -0.033308149953783547 0 0.2258308946769807 -0.038322632822349968 0 0.22548915127375299 -0.027513718828695861 0 0.22648325856373289 -0.049317463857355977 0 0.23716366819637241 -0.046229271507985323 0 0.2258308946769807 -0.038322632822349968 0 0.23716366819637241 -0.046229271507985323 0 0.23342582712955959 -0.033308149953783547 0 0.2258308946769807 -0.038322632822349968 0 0.2180191377477218 -0.035203133534298187 0 0.2167024847658664 -0.043974661413588162 0 0.2258308946769807 -0.038322632822349968 0 0.2167024847658664 -0.043974661413588162 0 0.22648325856373289 -0.049317463857355977 0 0.2258308946769807 -0.038322632822349968 0 0.2180191377477218 -0.035203133534298187 0 0.2258308946769807 -0.038322632822349968 0 0.21995729679401421 -0.029331280632926501 0 0.2258308946769807 -0.038322632822349968 0 0.22548915127375299 -0.027513718828695861 0 0.21995729679401421 -0.029331280632926501 0 0.21528057420098159 -0.024212643874961401 0 0.2313313538768734 -0.018514784978234038 0 0.22829619310998309 -0.01520182636873813 0 0.21528057420098159 -0.024212643874961401 0 0.2313313538768734 -0.018514784978234038 0 0.21528057420098159 -0.024212643874961401 0 0.22548915127375299 -0.027513718828695861 0 0.2313313538768734 -0.018514784978234038 0 0.21528057420098159 -0.024212643874961401 0 0.22548915127375299 -0.027513718828695861 0 0.21995729679401421 -0.029331280632926501 0 0.21528057420098159 -0.024212643874961401 0 0.22829619310998309 -0.01520182636873813 0 0.21528057420098159 -0.024212643874961401 0 0.21911622703360889 -0.015650702578479541 0 0.22829619310998309 -0.01520182636873813 0 0.2313313538768734 -0.018514784978234038 0 0.22829619310998309 -0.01520182636873813 0 0.23342582712955959 -0.033308149953783547 0 0.22548915127375299 -0.027513718828695861 0 0.2313313538768734 -0.018514784978234038 0 0.25508119948702751 -0.010083838205662381 0 0.2313313538768734 -0.018514784978234038 0 0.2482857443068576 -0.021714794414400052 0 0.24731406762381819 -0.035960341631652723 0 0.2313313538768734 -0.018514784978234038 0 0.2482857443068576 -0.021714794414400052 0 0.24731406762381819 -0.035960341631652723 0 0.23342582712955959 -0.033308149953783547 0 0.2313313538768734 -0.018514784978234038 0 0.24731406762381819 -0.035960341631652723 0 0.2313313538768734 -0.018514784978234038 0 0.25508119948702751 -0.010083838205662381 0 0.2313313538768734 -0.018514784978234038 0 0.24138147174972829 -0.0061427828714447699 0 0.25508119948702751 -0.010083838205662381 0 0.2313313538768734 -0.018514784978234038 0 0.24138147174972829 -0.0061427828714447699 0 0.22829619310998309 -0.01520182636873813 0 0.25446675038947358 0.0029162606258486688 0 0.2541426920980116 -0.0036136263454906951 0 0.24138147174972829 -0.0061427828714447699 0 0.25446675038947358 0.0029162606258486688 0 0.24138147174972829 -0.0061427828714447699 0 0.22999165343287109 0.0038227322559807589 0 0.24138147174972829 -0.0061427828714447699 0 0.23189167676904729 -0.0064153040848911828 0 0.22999165343287109 0.0038227322559807589 0 0.23189167676904729 -0.0064153040848911828 0 0.2228246624943325 -0.0092295053444410857 0 0.22999165343287109 0.0038227322559807589 0 0.21351355446813719 -0.0021103410187178909 0 0.2228246624943325 -0.0092295053444410857 0 0.23189167676904729 -0.0064153040848911828 0 0.22829619310998309 -0.01520182636873813 0 0.2228246624943325 -0.0092295053444410857 0 0.2313313538768734 -0.018514784978234038 0 0.24138147174972829 -0.0061427828714447699 0 0.22829619310998309 -0.01520182636873813 0 0.24138147174972829 -0.0061427828714447699 0 0.23189167676904729 -0.0064153040848911828 0 0.22829619310998309 -0.01520182636873813 0 0.21911622703360889 -0.015650702578479541 0 0.22829619310998309 -0.01520182636873813 0 0.2228246624943325 -0.0092295053444410857 0 0.22829619310998309 -0.01520182636873813 0 0.2228246624943325 -0.0092295053444410857 0 0.2084634723971549 -0.097930235578601213 0 0.21737999015654699 -0.1103161024944793 0 0.2275791846540145 -0.10054182369239011 0 0.21737999015654699 -0.1103161024944793 0 0.19100769245097829 -0.1040519139747048 0 0.2084634723971549 -0.097930235578601213 0 0.21140608144591419 -0.084503356370523836 0 0.2275791846540145 -0.10054182369239011 0 0.2084634723971549 -0.097930235578601213 0 0.21737999015654699 -0.1103161024944793 0 0.19100769245097829 -0.1040519139747048 0 0.21737999015654699 -0.1103161024944793 0 0.21277072480774051 -0.1248863227998855 0 0.20025029595199689 -0.1218288277367077 0 0.21737999015654699 -0.1103161024944793 0 0.21277072480774051 -0.1248863227998855 0 0.2239597136694004 -0.1277946194696456 0 0.1862357176231304 -0.1238823921021804 0 0.20025029595199689 -0.1218288277367077 0 0.19100769245097829 -0.1040519139747048 0 0.21737999015654699 -0.1103161024944793 0 0.20025029595199689 -0.1218288277367077 0 0.19100769245097829 -0.1040519139747048 0 0.20025029595199689 -0.1218288277367077 0 0.19100769245097829 -0.1040519139747048 0 0.2084634723971549 -0.097930235578601213 0 0.19100769245097829 -0.1040519139747048 0 0.19624682445825681 -0.08914472739044943 0 0.18137547142311691 -0.085525622921553163 0 0.19100769245097829 -0.1040519139747048 0 0.19624682445825681 -0.08914472739044943 0 0.19624682445825681 -0.08914472739044943 0 0.1952329782378138 -0.068464889048657496 0 0.21140608144591419 -0.084503356370523836 0 0.18137547142311691 -0.085525622921553163 0 0.19624682445825681 -0.08914472739044943 0 0.1952329782378138 -0.068464889048657496 0 0.20138343235632811 -0.055727139445542639 0 0.1952329782378138 -0.068464889048657496 0 0.21149591893834541 -0.070957707586151192 0 0.18346211879182289 -0.064955309332027283 0 0.19188844298534441 -0.056659859735039647 0 0.1952329782378138 -0.068464889048657496 0 0.1952329782378138 -0.068464889048657496 0 0.21140608144591419 -0.084503356370523836 0 0.20138343235632811 -0.055727139445542639 0 0.21149591893834541 -0.070957707586151192 0 0.22670270369963491 -0.067064047377793826 0 0.1952329782378138 -0.068464889048657496 0 0.21149591893834541 -0.070957707586151192 0 0.21140608144591419 -0.084503356370523836 0 0.2084634723971549 -0.097930235578601213 0 0.19624682445825681 -0.08914472739044943 0 0.21140608144591419 -0.084503356370523836 0 0.21149591893834541 -0.070957707586151192 0 0.21140608144591419 -0.084503356370523836 0 0.2227543989520358 -0.079029105688238177 0 0.21140608144591419 -0.084503356370523836 0 0.2275791846540145 -0.10054182369239011 0 0.2227543989520358 -0.079029105688238177 0 0.23449163343577681 -0.083610487294907485 0 0.2275791846540145 -0.10054182369239011 0 0.21140608144591419 -0.084503356370523836 0 0.2227543989520358 -0.079029105688238177 0 0.2275791846540145 -0.10054182369239011 0 0.2227543989520358 -0.079029105688238177 0 0.22670270369963491 -0.067064047377793826 0 0.23449163343577681 -0.083610487294907485 0 0.21149591893834541 -0.070957707586151192 0 0.2227543989520358 -0.079029105688238177 0 0.22670270369963491 -0.067064047377793826 0 0.25202197504294188 -0.078400955310045109 0 0.25811154610651499 -0.066123023671663908 0 0.23694359709532001 -0.061394592404840097 0 0.25202197504294188 -0.078400955310045109 0 0.22670270369963491 -0.067064047377793826 0 0.25202197504294188 -0.078400955310045109 0 0.22670270369963491 -0.067064047377793826 0 0.23449163343577681 -0.083610487294907485 0 0.25202197504294188 -0.078400955310045109 0 0.23694359709532001 -0.061394592404840097 0 0.22670270369963491 -0.067064047377793826 0 0.25811154610651499 -0.066123023671663908 0 0.23694359709532001 -0.061394592404840097 0 0.25202197504294188 -0.078400955310045109 0 0.23449163343577681 -0.083610487294907485 0 0.24624903761231479 -0.086847438891893419 0 0.23449163343577681 -0.083610487294907485 0 0.24292322406264641 -0.096552741650977186 0 0.2275791846540145 -0.10054182369239011 0 0.23449163343577681 -0.083610487294907485 0 0.24624903761231479 -0.086847438891893419 0 0.24292322406264641 -0.096552741650977186 0 0.25304747237378489 -0.090741332181114118 0 0.24624903761231479 -0.086847438891893419 0 0.24292322406264641 -0.096552741650977186 0 0.2275791846540145 -0.10054182369239011 0 0.24375228786211539 -0.116580291014256 0 0.24292322406264641 -0.096552741650977186 0 0.2275791846540145 -0.10054182369239011 0 0.24375228786211539 -0.116580291014256 0 0.25771864553297669 -0.099620140202181948 0 0.24292322406264641 -0.096552741650977186 0 0.24375228786211539 -0.116580291014256 0 0.21737999015654699 -0.1103161024944793 0 0.2275791846540145 -0.10054182369239011 0 0.24375228786211539 -0.116580291014256 0 0.21737999015654699 -0.1103161024944793 0 0.24375228786211539 -0.116580291014256 0 0.2239597136694004 -0.1277946194696456 0 0.21737999015654699 -0.1103161024944793 0 0.24375228786211539 -0.116580291014256 0 0.24375228786211539 -0.116580291014256 0 0.235054631712311 -0.13955626642273861 0 0.24955680073527009 -0.143898101237383 0 0.235054631712311 -0.13955626642273861 0 0.24955680073527009 -0.143898101237383 0 0.23627457688356679 -0.15840319400941011 0 0.25449645062408999 -0.16331052089379791 0 0.24955680073527009 -0.143898101237383 0 0.23627457688356679 -0.15840319400941011 0 0.235054631712311 -0.13955626642273861 0 0.22199130801810529 -0.1478171468904442 0 0.23627457688356679 -0.15840319400941011 0 0.24375228786211539 -0.116580291014256 0 0.235054631712311 -0.13955626642273861 0 0.2239597136694004 -0.1277946194696456 0 0.235054631712311 -0.13955626642273861 0 0.22199130801810529 -0.1478171468904442 0 0.2239597136694004 -0.1277946194696456 0 0.20025029595199689 -0.1218288277367077 0 0.20949289945301761 -0.1396057414987095 0 0.22199130801810529 -0.1478171468904442 0 0.2239597136694004 -0.1277946194696456 0 0.20949289945301761 -0.1396057414987095 0 0.21277072480774051 -0.1248863227998855 0 0.20025029595199689 -0.1218288277367077 0 0.20949289945301761 -0.1396057414987095 0 0.21277072480774051 -0.1248863227998855 0 0.2239597136694004 -0.1277946194696456 0 0.20949289945301761 -0.1396057414987095 0 0.22199130801810529 -0.1478171468904442 0 0.20949289945301761 -0.1396057414987095 0 0.2069794531536403 -0.1537888919124783 0 0.20949289945301761 -0.1396057414987095 0 0.2069794531536403 -0.1537888919124783 0 0.1919305776748628 -0.1461990482496055 0 0.2069794531536403 -0.1537888919124783 0 0.1919305776748628 -0.1461990482496055 0 0.19225769977326759 -0.16432491474026781 0 0.1862357176231304 -0.1238823921021804 0 0.1919305776748628 -0.1461990482496055 0 0.19714487019074359 -0.1333469628700395 0 0.20025029595199689 -0.1218288277367077 0 0.20949289945301761 -0.1396057414987095 0 0.19714487019074359 -0.1333469628700395 0 0.20949289945301761 -0.1396057414987095 0 0.1919305776748628 -0.1461990482496055 0 0.19714487019074359 -0.1333469628700395 0 0.1862357176231304 -0.1238823921021804 0 0.1919305776748628 -0.1461990482496055 0 0.1862357176231304 -0.1238823921021804 0 0.20025029595199689 -0.1218288277367077 0 0.19714487019074359 -0.1333469628700395 0 0.19629081049063871 -0.1815365299480412 0 0.19225769977326759 -0.16432491474026781 0 0.17982600751226671 -0.1762593337595659 0 0.19629081049063871 -0.1815365299480412 0 0.19225769977326759 -0.16432491474026781 0 0.22018657323669569 -0.16775416802968299 0 0.2069794531536403 -0.1537888919124783 0 0.19225769977326759 -0.16432491474026781 0 0.22018657323669569 -0.16775416802968299 0 0.22199130801810529 -0.1478171468904442 0 0.2069794531536403 -0.1537888919124783 0 0.22018657323669569 -0.16775416802968299 0 0.19629081049063871 -0.1815365299480412 0 0.22018657323669569 -0.16775416802968299 0 0.21237941264848451 -0.18810475376770611 0 0.22018657323669569 -0.16775416802968299 0 0.23934418379307471 -0.18436482883247621 0 0.22018657323669569 -0.16775416802968299 0 0.23934418379307471 -0.18436482883247621 0 0.21237941264848451 -0.18810475376770611 0 0.22018657323669569 -0.16775416802968299 0 0.23627457688356679 -0.15840319400941011 0 0.23934418379307471 -0.18436482883247621 0 0.22199130801810529 -0.1478171468904442 0 0.22018657323669569 -0.16775416802968299 0 0.23627457688356679 -0.15840319400941011 0 0.25449645062408999 -0.16331052089379791 0 0.23627457688356679 -0.15840319400941011 0 0.23934418379307471 -0.18436482883247621 0 0.25850179434945381 -0.20097548963526929 0 0.23934418379307471 -0.18436482883247621 0 0.25850179434945381 -0.20097548963526929 0 0.23934418379307471 -0.18436482883247621 0 0.23907695871134879 -0.21289681242661959 0 0.23907695871134879 -0.21289681242661959 0 0.22308479462261119 -0.20217133576560289 0 0.21722062693650279 -0.2226466586169516 0 0.23934418379307471 -0.18436482883247621 0 0.22308479462261119 -0.20217133576560289 0 0.21237941264848451 -0.18810475376770611 0 0.23934418379307471 -0.18436482883247621 0 0.23907695871134879 -0.21289681242661959 0 0.22308479462261119 -0.20217133576560289 0 0.25037283077400019 -0.2416092145933311 0 0.23239962387573149 -0.2337287944253621 0 0.2339549802858914 -0.24933471903745599 0 0.25658827463044448 -0.2222138965281123 0 0.23907695871134879 -0.21289681242661959 0 0.2446094219978813 -0.2276121794933563 0 0.25037283077400019 -0.2416092145933311 0 0.2446094219978813 -0.2276121794933563 0 0.23239962387573149 -0.2337287944253621 0 0.23907695871134879 -0.21289681242661959 0 0.2446094219978813 -0.2276121794933563 0 0.23239962387573149 -0.2337287944253621 0 0.23907695871134879 -0.21289681242661959 0 0.23239962387573149 -0.2337287944253621 0 0.21722062693650279 -0.2226466586169516 0 0.23239962387573149 -0.2337287944253621 0 0.2194561222393229 -0.23682627783696539 0 0.21722062693650279 -0.2226466586169516 0 0.23239962387573149 -0.2337287944253621 0 0.22502312889380549 -0.2426362774769398 0 0.2339549802858914 -0.24933471903745599 0 0.2194561222393229 -0.23682627783696539 0 0.22502312889380549 -0.2426362774769398 0 0.21456577207223029 -0.24270171036535029 0 0.23239962387573149 -0.2337287944253621 0 0.2194561222393229 -0.23682627783696539 0 0.22502312889380549 -0.2426362774769398 0 0.22331750647786899 -0.25281133177650322 0 0.22502312889380549 -0.2426362774769398 0 0.21456577207223029 -0.24270171036535029 0 0.22331750647786899 -0.25281133177650322 0 0.22502312889380549 -0.2426362774769398 0 0.2339549802858914 -0.24933471903745599 0 0.2084475354763706 -0.25511513831035743 0 0.2080714594183444 -0.2424179483002232 0 0.21336353465090491 -0.24693864317134839 0 0.2080714594183444 -0.2424179483002232 0 0.21336353465090491 -0.24693864317134839 0 0.2080714594183444 -0.2424179483002232 0 0.21336353465090491 -0.24693864317134839 0 0.21456577207223029 -0.24270171036535029 0 0.2194561222393229 -0.23682627783696539 0 0.2080714594183444 -0.2424179483002232 0 0.21456577207223029 -0.24270171036535029 0 0.21722062693650279 -0.2226466586169516 0 0.20244123733496699 -0.2260211367091485 0 0.19848523837712481 -0.2136299623964425 0 0.2080714594183444 -0.2424179483002232 0 0.21722062693650279 -0.2226466586169516 0 0.2194561222393229 -0.23682627783696539 0 0.2080714594183444 -0.2424179483002232 0 0.21722062693650279 -0.2226466586169516 0 0.2080714594183444 -0.2424179483002232 0 0.21722062693650279 -0.2226466586169516 0 0.20244123733496699 -0.2260211367091485 0 0.2080714594183444 -0.2424179483002232 0 0.18716213711817259 -0.22455639835484539 0 0.2080714594183444 -0.2424179483002232 0 0.20244123733496699 -0.2260211367091485 0 0.18716213711817259 -0.22455639835484539 0 0.20244123733496699 -0.2260211367091485 0 0.19848523837712481 -0.2136299623964425 0 0.18716213711817259 -0.22455639835484539 0 0.2080714594183444 -0.2424179483002232 0 0.19254414318066221 -0.24961624770678509 0 0.1866817818972302 -0.23981118877977231 0 0.2080714594183444 -0.2424179483002232 0 0.1866817818972302 -0.23981118877977231 0 0.18716213711817259 -0.22455639835484539 0 0.19254414318066221 -0.24961624770678509 0 0.18399505531774341 -0.24981832115951039 0 0.1866817818972302 -0.23981118877977231 0 0.21237941264848451 -0.18810475376770611 0 0.20793523744788639 -0.20366419955677639 0 0.19447652973028121 -0.19759128756789451 0 0.22308479462261119 -0.20217133576560289 0 0.21237941264848451 -0.18810475376770611 0 0.20793523744788639 -0.20366419955677639 0 0.22308479462261119 -0.20217133576560289 0 0.21722062693650279 -0.2226466586169516 0 0.20793523744788639 -0.20366419955677639 0 0.21722062693650279 -0.2226466586169516 0 0.20793523744788639 -0.20366419955677639 0 0.19848523837712481 -0.2136299623964425 0 0.19848523837712481 -0.2136299623964425 0 0.19447652973028121 -0.19759128756789451 0 0.1831457957419608 -0.2071674304332729 0 0.20793523744788639 -0.20366419955677639 0 0.19848523837712481 -0.2136299623964425 0 0.19447652973028121 -0.19759128756789451 0 0.19848523837712481 -0.2136299623964425 0 0.1831457957419608 -0.2071674304332729 0 0.18716213711817259 -0.22455639835484539 0 0.19629081049063871 -0.1815365299480412 0 0.19447652973028121 -0.19759128756789451 0 0.1840061663436266 -0.1900566622106199 0 0.19629081049063871 -0.1815365299480412 0 0.21237941264848451 -0.18810475376770611 0 0.19447652973028121 -0.19759128756789451 0 0.19447652973028121 -0.19759128756789451 0 0.1840061663436266 -0.1900566622106199 0 0.1831457957419608 -0.2071674304332729 0 0.1840061663436266 -0.1900566622106199 0 0.1831457957419608 -0.2071674304332729 0 0.16486725365112659 -0.18785963188663279 0 0.1831457957419608 -0.2071674304332729 0 0.16486725365112659 -0.18785963188663279 0 0.1831457957419608 -0.2071674304332729 0 0.16625281481800089 -0.2066948484094672 0 0.18716213711817259 -0.22455639835484539 0 0.16625281481800089 -0.2066948484094672 0 0.18716213711817259 -0.22455639835484539 0 0.16625281481800089 -0.2066948484094672 0 0.18716213711817259 -0.22455639835484539 0 0.16937657335138201 -0.22198425569814831 0 0.16625281481800089 -0.2066948484094672 0 0.15661990237239229 -0.21733625041789439 0 0.14909823278687431 -0.20687378182447139 0 0.16625281481800089 -0.2066948484094672 0 0.15661990237239229 -0.21733625041789439 0 0.16937657335138201 -0.22198425569814831 0 0.1831457957419608 -0.2071674304332729 0 0.16625281481800089 -0.2066948484094672 0 0.16486725365112659 -0.18785963188663279 0 0.16625281481800089 -0.2066948484094672 0 0.16486725365112659 -0.18785963188663279 0 0.14534349251782941 -0.188833298464089 0 0.17619278994504239 -0.24587918172992959 0 0.18399505531774341 -0.24981832115951039 0 0.1866817818972302 -0.23981118877977231 0 0.17619278994504239 -0.24587918172992959 0 0.17450151464944069 -0.23276490516368609 0 0.16609645978724119 -0.24143951784646769 0 0.17619278994504239 -0.24587918172992959 0 0.1866817818972302 -0.23981118877977231 0 0.17450151464944069 -0.23276490516368609 0 0.17450151464944069 -0.23276490516368609 0 0.18716213711817259 -0.22455639835484539 0 0.16937657335138201 -0.22198425569814831 0 0.1866817818972302 -0.23981118877977231 0 0.17450151464944069 -0.23276490516368609 0 0.18716213711817259 -0.22455639835484539 0 0.15661990237239229 -0.21733625041789439 0 0.1623464977989032 -0.22856887614484861 0 0.15090654410468329 -0.22688320449844629 0 0.15661990237239229 -0.21733625041789439 0 0.16937657335138201 -0.22198425569814831 0 0.1623464977989032 -0.22856887614484861 0 0.17450151464944069 -0.23276490516368609 0 0.1623464977989032 -0.22856887614484861 0 0.16609645978724119 -0.24143951784646769 0 0.17450151464944069 -0.23276490516368609 0 0.16937657335138201 -0.22198425569814831 0 0.1623464977989032 -0.22856887614484861 0 0.1623464977989032 -0.22856887614484861 0 0.16609645978724119 -0.24143951784646769 0 0.1528270009437688 -0.23836283418195289 0 0.16001236861667459 -0.2513654190734112 0 0.16609645978724119 -0.24143951784646769 0 0.1528270009437688 -0.23836283418195289 0 0.16978669848249819 -0.25098739912941831 0 0.17619278994504239 -0.24587918172992959 0 0.16609645978724119 -0.24143951784646769 0 0.16001236861667459 -0.2513654190734112 0 0.16978669848249819 -0.25098739912941831 0 0.16609645978724119 -0.24143951784646769 0 0.1429630926125974 -0.2502577086919005 0 0.16001236861667459 -0.2513654190734112 0 0.1528270009437688 -0.23836283418195289 0 0.1429630926125974 -0.2502577086919005 0 0.1528270009437688 -0.23836283418195289 0 0.13988621804673579 -0.23152362256679451 0 0.1528270009437688 -0.23836283418195289 0 0.15090654410468329 -0.22688320449844629 0 0.13988621804673579 -0.23152362256679451 0 0.1623464977989032 -0.22856887614484861 0 0.1528270009437688 -0.23836283418195289 0 0.15090654410468329 -0.22688320449844629 0 0.15661990237239229 -0.21733625041789439 0 0.15090654410468329 -0.22688320449844629 0 0.1428531013616163 -0.21862443918074129 0 0.15090654410468329 -0.22688320449844629 0 0.13988621804673579 -0.23152362256679451 0 0.1428531013616163 -0.21862443918074129 0 0.12018370186474731 -0.23305432747703519 0 0.12895394136930069 -0.22163642029703709 0 0.13988621804673579 -0.23152362256679451 0 0.12895394136930069 -0.22163642029703709 0 0.13988621804673579 -0.23152362256679451 0 0.1428531013616163 -0.21862443918074129 0 0.1429630926125974 -0.2502577086919005 0 0.12018370186474731 -0.23305432747703519 0 0.1429630926125974 -0.2502577086919005 0 0.12018370186474731 -0.23305432747703519 0 0.13988621804673579 -0.23152362256679451 0 0.13217397618885759 -0.25462043987800831 0 0.1429630926125974 -0.2502577086919005 0 0.12018370186474731 -0.23305432747703519 0 0.16625281481800089 -0.2066948484094672 0 0.14534349251782941 -0.188833298464089 0 0.16625281481800089 -0.2066948484094672 0 0.14534349251782941 -0.188833298464089 0 0.14909823278687431 -0.20687378182447139 0 0.14534349251782941 -0.188833298464089 0 0.14909823278687431 -0.20687378182447139 0 0.1346280568372662 -0.20359450925845249 0 0.15661990237239229 -0.21733625041789439 0 0.14909823278687431 -0.20687378182447139 0 0.1428531013616163 -0.21862443918074129 0 0.14909823278687431 -0.20687378182447139 0 0.1428531013616163 -0.21862443918074129 0 0.1346280568372662 -0.20359450925845249 0 0.1178461100078927 -0.20838697738218431 0 0.12895394136930069 -0.22163642029703709 0 0.1346280568372662 -0.20359450925845249 0 0.12895394136930069 -0.22163642029703709 0 0.1428531013616163 -0.21862443918074129 0 0.1346280568372662 -0.20359450925845249 0 0.14534349251782941 -0.188833298464089 0 0.1346280568372662 -0.20359450925845249 0 0.13128332926409281 -0.18787359724935929 0 0.1237689835273371 -0.19605207676116951 0 0.1178461100078927 -0.20838697738218431 0 0.1346280568372662 -0.20359450925845249 0 0.1237689835273371 -0.19605207676116951 0 0.1346280568372662 -0.20359450925845249 0 0.13128332926409281 -0.18787359724935929 0 0.1237689835273371 -0.19605207676116951 0 0.1232013989280239 -0.1819146573535104 0 0.13128332926409281 -0.18787359724935929 0 0.12443417021765769 -0.1709717485187108 0 0.14534349251782941 -0.188833298464089 0 0.12443417021765769 -0.1709717485187108 0 0.1232013989280239 -0.1819146573535104 0 0.13128332926409281 -0.18787359724935929 0 0.12443417021765769 -0.1709717485187108 0 0.14534349251782941 -0.188833298464089 0 0.13128332926409281 -0.18787359724935929 0 0.12443417021765769 -0.1709717485187108 0 0.14534349251782941 -0.188833298464089 0 0.13540865390058859 -0.1688207667960602 0 0.14534349251782941 -0.188833298464089 0 0.14658871156029241 -0.16855183333999291 0 0.13540865390058859 -0.1688207667960602 0 0.16486725365112659 -0.18785963188663279 0 0.14658871156029241 -0.16855183333999291 0 0.16486725365112659 -0.18785963188663279 0 0.14534349251782941 -0.188833298464089 0 0.14658871156029241 -0.16855183333999291 0 0.14658871156029241 -0.16855183333999291 0 0.13391177650968769 -0.15242347890466901 0 0.14971917460686079 -0.1530450482394467 0 0.14658871156029241 -0.16855183333999291 0 0.14971917460686079 -0.1530450482394467 0 0.16192904395431579 -0.15800089119817939 0 0.14658871156029241 -0.16855183333999291 0 0.13391177650968769 -0.15242347890466901 0 0.12831016946945831 -0.1492440347933528 0 0.14658871156029241 -0.16855183333999291 0 0.12831016946945831 -0.1492440347933528 0 0.14658871156029241 -0.16855183333999291 0 0.13540865390058859 -0.1688207667960602 0 0.1290045142054978 -0.1612372837293575 0 0.14658871156029241 -0.16855183333999291 0 0.1290045142054978 -0.1612372837293575 0 0.12831016946945831 -0.1492440347933528 0 0.13540865390058859 -0.1688207667960602 0 0.12715697753007521 -0.16591248018761531 0 0.1290045142054978 -0.1612372837293575 0 0.12443417021765769 -0.1709717485187108 0 0.13540865390058859 -0.1688207667960602 0 0.12715697753007521 -0.16591248018761531 0 0.12098675462827781 -0.16200852072179159 0 0.12715697753007521 -0.16591248018761531 0 0.1290045142054978 -0.1612372837293575 0 0.12324902196630889 -0.15465793599018671 0 0.1227471198665283 -0.15880086614903269 0 0.1290045142054978 -0.1612372837293575 0 0.13391177650968769 -0.15242347890466901 0 0.12831016946945831 -0.1492440347933528 0 0.12532898621889721 -0.13663811256420449 0 0.12324902196630889 -0.15465793599018671 0 0.1290045142054978 -0.1612372837293575 0 0.12831016946945831 -0.1492440347933528 0 0.1217036921304827 -0.1482443959076799 0 0.12831016946945831 -0.1492440347933528 0 0.12532898621889721 -0.13663811256420449 0 0.13391177650968769 -0.15242347890466901 0 0.13188977167139071 -0.12546883223523481 0 0.13391177650968769 -0.15242347890466901 0 0.13188977167139071 -0.12546883223523481 0 0.1446303542042412 -0.1380662602394005 0 0.13391177650968769 -0.15242347890466901 0 0.13188977167139071 -0.12546883223523481 0 0.12532898621889721 -0.13663811256420449 0 0.11997683785091839 -0.1276371159963853 0 0.13188977167139071 -0.12546883223523481 0 0.12532898621889721 -0.13663811256420449 0 0.1446303542042412 -0.1380662602394005 0 0.15557261582888751 -0.13003178131142151 0 0.1621281360659286 -0.14191921566573409 0 0.14724036225017881 -0.1245170930860646 0 0.13188977167139071 -0.12546883223523481 0 0.1446303542042412 -0.1380662602394005 0 0.14724036225017881 -0.1245170930860646 0 0.1446303542042412 -0.1380662602394005 0 0.15557261582888751 -0.13003178131142151 0 0.13391177650968769 -0.15242347890466901 0 0.1446303542042412 -0.1380662602394005 0 0.14971917460686079 -0.1530450482394467 0 0.1446303542042412 -0.1380662602394005 0 0.14971917460686079 -0.1530450482394467 0 0.1621281360659286 -0.14191921566573409 0 0.1621281360659286 -0.14191921566573409 0 0.17324983187337631 -0.13165498831909611 0 0.17651024624945799 -0.1485415537171802 0 0.14971917460686079 -0.1530450482394467 0 0.1621281360659286 -0.14191921566573409 0 0.16192904395431579 -0.15800089119817939 0 0.1621281360659286 -0.14191921566573409 0 0.17651024624945799 -0.1485415537171802 0 0.16192904395431579 -0.15800089119817939 0 0.16471491079178111 -0.1205264202314431 0 0.15557261582888751 -0.13003178131142151 0 0.1639163736399934 -0.1310331013819237 0 0.15557261582888751 -0.13003178131142151 0 0.1621281360659286 -0.14191921566573409 0 0.1639163736399934 -0.1310331013819237 0 0.1621281360659286 -0.14191921566573409 0 0.1639163736399934 -0.1310331013819237 0 0.17324983187337631 -0.13165498831909611 0 0.16471491079178111 -0.1205264202314431 0 0.1639163736399934 -0.1310331013819237 0 0.17324983187337631 -0.13165498831909611 0 0.1862357176231304 -0.1238823921021804 0 0.1919305776748628 -0.1461990482496055 0 0.17324983187337631 -0.13165498831909611 0 0.1919305776748628 -0.1461990482496055 0 0.17324983187337631 -0.13165498831909611 0 0.17651024624945799 -0.1485415537171802 0 0.1919305776748628 -0.1461990482496055 0 0.19225769977326759 -0.16432491474026781 0 0.17651024624945799 -0.1485415537171802 0 0.19225769977326759 -0.16432491474026781 0 0.17526083145963689 -0.16308053239281189 0 0.17982600751226671 -0.1762593337595659 0 0.19225769977326759 -0.16432491474026781 0 0.17651024624945799 -0.1485415537171802 0 0.17526083145963689 -0.16308053239281189 0 0.17526083145963689 -0.16308053239281189 0 0.17982600751226671 -0.1762593337595659 0 0.16627328335530381 -0.17069773137902189 0 0.1840061663436266 -0.1900566622106199 0 0.16486725365112659 -0.18785963188663279 0 0.17982600751226671 -0.1762593337595659 0 0.19629081049063871 -0.1815365299480412 0 0.1840061663436266 -0.1900566622106199 0 0.17982600751226671 -0.1762593337595659 0 0.16486725365112659 -0.18785963188663279 0 0.14658871156029241 -0.16855183333999291 0 0.16627328335530381 -0.17069773137902189 0 0.16486725365112659 -0.18785963188663279 0 0.17982600751226671 -0.1762593337595659 0 0.16627328335530381 -0.17069773137902189 0 0.14658871156029241 -0.16855183333999291 0 0.16192904395431579 -0.15800089119817939 0 0.16627328335530381 -0.17069773137902189 0 0.17526083145963689 -0.16308053239281189 0 0.16192904395431579 -0.15800089119817939 0 0.16627328335530381 -0.17069773137902189 0 0.17651024624945799 -0.1485415537171802 0 0.17526083145963689 -0.16308053239281189 0 0.16192904395431579 -0.15800089119817939 0 
</DataArray>
</Points>
<Cells>
<DataArray type="UInt32" Name="connectivity" format="ascii">
0 1 2 3 4 5 6 7 8 9 10 11 12 13 14 15 16 17 18 19 20 21 22 23 24 25 26 27 28 29 30 31 32 33 34 35 36 37 38 39 40 41 42 43 44 45 46 47 48 49 50 51 52 53 54 55 56 57 58 59 60 61 62 63 64 65 66 67 68 69 70 71 72 73 74 75 76 77 78 79 80 81 82 83 84 85 86 87 88 89 90 91 92 93 94 95 96 97 98 99 100 101 102 103 104 105 106 107 108 109 110 111 112 113 114 115 116 117 118 119 120 121 122 123 124 125 126 127 128 129 130 131 132 133 134 135 136 137 138 139 140 141 142 143 144 145 146 147 148 149 150 151 152 153 154 155 156 157 158 159 160 161 162 163 164 165 166 167 168 169 170 171 172 173 174 175 176 177 178 179 180 181 182 183 184 185 186 187 188 189 190 191 192 193 194 195 196 197 198 199 200 201 202 203 204 205 206 207 208 209 210 211 212 213 214 215 216 217 218 219 220 221 222 223 224 225 226 227 228 229 230 231 232 233 234 235 236 237 238 239 240 241 242 243 244 245 246 247 248 249 250 251 252 253 254 255 256 257 258 259 260 261 262 263 264 265 266 267 268 269 270 271 272 273 274 275 276 277 278 279 280 281 282 283 284 285 286 287 288 289 290 291 292 293 294 295 296 297 298 299 300 301 302 303 304 305 306 307 308 309 310 311 312 313 314 315 316 317 318 319 320 321 322 323 324 325 326 327 328 329 330 331 332 333 334 335 336 337 338 339 340 341 342 343 344 345 346 347 348 349 350 351 352 353 354 355 356 357 358 359 360 361 362 363 364 365 366 367 368 369 370 371 372 373 374 375 376 377 378 379 380 381 382 383 384 385 386 387 388 389 390 391 392 393 394 395 396 397 398 399 400 401 402 403 404 405 406 407 408 409 410 411 412 413 414 415 416 417 418 419 420 421 422 423 424 425 426 427 428 429 430 431 432 433 434 435 436 437 438 439 440 441 442 443 444 445 446 447 448 449 450 451 452 453 454 455 456 457 458 459 460 461 462 463 464 465 466 467 468 469 470 471 472 473 474 475 476 477 478 479 480 481 482 483 484 485 486 487 488 489 490 491 492 493 494 495 496 497 498 499 500 501 502 503 504 505 506 507 508 509 510 511 512 513 514 515 516 517 518 519 520 521 522 523 524 525 526 527 528 529 530 531 532 533 534 535 536 537 538 539 540 541 542 543 544 545 546 547 548 549 550 551 552 553 554 555 556 557 558 559 560 561 562 563 564 565 566 567 568 569 570 571 572 573 574 575 576 577 578 579 580 581 582 583 584 585 586 587 588 589 590 591 592 593 594 595 596 597 598 599 600 601 602 603 604 605 606 607 608 609 610 611 612 613 614 615 616 617 618 619 620 621 622 623 624 625 626 627 628 629 630 631 632 633 634 635 636 637 638 639 640 641 642 643 644 645 646 647 648 649 650 651 652 653 654 655 656 657 658 659 660 661 662 663 664 665 666 667 668 669 670 671 672 673 674 675 676 677 678 679 680 681 682 683 684 685 686 687 688 689 690 691 692 693 694 695 696 697 698 699 700 701 702 703 704 705 706 707 708 709 710 711 712 713 714 715 716 717 718 719 720 721 722 723 724 725 726 727 728 729 730 731 732 733 734 735 736 737 738 739 740 741 742 743 744 745 746 747 748 749 750 751 752 753 754 755 756 757 758 759 760 761 762 763 764 765 766 767 768 769 770 771 772 773 774 775 776 777 778 779 780 781 782 783 784 785 786 787 788 789 790 791 792 793 794 795 796 797 798 799 800 801 802 803 804 805 806 807 808 809 810 811 812 813 814 815 816 817 818 819 820 821 822 823 824 825 826 827 828 829 830 831 832 833 834 835 836 837 838 839 840 841 842 843 844 845 846 847 848 849 850 851 852 853 854 855 856 857 858 859 860 861 862 863 864 865 866 867 868 869 870 871 872 873 874 875 876 877 878 879 880 881 882 883 884 885 886 887 888 889 890 891 892 893 894 895 896 897 898 899 900 901 902 903 904 905 906 907 908 909 910 911 912 913 914 915 916 917 918 919 920 921 922 923 924 925 926 927 928 929 930 931 932 933 934 935 936 937 938 939 940 941 942 943 944 945 946 947 948 949 950 951 952 953 954 955 956 957 958 959 960 961 962 963 964 965 966 967 968 969 970 971 972 973 974 975 976 977 978 979 980 981 982 983 984 985 986 987 988 989 990 991 992 993 994 995 996 997 998 999 1000 1001 1002 1003 1004 1005 1006 1007 1008 1009 1010 1011 1012 1013 1014 1015 1016 1017 1018 1019 1020 1021 1022 1023 1024 1025 1026 1027 1028 1029 1030 1031 1032 1033 1034 1035 1036 1037 1038 1039 1040 1041 1042 1043 1044 1045 1046 1047 1048 1049 1050 1051 1052 1053 1054 1055 1056 1057 1058 1059 1060 1061 1062 1063 1064 1065 1066 1067 1068 1069 1070 1071 1072 1073 1074 1075 1076 1077 1078 1079 1080 1081 1082 1083 1084 1085 1086 1087 1088 1089 1090 1091 1092 1093 1094 1095 1096 1097 1098 1099 1100 1101 1102 1103 1104 1105 1106 1107 1108 1109 1110 1111 1112 1113 1114 1115 1116 1117 1118 1119 1120 1121 1122 1123 1124 1125 1126 1127 1128 1129 1130 1131 1132 1133 1134 1135 1136 1137 1138 1139 1140 1141 1142 1143 1144 1145 1146 1147 1148 1149 1150 1151 1152 1153 1154 1155 1156 1157 1158 1159 1160 1161 1162 1163 1164 1165 1166 1167 1168 1169 1170 1171 1172 1173 1174 1175 1176 1177 1178 1179 1180 1181 1182 1183 1184 1185 1186 1187 1188 1189 1190 1191 1192 1193 1194 1195 1196 1197 1198 1199 1200 1201 1202 1203 1204 1205 1206 1207 1208 1209 1210 1211 1212 1213 1214 1215 1216 1217 1218 1219 1220 1221 1222 1223 1224 1225 1226 1227 1228 1229 1230 1231 1232 1233 1234 1235 1236 1237 1238 1239 1240 1241 1242 1243 1244 1245 1246 1247 1248 1249 1250 1251 1252 1253 1254 1255 1256 1257 1258 1259 1260 1261 1262 1263 1264 1265 1266 1267 1268 1269 1270 1271 1272 1273 1274 1275 1276 1277 1278 1279 1280 1281 1282 1283 1284 1285 1286 1287 1288 1289 1290 1291 1292 1293 1294 1295 1296 1297 1298 1299 1300 1301 1302 1303 1304 1305 1306 1307 1308 1309 1310 1311 1312 1313 1314 1315 1316 1317 1318 1319 1320 1321 1322 1323 1324 1325 1326 1327 1328 1329 1330 1331 1332 1333 1334 1335 1336 1337 1338 1339 1340 1341 1342 1343 1344 1345 1346 1347 1348 1349 1350 1351 1352 1353 1354 1355 1356 1357 1358 1359 1360 1361 1362 1363 1364 1365 1366 1367 1368 1369 1370 1371 1372 1373 1374 1375 1376 1377 1378 1379 1380 1381 1382 1383 1384 1385 1386 1387 1388 1389 1390 1391 1392 1393 1394 1395 1396 1397 1398 1399 1400 1401 1402 1403 1404 1405 1406 1407 1408 1409 1410 1411 1412 1413 1414 1415 1416 1417 1418 1419 1420 1421 1422 1423 1424 1425 1426 1427 1428 1429 1430 1431 1432 1433 1434 1435 1436 1437 1438 1439 1440 1441 1442 1443 1444 1445 1446 1447 1448 1449 1450 1451 1452 1453 1454 1455 1456 1457 1458 1459 1460 1461 1462 1463 1464 1465 1466 1467 1468 1469 1470 1471 1472 1473 1474 1475 1476 1477 1478 1479 1480 1481 1482 1483 1484 1485 1486 1487 1488 1489 1490 1491 1492 1493 1494 1495 1496 1497 1498 1499 1500 1501 1502 1503 1504 1505 1506 1507 1508 1509 1510 1511 1512 1513 1514 1515 1516 1517 1518 1519 1520 1521 1522 1523 1524 1525 1526 1527 1528 1529 1530 1531 1532 1533 1534 1535 1536 1537 1538 1539 1540 1541 1542 1543 1544 1545 1546 1547 1548 1549 1550 1551 1552 1553 1554 1555 1556 1557 1558 1559 1560 1561 1562 1563 1564 1565 1566 1567 1568 1569 1570 1571 1572 1573 1574 1575 1576 1577 1578 1579 1580 1581 1582 1583 1584 1585 1586 1587 1588 1589 1590 1591 1592 1593 1594 1595 1596 1597 1598 1599 1600 1601 1602 1603 1604 1605 1606 1607 1608 1609 1610 1611 1612 1613 1614 1615 1616 1617 1618 1619 1620 1621 1622 1623 1624 1625 1626 1627 1628 1629 1630 1631 1632 1633 1634 1635 1636 1637 1638 1639 1640 1641 1642 1643 1644 1645 1646 1647 1648 1649 1650 1651 1652 1653 1654 1655 1656 1657 1658 1659 1660 1661 1662 1663 1664 1665 1666 1667 1668 1669 1670 1671 1672 1673 1674 1675 1676 1677 1678 1679 1680 1681 1682 1683 1684 1685 1686 1687 1688 1689 1690 1691 1692 1693 1694 1695 1696 1697 1698 1699 1700 1701 1702 1703 1704 1705 1706 1707 1708 1709 1710 1711 1712 1713 1714 1715 1716 1717 1718 1719 1720 1721 1722 1723 1724 1725 1726 1727 1728 1729 1730 1731 1732 1733 1734 1735 1736 1737 1738 1739 1740 1741 1742 1743 1744 1745 1746 1747 1748 1749 1750 1751 1752 1753 1754 1755 1756 1757 1758 1759 1760 1761 1762 1763 1764 1765 1766 1767 1768 1769 1770 1771 1772 1773 1774 1775 1776 1777 1778 1779 1780 1781 1782 1783 1784 1785 1786 1787 1788 1789 1790 1791 1792 1793 1794 1795 1796 1797 1798 1799 1800 1801 1802 1803 1804 1805 1806 1807 1808 1809 1810 1811 1812 1813 1814 1815 1816 1817 1818 1819 1820 1821 1822 1823 1824 1825 1826 1827 1828 1829 1830 1831 1832 1833 1834 1835 1836 1837 1838 1839 1840 1841 1842 1843 1844 1845 1846 1847 1848 1849 1850 1851 1852 1853 1854 1855 1856 1857 1858 1859 1860 1861 1862 1863 1864 1865 1866 1867 1868 1869 1870 1871 1872 1873 1874 1875 1876 1877 1878 1879 1880 1881 1882 1883 1884 1885 1886 1887 1888 1889 1890 1891 1892 1893 1894 1895 1896 1897 1898 1899 1900 1901 1902 1903 1904 1905 1906 1907 1908 1909 1910 1911 1912 1913 1914 1915 1916 1917 1918 1919 1920 1921 1922 1923 1924 1925 1926 1927 1928 1929 1930 1931 1932 1933 1934 1935 1936 1937 1938 1939 1940 1941 1942 1943 1944 1945 1946 1947 1948 1949 1950 1951 1952 1953 1954 1955 1956 1957 1958 1959 1960 1961 1962 1963 1964 1965 1966 1967 1968 1969 1970 1971 1972 1973 1974 1975 1976 1977 1978 1979 1980 1981 1982 1983 1984 1985 1986 1987 1988 1989 1990 1991 1992 1993 1994 1995 1996 1997 1998 1999 2000 2001 2002 2003 2004 2005 2006 2007 2008 2009 2010 2011 2012 2013 2014 2015 2016 2017 2018 2019 2020 2021 2022 2023 2024 2025 2026 2027 2028 2029 2030 2031 2032 2033 2034 2035 2036 2037 2038 2039 2040 2041 2042 2043 2044 2045 2046 2047 2048 2049 2050 2051 2052 2053 2054 2055 2056 2057 2058 2059 2060 2061 2062 2063 2064 2065 2066 2067 2068 2069 2070 2071 2072 2073 2074 2075 2076 2077 2078 2079 2080 2081 2082 2083 2084 2085 2086 2087 2088 2089 2090 2091 2092 2093 2094 2095 2096 2097 2098 2099 2100 2101 2102 2103 2104 2105 2106 2107 2108 2109 2110 2111 2112 2113 2114 2115 2116 2117 2118 2119 2120 2121 2122 2123 2124 2125 2126 2127 2128 2129 2130 2131 2132 2133 2134 2135 2136 2137 2138 2139 2140 2141 2142 2143 2144 2145 2146 2147 2148 2149 2150 2151 2152 2153 2154 2155 2156 2157 2158 2159 2160 2161 2162 2163 2164 2165 2166 2167 2168 2169 2170 2171 2172 2173 2174 2175 2176 2177 2178 2179 2180 2181 2182 2183 2184 2185 2186 2187 2188 2189 2190 2191 2192 2193 2194 2195 2196 2197 2198 2199 2200 2201 2202 2203 2204 2205 2206 2207 2208 2209 2210 2211 2212 2213 2214 2215 2216 2217 2218 2219 2220 2221 2222 2223 2224 2225 2226 2227 2228 2229 2230 2231 2232 2233 2234 2235 2236 2237 2238 2239 2240 2241 2242 2243 2244 2245 2246 2247 2248 2249 2250 2251 2252 2253 2254 2255 2256 2257 2258 2259 2260 2261 2262 2263 2264 2265 2266 2267 2268 2269 2270 2271 2272 2273 2274 2275 2276 2277 2278 2279 2280 2281 2282 2283 2284 2285 2286 2287 2288 2289 2290 2291 2292 2293 2294 2295 2296 2297 2298 2299 2300 2301 2302 2303 2304 2305 2306 2307 2308 2309 2310 2311 2312 2313 2314 2315 2316 2317 2318 2319 2320 2321 2322 2323 2324 2325 2326 2327 2328 2329 2330 2331 2332 2333 2334 2335 2336 2337 2338 2339 2340 2341 2342 2343 2344 2345 2346 2347 2348 2349 2350 2351 2352 2353 2354 2355 2356 2357 2358 2359 2360 2361 2362 2363 2364 2365 2366 2367 2368 2369 2370 2371 2372 2373 2374 2375 2376 2377 2378 2379 2380 2381 2382 2383 2384 2385 2386 2387 2388 2389 2390 2391 2392 2393 2394 2395 2396 2397 2398 2399 2400 2401 2402 2403 2404 2405 2406 2407 2408 2409 2410 2411 2412 2413 2414 2415 2416 2417 2418 2419 2420 2421 2422 2423 2424 2425 2426 2427 2428 2429 2430 2431 2432 2433 2434 2435 2436 2437 2438 2439 2440 2441 2442 2443 2444 2445 2446 2447 2448 2449 2450 2451 2452 2453 2454 2455 2456 2457 2458 2459 2460 2461 2462 2463 2464 2465 2466 2467 2468 2469 2470 2471 2472 2473 2474 2475 2476 2477 2478 2479 2480 2481 2482 2483 2484 2485 2486 2487 2488 2489 2490 2491 2492 2493 2494 2495 2496 2497 2498 2499 2500 2501 2502 2503 2504 2505 2506 2507 2508 2509 2510 2511 2512 2513 2514 2515 2516 2517 2518 2519 2520 2521 2522 2523 2524 2525 2526 2527 2528 2529 2530 2531 2532 2533 2534 2535 2536 2537 2538 2539 2540 2541 2542 2543 2544 2545 2546 2547 2548 2549 2550 2551 2552 2553 2554 2555 2556 2557 2558 2559 2560 2561 2562 2563 2564 2565 2566 2567 2568 2569 2570 2571 2572 2573 2574 2575 2576 2577 2578 2579 2580 2581 2582 2583 2584 2585 2586 2587 2588 2589 2590 2591 2592 2593 2594 2595 2596 2597 2598 2599 2600 2601 2602 2603 2604 2605 2606 2607 2608 2609 2610 2611 2612 2613 2614 2615 2616 2617 2618 2619 2620 2621 2622 2623 2624 2625 2626 2627 2628 2629 2630 2631 2632 2633 2634 2635 2636 2637 2638 2639 2640 2641 2642 2643 2644 2645 2646 2647 2648 2649 2650 2651 2652 2653 2654 2655 2656 2657 2658 2659 2660 2661 2662 2663 2664 2665 2666 2667 2668 2669 2670 2671 2672 2673 2674 2675 2676 2677 2678 2679 2680 2681 2682 2683 2684 2685 2686 2687 2688 2689 2690 2691 2692 2693 2694 2695 2696 2697 2698 2699 2700 2701 2702 2703 2704 2705 2706 2707 2708 2709 2710 2711 2712 2713 2714 2715 2716 2717 2718 2719 2720 2721 2722 2723 2724 2725 2726 2727 2728 2729 2730 2731 2732 2733 2734 2735 2736 2737 2738 2739 2740 2741 2742 2743 2744 2745 2746 2747 2748 2749 2750 2751 2752 2753 2754 2755 2756 2757 2758 2759 2760 2761 2762 2763 2764 2765 2766 2767 2768 2769 2770 2771 2772 2773 2774 2775 2776 2777 2778 2779 2780 2781 2782 2783 2784 2785 2786 2787 2788 2789 2790 2791 2792 2793 2794 2795 2796 2797 2798 2799 2800 2801 2802 2803 2804 2805 2806 2807 2808 2809 2810 2811 2812 2813 2814 2815 2816 2817 2818 2819 2820 2821 2822 2823 2824 2825 2826 2827 2828 2829 2830 2831 2832 2833 2834 2835 2836 2837 2838 2839 2840 2841 2842 2843 2844 2845 2846 2847 2848 2849 2850 2851 2852 2853 2854 2855 2856 2857 2858 2859 2860 2861 2862 2863 2864 2865 2866 2867 2868 2869 2870 2871 2872 2873 2874 2875 2876 2877 2878 2879 2880 2881 2882 2883 2884 2885 2886 2887 2888 2889 2890 2891 2892 2893 2894 2895 2896 2897 2898 2899 2900 2901 2902 2903 2904 2905 2906 2907 2908 2909 2910 2911 2912 2913 2914 2915 2916 2917 2918 2919 2920 2921 2922 2923 2924 2925 2926 2927 2928 2929 2930 2931 2932 2933 2934 2935 2936 2937 2938 2939 2940 2941 2942 2943 2944 2945 2946 2947 2948 2949 2950 2951 2952 2953 2954 2955 2956 2957 2958 2959 2960 2961 2962 2963 2964 2965 2966 2967 2968 2969 2970 2971 2972 2973 2974 2975 2976 2977 2978 2979 2980 2981 2982 2983 2984 2985 2986 2987 2988 2989 2990 2991 2992 2993 2994 2995 2996 2997 2998 2999 3000 3001 3002 3003 3004 3005 3006 3007 3008 3009 3010 3011 3012 3013 3014 3015 3016 3017 3018 3019 3020 3021 3022 3023 3024 3025 3026 3027 3028 3029 3030 3031 3032 3033 3034 3035 3036 3037 3038 3039 3040 3041 3042 3043 3044 3045 3046 3047 3048 3049 3050 3051 3052 3053 3054 3055 3056 3057 3058 3059 3060 3061 3062 3063 3064 3065 3066 3067 3068 3069 3070 3071 3072 3073 3074 3075 3076 3077 3078 3079 3080 3081 3082 3083 3084 3085 3086 3087 3088 3089 3090 3091 3092 3093 3094 3095 3096 3097 3098 3099 3100 3101 3102 3103 3104 3105 3106 3107 3108 3109 3110 3111 3112 3113 3114 3115 3116 3117 3118 3119 3120 3121 3122 3123 3124 3125 3126 3127 3128 3129 3130 3131 3132 3133 3134 3135 3136 3137 3138 3139 3140 3141 3142 3143 3144 3145 3146 3147 3148 3149 3150 3151 3152 3153 3154 3155 3156 3157 3158 3159 3160 3161 3162 3163 3164 3165 3166 3167 3168 3169 3170 3171 3172 3173 3174 3175 3176 3177 3178 3179 3180 3181 3182 3183 3184 3185 3186 3187 3188 3189 3190 3191 3192 3193 3194 3195 3196 3197 3198 3199 3200 3201 3202 3203 3204 3205 3206 3207 3208 3209 3210 3211 3212 3213 3214 3215 3216 3217 3218 3219 3220 3221 3222 3223 3224 3225 3226 3227 3228 3229 3230 3231 3232 3233 3234 3235 3236 3237 3238 3239 3240 3241 3242 3243 3244 3245 3246 3247 3248 3249 3250 3251 3252 3253 3254 3255 3256 3257 3258 3259 3260 3261 3262 3263 3264 3265 3266 3267 3268 3269 3270 3271 3272 3273 3274 3275 3276 3277 3278 3279 3280 3281 3282 3283 3284 3285 3286 3287 3288 3289 3290 3291 3292 3293 3294 3295 3296 3297 3298 3299 3300 3301 3302 3303 3304 3305 3306 3307 3308 3309 3310 3311 3312 3313 3314 3315 3316 3317 3318 3319 3320 3321 3322 3323 3324 3325 3326 3327 3328 3329 3330 3331 3332 3333 3334 3335 3336 3337 3338 3339 3340 3341 3342 3343 3344 3345 3346 3347 3348 3349 3350 3351 3352 3353 3354 3355 3356 3357 3358 3359 3360 3361 3362 3363 3364 3365 3366 3367 3368 3369 3370 3371 3372 3373 3374 3375 3376 3377 3378 3379 3380 3381 3382 3383 3384 3385 3386 3387 3388 3389 3390 3391 3392 3393 3394 3395 3396 3397 3398 3399 3400 3401 3402 3403 3404 3405 3406 3407 3408 3409 3410 3411 3412 3413 3414 3415 3416 3417 3418 3419 3420 3421 3422 3423 3424 3425 3426 3427 3428 3429 3430 3431 3432 3433 3434 3435 3436 3437 3438 3439 3440 3441 3442 3443 3444 3445 3446 3447 3448 3449 3450 3451 3452 3453 3454 3455 3456 3457 3458 3459 3460 3461 3462 3463 3464 3465 3466 3467 3468 3469 3470 3471 3472 3473 3474 3475 3476 3477 3478 3479 3480 3481 3482 3483 3484 3485 3486 3487 3488 3489 3490 3491 3492 3493 3494 3495 3496 3497 3498 3499 3500 3501 3502 3503 3504 3505 3506 3507 3508 3509 3510 3511 3512 3513 3514 3515 3516 3517 3518 3519 3520 3521 3522 3523 3524 3525 3526 3527 3528 3529 3530 3531 3532 3533 3534 3535 3536 3537 3538 3539 3540 3541 3542 3543 3544 3545 3546 3547 3548 3549 3550 3551 3552 3553 3554 3555 3556 3557 3558 3559 3560 3561 3562 3563 3564 3565 3566 3567 3568 3569 3570 3571 3572 3573 3574 3575 3576 3577 3578 3579 3580 3581 3582 3583 3584 3585 3586 3587 3588 3589 3590 3591 3592 3593 3594 3595 3596 3597 3598 3599 3600 3601 3602 3603 3604 3605 3606 3607 3608 3609 3610 3611 3612 3613 3614 3615 3616 3617 3618 3619 3620 3621 3622 3623 3624 3625 3626 3627 3628 3629 3630 3631 3632 3633 3634 3635 3636 3637 3638 3639 3640 3641 3642 3643 3644 3645 3646 3647 3648 3649 3650 3651 3652 3653 3654 3655 3656 3657 3658 3659 3660 3661 3662 3663 3664 3665 3666 3667 3668 3669 3670 3671 3672 3673 3674 3675 3676 3677 3678 3679 3680 3681 3682 3683 3684 3685 3686 3687 3688 3689 3690 3691 3692 3693 3694 3695 3696 3697 3698 3699 3700 3701 3702 3703 3704 3705 3706 3707 3708 3709 3710 3711 3712 3713 3714 3715 3716 3717 3718 3719 3720 3721 3722 3723 3724 3725 3726 3727 3728 3729 3730 3731 3732 3733 3734 3735 3736 3737 3738 3739 3740 3741 3742 3743 3744 3745 3746 3747 3748 3749 3750 3751 3752 3753 3754 3755 3756 3757 3758 3759 3760 3761 3762 3763 3764 3765 3766 3767 3768 3769 3770 3771 3772 3773 3774 3775 3776 3777 3778 3779 3780 3781 3782 3783 3784 3785 3786 3787 3788 3789 3790 3791 3792 3793 3794 3795 3796 3797 3798 3799 3800 3801 3802 3803 3804 3805 3806 3807 3808 3809 3810 3811 3812 3813 3814 3815 3816 3817 3818 3819 3820 3821 3822 3823 3824 3825 3826 3827 3828 3829 3830 3831 3832 3833 3834 3835 3836 3837 3838 3839 3840 3841 3842 3843 3844 3845 3846 3847 3848 3849 3850 3851 3852 3853 3854 3855 3856 3857 3858 3859 3860 3861 3862 3863 3864 3865 3866 3867 3868 3869 3870 3871 3872 3873 3874 3875 3876 3877 3878 3879 3880 3881 3882 3883 3884 3885 3886 3887 3888 3889 3890 3891 3892 3893 3894 3895 3896 3897 3898 3899 3900 3901 3902 3903 3904 3905 3906 3907 3908 3909 3910 3911 3912 3913 3914 3915 3916 3917 3918 3919 3920 3921 3922 3923 3924 3925 3926 3927 3928 3929 3930 3931 3932 3933 3934 3935 3936 3937 3938 3939 3940 3941 3942 3943 3944 3945 3946 3947 3948 3949 3950 3951 3952 3953 3954 3955 3956 3957 3958 3959 3960 3961 3962 3963 3964 3965 3966 3967 3968 3969 3970 3971 3972 3973 3974 3975 3976 3977 3978 3979 3980 3981 3982 3983 3984 3985 3986 3987 3988 3989 3990 3991 3992 3993 3994 3995 3996 3997 3998 3999 4000 4001 4002 4003 4004 4005 4006 4007 4008 4009 4010 4011 4012 4013 4014 4015 4016 4017 4018 4019 4020 4021 4022 4023 4024 4025 4026 4027 4028 4029 4030 4031 4032 4033 4034 4035 4036 4037 4038 4039 4040 4041 4042 4043 4044 4045 4046 4047 4048 4049 4050 4051 4052 4053 4054 4055 4056 4057 4058 4059 4060 4061 4062 4063 4064 4065 4066 4067 4068 4069 4070 4071 4072 4073 4074 4075 4076 4077 4078 4079 4080 4081 4082 4083 4084 4085 4086 4087 4088 4089 4090 4091 4092 4093 4094 4095 4096 4097 4098 4099 4100 4101 4102 4103 4104 4105 4106 4107 4108 4109 4110 4111 4112 4113 4114 4115 4116 4117 4118 4119 4120 4121 4122 4123 4124 4125 4126 4127 4128 4129 4130 4131 4132 4133 4134 4135 4136 4137 4138 4139 4140 4141 4142 4143 4144 4145 4146 4147 4148 4149 4150 4151 4152 4153 4154 4155 4156 4157 4158 4159 4160 4161 4162 4163 4164 4165 4166 4167 4168 4169 4170 4171 4172 4173 4174 4175 4176 4177 4178 4179 4180 4181 4182 4183 4184 4185 4186 4187 4188 4189 4190 4191 4192 4193 4194 4195 4196 4197 4198 4199 4200 4201 4202 4203 4204 4205 4206 4207 4208 4209 4210 4211 4212 4213 4214 4215 4216 4217 4218 4219 4220 4221 4222 4223 4224 4225 4226 4227 4228 4229 4230 4231 4232 4233 4234 4235 4236 4237 4238 4239 4240 4241 4242 4243 4244 4245 4246 4247 4248 4249 4250 4251 4252 4253 4254 4255 4256 4257 4258 4259 4260 4261 4262 4263 4264 4265 4266 4267 4268 4269 4270 4271 4272 4273 4274 4275 4276 4277 4278 4279 4280 4281 4282 4283 4284 4285 4286 4287 4288 4289 4290 4291 4292 4293 4294 4295 4296 4297 4298 4299 4300 4301 4302 4303 4304 4305 4306 4307 4308 4309 4310 4311 4312 4313 4314 4315 4316 4317 4318 4319 4320 4321 4322 4323 4324 4325 4326 4327 4328 4329 4330 4331 4332 4333 4334 4335 4336 4337 4338 4339 4340 4341 4342 4343 4344 4345 4346 4347 4348 4349 4350 4351 4352 4353 4354 4355 4356 4357 4358 4359 4360 4361 4362 4363 4364 4365 4366 4367 4368 4369 4370 4371 4372 4373 4374 4375 4376 4377 4378 4379 4380 4381 4382 4383 4384 4385 4386 4387 4388 4389 4390 4391 4392 4393 4394 4395 4396 4397 4398 4399 4400 4401 4402 4403 4404 4405 4406 4407 4408 4409 4410 4411 4412 4413 4414 4415 4416 4417 4418 4419 4420 4421 4422 4423 4424 4425 4426 4427 4428 4429 4430 4431 4432 4433 4434 4435 4436 4437 4438 4439 4440 4441 4442 4443 4444 4445 4446 4447 4448 4449 4450 4451 4452 4453 4454 4455 4456 4457 4458 4459 4460 4461 4462 4463 4464 4465 4466 4467 4468 4469 4470 4471 4472 4473 4474 4475 4476 4477 4478 4479 4480 4481 4482 4483 4484 4485 4486 4487 4488 4489 4490 4491 4492 4493 4494 4495 4496 4497 4498 4499 4500 4501 4502 4503 4504 4505 4506 4507 4508 4509 4510 4511 4512 4513 4514 4515 4516 4517 4518 4519 4520 4521 4522 4523 4524 4525 4526 4527 4528 4529 4530 4531 4532 4533 4534 4535 4536 4537 4538 4539 4540 4541 4542 4543 4544 4545 4546 4547 4548 4549 4550 4551 4552 4553 4554 4555 4556 4557 4558 4559 4560 4561 4562 4563 4564 4565 4566 4567 4568 4569 4570 4571 4572 4573 4574 4575 4576 4577 4578 4579 4580 4581 4582 4583 4584 4585 4586 4587 4588 4589 4590 4591 4592 4593 4594 4595 4596 4597 4598 4599 4600 4601 4602 4603 4604 4605 4606 4607 4608 4609 4610 4611 4612 4613 4614 4615 4616 4617 4618 4619 4620 4621 4622 4623 4624 4625 4626 4627 4628 4629 4630 4631 4632 4633 4634 4635 4636 4637 4638 4639 4640 4641 4642 4643 4644 4645 4646 4647 4648 4649 4650 4651 4652 4653 4654 4655 4656 4657 4658 4659 4660 4661 4662 4663 4664 4665 4666 4667 4668 4669 4670 4671 4672 4673 4674 4675 4676 4677 4678 4679 4680 4681 4682 4683 4684 4685 4686 4687 4688 4689 4690 4691 4692 4693 4694 4695 4696 4697 4698 4699 4700 4701 4702 4703 4704 4705 4706 4707 4708 4709 4710 4711 4712 4713 4714 4715 4716 4717 4718 4719 4720 4721 4722 4723 4724 4725 4726 4727 4728 4729 4730 4731 4732 4733 4734 4735 4736 4737 4738 4739 4740 4741 4742 4743 4744 4745 4746 4747 4748 4749 4750 4751 4752 4753 4754 4755 4756 4757 4758 4759 4760 4761 4762 4763 4764 4765 4766 4767 4768 4769 4770 4771 4772 4773 4774 4775 4776 4777 4778 4779 4780 4781 4782 4783 4784 4785 4786 4787 4788 4789 4790 4791 4792 4793 4794 4795 4796 4797 4798 4799 4800 4801 4802 4803 4804 4805 4806 4807 4808 4809 4810 4811 4812 4813 4814 4815 4816 4817 4818 4819 4820 4821 4822 4823 4824 4825 4826 4827 4828 4829 4830 4831 4832 4833 4834 4835 4836 4837 4838 4839 4840 4841 4842 4843 4844 4845 4846 4847 4848 4849 4850 4851 4852 4853 4854 4855 4856 4857 4858 4859 4860 4861 4862 4863 4864 4865 4866 4867 4868 4869 4870 4871 4872 4873 4874 4875 4876 4877 4878 4879 4880 4881 4882 4883 4884 4885 4886 4887 4888 4889 4890 4891 4892 4893 4894 4895 4896 4897 4898 4899 4900 4901 4902 4903 4904 4905 4906 4907 4908 4909 4910 4911 4912 4913 4914 4915 4916 4917 4918 4919 4920 4921 4922 4923 4924 4925 4926 4927 4928 4929 4930 4931 4932 4933 4934 4935 4936 4937 4938 4939 4940 4941 4942 4943 4944 4945 4946 4947 4948 4949 4950 4951 4952 4953 4954 4955 4956 4957 4958 4959 4960 4961 4962 4963 4964 4965 4966 4967 4968 4969 4970 4971 4972 4973 4974 4975 4976 4977 4978 4979 4980 4981 4982 4983 4984 4985 4986 4987 4988 4989 4990 4991 4992 4993 4994 4995 4996 4997 4998 4999 5000 5001 5002 5003 5004 5005 5006 5007 5008 5009 5010 5011 5012 5013 5014 5015 5016 5017 5018 5019 5020 5021 5022 5023 5024 5025 5026 5027 5028 5029 5030 5031 5032 5033 5034 5035 5036 5037 5038 5039 5040 5041 5042 5043 5044 5045 5046 5047 5048 5049 5050 5051 5052 5053 5054 5055 5056 5057 5058 5059 5060 5061 5062 5063 5064 5065 5066 5067 5068 5069 5070 5071 5072 5073 5074 5075 5076 5077 5078 5079 5080 5081 5082 5083 5084 5085 5086 5087 5088 5089 5090 5091 5092 5093 5094 5095 5096 5097 5098 5099 5100 5101 5102 5103 5104 5105 5106 5107 5108 5109 5110 5111 5112 5113 5114 5115 5116 5117 5118 5119 5120 5121 5122 5123 5124 5125 5126 5127 5128 5129 5130 5131 5132 5133 5134 5135 5136 5137 5138 5139 5140 5141 5142 5143 5144 5145 5146 5147 5148 5149 5150 5151 5152 5153 5154 5155 5156 5157 5158 5159 5160 5161 5162 5163 5164 5165 5166 5167 5168 5169 5170 5171 5172 5173 5174 5175 5176 5177 5178 5179 5180 5181 5182 5183 5184 5185 5186 5187 5188 5189 5190 5191 5192 5193 5194 5195 5196 5197 5198 5199 5200 5201 5202 5203 5204 5205 5206 5207 5208 5209 5210 5211 5212 5213 5214 5215 5216 5217 5218 5219 5220 5221 5222 5223 5224 5225 5226 5227 5228 5229 5230 5231 5232 5233 5234 5235 5236 5237 5238 5239 5240 5241 5242 5243 5244 5245 5246 5247 5248 5249 5250 5251 5252 5253 5254 5255 5256 5257 5258 5259 5260 5261 5262 5263 5264 5265 5266 5267 5268 5269 5270 5271 5272 5273 5274 5275 5276 5277 5278 5279 5280 5281 5282 5283 5284 5285 5286 5287 5288 5289 5290 5291 5292 5293 5294 5295 5296 5297 5298 5299 5300 5301 5302 5303 5304 5305 5306 5307 5308 5309 5310 5311 5312 5313 5314 5315 5316 5317 5318 5319 5320 5321 5322 5323 5324 5325 5326 5327 5328 5329 5330 5331 5332 5333 5334 5335 5336 5337 5338 5339 5340 5341 5342 5343 5344 5345 5346 5347 5348 5349 5350 5351 5352 5353 5354 5355 5356 5357 5358 5359 5360 5361 5362 5363 5364 5365 5366 5367 5368 5369 5370 5371 5372 5373 5374 5375 5376 5377 5378 5379 5380 5381 5382 5383 5384 5385 5386 5387 5388 5389 5390 5391 5392 5393 5394 5395 5396 5397 5398 5399 5400 5401 5402 5403 5404 5405 5406 5407 5408 5409 5410 5411 5412 5413 5414 5415 5416 5417 5418 5419 5420 5421 5422 5423 5424 5425 5426 5427 5428 5429 5430 5431 5432 5433 5434 5435 5436 5437 5438 5439 5440 5441 5442 5443 5444 5445 5446 5447 5448 5449 5450 5451 5452 5453 5454 5455 5456 5457 5458 5459 5460 5461 5462 5463 5464 5465 5466 5467 5468 5469 5470 5471 5472 5473 5474 5475 5476 5477 5478 5479 5480 5481 5482 5483 5484 5485 5486 5487 5488 5489 5490 5491 5492 5493 5494 5495 5496 5497 5498 5499 5500 5501 5502 5503 5504 5505 5506 5507 5508 5509 5510 5511 5512 5513 5514 5515 5516 5517 5518 5519 5520 5521 5522 5523 5524 5525 5526 5527 5528 5529 5530 5531 5532 5533 5534 5535 5536 5537 5538 5539 5540 5541 5542 5543 5544 5545 5546 5547 5548 5549 5550 5551 5552 5553 5554 5555 5556 5557 5558 5559 5560 5561 5562 5563 5564 5565 5566 5567 5568 5569 5570 5571 5572 5573 5574 5575 5576 5577 5578 5579 5580 5581 5582 5583 5584 5585 5586 5587 5588 5589 5590 5591 5592 5593 5594 5595 5596 5597 5598 5599 5600 5601 5602 5603 5604 5605 5606 5607 5608 5609 5610 5611 5612 5613 5614 5615 5616 5617 5618 5619 5620 5621 5622 5623 5624 5625 5626 5627 5628 5629 5630 5631 5632 5633 5634 5635 5636 5637 5638 5639 5640 5641 5642 5643 5644 5645 5646 5647 5648 5649 5650 5651 5652 5653 5654 5655 5656 5657 5658 5659 5660 5661 5662 5663 5664 5665 5666 5667 5668 5669 5670 5671 5672 5673 5674 5675 5676 5677 5678 5679 5680 5681 5682 5683 5684 5685 5686 5687 5688 5689 5690 5691 5692 5693 5694 5695 5696 5697 5698 5699 5700 5701 5702 5703 5704 5705 5706 5707 5708 5709 5710 5711 5712 5713 5714 5715 5716 5717 5718 5719 5720 5721 5722 5723 5724 5725 5726 5727 5728 5729 5730 5731 5732 5733 5734 5735 5736 5737 5738 5739 5740 5741 5742 5743 5744 5745 5746 5747 5748 5749 5750 5751 5752 5753 5754 5755 5756 5757 5758 5759 5760 5761 5762 5763 5764 5765 5766 5767 5768 5769 5770 5771 5772 5773 5774 5775 5776 5777 5778 5779 5780 5781 5782 5783 5784 5785 5786 5787 5788 5789 5790 5791 5792 5793 5794 5795 5796 5797 5798 5799 5800 5801 5802 5803 5804 5805 5806 5807 5808 5809 5810 5811 5812 5813 5814 5815 5816 5817 5818 5819 5820 5821 5822 5823 5824 5825 5826 5827 5828 5829 5830 5831 5832 5833 5834 5835 5836 5837 5838 5839 5840 5841 5842 5843 5844 5845 5846 5847 5848 5849 5850 5851 5852 5853 5854 5855 5856 5857 5858 5859 5860 5861 5862 5863 5864 5865 5866 5867 5868 5869 5870 5871 5872 5873 5874 5875 5876 5877 5878 5879 5880 5881 5882 5883 5884 5885 5886 5887 5888 5889 5890 5891 5892 5893 5894 5895 5896 5897 5898 5899 5900 5901 5902 5903 5904 5905 5906 5907 5908 5909 5910 5911 5912 5913 5914 5915 5916 5917 5918 5919 5920 5921 5922 5923 5924 5925 5926 5927 5928 5929 5930 5931 5932 5933 5934 5935 5936 5937 5938 5939 5940 5941 5942 5943 5944 5945 5946 5947 5948 5949 5950 5951 5952 5953 5954 5955 5956 5957 5958 5959 5960 5961 5962 5963 5964 5965 5966 5967 5968 5969 5970 5971 5972 5973 5974 5975 5976 5977 5978 5979 5980 5981 5982 5983 5984 5985 5986 5987 5988 5989 5990 5991 5992 5993 5994 5995 5996 5997 5998 5999 6000 6001 6002 6003 6004 6005 6006 6007 6008 6009 6010 6011 6012 6013 6014 6015 6016 6017 6018 6019 6020 6021 6022 6023 6024 6025 6026 6027 6028 6029 6030 6031 6032 6033 6034 6035 6036 6037 6038 6039 6040 6041 6042 6043 6044 6045 6046 6047 6048 6049 6050 6051 6052 6053 6054 6055 6056 6057 6058 6059 6060 6061 6062 6063 6064 6065 6066 6067 6068 6069 6070 6071 6072 6073 6074 6075 6076 6077 6078 6079 6080 6081 6082 6083 6084 6085 6086 6087 6088 6089 6090 6091 6092 6093 6094 6095 6096 6097 6098 6099 6100 6101 6102 6103 6104 6105 6106 6107 6108 6109 6110 6111 6112 6113 6114 6115 6116 6117 6118 6119 6120 6121 6122 6123 6124 6125 6126 6127 6128 6129 6130 6131 6132 6133 6134 6135 6136 6137 6138 6139 6140 6141 6142 6143 6144 6145 6146 6147 6148 6149 6150 6151 6152 6153 6154 6155 6156 6157 6158 6159 6160 6161 6162 6163 6164 6165 6166 6167 6168 6169 6170 6171 6172 6173 6174 6175 6176 6177 6178 6179 6180 6181 6182 6183 6184 6185 6186 6187 6188 6189 6190 6191 6192 6193 6194 6195 6196 6197 6198 6199 6200 6201 6202 6203 6204 6205 6206 6207 6208 6209 6210 6211 6212 6213 6214 6215 6216 6217 6218 6219 6220 6221 6222 6223 6224 6225 6226 6227 6228 6229 6230 6231 6232 6233 6234 6235 6236 6237 6238 6239 6240 6241 6242 6243 6244 6245 6246 6247 6248 6249 6250 6251 6252 6253 6254 6255 6256 6257 6258 6259 6260 6261 6262 6263 6264 6265 6266 6267 6268 6269 6270 6271 6272 6273 6274 6275 6276 6277 6278 6279 6280 6281 6282 6283 6284 6285 6286 6287 6288 6289 6290 6291 6292 6293 6294 6295 6296 6297 6298 6299 6300 6301 6302 6303 6304 6305 6306 6307 6308 6309 6310 6311 6312 6313 6314 6315 6316 6317 6318 6319 6320 6321 6322 6323 6324 6325 6326 6327 6328 6329 6330 6331 6332 6333 6334 6335 6336 6337 6338 6339 6340 6341 6342 6343 6344 6345 6346 6347 6348 6349 6350 6351 6352 6353 6354 6355 6356 6357 6358 6359 6360 6361 6362 6363 6364 6365 6366 6367 6368 6369 6370 6371 6372 6373 6374 6375 6376 6377 6378 6379 6380 6381 6382 6383 6384 6385 6386 6387 6388 6389 6390 6391 6392 6393 6394 6395 6396 6397 6398 6399 6400 6401 6402 6403 6404 6405 6406 6407 6408 6409 6410 6411 6412 6413 6414 6415 6416 6417 6418 6419 6420 6421 6422 6423 6424 6425 6426 6427 6428 6429 6430 6431 6432 6433 6434 6435 6436 6437 6438 6439 6440 6441 6442 6443 6444 6445 6446 6447 6448 6449 6450 6451 6452 6453 6454 6455 6456 6457 6458 6459 6460 6461 6462 6463 6464 6465 6466 6467 6468 6469 6470 6471 6472 6473 6474 6475 6476 6477 6478 6479 6480 6481 6482 6483 6484 6485 6486 6487 6488 6489 6490 6491 6492 6493 6494 6495 6496 6497 6498 6499 6500 6501 6502 6503 6504 6505 6506 6507 6508 6509 6510 6511 6512 6513 6514 6515 6516 6517 6518 6519 6520 6521 6522 6523 6524 6525 6526 6527 6528 6529 6530 6531 6532 6533 6534 6535 6536 6537 6538 6539 6540 6541 6542 6543 6544 6545 6546 6547 6548 6549 6550 6551 6552 6553 6554 6555 6556 6557 6558 6559 6560 6561 6562 6563 6564 6565 6566 6567 6568 6569 6570 6571 6572 6573 6574 6575 6576 6577 6578 6579 6580 6581 6582 6583 6584 6585 6586 6587 6588 6589 6590 6591 6592 6593 6594 6595 6596 6597 6598 6599 6600 6601 6602 6603 6604 6605 6606 6607 6608 6609 6610 6611 6612 6613 6614 6615 6616 6617 6618 6619 6620 6621 6622 6623 6624 6625 6626 6627 6628 6629 6630 6631 6632 6633 6634 6635 6636 6637 6638 6639 6640 6641 6642 6643 6644 6645 6646 6647 6648 6649 6650 6651 6652 6653 6654 6655 6656 6657 6658 6659 6660 6661 6662 6663 6664 6665 6666 6667 6668 6669 6670 6671 6672 6673 6674 6675 6676 6677 6678 6679 6680 6681 6682 6683 6684 6685 6686 6687 6688 6689 6690 6691 6692 6693 6694 6695 6696 6697 6698 6699 6700 6701 6702 6703 6704 6705 6706 6707 6708 6709 6710 6711 6712 6713 6714 6715 6716 6717 6718 6719 6720 6721 6722 6723 6724 6725 6726 6727 6728 6729 6730 6731 6732 6733 6734 6735 6736 6737 6738 6739 6740 6741 6742 6743 6744 6745 6746 6747 6748 6749 6750 6751 6752 6753 6754 6755 6756 6757 6758 6759 6760 6761 6762 6763 6764 6765 6766 6767 6768 6769 6770 6771 6772 6773 6774 6775 6776 6777 6778 6779 6780 6781 6782 6783 6784 6785 6786 6787 6788 6789 6790 6791 6792 6793 6794 6795 6796 6797 6798 6799 6800 6801 6802 6803 6804 6805 6806 6807 6808 6809 6810 6811 6812 6813 6814 6815 6816 6817 6818 6819 6820 6821 6822 6823 6824 6825 6826 6827 6828 6829 6830 6831 6832 6833 6834 6835 6836 6837 6838 6839 6840 6841 6842 6843 6844 6845 6846 6847 6848 6849 6850 6851 6852 6853 6854 6855 6856 6857 6858 6859 6860 6861 6862 6863 6864 6865 6866 6867 6868 6869 6870 6871 6872 6873 6874 6875 6876 6877 6878 6879 6880 6881 6882 6883 6884 6885 6886 6887 6888 6889 6890 6891 6892 6893 6894 6895 6896 6897 6898 6899 6900 6901 6902 6903 6904 6905 6906 6907 6908 6909 6910 6911 6912 6913 6914 6915 6916 6917 6918 6919 6920 6921 6922 6923 6924 6925 6926 6927 6928 6929 6930 6931 6932 6933 6934 6935 6936 6937 6938 6939 6940 6941 6942 6943 6944 6945 6946 6947 6948 6949 6950 6951 6952 6953 6954 6955 6956 6957 6958 6959 6960 6961 6962 6963 6964 6965 6966 6967 6968 6969 6970 6971 6972 6973 6974 6975 6976 6977 6978 6979 6980 6981 6982 6983 6984 6985 6986 6987 6988 6989 6990 6991 6992 6993 6994 6995 6996 6997 6998 6999 7000 7001 7002 7003 7004 7005 7006 7007 7008 7009 7010 7011 7012 7013 7014 7015 7016 7017 7018 7019 7020 7021 7022 7023 7024 7025 7026 7027 7028 7029 7030 7031 7032 7033 7034 7035 7036 7037 7038 7039 7040 7041 7042 7043 7044 7045 7046 7047 7048 7049 7050 7051 7052 7053 7054 7055 7056 7057 7058 7059 7060 7061 7062 7063 7064 7065 7066 7067 7068 7069 7070 7071 7072 7073 7074 7075 7076 7077 7078 7079 7080 7081 7082 7083 7084 7085 7086 7087 7088 7089 7090 7091 7092 7093 7094 7095 7096 7097 7098 7099 7100 7101 7102 7103 7104 7105 7106 7107 7108 7109 7110 7111 7112 7113 7114 7115 7116 7117 7118 7119 7120 7121 7122 7123 7124 7125 7126 7127 7128 7129 7130 7131 7132 7133 7134 7135 7136 7137 7138 7139 7140 7141 7142 7143 7144 7145 7146 7147 7148 7149 7150 7151 7152 7153 7154 7155 7156 7157 7158 7159 7160 7161 7162 7163 7164 7165 7166 7167 7168 7169 7170 7171 7172 7173 7174 7175 7176 7177 7178 7179 7180 7181 7182 7183 7184 7185 7186 7187 7188 7189 7190 7191 7192 7193 7194 7195 7196 7197 7198 7199 7200 7201 7202 7203 7204 7205 7206 7207 7208 7209 7210 7211 7212 7213 7214 7215 7216 7217 7218 7219 7220 7221 7222 7223 7224 7225 7226 7227 7228 7229 7230 7231 7232 7233 7234 7235 7236 7237 7238 7239 7240 7241 7242 7243 7244 7245 7246 7247 7248 7249 7250 7251 7252 7253 7254 7255 7256 7257 7258 7259 7260 7261 7262 7263 7264 7265 7266 7267 7268 7269 7270 7271 7272 7273 7274 7275 7276 7277 7278 7279 7280 7281 7282 7283 7284 7285 7286 7287 7288 7289 7290 7291 7292 7293 7294 7295 7296 7297 7298 7299 7300 7301 7302 7303 7304 7305 7306 7307 7308 7309 7310 7311 7312 7313 7314 7315 7316 7317 7318 7319 7320 7321 7322 7323 7324 7325 7326 7327 7328 7329 7330 7331 7332 7333 7334 7335 7336 7337 7338 7339 7340 7341 7342 7343 7344 7345 7346 7347 7348 7349 7350 7351 7352 7353 7354 7355 7356 7357 7358 7359 7360 7361 7362 7363 7364 7365 7366 7367 7368 7369 7370 7371 7372 7373 7374 7375 7376 7377 7378 7379 7380 7381 7382 7383 7384 7385 7386 7387 7388 7389 7390 7391 7392 7393 7394 7395 7396 7397 7398 7399 7400 7401 7402 7403 7404 7405 7406 7407 7408 7409 7410 7411 7412 7413 7414 7415 7416 7417 7418 7419 7420 7421 7422 7423 7424 7425 7426 7427 7428 7429 7430 7431 7432 7433 7434 7435 7436 7437 7438 7439 7440 7441 7442 7443 7444 7445 7446 7447 7448 7449 7450 7451 7452 7453 7454 7455 7456 7457 7458 7459 7460 7461 7462 7463 7464 7465 7466 7467 7468 7469 7470 7471 7472 7473 7474 7475 7476 7477 7478 7479 7480 7481 7482 7483 7484 7485 7486 7487 7488 7489 7490 7491 7492 7493 7494 7495 7496 7497 7498 7499 7500 7501 7502 7503 7504 7505 7506 7507 7508 7509 7510 7511 7512 7513 7514 7515 7516 7517 7518 7519 7520 7521 7522 7523 7524 7525 7526 7527 7528 7529 7530 7531 7532 7533 7534 7535 7536 7537 7538 7539 7540 7541 7542 7543 7544 7545 7546 7547 7548 7549 7550 7551 7552 7553 7554 7555 7556 7557 7558 7559 7560 7561 7562 7563 7564 7565 7566 7567 7568 7569 7570 7571 7572 7573 7574 7575 7576 7577 7578 7579 7580 7581 7582 7583 7584 7585 7586 7587 7588 7589 7590 7591 7592 7593 7594 7595 7596 7597 7598 7599 7600 7601 7602 7603 7604 7605 7606 7607 7608 7609 7610 7611 7612 7613 7614 7615 7616 7617 7618 7619 7620 7621 7622 7623 7624 7625 7626 7627 7628 7629 7630 7631 7632 7633 7634 7635 7636 7637 7638 7639 7640 7641 7642 7643 7644 7645 7646 7647 7648 7649 7650 7651 7652 7653 7654 7655 7656 7657 7658 7659 7660 7661 7662 7663 7664 7665 7666 7667 7668 7669 7670 7671 7672 7673 7674 7675 7676 7677 7678 7679 7680 7681 7682 7683 7684 7685 7686 7687 7688 7689 7690 7691 7692 7693 7694 7695 7696 7697 7698 7699 7700 7701 7702 7703 7704 7705 7706 7707 7708 7709 7710 7711 7712 7713 7714 7715 7716 7717 7718 7719 7720 7721 7722 7723 7724 7725 7726 7727 7728 7729 7730 7731 7732 7733 7734 7735 7736 7737 7738 7739 7740 7741 7742 7743 7744 7745 7746 7747 7748 7749 7750 7751 7752 7753 7754 7755 7756 7757 7758 7759 7760 7761 7762 7763 7764 7765 7766 7767 7768 7769 7770 7771 7772 7773 7774 7775 7776 7777 7778 7779 7780 7781 7782 7783 7784 7785 7786 7787 7788 7789 7790 7791 7792 7793 7794 7795 7796 7797 7798 7799 7800 7801 7802 7803 7804 7805 7806 7807 7808 7809 7810 7811 7812 7813 7814 7815 7816 7817 7818 7819 7820 7821 7822 7823 7824 7825 7826 7827 7828 7829 7830 7831 7832 7833 7834 7835 7836 7837 7838 7839 7840 7841 7842 7843 7844 7845 7846 7847 7848 7849 7850 7851 7852 7853 7854 7855 7856 7857 7858 7859 7860 7861 7862 7863 7864 7865 7866 7867 7868 7869 7870 7871 7872 7873 7874 7875 7876 7877 7878 7879 7880 7881 7882 7883 7884 7885 7886 7887 7888 7889 7890 7891 7892 7893 7894 7895 7896 7897 7898 7899 7900 7901 7902 7903 7904 7905 7906 7907 7908 7909 7910 7911 7912 7913 7914 7915 7916 7917 7918 7919 7920 7921 7922 7923 7924 7925 7926 7927 7928 7929 7930 7931 7932 7933 7934 7935 7936 7937 7938 7939 7940 7941 7942 7943 7944 7945 7946 7947 7948 7949 7950 7951 7952 7953 7954 7955 7956 7957 7958 7959 7960 7961 7962 7963 7964 7965 7966 7967 7968 7969 7970 7971 7972 7973 7974 7975 7976 7977 7978 7979 7980 7981 7982 7983 7984 7985 7986 7987 7988 7989 7990 7991 7992 7993 7994 7995 7996 7997 7998 7999 8000 8001 8002 8003 8004 8005 8006 8007 8008 8009 8010 8011 8012 8013 8014 8015 8016 8017 8018 8019 8020 8021 8022 8023 8024 8025 8026 8027 8028 8029 8030 8031 8032 8033 8034 8035 8036 8037 8038 8039 8040 8041 8042 8043 8044 8045 8046 8047 8048 8049 8050 8051 8052 8053 8054 8055 8056 8057 8058 8059 8060 8061 8062 8063 8064 8065 8066 8067 8068 8069 8070 8071 8072 8073 8074 8075 8076 8077 8078 8079 8080 8081 8082 8083 8084 8085 8086 8087 8088 8089 8090 8091 8092 8093 8094 8095 8096 8097 8098 8099 8100 8101 8102 8103 8104 8105 8106 8107 8108 8109 8110 8111 8112 8113 8114 8115 8116 8117 8118 8119 8120 8121 8122 8123 8124 8125 8126 8127 8128 8129 8130 8131 8132 8133 8134 8135 8136 8137 8138 8139 8140 8141 8142 8143 8144 8145 8146 8147 8148 8149 8150 8151 8152 8153 8154 8155 8156 8157 8158 8159 8160 8161 8162 8163 8164 8165 8166 8167 8168 8169 8170 8171 8172 8173 8174 8175 8176 8177 8178 8179 8180 8181 8182 8183 8184 8185 8186 8187 8188 8189 8190 8191 8192 8193 8194 8195 8196 8197 8198 8199 8200 8201 8202 8203 8204 8205 8206 8207 8208 8209 8210 8211 8212 8213 8214 8215 8216 8217 8218 8219 8220 8221 8222 8223 8224 8225 8226 8227 8228 8229 8230 8231 8232 8233 8234 8235 8236 8237 8238 8239 8240 8241 8242 8243 8244 8245 8246 8247 8248 8249 8250 8251 8252 8253 8254 8255 8256 8257 8258 8259 8260 8261 8262 8263 8264 8265 8266 8267 8268 8269 8270 8271 8272 8273 8274 8275 8276 8277 8278 8279 8280 8281 8282 8283 8284 8285 8286 8287 8288 8289 8290 8291 8292 8293 8294 8295 8296 8297 8298 8299 8300 8301 8302 8303 8304 8305 8306 8307 8308 8309 8310 8311 8312 8313 8314 8315 8316 8317 8318 8319 8320 8321 8322 8323 8324 8325 8326 8327 8328 8329 8330 8331 8332 8333 8334 8335 8336 8337 8338 8339 8340 8341 8342 8343 8344 8345 8346 8347 8348 8349 8350 8351 8352 8353 8354 8355 8356 8357 8358 8359 8360 8361 8362 8363 8364 8365 8366 8367 8368 8369 8370 8371 8372 8373 8374 8375 8376 8377 8378 8379 8380 8381 8382 8383 8384 8385 8386 8387 8388 8389 8390 8391 8392 8393 8394 8395 8396 8397 8398 8399 8400 8401 8402 8403 8404 8405 8406 8407 8408 8409 8410 8411 8412 8413 8414 8415 8416 8417 8418 8419 8420 8421 8422 8423 8424 8425 8426 8427 8428 8429 8430 8431 8432 8433 8434 8435 8436 8437 8438 8439 8440 8441 8442 8443 8444 8445 8446 8447 8448 8449 8450 8451 8452 8453 8454 8455 8456 8457 8458 8459 8460 8461 8462 8463 8464 8465 8466 8467 8468 8469 8470 8471 8472 8473 8474 8475 8476 8477 8478 8479 8480 8481 8482 8483 8484 8485 8486 8487 8488 8489 8490 8491 8492 8493 8494 8495 8496 8497 8498 8499 8500 8501 8502 8503 8504 8505 8506 8507 8508 8509 8510 8511 8512 8513 8514 8515 8516 8517 8518 8519 8520 8521 8522 8523 8524 8525 8526 8527 8528 8529 8530 8531 8532 8533 8534 8535 8536 8537 8538 8539 8540 8541 8542 8543 8544 8545 8546 8547 8548 8549 8550 8551 8552 8553 8554 8555 8556 8557 8558 8559 8560 8561 8562 8563 8564 8565 8566 8567 8568 8569 8570 8571 8572 8573 8574 8575 8576 8577 8578 8579 8580 8581 8582 8583 8584 8585 8586 8587 8588 8589 8590 8591 8592 8593 8594 8595 8596 8597 8598 8599 8600 8601 8602 8603 8604 8605 8606 8607 8608 8609 8610 8611 8612 8613 8614 8615 8616 8617 8618 8619 8620 8621 8622 8623 8624 8625 8626 8627 8628 8629 8630 8631 8632 8633 8634 8635 8636 8637 8638 8639 8640 8641 8642 8643 8644 8645 8646 8647 8648 8649 8650 8651 8652 8653 8654 8655 8656 8657 8658 8659 8660 8661 8662 8663 8664 8665 8666 8667 8668 8669 8670 8671 8672 8673 8674 8675 8676 8677 8678 8679 8680 8681 8682 8683 8684 8685 8686 8687 8688 8689 8690 8691 8692 8693 8694 8695 8696 8697 8698 8699 8700 8701 8702 8703 8704 8705 8706 8707 8708 8709 8710 8711 8712 8713 8714 8715 8716 8717 8718 8719 8720 8721 8722 8723 8724 8725 8726 8727 8728 8729 8730 8731 8732 8733 8734 8735 8736 8737 8738 8739 8740 8741 8742 8743 8744 8745 8746 8747 8748 8749 8750 8751 8752 8753 8754 8755 8756 8757 8758 8759 8760 8761 8762 8763 8764 8765 8766 8767 8768 8769 8770 8771 8772 8773 8774 8775 8776 8777 8778 8779 8780 8781 8782 8783 8784 8785 8786 8787 8788 8789 8790 8791 8792 8793 8794 8795 8796 8797 8798 8799 8800 8801 8802 8803 8804 8805 8806 8807 8808 8809 8810 8811 8812 8813 8814 8815 8816 8817 8818 8819 8820 8821 8822 8823 8824 8825 8826 8827 8828 8829 8830 8831 8832 8833 8834 8835 8836 8837 8838 8839 8840 8841 8842 8843 8844 8845 8846 8847 8848 8849 8850 8851 8852 8853 8854 8855 8856 8857 8858 8859 8860 8861 8862 8863 8864 8865 8866 8867 8868 8869 8870 8871 8872 8873 8874 8875 8876 8877 8878 8879 8880 8881 8882 8883 8884 8885 8886 8887 8888 8889 8890 8891 8892 8893 8894 8895 8896 8897 8898 8899 8900 8901 8902 8903 8904 8905 8906 8907 8908 8909 8910 8911 8912 8913 8914 8915 8916 8917 8918 8919 8920 8921 8922 8923 8924 8925 8926 8927 8928 8929 8930 8931 8932 8933 8934 8935 8936 8937 8938 8939 8940 8941 8942 8943 8944 8945 8946 8947 8948 8949 8950 8951 8952 8953 8954 8955 8956 8957 8958 8959 8960 8961 8962 8963 8964 8965 8966 8967 8968 8969 8970 8971 8972 8973 8974 8975 8976 8977 8978 8979 8980 8981 8982 8983 8984 8985 8986 8987 8988 8989 8990 8991 8992 8993 8994 8995 8996 8997 8998 8999 9000 9001 9002 9003 9004 9005 9006 9007 9008 9009 9010 9011 9012 9013 9014 9015 9016 9017 9018 9019 9020 9021 9022 9023 9024 9025 9026 9027 9028 9029 9030 9031 9032 9033 9034 9035 9036 9037 9038 9039 9040 9041 9042 9043 9044 9045 9046 9047 9048 9049 9050 9051 9052 9053 9054 9055 9056 9057 9058 9059 9060 9061 9062 9063 9064 9065 9066 9067 9068 9069 9070 9071 9072 9073 9074 9075 9076 9077 9078 9079 9080 9081 9082 9083 9084 9085 9086 9087 9088 9089 9090 9091 9092 9093 9094 9095 9096 9097 9098 9099 9100 9101 9102 9103 9104 9105 9106 9107 9108 9109 9110 9111 9112 9113 9114 9115 9116 9117 9118 9119 9120 9121 9122 9123 9124 9125 9126 9127 9128 9129 9130 9131 9132 9133 9134 9135 9136 9137 9138 9139 9140 9141 9142 9143 9144 9145 9146 9147 9148 9149 9150 9151 9152 9153 9154 9155 9156 9157 9158 9159 9160 9161 9162 9163 9164 9165 9166 9167 9168 9169 9170 9171 9172 9173 9174 9175 9176 9177 9178 9179 9180 9181 9182 9183 9184 9185 9186 9187 9188 9189 9190 9191 9192 9193 9194 9195 9196 9197 9198 9199 9200 9201 9202 9203 9204 9205 9206 9207 9208 9209 9210 9211 9212 9213 9214 9215 9216 9217 9218 9219 9220 9221 9222 9223 9224 9225 9226 9227 9228 9229 9230 9231 9232 9233 9234 9235 9236 9237 9238 9239 9240 9241 9242 9243 9244 9245 9246 9247 9248 9249 9250 9251 9252 9253 9254 9255 9256 9257 9258 9259 9260 9261 9262 9263 9264 9265 9266 9267 9268 9269 9270 9271 9272 9273 9274 9275 9276 9277 9278 9279 9280 9281 9282 9283 9284 9285 9286 9287 9288 9289 9290 9291 9292 9293 9294 9295 9296 9297 9298 9299 9300 9301 9302 9303 9304 9305 9306 9307 9308 9309 9310 9311 9312 9313 9314 9315 9316 9317 9318 9319 9320 9321 9322 9323 9324 9325 9326 9327 9328 9329 9330 9331 9332 9333 9334 9335 9336 9337 9338 9339 9340 9341 9342 9343 9344 9345 9346 9347 9348 9349 9350 9351 9352 9353 9354 9355 9356 9357 9358 9359 9360 9361 9362 9363 9364 9365 9366 9367 9368 9369 9370 9371 9372 9373 9374 9375 9376 9377 9378 9379 9380 9381 9382 9383 9384 9385 9386 9387 9388 9389 9390 9391 9392 9393 9394 9395 9396 9397 9398 9399 9400 9401 9402 9403 9404 9405 9406 9407 9408 9409 9410 9411 9412 9413 9414 9415 9416 9417 9418 9419 9420 9421 9422 9423 9424 9425 9426 9427 9428 9429 9430 9431 9432 9433 9434 9435 9436 9437 9438 9439 9440 9441 9442 9443 9444 9445 9446 9447 9448 9449 9450 9451 9452 9453 9454 9455 9456 9457 9458 9459 9460 9461 9462 9463 9464 9465 9466 9467 9468 9469 9470 9471 9472 9473 9474 9475 9476 9477 9478 9479 9480 9481 9482 9483 9484 9485 9486 9487 9488 9489 9490 9491 9492 9493 9494 9495 9496 9497 9498 9499 9500 9501 9502 9503 9504 9505 9506 9507 9508 9509 9510 9511 9512 9513 9514 9515 9516 9517 9518 9519 9520 9521 9522 9523 9524 9525 9526 9527 9528 9529 9530 9531 9532 9533 9534 9535 9536 9537 9538 9539 9540 9541 9542 9543 9544 9545 9546 9547 9548 9549 9550 9551 9552 9553 9554 9555 9556 9557 9558 9559 9560 9561 9562 9563 9564 9565 9566 9567 9568 9569 9570 9571 9572 9573 9574 9575 9576 9577 9578 9579 9580 9581 9582 9583 9584 9585 9586 9587 9588 9589 9590 9591 9592 9593 9594 9595 9596 9597 9598 9599 9600 9601 9602 9603 9604 9605 9606 9607 9608 9609 9610 9611 9612 9613 9614 9615 9616 9617 9618 9619 9620 9621 9622 9623 9624 9625 9626 9627 9628 9629 9630 9631 9632 9633 9634 9635 9636 9637 9638 9639 9640 9641 9642 9643 9644 9645 9646 9647 9648 9649 9650 9651 9652 9653 9654 9655 9656 9657 9658 9659 9660 9661 9662 9663 9664 9665 9666 9667 9668 9669 9670 9671 9672 9673 9674 9675 9676 9677 9678 9679 9680 9681 9682 9683 9684 9685 9686 9687 9688 9689 9690 9691 9692 9693 9694 9695 9696 9697 9698 9699 9700 9701 9702 9703 9704 9705 9706 9707 9708 9709 9710 9711 9712 9713 9714 9715 9716 9717 9718 9719 9720 9721 9722 9723 9724 9725 9726 9727 9728 9729 9730 9731 9732 9733 9734 9735 9736 9737 9738 9739 9740 9741 9742 9743 9744 9745 9746 9747 9748 9749 9750 9751 9752 9753 9754 9755 9756 9757 9758 9759 9760 9761 9762 9763 9764 9765 9766 9767 9768 9769 9770 9771 9772 9773 9774 9775 9776 9777 9778 9779 9780 9781 9782 9783 9784 9785 9786 9787 9788 9789 9790 9791 9792 9793 9794 9795 9796 9797 9798 9799 9800 9801 9802 9803 9804 9805 9806 9807 9808 9809 9810 9811 9812 9813 9814 9815 9816 9817 9818 9819 9820 9821 9822 9823 9824 9825 9826 9827 9828 9829 9830 9831 9832 9833 9834 9835 9836 9837 9838 9839 9840 9841 9842 9843 9844 9845 9846 9847 9848 9849 9850 9851 9852 9853 9854 9855 9856 9857 9858 9859 9860 9861 9862 9863 9864 9865 9866 9867 9868 9869 9870 9871 9872 9873 9874 9875 9876 9877 9878 9879 9880 9881 9882 9883 9884 9885 9886 9887 9888 9889 9890 9891 9892 9893 9894 9895 9896 9897 9898 9899 9900 9901 9902 9903 9904 9905 9906 9907 9908 9909 9910 9911 9912 9913 9914 9915 9916 9917 9918 9919 9920 9921 9922 9923 9924 9925 9926 9927 9928 9929 9930 9931 9932 9933 9934 9935 9936 9937 9938 9939 9940 9941 9942 9943 9944 9945 9946 9947 9948 9949 9950 9951 9952 9953 9954 9955 9956 9957 9958 9959 9960 9961 9962 9963 9964 9965 9966 9967 9968 9969 9970 9971 9972 9973 9974 9975 9976 9977 9978 9979 9980 9981 9982 9983 9984 9985 9986 9987 9988 9989 9990 9991 9992 9993 9994 9995 9996 9997 9998 9999 10000 10001 10002 10003 10004 10005 10006 10007 10008 10009 10010 10011 10012 10013 10014 10015 10016 10017 10018 10019 10020 10021 10022 10023 10024 10025 10026 10027 10028 10029 10030 10031 10032 10033 10034 10035 10036 10037 10038 10039 10040 10041 10042 10043 10044 10045 10046 10047 10048 10049 10050 10051 10052 10053 10054 10055 10056 10057 10058 10059 10060 10061 10062 10063 10064 10065 10066 10067 10068 10069 10070 10071 10072 10073 10074 10075 10076 10077 10078 10079 10080 10081 10082 10083 10084 10085 10086 10087 10088 10089 10090 10091 10092 10093 10094 10095 10096 10097 10098 10099 10100 10101 10102 10103 10104 10105 10106 10107 10108 10109 10110 10111 10112 10113 10114 10115 10116 10117 10118 10119 10120 10121 10122 10123 10124 10125 10126 10127 10128 10129 10130 10131 10132 10133 10134 10135 10136 10137 10138 10139 10140 10141 10142 10143 10144 10145 10146 10147 10148 10149 10150 10151 10152 10153 10154 10155 10156 10157 10158 10159 10160 10161 10162 10163 10164 10165 10166 10167 10168 10169 10170 10171 10172 10173 10174 10175 10176 10177 10178 10179 10180 10181 10182 10183 10184 10185 10186 10187 10188 10189 10190 10191 10192 10193 10194 10195 10196 10197 10198 10199 10200 10201 10202 10203 10204 10205 10206 10207 10208 10209 10210 10211 10212 10213 10214 10215 10216 10217 10218 10219 10220 10221 10222 10223 10224 10225 10226 10227 10228 10229 10230 10231 10232 10233 10234 10235 10236 10237 10238 10239 10240 10241 10242 10243 10244 10245 10246 10247 10248 10249 10250 10251 10252 10253 10254 10255 10256 10257 10258 10259 10260 10261 10262 10263 10264 10265 10266 10267 10268 10269 10270 10271 10272 10273 10274 10275 10276 10277 10278 10279 10280 10281 10282 10283 10284 10285 10286 10287 10288 10289 10290 10291 10292 10293 10294 10295 10296 10297 10298 10299 10300 10301 10302 10303 10304 10305 10306 10307 10308 10309 10310 10311 10312 10313 10314 10315 10316 10317 10318 10319 10320 10321 10322 10323 10324 10325 10326 10327 10328 10329 10330 10331 10332 10333 10334 10335 10336 10337 10338 10339 10340 10341 10342 10343 10344 10345 10346 10347 10348 10349 10350 10351 10352 10353 10354 10355 10356 10357 10358 10359 10360 10361 10362 10363 10364 10365 10366 10367 10368 10369 10370 10371 10372 10373 10374 10375 10376 10377 10378 10379 10380 10381 10382 10383 10384 10385 10386 10387 10388 10389 10390 10391 10392 10393 10394 10395 10396 10397 10398 10399 10400 10401 10402 10403 10404 10405 10406 10407 10408 10409 10410 10411 10412 10413 10414 10415 10416 10417 10418 10419 10420 10421 10422 10423 10424 10425 10426 10427 10428 10429 10430 10431 10432 10433 10434 10435 10436 10437 10438 10439 10440 10441 10442 10443 10444 10445 10446 10447 10448 10449 10450 10451 10452 10453 10454 10455 10456 10457 10458 10459 10460 10461 10462 10463 10464 10465 10466 10467 10468 10469 10470 10471 10472 10473 10474 10475 10476 10477 10478 10479 10480 10481 10482 10483 10484 10485 10486 10487 10488 10489 10490 10491 10492 10493 10494 10495 10496 10497 10498 10499 10500 10501 10502 10503 10504 10505 10506 10507 10508 10509 10510 10511 10512 10513 10514 10515 10516 10517 10518 10519 10520 10521 10522 10523 10524 10525 10526 10527 10528 10529 10530 10531 10532 10533 10534 10535 10536 10537 10538 10539 10540 10541 10542 10543 10544 10545 10546 10547 10548 10549 10550 10551 10552 10553 10554 10555 10556 10557 10558 10559 10560 10561 10562 10563 10564 10565 10566 10567 10568 10569 10570 10571 10572 10573 10574 10575 10576 10577 10578 10579 10580 10581 10582 10583 10584 10585 10586 10587 10588 10589 10590 10591 10592 10593 10594 10595 10596 10597 10598 10599 10600 10601 10602 10603 10604 10605 10606 10607 10608 10609 10610 10611 10612 10613 10614 10615 10616 10617 10618 10619 10620 10621 10622 10623 10624 10625 10626 10627 10628 10629 10630 10631 10632 10633 10634 10635 10636 10637 10638 10639 10640 10641 10642 10643 10644 10645 10646 10647 10648 10649 10650 10651 10652 10653 10654 10655 10656 10657 10658 10659 10660 10661 10662 10663 10664 10665 10666 10667 10668 10669 10670 10671 10672 10673 10674 10675 10676 10677 10678 10679 10680 10681 10682 10683 10684 10685 10686 10687 10688 10689 10690 10691 10692 10693 10694 10695 10696 10697 10698 10699 10700 10701 10702 10703 10704 10705 10706 10707 10708 10709 10710 10711 10712 10713 10714 10715 10716 10717 10718 10719 10720 10721 10722 10723 10724 10725 10726 10727 10728 10729 10730 10731 10732 10733 10734 10735 10736 10737 10738 10739 10740 10741 10742 10743 10744 10745 10746 10747 10748 10749 10750 10751 10752 10753 10754 10755 10756 10757 10758 10759 10760 10761 10762 10763 10764 10765 10766 10767 10768 10769 10770 10771 10772 10773 10774 10775 10776 10777 10778 10779 10780 10781 10782 10783 10784 10785 10786 10787 10788 10789 10790 10791 10792 10793 10794 10795 10796 10797 10798 10799 10800 10801 10802 10803 10804 10805 10806 10807 10808 10809 10810 10811 10812 10813 10814 10815 10816 10817 10818 10819 10820 10821 10822 10823 10824 10825 10826 10827 10828 10829 10830 10831 10832 10833 10834 10835 10836 10837 10838 10839 10840 10841 10842 10843 10844 10845 10846 10847 10848 10849 10850 10851 10852 10853 10854 10855 10856 10857 10858 10859 10860 10861 10862 10863 10864 10865 10866 10867 10868 10869 10870 10871 10872 10873 10874 10875 10876 10877 10878 10879 10880 10881 10882 10883 10884 10885 10886 10887 10888 10889 10890 10891 10892 10893 10894 10895 10896 10897 10898 10899 10900 10901 10902 10903 10904 10905 10906 10907 10908 10909 10910 10911 10912 10913 10914 10915 10916 10917 10918 10919 10920 10921 10922 10923 10924 10925 10926 10927 10928 10929 10930 10931 10932 10933 10934 10935 10936 10937 10938 10939 10940 10941 10942 10943 10944 10945 10946 10947 10948 10949 10950 10951 10952 10953 10954 10955 10956 10957 10958 10959 10960 10961 10962 10963 10964 10965 10966 10967 10968 10969 10970 10971 10972 10973 10974 10975 10976 10977 10978 10979 10980 10981 10982 10983 10984 10985 10986 10987 10988 10989 10990 10991 10992 10993 10994 10995 10996 10997 10998 10999 11000 11001 11002 11003 11004 11005 11006 11007 11008 11009 11010 11011 11012 11013 11014 11015 11016 11017 11018 11019 11020 11021 11022 11023 11024 11025 11026 11027 11028 11029 11030 11031 11032 11033 11034 11035 11036 11037 11038 11039 11040 11041 11042 11043 11044 11045 11046 11047 11048 11049 11050 11051 11052 11053 11054 11055 11056 11057 11058 11059 11060 11061 11062 11063 11064 11065 11066 11067 11068 11069 11070 11071 11072 11073 11074 11075 11076 11077 11078 11079 11080 11081 11082 11083 11084 11085 11086 11087 11088 11089 11090 11091 11092 11093 11094 11095 11096 11097 11098 11099 11100 11101 11102 11103 11104 11105 11106 11107 11108 11109 11110 11111 11112 11113 11114 11115 11116 11117 11118 11119 11120 11121 11122 11123 11124 11125 11126 11127 11128 11129 11130 11131 11132 11133 11134 11135 11136 11137 11138 11139 11140 11141 11142 11143 11144 11145 11146 11147 11148 11149 11150 11151 11152 11153 11154 11155 11156 11157 11158 11159 11160 11161 11162 11163 11164 11165 11166 11167 11168 11169 11170 11171 11172 11173 11174 11175 11176 11177 11178 11179 11180 11181 11182 11183 11184 11185 11186 11187 11188 11189 11190 11191 11192 11193 11194 11195 11196 11197 11198 11199 11200 11201 11202 11203 11204 11205 11206 11207 11208 11209 11210 11211 11212 11213 11214 11215 11216 11217 11218 11219 11220 11221 11222 11223 11224 11225 11226 11227 11228 11229 11230 11231 11232 11233 11234 11235 11236 11237 11238 11239 11240 11241 11242 11243 11244 11245 11246 11247 11248 11249 11250 11251 11252 11253 11254 11255 11256 11257 11258 11259 11260 11261 11262 11263 11264 11265 11266 11267 11268 11269 11270 11271 11272 11273 11274 11275 11276 11277 11278 11279 11280 11281 11282 11283 11284 11285 11286 11287 11288 11289 11290 11291 11292 11293 11294 11295 11296 11297 11298 11299 11300 11301 11302 11303 11304 11305 11306 11307 11308 11309 11310 11311 11312 11313 11314 11315 11316 11317 11318 11319 11320 11321 11322 11323 11324 11325 11326 11327 11328 11329 11330 11331 11332 11333 11334 11335 11336 11337 11338 11339 11340 11341 11342 11343 11344 11345 11346 11347 11348 11349 11350 11351 11352 11353 11354 11355 11356 11357 11358 11359 11360 11361 11362 11363 11364 11365 11366 11367 11368 11369 11370 11371 11372 11373 11374 11375 11376 11377 11378 11379 11380 11381 11382 11383 11384 11385 11386 11387 11388 11389 11390 11391 11392 11393 11394 11395 11396 11397 11398 11399 11400 11401 11402 11403 11404 11405 11406 11407 11408 11409 11410 11411 11412 11413 11414 11415 11416 11417 11418 11419 11420 11421 11422 11423 11424 11425 11426 11427 11428 11429 11430 11431 11432 11433 11434 11435 11436 11437 11438 11439 11440 11441 11442 11443 11444 11445 11446 11447 11448 11449 11450 11451 11452 11453 11454 11455 11456 11457 11458 11459 11460 11461 11462 11463 11464 11465 11466 11467 11468 11469 11470 11471 11472 11473 11474 11475 11476 11477 11478 11479 11480 11481 11482 11483 11484 11485 11486 11487 11488 11489 11490 11491 11492 11493 11494 11495 11496 11497 11498 11499 11500 11501 11502 11503 11504 11505 11506 11507 11508 11509 11510 11511 11512 11513 11514 11515 11516 11517 11518 11519 11520 11521 11522 11523 11524 11525 11526 11527 11528 11529 11530 11531 11532 11533 11534 11535 11536 11537 11538 11539 11540 11541 11542 11543 11544 11545 11546 11547 11548 11549 11550 11551 11552 11553 11554 11555 11556 11557 11558 11559 11560 11561 11562 11563 11564 11565 11566 11567 11568 11569 11570 11571 11572 11573 11574 11575 11576 11577 11578 11579 11580 11581 11582 11583 11584 11585 11586 11587 11588 11589 11590 11591 11592 11593 11594 11595 11596 11597 11598 11599 11600 11601 11602 11603 11604 11605 11606 11607 11608 11609 11610 11611 11612 11613 11614 11615 11616 11617 11618 11619 11620 11621 11622 11623 11624 11625 11626 11627 11628 11629 11630 11631 11632 11633 11634 11635 11636 11637 11638 11639 11640 11641 11642 11643 11644 11645 11646 11647 11648 11649 11650 11651 11652 11653 11654 11655 11656 11657 11658 11659 11660 11661 11662 11663 11664 11665 11666 11667 11668 11669 11670 11671 11672 11673 11674 11675 11676 11677 11678 11679 11680 11681 11682 11683 11684 11685 11686 11687 11688 11689 11690 11691 11692 11693 11694 11695 11696 11697 11698 11699 11700 11701 11702 11703 11704 11705 11706 11707 11708 11709 11710 11711 11712 11713 11714 11715 11716 11717 11718 11719 11720 11721 11722 11723 11724 11725 11726 11727 11728 11729 11730 11731 11732 11733 11734 11735 11736 11737 11738 11739 11740 11741 11742 11743 11744 11745 11746 11747 11748 11749 11750 11751 11752 11753 11754 11755 11756 11757 11758 11759 11760 11761 11762 11763 11764 11765 11766 11767 11768 11769 11770 11771 11772 11773 11774 11775 11776 11777 11778 11779 11780 11781 11782 11783 11784 11785 11786 11787 11788 11789 11790 11791 11792 11793 11794 11795 11796 11797 11798 11799 11800 11801 11802 11803 11804 11805 11806 11807 11808 11809 11810 11811 11812 11813 11814 11815 11816 11817 11818 11819 11820 11821 11822 11823 11824 11825 11826 11827 11828 11829 11830 11831 11832 11833 11834 11835 11836 11837 11838 11839 11840 11841 11842 11843 11844 11845 11846 11847 11848 11849 11850 11851 11852 11853 11854 11855 11856 11857 11858 11859 11860 11861 11862 11863 11864 11865 11866 11867 11868 11869 11870 11871 11872 11873 11874 11875 11876 11877 11878 11879 11880 11881 11882 11883 11884 11885 11886 11887 11888 11889 11890 11891 11892 11893 11894 11895 11896 11897 11898 11899 11900 11901 11902 11903 11904 11905 11906 11907 11908 11909 11910 11911 11912 11913 11914 11915 11916 11917 11918 11919 11920 11921 11922 11923 11924 11925 11926 11927 11928 11929 11930 11931 11932 11933 11934 11935 11936 11937 11938 11939 11940 11941 11942 11943 11944 11945 11946 11947 11948 11949 11950 11951 11952 11953 11954 11955 11956 11957 11958 11959 11960 11961 11962 11963 11964 11965 11966 11967 11968 11969 11970 11971 11972 11973 11974 11975 11976 11977 11978 11979 11980 11981 11982 11983 11984 11985 11986 11987 11988 11989 11990 11991 11992 11993 11994 11995 11996 11997 11998 11999 12000 12001 12002 12003 12004 12005 12006 12007 12008 12009 12010 12011 12012 12013 12014 12015 12016 12017 12018 12019 12020 12021 12022 12023 12024 12025 12026 12027 12028 12029 12030 12031 12032 12033 12034 12035 12036 12037 12038 12039 12040 12041 12042 12043 12044 12045 12046 12047 12048 12049 12050 12051 12052 12053 12054 12055 12056 12057 12058 12059 12060 12061 12062 12063 12064 12065 12066 12067 12068 12069 12070 12071 12072 12073 12074 12075 12076 12077 12078 12079 12080 12081 12082 12083 12084 12085 12086 12087 12088 12089 12090 12091 12092 12093 12094 12095 12096 12097 12098 12099 12100 12101 12102 12103 12104 12105 12106 12107 12108 12109 12110 12111 12112 12113 12114 12115 12116 12117 12118 12119 12120 12121 12122 12123 12124 12125 12126 12127 12128 12129 12130 12131 12132 12133 12134 12135 12136 12137 12138 12139 12140 12141 12142 12143 12144 12145 12146 12147 12148 12149 12150 12151 12152 12153 12154 12155 12156 12157 12158 12159 12160 12161 12162 12163 12164 12165 12166 12167 12168 12169 12170 12171 12172 12173 12174 12175 12176 12177 12178 12179 12180 12181 12182 12183 12184 12185 12186 12187 12188 12189 12190 12191 12192 12193 12194 12195 12196 12197 12198 12199 12200 12201 12202 12203 12204 12205 12206 12207 12208 12209 12210 12211 12212 12213 12214 12215 12216 12217 12218 12219 12220 12221 12222 12223 12224 12225 12226 12227 12228 12229 12230 12231 12232 12233 12234 12235 12236 12237 12238 12239 12240 12241 12242 12243 12244 12245 12246 12247 12248 12249 12250 12251 12252 12253 12254 12255 12256 12257 12258 12259 12260 12261 12262 12263 12264 12265 12266 12267 12268 12269 12270 12271 12272 12273 12274 12275 12276 12277 12278 12279 12280 12281 12282 12283 12284 12285 12286 12287 12288 12289 12290 12291 12292 12293 12294 12295 12296 12297 12298 12299 12300 12301 12302 12303 12304 12305 12306 12307 12308 12309 12310 12311 12312 12313 12314 12315 12316 12317 12318 12319 12320 12321 12322 12323 12324 12325 12326 12327 12328 12329 12330 12331 12332 12333 12334 12335 12336 12337 12338 12339 12340 12341 12342 12343 12344 12345 12346 12347 12348 12349 12350 12351 12352 12353 12354 12355 12356 12357 12358 12359 12360 12361 12362 12363 12364 12365 12366 12367 12368 12369 12370 12371 12372 12373 12374 12375 12376 12377 12378 12379 12380 12381 12382 12383 12384 12385 12386 12387 12388 12389 12390 12391 12392 12393 12394 12395 12396 12397 12398 12399 12400 12401 12402 12403 12404 12405 12406 12407 12408 12409 12410 12411 12412 12413 12414 12415 12416 12417 12418 12419 12420 12421 12422 12423 12424 12425 12426 12427 12428 12429 12430 12431 12432 12433 12434 12435 12436 12437 12438 12439 12440 12441 12442 12443 12444 12445 12446 12447 12448 12449 12450 12451 12452 12453 12454 12455 12456 12457 12458 12459 12460 12461 12462 12463 12464 12465 12466 12467 12468 12469 12470 12471 12472 12473 12474 12475 12476 12477 12478 12479 12480 12481 12482 12483 12484 12485 12486 12487 12488 12489 12490 12491 12492 12493 12494 12495 12496 12497 12498 12499 12500 12501 12502 12503 12504 12505 12506 12507 12508 12509 12510 12511 12512 12513 12514 12515 12516 12517 12518 12519 12520 12521 12522 12523 12524 12525 12526 12527 12528 12529 12530 12531 12532 12533 12534 12535 12536 12537 12538 12539 12540 12541 12542 12543 12544 12545 12546 12547 12548 12549 12550 12551 12552 12553 12554 12555 12556 12557 12558 12559 12560 12561 12562 12563 12564 12565 12566 12567 12568 12569 12570 12571 12572 12573 12574 12575 12576 12577 12578 12579 12580 12581 12582 12583 12584 12585 12586 12587 12588 12589 12590 12591 12592 12593 12594 12595 12596 12597 12598 12599 12600 12601 12602 12603 12604 12605 12606 12607 12608 12609 12610 12611 12612 12613 12614 12615 12616 12617 12618 12619 12620 12621 12622 12623 12624 12625 12626 12627 12628 12629 12630 12631 12632 12633 12634 12635 12636 12637 12638 12639 12640 12641 12642 12643 12644 12645 12646 12647 12648 12649 12650 12651 12652 12653 12654 12655 12656 12657 12658 12659 12660 12661 12662 12663 12664 12665 12666 12667 12668 12669 12670 12671 12672 12673 12674 12675 12676 12677 12678 12679 12680 12681 12682 12683 12684 12685 12686 12687 12688 12689 12690 12691 12692 12693 12694 12695 12696 12697 12698 12699 12700 12701 12702 12703 12704 12705 12706 12707 12708 12709 12710 12711 12712 12713 12714 12715 12716 12717 12718 12719 12720 12721 12722 12723 12724 12725 12726 12727 12728 12729 12730 12731 12732 12733 12734 12735 12736 12737 12738 12739 12740 12741 12742 12743 12744 12745 12746 12747 12748 12749 12750 12751 12752 12753 12754 12755 12756 12757 12758 12759 12760 12761 12762 12763 12764 12765 12766 12767 12768 12769 12770 12771 12772 12773 12774 12775 12776 12777 12778 12779 12780 12781 12782 12783 12784 12785 12786 12787 12788 12789 12790 12791 12792 12793 12794 12795 12796 12797 12798 12799 12800 12801 12802 12803 12804 12805 12806 12807 12808 12809 12810 12811 12812 12813 12814 12815 12816 12817 12818 12819 12820 12821 12822 12823 12824 12825 12826 12827 12828 12829 12830 12831 12832 12833 12834 12835 12836 12837 12838 12839 12840 12841 12842 12843 12844 12845 12846 12847 12848 12849 12850 12851 12852 12853 12854 12855 12856 12857 12858 12859 12860 12861 12862 12863 12864 12865 12866 12867 12868 12869 12870 12871 12872 12873 12874 12875 12876 12877 12878 12879 12880 12881 12882 12883 12884 12885 12886 12887 12888 12889 12890 12891 12892 12893 12894 12895 12896 12897 12898 12899 12900 12901 12902 12903 12904 12905 12906 12907 12908 12909 12910 12911 12912 12913 12914 12915 12916 12917 12918 12919 12920 12921 12922 12923 12924 12925 12926 12927 12928 12929 12930 12931 12932 12933 12934 12935 12936 12937 12938 12939 12940 12941 12942 12943 12944 12945 12946 12947 12948 12949 12950 12951 12952 12953 12954 12955 12956 12957 12958 12959 12960 12961 12962 12963 12964 12965 12966 12967 12968 12969 12970 12971 12972 12973 12974 12975 12976 12977 12978 12979 12980 12981 12982 12983 12984 12985 12986 12987 12988 12989 12990 12991 12992 12993 12994 12995 12996 12997 12998 12999 13000 13001 13002 13003 13004 13005 13006 13007 13008 13009 13010 13011 13012 13013 13014 13015 13016 13017 13018 13019 13020 13021 13022 13023 13024 13025 13026 13027 13028 13029 13030 13031 13032 13033 13034 13035 13036 13037 13038 13039 13040 13041 13042 13043 13044 13045 13046 13047 13048 13049 13050 13051 13052 13053 13054 13055 13056 13057 13058 13059 13060 13061 13062 13063 13064 13065 13066 13067 13068 13069 13070 13071 13072 13073 13074 13075 13076 13077 13078 13079 13080 13081 13082 13083 13084 13085 13086 13087 13088 13089 13090 13091 13092 13093 13094 13095 13096 13097 13098 13099 13100 13101 13102 13103 13104 13105 13106 13107 13108 13109 13110 13111 13112 13113 13114 13115 13116 13117 13118 13119 13120 13121 13122 13123 13124 13125 13126 13127 13128 13129 13130 13131 13132 13133 13134 13135 13136 13137 13138 13139 13140 13141 13142 13143 13144 13145 13146 13147 13148 13149 13150 13151 13152 13153 13154 13155 13156 13157 13158 13159 13160 13161 13162 13163 13164 13165 13166 13167 13168 13169 13170 13171 13172 13173 13174 13175 13176 13177 13178 13179 13180 13181 13182 13183 13184 13185 13186 13187 13188 13189 13190 13191 13192 13193 13194 13195 13196 13197 13198 13199 13200 13201 13202 13203 13204 13205 13206 13207 13208 13209 13210 13211 13212 13213 13214 13215 13216 13217 13218 13219 13220 13221 13222 13223 13224 13225 13226 13227 13228 13229 13230 13231 13232 13233 13234 13235 13236 13237 13238 13239 13240 13241 13242 13243 13244 13245 13246 13247 13248 13249 13250 13251 13252 13253 13254 13255 13256 13257 13258 13259 13260 13261 13262 13263 13264 13265 13266 13267 13268 13269 13270 13271 13272 13273 13274 13275 13276 13277 13278 13279 13280 13281 13282 13283 13284 13285 13286 13287 13288 13289 13290 13291 13292 13293 13294 13295 13296 13297 13298 13299 13300 13301 13302 13303 13304 13305 13306 13307 13308 13309 13310 13311 13312 13313 13314 13315 13316 13317 13318 13319 13320 13321 13322 13323 13324 13325 13326 13327 13328 13329 13330 13331 13332 13333 13334 13335 13336 13337 13338 13339 13340 13341 13342 13343 13344 13345 13346 13347 13348 13349 13350 13351 13352 13353 13354 13355 13356 13357 13358 13359 13360 13361 13362 13363 13364 13365 13366 13367 13368 13369 13370 13371 13372 13373 13374 13375 13376 13377 13378 13379 13380 13381 13382 13383 13384 13385 13386 13387 13388 13389 13390 13391 13392 13393 13394 13395 13396 13397 13398 13399 13400 13401 13402 13403 13404 13405 13406 13407 13408 13409 13410 13411 13412 13413 13414 13415 13416 13417 13418 13419 13420 13421 13422 13423 13424 13425 13426 13427 13428 13429 13430 13431 13432 13433 13434 13435 13436 13437 13438 13439 13440 13441 13442 13443 13444 13445 13446 13447 13448 13449 13450 13451 13452 13453 13454 13455 13456 13457 13458 13459 13460 13461 13462 13463 13464 13465 13466 13467 13468 13469 13470 13471 13472 13473 13474 13475 13476 13477 13478 13479 13480 13481 13482 13483 13484 13485 13486 13487 13488 13489 13490 13491 13492 13493 13494 13495 13496 13497 13498 13499 13500 13501 13502 13503 13504 13505 13506 13507 13508 13509 13510 13511 13512 13513 13514 13515 13516 13517 13518 13519 13520 13521 13522 13523 13524 13525 13526 13527 13528 13529 13530 13531 13532 13533 13534 13535 13536 13537 13538 13539 13540 13541 13542 13543 13544 13545 13546 13547 13548 13549 13550 13551 13552 13553 13554 13555 13556 13557 13558 13559 13560 13561 13562 13563 13564 13565 13566 13567 13568 13569 13570 13571 13572 13573 13574 13575 13576 13577 13578 13579 13580 13581 13582 13583 13584 13585 13586 13587 13588 13589 13590 13591 13592 13593 13594 13595 13596 13597 13598 13599 13600 13601 13602 13603 13604 13605 13606 13607 13608 13609 13610 13611 13612 13613 13614 13615 13616 13617 13618 13619 13620 13621 13622 13623 13624 13625 13626 13627 13628 13629 13630 13631 13632 13633 13634 13635 13636 13637 13638 13639 13640 13641 13642 13643 13644 13645 13646 13647 13648 13649 13650 13651 13652 13653 13654 13655 13656 13657 13658 13659 13660 13661 13662 13663 13664 13665 13666 13667 13668 13669 13670 13671 13672 13673 13674 13675 13676 13677 13678 13679 13680 13681 13682 13683 13684 13685 13686 13687 13688 13689 13690 13691 13692 13693 13694 13695 13696 13697 13698 13699 13700 13701 13702 13703 13704 13705 13706 13707 13708 13709 13710 13711 13712 13713 13714 13715 13716 13717 13718 13719 13720 13721 13722 13723 13724 13725 13726 13727 13728 13729 13730 13731 13732 13733 13734 13735 13736 13737 13738 13739 13740 13741 13742 13743 13744 13745 13746 13747 13748 13749 13750 13751 13752 13753 13754 13755 13756 13757 13758 13759 13760 13761 13762 13763 13764 13765 13766 13767 13768 13769 13770 13771 13772 13773 13774 13775 13776 13777 13778 13779 13780 13781 13782 13783 13784 13785 13786 13787 13788 13789 13790 13791 13792 13793 13794 13795 13796 13797 13798 13799 13800 13801 13802 13803 13804 13805 13806 13807 13808 13809 13810 13811 13812 13813 13814 13815 13816 13817 13818 13819 13820 13821 13822 13823 13824 13825 13826 13827 13828 13829 13830 13831 13832 13833 13834 13835 13836 13837 13838 13839 13840 13841 13842 13843 13844 13845 13846 13847 13848 13849 13850 13851 13852 13853 13854 13855 13856 13857 13858 13859 13860 13861 13862 13863 13864 13865 13866 13867 13868 13869 13870 13871 13872 13873 13874 13875 13876 13877 13878 13879 13880 13881 13882 13883 13884 13885 13886 13887 13888 13889 13890 13891 13892 13893 13894 13895 13896 13897 13898 13899 13900 13901 13902 13903 13904 13905 13906 13907 13908 13909 13910 13911 13912 13913 13914 13915 13916 13917 13918 13919 13920 13921 13922 13923 13924 13925 13926 13927 13928 13929 13930 13931 13932 13933 13934 13935 13936 13937 13938 13939 13940 13941 13942 13943 13944 13945 13946 13947 13948 13949 13950 13951 13952 13953 13954 13955 13956 13957 13958 13959 13960 13961 13962 13963 13964 13965 13966 13967 13968 13969 13970 13971 13972 13973 13974 13975 13976 13977 13978 13979 13980 13981 13982 13983 13984 13985 13986 13987 13988 13989 13990 13991 13992 13993 13994 13995 13996 13997 13998 13999 14000 14001 14002 14003 14004 14005 14006 14007 14008 14009 14010 14011 14012 14013 14014 14015 14016 14017 14018 14019 14020 14021 14022 14023 14024 14025 14026 14027 14028 14029 14030 14031 14032 14033 14034 14035 14036 14037 14038 14039 14040 14041 14042 14043 14044 14045 14046 14047 14048 14049 14050 14051 14052 14053 14054 14055 14056 14057 14058 14059 14060 14061 14062 14063 14064 14065 14066 14067 14068 14069 14070 14071 14072 14073 14074 14075 14076 14077 14078 14079 14080 14081 14082 14083 14084 14085 14086 14087 14088 14089 14090 14091 14092 14093 14094 14095 14096 14097 14098 14099 14100 14101 14102 14103 14104 14105 14106 14107 14108 14109 14110 14111 14112 14113 14114 14115 14116 14117 14118 14119 14120 14121 14122 14123 14124 14125 14126 14127 14128 14129 14130 14131 14132 14133 14134 14135 14136 14137 14138 14139 14140 14141 14142 14143 14144 14145 14146 14147 14148 14149 14150 14151 14152 14153 14154 14155 14156 14157 14158 14159 14160 14161 14162 14163 14164 14165 14166 14167 14168 14169 14170 14171 14172 14173 14174 14175 14176 14177 14178 14179 14180 14181 14182 14183 14184 14185 14186 14187 14188 14189 14190 14191 14192 14193 14194 14195 14196 14197 14198 14199 14200 14201 14202 14203 14204 14205 14206 14207 14208 14209 14210 14211 14212 14213 14214 14215 14216 14217 14218 14219 14220 14221 14222 14223 14224 14225 14226 14227 14228 14229 14230 14231 14232 14233 14234 14235 14236 14237 14238 14239 14240 14241 14242 14243 14244 14245 14246 14247 14248 14249 14250 14251 14252 14253 14254 14255 14256 14257 14258 14259 14260 14261 14262 14263 14264 14265 14266 14267 14268 14269 14270 14271 14272 14273 14274 14275 14276 14277 14278 14279 14280 14281 14282 14283 14284 14285 14286 14287 14288 14289 14290 14291 14292 14293 14294 14295 14296 14297 14298 14299 14300 14301 14302 14303 14304 14305 14306 14307 14308 14309 14310 14311 14312 14313 14314 14315 14316 14317 14318 14319 14320 14321 14322 14323 14324 14325 14326 14327 14328 14329 14330 14331 14332 14333 14334 14335 14336 14337 14338 14339 14340 14341 14342 14343 14344 14345 14346 14347 14348 14349 14350 14351 14352 14353 14354 14355 14356 14357 14358 14359 14360 14361 14362 14363 14364 14365 14366 14367 14368 14369 14370 14371 14372 14373 14374 14375 14376 14377 14378 14379 14380 14381 14382 14383 14384 14385 14386 14387 14388 14389 14390 14391 14392 14393 14394 14395 14396 14397 14398 14399 14400 14401 14402 14403 14404 14405 14406 14407 14408 14409 14410 14411 14412 14413 14414 14415 14416 14417 14418 14419 14420 14421 14422 14423 14424 14425 14426 14427 14428 14429 14430 14431 14432 14433 14434 14435 14436 14437 14438 14439 14440 14441 14442 14443 14444 14445 14446 14447 14448 14449 14450 14451 14452 14453 14454 14455 14456 14457 14458 14459 14460 14461 14462 14463 14464 14465 14466 14467 14468 14469 14470 14471 14472 14473 14474 14475 14476 14477 14478 14479 14480 14481 14482 14483 14484 14485 14486 14487 14488 14489 14490 14491 14492 14493 14494 14495 14496 14497 14498 14499 14500 14501 14502 14503 14504 14505 14506 14507 14508 14509 14510 14511 14512 14513 14514 14515 14516 14517 14518 14519 14520 14521 14522 14523 14524 14525 14526 14527 14528 14529 14530 14531 14532 14533 14534 14535 14536 14537 14538 14539 14540 14541 14542 14543 14544 14545 14546 14547 14548 14549 14550 14551 14552 14553 14554 14555 14556 14557 14558 14559 14560 14561 14562 14563 14564 14565 14566 14567 14568 14569 14570 14571 14572 14573 14574 14575 14576 14577 14578 14579 14580 14581 14582 14583 14584 14585 14586 14587 14588 14589 14590 14591 14592 14593 14594 14595 14596 14597 14598 14599 14600 14601 14602 14603 14604 14605 14606 14607 14608 14609 14610 14611 14612 14613 14614 14615 14616 14617 14618 14619 14620 14621 14622 14623 14624 14625 14626 14627 14628 14629 14630 14631 14632 14633 14634 14635 14636 14637 14638 14639 14640 14641 14642 14643 14644 14645 14646 14647 14648 14649 14650 14651 14652 14653 14654 14655 14656 14657 14658 14659 14660 14661 14662 14663 14664 14665 14666 14667 14668 14669 14670 14671 14672 14673 14674 14675 14676 14677 14678 14679 14680 14681 14682 14683 14684 14685 14686 14687 14688 14689 14690 14691 14692 14693 14694 14695 14696 14697 14698 14699 14700 14701 14702 14703 14704 14705 14706 14707 14708 14709 14710 14711 14712 14713 14714 14715 14716 14717 14718 14719 14720 14721 14722 14723 14724 14725 14726 14727 14728 14729 14730 14731 14732 14733 14734 14735 14736 14737 14738 14739 14740 14741 14742 14743 14744 14745 14746 14747 14748 14749 14750 14751 14752 14753 14754 14755 14756 14757 14758 14759 14760 14761 14762 14763 14764 14765 14766 14767 14768 14769 14770 14771 14772 14773 14774 14775 14776 14777 14778 14779 14780 14781 14782 14783 14784 14785 14786 14787 14788 14789 14790 14791 14792 14793 14794 14795 14796 14797 14798 14799 14800 14801 14802 14803 14804 14805 14806 14807 14808 14809 14810 14811 14812 14813 14814 14815 14816 14817 14818 14819 14820 14821 14822 14823 14824 14825 14826 14827 14828 14829 14830 14831 14832 14833 14834 14835 14836 14837 14838 14839 14840 14841 14842 14843 14844 14845 14846 14847 14848 14849 14850 14851 14852 14853 14854 14855 14856 14857 14858 14859 14860 14861 14862 14863 14864 14865 14866 14867 14868 14869 14870 14871 14872 14873 14874 14875 14876 14877 14878 14879 14880 14881 14882 14883 14884 14885 14886 14887 14888 14889 14890 14891 14892 14893 14894 14895 14896 14897 14898 14899 14900 14901 14902 14903 14904 14905 14906 14907 14908 14909 14910 14911 14912 14913 14914 14915 14916 14917 14918 14919 14920 14921 14922 14923 14924 14925 14926 14927 14928 14929 14930 14931 14932 14933 14934 14935 14936 14937 14938 14939 14940 14941 14942 14943 14944 14945 14946 14947 14948 14949 14950 14951 14952 14953 14954 14955 14956 14957 14958 14959 14960 14961 14962 14963 14964 14965 14966 14967 14968 14969 14970 14971 14972 14973 14974 14975 14976 14977 14978 14979 14980 14981 14982 14983 14984 14985 14986 14987 14988 14989 14990 14991 14992 14993 14994 14995 14996 14997 14998 14999 15000 15001 15002 15003 15004 15005 15006 15007 15008 15009 15010 15011 15012 15013 15014 15015 15016 15017 15018 15019 15020 15021 15022 15023 15024 15025 15026 15027 15028 15029 15030 15031 15032 15033 15034 15035 15036 15037 15038 15039 15040 15041 15042 15043 15044 15045 15046 15047 15048 15049 15050 15051 15052 15053 15054 15055 15056 15057 15058 15059 15060 15061 15062 15063 15064 15065 15066 15067 15068 15069 15070 15071 15072 15073 15074 15075 15076 15077 15078 15079 15080 15081 15082 15083 15084 15085 15086 15087 15088 15089 15090 15091 15092 15093 15094 15095 15096 15097 15098 15099 15100 15101 15102 15103 15104 15105 15106 15107 15108 15109 15110 15111 15112 15113 15114 15115 15116 15117 15118 15119 15120 15121 15122 15123 15124 15125 15126 15127 15128 15129 15130 15131 15132 15133 15134 15135 15136 15137 15138 15139 15140 15141 15142 15143 15144 15145 15146 15147 15148 15149 15150 15151 15152 15153 15154 15155 15156 15157 15158 15159 15160 15161 15162 15163 15164 15165 15166 15167 15168 15169 15170 15171 15172 15173 15174 15175 15176 15177 15178 15179 15180 15181 15182 15183 15184 15185 15186 15187 15188 15189 15190 15191 15192 15193 15194 15195 15196 15197 15198 15199 15200 15201 15202 15203 15204 15205 15206 15207 15208 15209 15210 15211 15212 15213 15214 15215 15216 15217 15218 15219 15220 15221 15222 15223 15224 15225 15226 15227 15228 15229 15230 15231 15232 15233 15234 15235 15236 15237 15238 15239 15240 15241 15242 15243 15244 15245 15246 15247 15248 15249 15250 15251 15252 15253 15254 15255 15256 15257 15258 15259 15260 15261 15262 15263 15264 15265 15266 15267 15268 15269 15270 15271 15272 15273 15274 15275 15276 15277 15278 15279 15280 15281 15282 15283 15284 15285 15286 15287 15288 15289 15290 15291 15292 15293 15294 15295 15296 15297 15298 15299 15300 15301 15302 15303 15304 15305 15306 15307 15308 15309 15310 15311 15312 15313 15314 15315 15316 15317 15318 15319 15320 15321 15322 15323 15324 15325 15326 15327 15328 15329 15330 15331 15332 15333 15334 15335 15336 15337 15338 15339 15340 15341 15342 15343 15344 15345 15346 15347 15348 15349 15350 15351 15352 15353 15354 15355 15356 15357 15358 15359 15360 15361 15362 15363 15364 15365 15366 15367 15368 15369 15370 15371 15372 15373 15374 15375 15376 15377 15378 15379 15380 15381 15382 15383 15384 15385 15386 15387 15388 15389 15390 15391 15392 15393 15394 15395 15396 15397 15398 15399 15400 15401 15402 15403 15404 15405 15406 15407 15408 15409 15410 15411 15412 15413 15414 15415 15416 15417 15418 15419 15420 15421 15422 15423 15424 15425 15426 15427 15428 15429 15430 15431 15432 15433 15434 15435 15436 15437 15438 15439 15440 15441 15442 15443 15444 15445 15446 15447 15448 15449 15450 15451 15452 15453 15454 15455 15456 15457 15458 15459 15460 15461 15462 15463 15464 15465 15466 15467 15468 15469 15470 15471 15472 15473 15474 15475 15476 15477 15478 15479 15480 15481 15482 15483 15484 15485 15486 15487 15488 15489 15490 15491 15492 15493 15494 15495 15496 15497 15498 15499 15500 15501 15502 15503 15504 15505 15506 15507 15508 15509 15510 15511 15512 15513 15514 15515 15516 15517 15518 15519 15520 15521 15522 15523 15524 15525 15526 15527 15528 15529 15530 15531 15532 15533 15534 15535 15536 15537 15538 15539 15540 15541 15542 15543 15544 15545 15546 15547 15548 15549 15550 15551 15552 15553 15554 15555 15556 15557 15558 15559 15560 15561 15562 15563 15564 15565 15566 15567 15568 15569 15570 15571 15572 15573 15574 15575 15576 15577 15578 15579 15580 15581 15582 15583 15584 15585 15586 15587 15588 15589 15590 15591 15592 15593 15594 15595 15596 15597 15598 15599 15600 15601 15602 15603 15604 15605 15606 15607 15608 15609 15610 15611 15612 15613 15614 15615 15616 15617 15618 15619 15620 15621 15622 15623 15624 15625 15626 15627 15628 15629 15630 15631 15632 15633 15634 15635 15636 15637 15638 15639 15640 15641 15642 15643 15644 15645 15646 15647 15648 15649 15650 15651 15652 15653 15654 15655 15656 15657 15658 15659 15660 15661 15662 15663 15664 15665 15666 15667 15668 15669 15670 15671 15672 15673 15674 15675 15676 15677 15678 15679 15680 15681 15682 15683 15684 15685 15686 15687 15688 15689 15690 15691 15692 15693 15694 15695 15696 15697 15698 15699 15700 15701 15702 15703 15704 15705 15706 15707 15708 15709 15710 15711 15712 15713 15714 15715 15716 15717 15718 15719 15720 15721 15722 15723 15724 15725 15726 15727 15728 15729 15730 15731 15732 15733 15734 15735 15736 15737 15738 15739 15740 15741 15742 15743 15744 15745 15746 15747 15748 15749 15750 15751 15752 15753 15754 15755 15756 15757 15758 15759 15760 15761 15762 15763 15764 15765 15766 15767 15768 15769 15770 15771 15772 15773 15774 15775 15776 15777 15778 15779 15780 15781 15782 15783 15784 15785 15786 15787 15788 15789 15790 15791 15792 15793 15794 15795 15796 15797 15798 15799 15800 15801 15802 15803 15804 15805 15806 15807 15808 15809 15810 15811 15812 15813 15814 15815 15816 15817 15818 15819 15820 15821 15822 15823 15824 15825 15826 15827 15828 15829 15830 15831 15832 15833 15834 15835 15836 15837 15838 15839 15840 15841 15842 15843 15844 15845 15846 15847 15848 15849 15850 15851 15852 15853 15854 15855 15856 15857 15858 15859 15860 15861 15862 15863 15864 15865 15866 15867 15868 15869 15870 15871 15872 15873 15874 15875 15876 15877 15878 15879 15880 15881 15882 15883 15884 15885 15886 15887 15888 15889 15890 15891 15892 15893 15894 15895 15896 15897 15898 15899 15900 15901 15902 15903 15904 15905 15906 15907 15908 15909 15910 15911 15912 15913 15914 15915 15916 15917 15918 15919 15920 15921 15922 15923 15924 15925 15926 15927 15928 15929 15930 15931 15932 15933 15934 15935 15936 15937 15938 15939 15940 15941 15942 15943 15944 15945 15946 15947 15948 15949 15950 15951 15952 15953 15954 15955 15956 15957 15958 15959 15960 15961 15962 15963 15964 15965 15966 15967 15968 15969 15970 15971 15972 15973 15974 15975 15976 15977 15978 15979 15980 15981 15982 15983 15984 15985 15986 15987 15988 15989 15990 15991 15992 15993 15994 15995 15996 15997 15998 15999 16000 16001 16002 16003 16004 16005 16006 16007 16008 16009 16010 16011 16012 16013 16014 16015 16016 16017 16018 16019 16020 16021 16022 16023 16024 16025 16026 16027 16028 16029 16030 16031 16032 16033 16034 16035 16036 16037 16038 16039 16040 16041 16042 16043 16044 16045 16046 16047 16048 16049 16050 16051 16052 16053 16054 16055 16056 16057 16058 16059 16060 16061 16062 16063 16064 16065 16066 16067 16068 16069 16070 16071 16072 16073 16074 16075 16076 16077 16078 16079 16080 16081 16082 16083 16084 16085 16086 16087 16088 16089 16090 16091 16092 16093 16094 16095 16096 16097 16098 16099 16100 16101 16102 16103 16104 16105 16106 16107 16108 16109 16110 16111 16112 16113 16114 16115 16116 16117 16118 16119 16120 16121 16122 16123 16124 16125 16126 16127 16128 16129 16130 16131 16132 16133 16134 16135 16136 16137 16138 16139 16140 16141 16142 16143 16144 16145 16146 16147 16148 16149 16150 16151 16152 16153 16154 16155 16156 16157 16158 16159 16160 16161 16162 16163 16164 16165 16166 16167 16168 16169 16170 16171 16172 16173 16174 16175 16176 16177 16178 16179 16180 16181 16182 16183 16184 16185 16186 16187 16188 16189 16190 16191 16192 16193 16194 16195 16196 16197 16198 16199 16200 16201 16202 16203 16204 16205 16206 16207 16208 16209 16210 16211 16212 16213 16214 16215 16216 16217 16218 16219 16220 16221 16222 16223 16224 16225 16226 16227 16228 16229 16230 16231 16232 16233 16234 16235 16236 16237 16238 16239 16240 16241 16242 16243 16244 16245 16246 16247 16248 16249 16250 16251 16252 16253 16254 16255 16256 16257 16258 16259 16260 16261 16262 16263 16264 16265 16266 16267 16268 16269 16270 16271 16272 16273 16274 16275 16276 16277 16278 16279 16280 16281 16282 16283 16284 16285 16286 16287 16288 16289 16290 16291 16292 16293 16294 16295 16296 16297 16298 16299 16300 16301 16302 16303 16304 16305 16306 16307 16308 16309 16310 16311 16312 16313 16314 16315 16316 16317 16318 16319 16320 16321 16322 16323 16324 16325 16326 16327 16328 16329 16330 16331 16332 16333 16334 16335 16336 16337 16338 16339 16340 16341 16342 16343 16344 16345 16346 16347 16348 16349 16350 16351 16352 16353 16354 16355 16356 16357 16358 16359 16360 16361 16362 16363 16364 16365 16366 16367 16368 16369 16370 16371 16372 16373 16374 16375 16376 16377 16378 16379 16380 16381 16382 16383 16384 16385 16386 16387 16388 16389 16390 16391 16392 16393 16394 16395 16396 16397 16398 16399 16400 16401 16402 16403 16404 16405 16406 16407 16408 16409 16410 16411 16412 16413 16414 16415 16416 16417 16418 16419 16420 16421 16422 16423 16424 16425 16426 16427 16428 16429 16430 16431 16432 16433 16434 16435 16436 16437 16438 16439 16440 16441 16442 16443 16444 16445 16446 16447 16448 16449 16450 16451 16452 16453 16454 16455 16456 16457 16458 16459 16460 16461 16462 16463 16464 16465 16466 16467 16468 16469 16470 16471 16472 16473 16474 16475 16476 16477 16478 16479 16480 16481 16482 16483 16484 16485 16486 16487 16488 16489 16490 16491 16492 16493 16494 16495 16496 16497 16498 16499 16500 16501 16502 16503 16504 16505 16506 16507 16508 16509 16510 16511 16512 16513 16514 16515 16516 16517 16518 16519 16520 16521 16522 16523 16524 16525 16526 16527 16528 16529 16530 16531 16532 16533 16534 16535 16536 16537 16538 16539 16540 16541 16542 16543 16544 16545 16546 16547 16548 16549 16550 16551 16552 16553 16554 16555 16556 16557 16558 16559 16560 16561 16562 16563 16564 16565 16566 16567 16568 16569 16570 16571 16572 16573 16574 16575 16576 16577 16578 16579 16580 16581 16582 16583 16584 16585 16586 16587 16588 16589 16590 16591 16592 16593 16594 16595 16596 16597 16598 16599 16600 16601 16602 16603 16604 16605 16606 16607 16608 16609 16610 16611 16612 16613 16614 16615 16616 16617 16618 16619 16620 16621 16622 16623 16624 16625 16626 16627 16628 16629 16630 16631 16632 16633 16634 16635 16636 16637 16638 16639 16640 16641 16642 16643 16644 16645 16646 16647 16648 16649 16650 16651 16652 16653 16654 16655 16656 16657 16658 16659 16660 16661 16662 16663 16664 16665 16666 16667 16668 16669 16670 16671 16672 16673 16674 16675 16676 16677 16678 16679 16680 16681 16682 16683 16684 16685 16686 16687 16688 16689 16690 16691 16692 16693 16694 16695 16696 16697 16698 16699 16700 16701 16702 16703 16704 16705 16706 16707 16708 16709 16710 16711 16712 16713 16714 16715 16716 16717 16718 16719 16720 16721 16722 16723 16724 16725 16726 16727 16728 16729 16730 16731 16732 16733 16734 16735 16736 16737 16738 16739 16740 16741 16742 16743 16744 16745 16746 16747 16748 16749 16750 16751 16752 16753 16754 16755 16756 16757 16758 16759 16760 16761 16762 16763 16764 16765 16766 16767 16768 16769 16770 16771 16772 16773 16774 16775 16776 16777 16778 16779 16780 16781 16782 16783 16784 16785 16786 16787 16788 16789 16790 16791 16792 16793 16794 16795 16796 16797 16798 16799 16800 16801 16802 16803 16804 16805 16806 16807 16808 16809 16810 16811 16812 16813 16814 16815 16816 16817 16818 16819 16820 16821 16822 16823 16824 16825 16826 16827 16828 16829 16830 16831 16832 16833 16834 16835 16836 16837 16838 16839 16840 16841 16842 16843 16844 16845 16846 16847 16848 16849 16850 16851 16852 16853 16854 16855 16856 16857 16858 16859 16860 16861 16862 16863 16864 16865 16866 16867 16868 16869 16870 16871 16872 16873 16874 16875 16876 16877 16878 16879 16880 16881 16882 16883 16884 16885 16886 16887 16888 16889 16890 16891 16892 16893 16894 16895 16896 16897 16898 16899 16900 16901 16902 16903 16904 16905 16906 16907 16908 16909 16910 16911 16912 16913 16914 16915 16916 16917 16918 16919 16920 16921 16922 16923 16924 16925 16926 16927 16928 16929 16930 16931 16932 16933 16934 16935 16936 16937 16938 16939 16940 16941 16942 16943 16944 16945 16946 16947 16948 16949 16950 16951 16952 16953 16954 16955 16956 16957 16958 16959 16960 16961 16962 16963 16964 16965 16966 16967 16968 16969 16970 16971 16972 16973 16974 16975 16976 16977 16978 16979 16980 16981 16982 16983 16984 16985 16986 16987 16988 16989 16990 16991 16992 16993 16994 16995 16996 16997 16998 16999 17000 17001 17002 17003 17004 17005 17006 17007 17008 17009 17010 17011 17012 17013 17014 17015 17016 17017 17018 17019 17020 17021 17022 17023 17024 17025 17026 17027 17028 17029 17030 17031 17032 17033 17034 17035 17036 17037 17038 17039 17040 17041 17042 17043 17044 17045 17046 17047 17048 17049 17050 17051 17052 17053 17054 17055 17056 17057 17058 17059 17060 17061 17062 17063 17064 17065 17066 17067 17068 17069 17070 17071 17072 17073 17074 17075 17076 17077 17078 17079 17080 17081 17082 17083 17084 17085 17086 17087 17088 17089 17090 17091 17092 17093 17094 17095 17096 17097 17098 17099 17100 17101 17102 17103 17104 17105 17106 17107 17108 17109 17110 17111 17112 17113 17114 17115 17116 17117 17118 17119 17120 17121 17122 17123 17124 17125 17126 17127 17128 17129 17130 17131 17132 17133 17134 17135 17136 17137 17138 17139 17140 17141 17142 17143 17144 17145 17146 17147 17148 17149 17150 17151 17152 17153 17154 17155 17156 17157 17158 17159 17160 17161 17162 17163 17164 17165 17166 17167 17168 17169 17170 17171 17172 17173 17174 17175 17176 17177 17178 17179 17180 17181 17182 17183 17184 17185 17186 17187 17188 17189 17190 17191 17192 17193 17194 17195 17196 17197 17198 17199 17200 17201 17202 17203 17204 17205 17206 17207 17208 17209 17210 17211 17212 17213 17214 17215 17216 17217 17218 17219 17220 17221 17222 17223 17224 17225 17226 17227 17228 17229 17230 17231 17232 17233 17234 17235 17236 17237 17238 17239 17240 17241 17242 17243 17244 17245 17246 17247 17248 17249 17250 17251 17252 17253 17254 17255 17256 17257 17258 17259 17260 17261 17262 17263 17264 17265 17266 17267 17268 17269 17270 17271 17272 17273 17274 17275 17276 17277 17278 17279 17280 17281 17282 17283 17284 17285 17286 17287 17288 17289 17290 17291 17292 17293 17294 17295 17296 17297 17298 17299 17300 17301 17302 17303 17304 17305 17306 17307 17308 17309 17310 17311 17312 17313 17314 17315 17316 17317 17318 17319 17320 17321 17322 17323 17324 17325 17326 17327 17328 17329 17330 17331 17332 17333 17334 17335 17336 17337 17338 17339 17340 17341 17342 17343 17344 17345 17346 17347 17348 17349 17350 17351 17352 17353 17354 17355 17356 17357 17358 17359 17360 17361 17362 17363 17364 17365 17366 17367 17368 17369 17370 17371 17372 17373 17374 17375 17376 17377 17378 17379 17380 17381 17382 17383 17384 17385 17386 17387 17388 17389 17390 17391 17392 17393 17394 17395 17396 17397 17398 17399 17400 17401 17402 17403 17404 17405 17406 17407 17408 17409 17410 17411 17412 17413 17414 17415 17416 17417 17418 17419 17420 17421 17422 17423 17424 17425 17426 17427 17428 17429 17430 17431 17432 17433 17434 17435 17436 17437 17438 17439 17440 17441 17442 17443 17444 17445 17446 17447 17448 17449 17450 17451 17452 17453 17454 17455 17456 17457 17458 17459 17460 17461 17462 17463 17464 17465 17466 17467 17468 17469 17470 17471 17472 17473 17474 17475 17476 17477 17478 17479 17480 17481 17482 17483 17484 17485 17486 17487 17488 17489 17490 17491 17492 17493 17494 17495 17496 17497 17498 17499 17500 17501 17502 17503 17504 17505 17506 17507 17508 17509 17510 17511 17512 17513 17514 17515 17516 17517 17518 17519 17520 17521 17522 17523 17524 17525 17526 17527 17528 17529 17530 17531 17532 17533 17534 17535 17536 17537 17538 17539 17540 17541 17542 17543 17544 17545 17546 17547 17548 17549 17550 17551 17552 17553 17554 17555 17556 17557 17558 17559 17560 17561 17562 17563 17564 17565 17566 17567 17568 17569 17570 17571 17572 17573 17574 17575 17576 17577 17578 17579 17580 17581 17582 17583 17584 17585 17586 17587 17588 17589 17590 17591 17592 17593 17594 17595 17596 17597 17598 17599 17600 17601 17602 17603 17604 17605 17606 17607 17608 17609 17610 17611 17612 17613 17614 17615 17616 17617 17618 17619 17620 17621 17622 17623 17624 17625 17626 17627 17628 17629 17630 17631 17632 17633 17634 17635 17636 17637 17638 17639 17640 17641 17642 17643 17644 17645 17646 17647 17648 17649 17650 17651 17652 17653 17654 17655 17656 17657 17658 17659 17660 17661 17662 17663 17664 17665 17666 17667 17668 17669 17670 17671 17672 17673 17674 17675 17676 17677 17678 17679 17680 17681 17682 17683 17684 17685 17686 17687 17688 17689 17690 17691 17692 17693 17694 17695 17696 17697 17698 17699 17700 17701 17702 17703 17704 17705 17706 17707 17708 17709 17710 17711 17712 17713 17714 17715 17716 17717 17718 17719 17720 17721 17722 17723 17724 17725 17726 17727 17728 17729 17730 17731 17732 17733 17734 17735 17736 17737 17738 17739 17740 17741 17742 17743 17744 17745 17746 17747 17748 17749 17750 17751 17752 17753 17754 17755 17756 17757 17758 17759 17760 17761 17762 17763 17764 17765 17766 17767 17768 17769 17770 17771 17772 17773 17774 17775 17776 17777 17778 17779 17780 17781 17782 17783 17784 17785 17786 17787 17788 17789 17790 17791 17792 17793 17794 17795 17796 17797 17798 17799 17800 17801 17802 17803 17804 17805 17806 17807 17808 17809 17810 17811 17812 17813 17814 17815 17816 17817 17818 17819 17820 17821 17822 17823 17824 17825 17826 17827 17828 17829 17830 17831 17832 17833 17834 17835 17836 17837 17838 17839 17840 17841 17842 17843 17844 17845 17846 17847 17848 17849 17850 17851 17852 17853 17854 17855 17856 17857 17858 17859 17860 17861 17862 17863 17864 17865 17866 17867 17868 17869 17870 17871 17872 17873 17874 17875 17876 17877 17878 17879 17880 17881 17882 17883 17884 17885 17886 17887 17888 17889 17890 17891 17892 17893 17894 17895 17896 17897 17898 17899 17900 17901 17902 17903 17904 17905 17906 17907 17908 17909 17910 17911 17912 17913 17914 17915 17916 17917 17918 17919 17920 17921 17922 17923 17924 17925 17926 17927 17928 17929 17930 17931 17932 17933 17934 17935 17936 17937 17938 17939 17940 17941 17942 17943 17944 17945 17946 17947 17948 17949 17950 17951 17952 17953 17954 17955 17956 17957 17958 17959 17960 17961 17962 17963 17964 17965 17966 17967 17968 17969 17970 17971 17972 17973 17974 17975 17976 17977 17978 17979 17980 17981 17982 17983 17984 17985 17986 17987 17988 17989 17990 17991 17992 17993 17994 17995 17996 17997 17998 17999 18000 18001 18002 18003 18004 18005 18006 18007 18008 18009 18010 18011 18012 18013 18014 18015 18016 18017 18018 18019 18020 18021 18022 18023 18024 18025 18026 18027 18028 18029 18030 18031 18032 18033 18034 18035 18036 18037 18038 18039 18040 18041 18042 18043 18044 18045 18046 18047 18048 18049 18050 18051 18052 18053 18054 18055 18056 18057 18058 18059 18060 18061 18062 18063 18064 18065 18066 18067 18068 18069 18070 18071 18072 18073 18074 18075 18076 18077 18078 18079 18080 18081 18082 18083 18084 18085 18086 18087 18088 18089 18090 18091 18092 18093 18094 18095 18096 18097 18098 18099 18100 18101 18102 18103 18104 18105 18106 18107 18108 18109 18110 18111 18112 18113 18114 18115 18116 18117 18118 18119 18120 18121 18122 18123 18124 18125 18126 18127 18128 18129 18130 18131 18132 18133 18134 18135 18136 18137 18138 18139 18140 18141 18142 18143 18144 18145 18146 18147 18148 18149 18150 18151 18152 18153 18154 18155 18156 18157 18158 18159 18160 18161 18162 18163 18164 18165 18166 18167 18168 18169 18170 18171 18172 18173 18174 18175 18176 18177 18178 18179 18180 18181 18182 18183 18184 18185 18186 18187 18188 18189 18190 18191 18192 18193 18194 18195 18196 18197 18198 18199 18200 18201 18202 18203 18204 18205 18206 18207 18208 18209 18210 18211 18212 18213 18214 18215 18216 18217 18218 18219 18220 18221 18222 18223 18224 18225 18226 18227 18228 18229 18230 18231 18232 18233 18234 18235 18236 18237 18238 18239 18240 18241 18242 18243 18244 18245 18246 18247 18248 18249 18250 18251 18252 18253 18254 18255 18256 18257 18258 18259 18260 18261 18262 18263 18264 18265 18266 18267 18268 18269 18270 18271 18272 18273 18274 18275 18276 18277 18278 18279 18280 18281 18282 18283 18284 18285 18286 18287 18288 18289 18290 18291 18292 18293 18294 18295 18296 18297 18298 18299 18300 18301 18302 18303 18304 18305 18306 18307 18308 18309 18310 18311 18312 18313 18314 18315 18316 18317 18318 18319 18320 18321 18322 18323 18324 18325 18326 18327 18328 18329 18330 18331 18332 18333 18334 18335 18336 18337 18338 18339 18340 18341 18342 18343 18344 18345 18346 18347 18348 18349 18350 18351 18352 18353 18354 18355 18356 18357 18358 18359 18360 18361 18362 18363 18364 18365 18366 18367 18368 18369 18370 18371 18372 18373 18374 18375 18376 18377 18378 18379 18380 18381 18382 18383 18384 18385 18386 18387 18388 18389 18390 18391 18392 18393 18394 18395 18396 18397 18398 18399 18400 18401 18402 18403 18404 18405 18406 18407 18408 18409 18410 18411 18412 18413 18414 18415 18416 18417 18418 18419 18420 18421 18422 18423 18424 18425 18426 18427 18428 18429 18430 18431 18432 18433 18434 18435 18436 18437 18438 18439 18440 18441 18442 18443 18444 18445 18446 18447 18448 18449 18450 18451 18452 18453 18454 18455 18456 18457 18458 18459 18460 18461 18462 18463 18464 18465 18466 18467 18468 18469 18470 18471 18472 18473 18474 18475 18476 18477 18478 18479 18480 18481 18482 18483 18484 18485 18486 18487 18488 18489 18490 18491 18492 18493 18494 18495 18496 18497 18498 18499 18500 18501 18502 18503 18504 18505 18506 18507 18508 18509 18510 18511 18512 18513 18514 18515 18516 18517 18518 18519 18520 18521 18522 18523 18524 18525 18526 18527 18528 18529 18530 18531 18532 18533 18534 18535 18536 18537 18538 18539 18540 18541 18542 18543 18544 18545 18546 18547 18548 18549 18550 18551 18552 18553 18554 18555 18556 18557 18558 18559 18560 18561 18562 18563 18564 18565 18566 18567 18568 18569 18570 18571 18572 18573 18574 18575 18576 18577 18578 18579 18580 18581 18582 18583 18584 18585 18586 18587 18588 18589 18590 18591 18592 18593 18594 18595 18596 18597 18598 18599 18600 18601 18602 18603 18604 18605 18606 18607 18608 18609 18610 18611 18612 18613 18614 18615 18616 18617 18618 18619 18620 18621 18622 18623 18624 18625 18626 18627 18628 18629 18630 18631 18632 18633 18634 18635 18636 18637 18638 18639 18640 18641 18642 18643 18644 18645 18646 18647 18648 18649 18650 18651 18652 18653 18654 18655 18656 18657 18658 18659 18660 18661 18662 18663 18664 18665 18666 18667 18668 18669 18670 18671 18672 18673 18674 18675 18676 18677 18678 18679 18680 18681 18682 18683 18684 18685 18686 18687 18688 18689 18690 18691 18692 18693 18694 18695 18696 18697 18698 18699 18700 18701 18702 18703 18704 18705 18706 18707 18708 18709 18710 18711 18712 18713 18714 18715 18716 18717 18718 18719 18720 18721 18722 18723 18724 18725 18726 18727 18728 18729 18730 18731 18732 18733 18734 18735 18736 18737 18738 18739 18740 18741 18742 18743 18744 18745 18746 18747 18748 18749 18750 18751 18752 18753 18754 18755 18756 18757 18758 18759 18760 18761 18762 18763 18764 18765 18766 18767 18768 18769 18770 18771 18772 18773 18774 18775 18776 18777 18778 18779 18780 18781 18782 18783 18784 18785 18786 18787 18788 18789 18790 18791 18792 18793 18794 18795 18796 18797 18798 18799 18800 18801 18802 18803 18804 18805 18806 18807 18808 18809 18810 18811 18812 18813 18814 18815 18816 18817 18818 18819 18820 18821 18822 18823 18824 18825 18826 18827 18828 18829 18830 18831 18832 18833 18834 18835 18836 18837 18838 18839 18840 18841 18842 18843 18844 18845 18846 18847 18848 18849 18850 18851 18852 18853 18854 18855 18856 18857 18858 18859 18860 18861 18862 18863 18864 18865 18866 18867 18868 18869 18870 18871 18872 18873 18874 18875 18876 18877 18878 18879 18880 18881 18882 18883 18884 18885 18886 18887 18888 18889 18890 18891 18892 18893 18894 18895 18896 18897 18898 18899 18900 18901 18902 18903 18904 18905 18906 18907 18908 18909 18910 18911 18912 18913 18914 18915 18916 18917 18918 18919 18920 18921 18922 18923 18924 18925 18926 18927 18928 18929 18930 18931 18932 18933 18934 18935 18936 18937 18938 18939 18940 18941 18942 18943 18944 18945 18946 18947 18948 18949 18950 18951 18952 18953 18954 18955 18956 18957 18958 18959 18960 18961 18962 18963 18964 18965 18966 18967 18968 18969 18970 18971 18972 18973 18974 18975 18976 18977 18978 18979 18980 18981 18982 18983 18984 18985 18986 18987 18988 18989 18990 18991 18992 18993 18994 18995 18996 18997 18998 18999 19000 19001 19002 19003 19004 19005 19006 19007 19008 19009 19010 19011 19012 19013 19014 19015 19016 19017 19018 19019 19020 19021 19022 19023 19024 19025 19026 19027 19028 19029 19030 19031 19032 19033 19034 19035 19036 19037 19038 19039 19040 19041 19042 19043 19044 19045 19046 19047 19048 19049 19050 19051 19052 19053 19054 19055 19056 19057 19058 19059 19060 19061 19062 19063 19064 19065 19066 19067 19068 19069 19070 19071 19072 19073 19074 19075 19076 19077 19078 19079 19080 19081 19082 19083 19084 19085 19086 19087 19088 19089 19090 19091 19092 19093 19094 19095 19096 19097 19098 19099 19100 19101 19102 19103 19104 19105 19106 19107 19108 19109 19110 19111 19112 19113 19114 19115 19116 19117 19118 19119 19120 19121 19122 19123 19124 19125 19126 19127 19128 19129 19130 19131 19132 19133 19134 19135 19136 19137 19138 19139 19140 19141 19142 19143 19144 19145 19146 19147 19148 19149 19150 19151 19152 19153 19154 19155 19156 19157 19158 19159 19160 19161 19162 19163 19164 19165 19166 19167 19168 19169 19170 19171 19172 19173 19174 19175 19176 19177 19178 19179 19180 19181 19182 19183 19184 19185 19186 19187 19188 19189 19190 19191 19192 19193 19194 19195 19196 19197 19198 19199 19200 19201 19202 19203 19204 19205 19206 19207 19208 19209 19210 19211 19212 19213 19214 19215 19216 19217 19218 19219 19220 19221 19222 19223 19224 19225 19226 19227 19228 19229 19230 19231 19232 19233 19234 19235 19236 19237 19238 19239 19240 19241 19242 19243 19244 19245 19246 19247 19248 19249 19250 19251 19252 19253 19254 19255 19256 19257 19258 19259 19260 19261 19262 19263 19264 19265 19266 19267 19268 19269 19270 19271 19272 19273 19274 19275 19276 19277 19278 19279 19280 19281 19282 19283 19284 19285 19286 19287 19288 19289 19290 19291 19292 19293 19294 19295 19296 19297 19298 19299 19300 19301 19302 19303 19304 19305 19306 19307 19308 19309 19310 19311 19312 19313 19314 19315 19316 19317 19318 19319 19320 19321 19322 19323 19324 19325 19326 19327 19328 19329 19330 19331 19332 19333 19334 19335 19336 19337 19338 19339 19340 19341 19342 19343 19344 19345 19346 19347 19348 19349 19350 19351 19352 19353 19354 19355 19356 19357 19358 19359 19360 19361 19362 19363 19364 19365 19366 19367 19368 19369 19370 19371 19372 19373 19374 19375 19376 19377 19378 19379 19380 19381 19382 19383 19384 19385 19386 19387 19388 19389 19390 19391 19392 19393 19394 19395 19396 19397 19398 19399 19400 19401 19402 19403 19404 19405 19406 19407 19408 19409 19410 19411 19412 19413 19414 19415 19416 19417 19418 19419 19420 19421 19422 19423 19424 19425 19426 19427 19428 19429 19430 19431 19432 19433 19434 19435 19436 19437 19438 19439 19440 19441 19442 19443 19444 19445 19446 19447 19448 19449 19450 19451 19452 19453 19454 19455 19456 19457 19458 19459 19460 19461 19462 19463 19464 19465 19466 19467 19468 19469 19470 19471 19472 19473 19474 19475 19476 19477 19478 19479 19480 19481 19482 19483 19484 19485 19486 19487 19488 19489 19490 19491 19492 19493 19494 19495 19496 19497 19498 19499 19500 19501 19502 19503 19504 19505 19506 19507 19508 19509 19510 19511 19512 19513 19514 19515 19516 19517 19518 19519 19520 19521 19522 19523 19524 19525 19526 19527 19528 19529 19530 19531 19532 19533 19534 19535 19536 19537 19538 19539 19540 19541 19542 19543 19544 19545 19546 19547 19548 19549 19550 19551 19552 19553 19554 19555 19556 19557 19558 19559 19560 19561 19562 19563 19564 19565 19566 19567 19568 19569 19570 19571 19572 19573 19574 19575 19576 19577 19578 19579 19580 19581 19582 19583 19584 19585 19586 19587 19588 19589 19590 19591 19592 19593 19594 19595 19596 19597 19598 19599 19600 19601 19602 19603 19604 19605 19606 19607 19608 19609 19610 19611 19612 19613 19614 19615 19616 19617 19618 19619 19620 19621 19622 19623 19624 19625 19626 19627 19628 19629 19630 19631 19632 19633 19634 19635 19636 19637 19638 19639 19640 19641 19642 19643 19644 19645 19646 19647 19648 19649 19650 19651 19652 19653 19654 19655 19656 19657 19658 19659 19660 19661 19662 19663 19664 19665 19666 19667 19668 19669 19670 19671 19672 19673 19674 19675 19676 19677 19678 19679 19680 19681 19682 19683 19684 19685 19686 19687 19688 19689 19690 19691 19692 19693 19694 19695 19696 19697 19698 19699 19700 19701 19702 19703 19704 19705 19706 19707 19708 19709 19710 19711 19712 19713 19714 19715 19716 19717 19718 19719 19720 19721 19722 19723 19724 19725 19726 19727 19728 19729 19730 19731 19732 19733 19734 19735 19736 19737 19738 19739 19740 19741 19742 19743 19744 19745 19746 19747 19748 19749 19750 19751 19752 19753 19754 19755 19756 19757 19758 19759 19760 19761 19762 19763 19764 19765 19766 19767 19768 19769 19770 19771 19772 19773 19774 19775 19776 19777 19778 19779 19780 19781 19782 19783 19784 19785 19786 19787 19788 19789 19790 19791 19792 19793 19794 19795 19796 19797 19798 19799 19800 19801 19802 19803 19804 19805 19806 19807 19808 19809 19810 19811 19812 19813 19814 19815 19816 19817 19818 19819 19820 19821 19822 19823 19824 19825 19826 19827 19828 19829 19830 19831 19832 19833 19834 19835 19836 19837 19838 19839 19840 19841 19842 19843 19844 19845 19846 19847 19848 19849 19850 19851 19852 19853 19854 19855 19856 19857 19858 19859 19860 19861 19862 19863 19864 19865 19866 19867 19868 19869 19870 19871 19872 19873 19874 19875 19876 19877 19878 19879 19880 19881 19882 19883 19884 19885 19886 19887 19888 19889 19890 19891 19892 19893 19894 19895 19896 19897 19898 19899 19900 19901 19902 19903 19904 19905 19906 19907 19908 19909 19910 19911 19912 19913 19914 19915 19916 19917 19918 19919 19920 19921 19922 19923 19924 19925 19926 19927 19928 19929 19930 19931 19932 19933 19934 19935 19936 19937 19938 19939 19940 19941 19942 19943 19944 19945 19946 19947 19948 19949 19950 19951 19952 19953 19954 19955 19956 19957 19958 19959 19960 19961 19962 19963 19964 19965 19966 19967 19968 19969 19970 19971 19972 19973 19974 19975 19976 19977 19978 19979 19980 19981 19982 19983 19984 19985 19986 19987 19988 19989 19990 19991 19992 19993 19994 19995 19996 19997 19998 19999 20000 20001 20002 20003 20004 20005 20006 20007 20008 20009 20010 20011 20012 20013 20014 20015 20016 20017 20018 20019 20020 20021 20022 20023 20024 20025 20026 20027 20028 20029 20030 20031 20032 20033 20034 20035 20036 20037 20038 20039 20040 20041 20042 20043 20044 20045 20046 20047 20048 20049 20050 20051 20052 20053 20054 20055 20056 20057 20058 20059 20060 20061 20062 20063 20064 20065 20066 20067 20068 20069 20070 20071 20072 20073 20074 20075 20076 20077 20078 20079 20080 20081 20082 20083 20084 20085 20086 20087 20088 20089 20090 20091 20092 20093 20094 20095 20096 20097 20098 20099 20100 20101 20102 20103 20104 20105 20106 20107 20108 20109 20110 20111 20112 20113 20114 20115 20116 20117 20118 20119 20120 20121 20122 20123 20124 20125 20126 20127 20128 20129 20130 20131 20132 20133 20134 20135 20136 20137 20138 20139 20140 20141 20142 20143 20144 20145 20146 20147 20148 20149 20150 20151 20152 20153 20154 20155 20156 20157 20158 20159 20160 20161 20162 20163 20164 20165 20166 20167 20168 20169 20170 20171 20172 20173 20174 20175 20176 20177 20178 20179 20180 20181 20182 20183 20184 20185 20186 20187 20188 20189 20190 20191 20192 20193 20194 20195 20196 20197 20198 20199 20200 20201 20202 20203 20204 20205 20206 20207 20208 20209 20210 20211 20212 20213 20214 20215 20216 20217 20218 20219 20220 20221 20222 20223 20224 20225 20226 20227 20228 20229 20230 20231 20232 20233 20234 20235 20236 20237 20238 20239 20240 20241 20242 20243 20244 20245 20246 20247 20248 20249 20250 20251 20252 20253 20254 20255 20256 20257 20258 20259 20260 20261 20262 20263 20264 20265 20266 20267 20268 20269 20270 20271 20272 20273 20274 20275 20276 20277 20278 20279 20280 20281 20282 20283 20284 20285 20286 20287 20288 20289 20290 20291 20292 20293 20294 20295 20296 20297 20298 20299 20300 20301 20302 20303 20304 20305 20306 20307 20308 20309 20310 20311 20312 20313 20314 20315 20316 20317 20318 20319 20320 20321 20322 20323 20324 20325 20326 20327 20328 20329 20330 20331 20332 20333 20334 20335 20336 20337 20338 20339 20340 20341 20342 20343 20344 20345 20346 20347 20348 20349 20350 20351 20352 20353 20354 20355 20356 20357 20358 20359 20360 20361 20362 20363 20364 20365 20366 20367 20368 20369 20370 20371 20372 20373 20374 20375 20376 20377 20378 20379 20380 20381 20382 20383 20384 20385 20386 20387 20388 20389 20390 20391 20392 20393 20394 20395 20396 20397 20398 20399 20400 20401 20402 20403 20404 20405 20406 20407 20408 20409 20410 20411 20412 20413 20414 20415 20416 20417 20418 20419 20420 20421 20422 20423 20424 20425 20426 20427 20428 20429 20430 20431 20432 20433 20434 20435 20436 20437 20438 20439 20440 20441 20442 20443 20444 20445 20446 20447 20448 20449 20450 20451 20452 20453 20454 20455 20456 20457 20458 20459 20460 20461 20462 20463 20464 20465 20466 20467 20468 20469 20470 20471 20472 20473 20474 20475 20476 20477 20478 20479 20480 20481 20482 20483 20484 20485 20486 20487 20488 20489 20490 20491 20492 20493 20494 20495 20496 20497 20498 20499 20500 20501 20502 20503 20504 20505 20506 20507 20508 20509 20510 20511 20512 20513 20514 20515 20516 20517 20518 20519 20520 20521 20522 20523 20524 20525 20526 20527 20528 20529 20530 20531 20532 20533 20534 20535 20536 20537 20538 20539 20540 20541 20542 20543 20544 20545 20546 20547 20548 20549 20550 20551 20552 20553 20554 20555 20556 20557 20558 20559 20560 20561 20562 20563 20564 20565 20566 20567 20568 20569 20570 20571 20572 20573 20574 20575 20576 20577 20578 20579 20580 20581 20582 20583 20584 20585 20586 20587 20588 20589 20590 20591 20592 20593 20594 20595 20596 20597 20598 20599 20600 20601 20602 20603 20604 20605 20606 20607 20608 20609 20610 20611 20612 20613 20614 20615 20616 20617 20618 20619 20620 20621 20622 20623 20624 20625 20626 20627 20628 20629 20630 20631 20632 20633 20634 20635 20636 20637 20638 20639 20640 20641 20642 20643 20644 20645 20646 20647 20648 20649 20650 20651 20652 20653 20654 20655 20656 20657 20658 20659 20660 20661 20662 20663 20664 20665 20666 20667 20668 20669 20670 20671 20672 20673 20674 20675 20676 20677 20678 20679 20680 20681 20682 20683 20684 20685 20686 20687 20688 20689 20690 20691 20692 20693 20694 20695 20696 20697 20698 20699 20700 20701 20702 20703 20704 20705 20706 20707 20708 20709 20710 20711 20712 20713 20714 20715 20716 20717 20718 20719 20720 20721 20722 20723 20724 20725 20726 20727 20728 20729 20730 20731 20732 20733 20734 20735 20736 20737 20738 20739 20740 20741 20742 20743 20744 20745 20746 20747 20748 20749 20750 20751 20752 20753 20754 20755 20756 20757 20758 20759 20760 20761 20762 20763 20764 20765 20766 20767 20768 20769 20770 20771 20772 20773 20774 20775 20776 20777 20778 20779 20780 20781 20782 20783 20784 20785 20786 20787 20788 20789 20790 20791 20792 20793 20794 20795 20796 20797 20798 20799 20800 20801 20802 20803 20804 20805 20806 20807 20808 20809 20810 20811 20812 20813 20814 20815 20816 20817 20818 20819 20820 20821 20822 20823 20824 20825 20826 20827 20828 20829 20830 20831 20832 20833 20834 20835 20836 20837 20838 20839 20840 20841 20842 20843 20844 20845 20846 20847 20848 20849 20850 20851 20852 20853 20854 20855 20856 20857 20858 20859 20860 20861 20862 20863 20864 20865 20866 20867 20868 20869 20870 20871 20872 20873 20874 20875 20876 20877 20878 20879 20880 20881 20882 20883 20884 20885 20886 20887 20888 20889 20890 20891 20892 20893 20894 20895 20896 20897 20898 20899 20900 20901 20902 20903 20904 20905 20906 20907 20908 20909 20910 20911 20912 20913 20914 20915 20916 20917 20918 20919 20920 20921 20922 20923 20924 20925 20926 20927 20928 20929 20930 20931 20932 20933 20934 20935 20936 20937 20938 20939 20940 20941 20942 20943 20944 20945 20946 20947 20948 20949 20950 20951 20952 20953 20954 20955 20956 20957 20958 20959 20960 20961 20962 20963 20964 20965 20966 20967 20968 20969 20970 20971 20972 20973 20974 20975 20976 20977 20978 20979 20980 20981 20982 20983 20984 20985 20986 20987 20988 20989 20990 20991 20992 20993 20994 20995 20996 20997 20998 20999 21000 21001 21002 21003 21004 21005 21006 21007 21008 21009 21010 21011 21012 21013 21014 21015 21016 21017 21018 21019 21020 21021 21022 21023 21024 21025 21026 21027 21028 21029 21030 21031 21032 21033 21034 21035 21036 21037 21038 21039 21040 21041 21042 21043 21044 21045 21046 21047 21048 21049 21050 21051 21052 21053 21054 21055 21056 21057 21058 21059 21060 21061 21062 21063 21064 21065 21066 21067 21068 21069 21070 21071 21072 21073 21074 21075 21076 21077 21078 21079 21080 21081 21082 21083 21084 21085 21086 21087 21088 21089 21090 21091 21092 21093 21094 21095 21096 21097 21098 21099 21100 21101 21102 21103 21104 21105 21106 21107 21108 21109 21110 21111 21112 21113 21114 21115 21116 21117 21118 21119 21120 21121 21122 21123 21124 21125 21126 21127 21128 21129 21130 21131 21132 21133 21134 21135 21136 21137 21138 21139 21140 21141 21142 21143 21144 21145 21146 21147 21148 21149 21150 21151 21152 21153 21154 21155 21156 21157 21158 21159 21160 21161 21162 21163 21164 21165 21166 21167 21168 21169 21170 21171 21172 21173 21174 21175 21176 21177 21178 21179 21180 21181 21182 21183 21184 21185 21186 21187 21188 21189 21190 21191 21192 21193 21194 21195 21196 21197 21198 21199 21200 21201 21202 21203 21204 21205 21206 21207 21208 21209 21210 21211 21212 21213 21214 21215 21216 21217 21218 21219 21220 21221 21222 21223 21224 21225 21226 21227 21228 21229 21230 21231 21232 21233 21234 21235 21236 21237 21238 21239 21240 21241 21242 21243 21244 21245 21246 21247 21248 21249 21250 21251 21252 21253 21254 21255 21256 21257 21258 21259 21260 21261 21262 21263 21264 21265 21266 21267 21268 21269 21270 21271 21272 21273 21274 21275 21276 21277 21278 21279 21280 21281 21282 21283 21284 21285 21286 21287 21288 21289 21290 21291 21292 21293 21294 21295 21296 21297 21298 21299 21300 21301 21302 21303 21304 21305 21306 21307 21308 21309 21310 21311 21312 21313 21314 21315 21316 21317 21318 21319 21320 21321 21322 21323 21324 21325 21326 21327 21328 21329 21330 21331 21332 21333 21334 21335 21336 21337 21338 21339 21340 21341 21342 21343 21344 21345 21346 21347 21348 21349 21350 21351 21352 21353 21354 21355 21356 21357 21358 21359 21360 21361 21362 21363 21364 21365 21366 21367 21368 21369 21370 21371 21372 21373 21374 21375 21376 21377 21378 21379 21380 21381 21382 21383 21384 21385 21386 21387 21388 21389 21390 21391 21392 21393 21394 21395 21396 21397 21398 21399 21400 21401 21402 21403 21404 21405 21406 21407 21408 21409 21410 21411 21412 21413 21414 21415 21416 21417 21418 21419 21420 21421 21422 21423 21424 21425 21426 21427 21428 21429 21430 21431 21432 21433 21434 21435 21436 21437 21438 21439 21440 21441 21442 21443 21444 21445 21446 21447 21448 21449 21450 21451 21452 21453 21454 21455 21456 21457 21458 21459 21460 21461 21462 21463 21464 21465 21466 21467 21468 21469 21470 21471 21472 21473 21474 21475 21476 21477 21478 21479 21480 21481 21482 21483 21484 21485 21486 21487 21488 21489 21490 21491 21492 21493 21494 21495 21496 21497 21498 21499 21500 21501 21502 21503 21504 21505 21506 21507 21508 21509 21510 21511 21512 21513 21514 21515 21516 21517 21518 21519 21520 21521 21522 21523 21524 21525 21526 21527 21528 21529 21530 21531 21532 21533 21534 21535 21536 21537 21538 21539 21540 21541 21542 21543 21544 21545 21546 21547 21548 21549 21550 21551 21552 21553 21554 21555 21556 21557 21558 21559 21560 21561 21562 21563 21564 21565 21566 21567 21568 21569 21570 21571 21572 21573 21574 21575 21576 21577 21578 21579 21580 21581 21582 21583 21584 21585 21586 21587 21588 21589 21590 21591 21592 21593 21594 21595 21596 21597 21598 21599 21600 21601 21602 21603 21604 21605 21606 21607 21608 21609 21610 21611 21612 21613 21614 21615 21616 21617 21618 21619 21620 21621 21622 21623 21624 21625 21626 21627 21628 21629 21630 21631 21632 21633 21634 21635 21636 21637 21638 21639 21640 21641 21642 21643 21644 21645 21646 21647 21648 21649 21650 21651 21652 21653 21654 21655 21656 21657 21658 21659 21660 21661 21662 21663 21664 21665 21666 21667 21668 21669 21670 21671 21672 21673 21674 21675 21676 21677 21678 21679 21680 21681 21682 21683 21684 21685 21686 21687 21688 21689 21690 21691 21692 21693 21694 21695 21696 21697 21698 21699 21700 21701 21702 21703 21704 21705 21706 21707 21708 21709 21710 21711 21712 21713 21714 21715 21716 21717 21718 21719 21720 21721 21722 21723 21724 21725 21726 21727 21728 21729 21730 21731 21732 21733 21734 21735 21736 21737 21738 21739 21740 21741 21742 21743 21744 21745 21746 21747 21748 21749 21750 21751 21752 21753 21754 21755 21756 21757 21758 21759 21760 21761 21762 21763 21764 21765 21766 21767 21768 21769 21770 21771 21772 21773 21774 21775 21776 21777 21778 21779 21780 21781 21782 21783 21784 21785 21786 21787 21788 21789 21790 21791 21792 21793 21794 21795 21796 21797 21798 21799 21800 21801 21802 21803 21804 21805 21806 21807 21808 21809 21810 21811 21812 21813 21814 21815 21816 21817 21818 21819 21820 21821 21822 21823 21824 21825 21826 21827 21828 21829 21830 21831 21832 21833 21834 21835 21836 21837 21838 21839 21840 21841 21842 21843 21844 21845 21846 21847 21848 21849 21850 21851 21852 21853 21854 21855 21856 21857 21858 21859 21860 21861 21862 21863 21864 21865 21866 21867 21868 21869 21870 21871 21872 21873 21874 21875 21876 21877 21878 21879 21880 21881 21882 21883 21884 21885 21886 21887 21888 21889 21890 21891 21892 21893 21894 21895 21896 21897 21898 21899 21900 21901 21902 21903 21904 21905 21906 21907 21908 21909 21910 21911 21912 21913 21914 21915 21916 21917 21918 21919 21920 21921 21922 21923 21924 21925 21926 21927 21928 21929 21930 21931 21932 21933 21934 21935 21936 21937 21938 21939 21940 21941 21942 21943 21944 21945 21946 21947 21948 21949 21950 21951 21952 21953 21954 21955 21956 21957 21958 21959 21960 21961 21962 21963 21964 21965 21966 21967 21968 21969 21970 21971 21972 21973 21974 21975 21976 21977 21978 21979 21980 21981 21982 21983 21984 21985 21986 21987 21988 21989 21990 21991 21992 21993 21994 21995 21996 21997 21998 21999 22000 22001 22002 22003 22004 22005 22006 22007 22008 22009 22010 22011 22012 22013 22014 22015 22016 22017 22018 22019 22020 22021 22022 22023 22024 22025 22026 22027 22028 22029 22030 22031 22032 22033 22034 22035 22036 22037 22038 22039 22040 22041 22042 22043 22044 22045 22046 22047 22048 22049 22050 22051 22052 22053 22054 22055 22056 22057 22058 22059 22060 22061 22062 22063 22064 22065 22066 22067 22068 22069 22070 22071 22072 22073 22074 22075 22076 22077 22078 22079 22080 22081 22082 22083 22084 22085 22086 22087 22088 22089 22090 22091 22092 22093 22094 22095 22096 22097 22098 22099 22100 22101 22102 22103 22104 22105 22106 22107 22108 22109 22110 22111 22112 22113 22114 22115 22116 22117 22118 22119 22120 22121 22122 22123 22124 22125 22126 22127 22128 22129 22130 22131 22132 22133 22134 22135 22136 22137 22138 22139 22140 22141 22142 22143 22144 22145 22146 22147 22148 22149 22150 22151 22152 22153 22154 22155 22156 22157 22158 22159 22160 22161 22162 22163 22164 22165 22166 22167 22168 22169 22170 22171 22172 22173 22174 22175 22176 22177 22178 22179 22180 22181 22182 22183 22184 22185 22186 22187 22188 22189 22190 22191 22192 22193 22194 22195 22196 22197 22198 22199 22200 22201 22202 22203 22204 22205 22206 22207 22208 22209 22210 22211 22212 22213 22214 22215 22216 22217 22218 22219 22220 22221 22222 22223 22224 22225 22226 22227 22228 22229 22230 22231 22232 22233 22234 22235 22236 22237 22238 22239 22240 22241 22242 22243 22244 22245 22246 22247 22248 22249 22250 22251 22252 22253 22254 22255 22256 22257 22258 22259 22260 22261 22262 22263 22264 22265 22266 22267 22268 22269 22270 22271 22272 22273 22274 22275 22276 22277 22278 22279 22280 22281 22282 22283 22284 22285 22286 22287 22288 22289 22290 22291 22292 22293 22294 22295 22296 22297 22298 22299 22300 22301 22302 22303 22304 22305 22306 22307 22308 22309 22310 22311 22312 22313 22314 22315 22316 22317 22318 22319 22320 22321 22322 22323 22324 22325 22326 22327 22328 22329 22330 22331 22332 22333 22334 22335 22336 22337 22338 22339 22340 22341 22342 22343 22344 22345 22346 22347 22348 22349 22350 22351 22352 22353 22354 22355 22356 22357 22358 22359 22360 22361 22362 22363 22364 22365 22366 22367 22368 22369 22370 22371 22372 22373 22374 22375 22376 22377 22378 22379 22380 22381 22382 22383 22384 22385 22386 22387 22388 22389 22390 22391 22392 22393 22394 22395 22396 22397 22398 22399 22400 22401 22402 22403 22404 22405 22406 22407 22408 22409 22410 22411 22412 22413 22414 22415 22416 22417 22418 22419 22420 22421 22422 22423 22424 22425 22426 22427 22428 22429 22430 22431 22432 22433 22434 22435 22436 22437 22438 22439 22440 22441 22442 22443 22444 22445 22446 22447 22448 22449 22450 22451 22452 22453 22454 22455 22456 22457 22458 22459 22460 22461 22462 22463 22464 22465 22466 22467 22468 22469 22470 22471 22472 22473 22474 22475 22476 22477 22478 22479 22480 22481 22482 22483 22484 22485 22486 22487 22488 22489 22490 22491 22492 22493 22494 22495 22496 22497 22498 22499 22500 22501 22502 22503 22504 22505 22506 22507 22508 22509 22510 22511 22512 22513 22514 22515 22516 22517 22518 22519 22520 22521 22522 22523 22524 22525 22526 22527 22528 22529 22530 22531 22532 22533 22534 22535 22536 22537 22538 22539 22540 22541 22542 22543 22544 22545 22546 22547 22548 22549 22550 22551 22552 22553 22554 22555 22556 22557 22558 22559 22560 22561 22562 22563 22564 22565 22566 22567 22568 22569 22570 22571 22572 22573 22574 22575 22576 22577 22578 22579 22580 22581 22582 22583 22584 22585 22586 22587 22588 22589 22590 22591 22592 22593 22594 22595 22596 22597 22598 22599 22600 22601 22602 22603 22604 22605 22606 22607 22608 22609 22610 22611 22612 22613 22614 22615 22616 22617 22618 22619 22620 22621 22622 22623 22624 22625 22626 22627 22628 22629 22630 22631 22632 22633 22634 22635 22636 22637 22638 22639 22640 22641 22642 22643 22644 22645 22646 22647 22648 22649 22650 22651 22652 22653 22654 22655 22656 22657 22658 22659 22660 22661 22662 22663 22664 22665 22666 22667 22668 22669 22670 22671 22672 22673 22674 22675 22676 22677 22678 22679 22680 22681 22682 22683 22684 22685 22686 22687 22688 22689 22690 22691 22692 22693 22694 22695 22696 22697 22698 22699 22700 22701 22702 22703 22704 22705 22706 22707 22708 22709 22710 22711 22712 22713 22714 22715 22716 22717 22718 22719 22720 22721 22722 22723 22724 22725 22726 22727 22728 22729 22730 22731 22732 22733 22734 22735 22736 22737 22738 22739 22740 22741 22742 22743 22744 22745 22746 22747 22748 22749 22750 22751 22752 22753 22754 22755 22756 22757 22758 22759 22760 22761 22762 22763 22764 22765 22766 22767 22768 22769 22770 22771 22772 22773 22774 22775 22776 22777 22778 22779 22780 22781 22782 22783 22784 22785 22786 22787 22788 22789 22790 22791 22792 22793 22794 22795 22796 22797 22798 22799 22800 22801 22802 22803 22804 22805 22806 22807 22808 22809 22810 22811 22812 22813 22814 22815 22816 22817 22818 22819 22820 22821 22822 22823 22824 22825 22826 22827 22828 22829 22830 22831 22832 22833 22834 22835 22836 22837 22838 22839 22840 22841 22842 22843 22844 22845 22846 22847 22848 22849 22850 22851 22852 22853 22854 22855 22856 22857 22858 22859 22860 22861 22862 22863 22864 22865 22866 22867 22868 22869 22870 22871 22872 22873 22874 22875 22876 22877 22878 22879 22880 22881 22882 22883 22884 22885 22886 22887 22888 22889 22890 22891 22892 22893 22894 22895 22896 22897 22898 22899 22900 22901 22902 22903 22904 22905 22906 22907 22908 22909 22910 22911 22912 22913 22914 22915 22916 22917 22918 22919 22920 22921 22922 22923 22924 22925 22926 22927 22928 22929 22930 22931 22932 22933 22934 22935 22936 22937 22938 22939 22940 22941 22942 22943 22944 22945 22946 22947 22948 22949 22950 22951 22952 22953 22954 22955 22956 22957 22958 22959 22960 22961 22962 22963 22964 22965 22966 22967 22968 22969 22970 22971 22972 22973 22974 22975 22976 22977 22978 22979 22980 22981 22982 22983 22984 22985 22986 22987 22988 22989 22990 22991 22992 22993 22994 22995 22996 22997 22998 22999 23000 23001 23002 23003 23004 23005 23006 23007 23008 23009 23010 23011 23012 23013 23014 23015 23016 23017 23018 23019 23020 23021 23022 23023 23024 23025 23026 23027 23028 23029 23030 23031 23032 23033 23034 23035 23036 23037 23038 23039 23040 23041 23042 23043 23044 23045 23046 23047 23048 23049 23050 23051 23052 23053 23054 23055 23056 23057 23058 23059 23060 23061 23062 23063 23064 23065 23066 23067 23068 23069 23070 23071 23072 23073 23074 23075 23076 23077 23078 23079 23080 23081 23082 23083 23084 23085 23086 23087 23088 23089 23090 23091 23092 23093 23094 23095 23096 23097 23098 23099 23100 23101 23102 23103 23104 23105 23106 23107 23108 23109 23110 23111 23112 23113 23114 23115 23116 23117 23118 23119 23120 23121 23122 23123 23124 23125 23126 23127 23128 23129 23130 23131 23132 23133 23134 23135 23136 23137 23138 23139 23140 23141 23142 23143 23144 23145 23146 23147 23148 23149 23150 23151 23152 23153 23154 23155 23156 23157 23158 23159 23160 23161 23162 23163 23164 23165 23166 23167 23168 23169 23170 23171 23172 23173 23174 23175 23176 23177 23178 23179 23180 23181 23182 23183 23184 23185 23186 23187 23188 23189 23190 23191 23192 23193 23194 23195 23196 23197 23198 23199 23200 23201 23202 23203 23204 23205 23206 23207 23208 23209 23210 23211 23212 23213 23214 23215 23216 23217 23218 23219 23220 23221 23222 23223 23224 23225 23226 23227 23228 23229 23230 23231 23232 23233 23234 23235 23236 23237 23238 23239 23240 23241 23242 23243 23244 23245 23246 23247 23248 23249 23250 23251 23252 23253 23254 23255 23256 23257 23258 23259 23260 23261 23262 23263 23264 23265 23266 23267 23268 23269 23270 23271 23272 23273 23274 23275 23276 23277 23278 23279 23280 23281 23282 23283 23284 23285 23286 23287 23288 23289 23290 23291 23292 23293 23294 23295 23296 23297 23298 23299 23300 23301 23302 23303 23304 23305 23306 23307 23308 23309 23310 23311 23312 23313 23314 23315 23316 23317 23318 23319 23320 23321 23322 23323 23324 23325 23326 23327 23328 23329 23330 23331 23332 23333 23334 23335 23336 23337 23338 23339 23340 23341 23342 23343 23344 23345 23346 23347 23348 23349 23350 23351 23352 23353 23354 23355 23356 23357 23358 23359 23360 23361 23362 23363 23364 23365 23366 23367 23368 23369 23370 23371 23372 23373 23374 23375 23376 23377 23378 23379 23380 23381 23382 23383 23384 23385 23386 23387 23388 23389 23390 23391 23392 23393 23394 23395 23396 23397 23398 23399 23400 23401 23402 23403 23404 23405 23406 23407 23408 23409 23410 23411 23412 23413 23414 23415 23416 23417 23418 23419 23420 23421 23422 23423 23424 23425 23426 23427 23428 23429 23430 23431 23432 23433 23434 23435 23436 23437 23438 23439 23440 23441 23442 23443 23444 23445 23446 23447 23448 23449 23450 23451 23452 23453 23454 23455 23456 23457 23458 23459 23460 23461 23462 23463 23464 23465 23466 23467 23468 23469 23470 23471 23472 23473 23474 23475 23476 23477 23478 23479 23480 23481 23482 23483 23484 23485 23486 23487 23488 23489 23490 23491 23492 23493 23494 23495 23496 23497 23498 23499 23500 23501 23502 23503 23504 23505 23506 23507 23508 23509 23510 23511 23512 23513 23514 23515 23516 23517 23518 23519 23520 23521 23522 23523 23524 23525 23526 23527 23528 23529 23530 23531 23532 23533 23534 23535 23536 23537 23538 23539 23540 23541 23542 23543 23544 23545 23546 23547 23548 23549 23550 23551 23552 23553 23554 23555 23556 23557 23558 23559 23560 23561 23562 23563 23564 23565 23566 23567 23568 23569 23570 23571 23572 23573 23574 23575 23576 23577 23578 23579 23580 23581 23582 23583 23584 23585 23586 23587 23588 23589 23590 23591 23592 23593 23594 23595 23596 23597 23598 23599 23600 23601 23602 23603 23604 23605 23606 23607 23608 23609 23610 23611 23612 23613 23614 23615 23616 23617 23618 23619 23620 23621 23622 23623 23624 23625 23626 23627 23628 23629 23630 23631 23632 23633 23634 23635 23636 23637 23638 23639 23640 23641 23642 23643 23644 23645 23646 23647 23648 23649 23650 23651 23652 23653 23654 23655 23656 23657 23658 23659 23660 23661 23662 23663 23664 23665 23666 23667 23668 23669 23670 23671 23672 23673 23674 23675 23676 23677 23678 23679 23680 23681 23682 23683 23684 23685 23686 23687 23688 23689 23690 23691 23692 23693 23694 23695 23696 23697 23698 23699 23700 23701 23702 23703 23704 23705 23706 23707 23708 23709 23710 23711 23712 23713 23714 23715 23716 23717 23718 23719 23720 23721 23722 23723 23724 23725 23726 23727 23728 23729 23730 23731 23732 23733 23734 23735 23736 23737 23738 23739 23740 23741 23742 23743 23744 23745 23746 23747 23748 23749 23750 23751 23752 23753 23754 23755 23756 23757 23758 23759 23760 23761 23762 23763 23764 23765 23766 23767 23768 23769 23770 23771 23772 23773 23774 23775 23776 23777 23778 23779 23780 23781 23782 23783 23784 23785 23786 23787 23788 23789 23790 23791 23792 23793 23794 23795 23796 23797 23798 23799 23800 23801 23802 23803 23804 23805 23806 23807 23808 23809 23810 23811 23812 23813 23814 23815 23816 23817 23818 23819 23820 23821 23822 23823 23824 23825 23826 23827 23828 23829 23830 23831 23832 23833 23834 23835 23836 23837 23838 23839 23840 23841 23842 23843 23844 23845 23846 23847 23848 23849 23850 23851 23852 23853 23854 23855 23856 23857 23858 23859 23860 23861 23862 23863 23864 23865 23866 23867 23868 23869 23870 23871 23872 23873 23874 23875 23876 23877 23878 23879 23880 23881 23882 23883 23884 23885 23886 23887 23888 23889 23890 23891 23892 23893 23894 23895 23896 23897 23898 23899 23900 23901 23902 23903 23904 23905 23906 23907 23908 23909 23910 23911 23912 23913 23914 23915 23916 23917 23918 23919 23920 23921 23922 23923 23924 23925 23926 23927 23928 23929 23930 23931 23932 23933 23934 23935 23936 23937 23938 23939 23940 23941 23942 23943 23944 23945 23946 23947 23948 23949 23950 23951 23952 23953 23954 23955 23956 23957 23958 23959 23960 23961 23962 23963 23964 23965 23966 23967 23968 23969 23970 23971 23972 23973 23974 23975 23976 23977 23978 23979 23980 23981 23982 23983 23984 23985 23986 23987 23988 23989 23990 23991 23992 23993 23994 23995 23996 23997 23998 23999 24000 24001 24002 24003 24004 24005 24006 24007 24008 24009 24010 24011 24012 24013 24014 24015 24016 24017 24018 24019 24020 24021 24022 24023 24024 24025 24026 24027 24028 24029 24030 24031 24032 24033 24034 24035 24036 24037 24038 24039 24040 24041 24042 24043 24044 24045 24046 24047 24048 24049 24050 24051 24052 24053 24054 24055 24056 24057 24058 24059 24060 24061 24062 24063 24064 24065 24066 24067 24068 24069 24070 24071 24072 24073 24074 24075 24076 24077 24078 24079 24080 24081 24082 24083 24084 24085 24086 24087 24088 24089 24090 24091 24092 24093 24094 24095 24096 24097 24098 24099 24100 24101 24102 24103 24104 24105 24106 24107 24108 24109 24110 24111 24112 24113 24114 24115 24116 24117 24118 24119 24120 24121 24122 24123 24124 24125 24126 24127 24128 24129 24130 24131 24132 24133 24134 24135 24136 24137 24138 24139 24140 24141 24142 24143 24144 24145 24146 24147 24148 24149 24150 24151 24152 24153 24154 24155 24156 24157 24158 24159 24160 24161 24162 24163 24164 24165 24166 24167 24168 24169 24170 24171 24172 24173 24174 24175 24176 24177 24178 24179 24180 24181 24182 24183 24184 24185 24186 24187 24188 24189 24190 24191 24192 24193 24194 24195 24196 24197 24198 24199 24200 24201 24202 24203 24204 24205 24206 24207 24208 24209 24210 24211 24212 24213 24214 24215 24216 24217 24218 24219 24220 24221 24222 24223 24224 24225 24226 24227 24228 24229 24230 24231 24232 24233 24234 24235 24236 24237 24238 24239 24240 24241 24242 24243 24244 24245 24246 24247 24248 24249 24250 24251 24252 24253 24254 24255 24256 24257 24258 24259 24260 24261 24262 24263 24264 24265 24266 24267 24268 24269 24270 24271 24272 24273 24274 24275 24276 24277 24278 24279 24280 24281 24282 24283 24284 24285 24286 24287 24288 24289 24290 24291 24292 24293 24294 24295 24296 24297 24298 24299 24300 24301 24302 24303 24304 24305 24306 24307 24308 24309 24310 24311 24312 24313 24314 24315 24316 24317 24318 24319 24320 24321 24322 24323 24324 24325 24326 24327 24328 24329 24330 24331 24332 24333 24334 24335 24336 24337 24338 24339 24340 24341 24342 24343 24344 24345 24346 24347 24348 24349 24350 24351 24352 24353 24354 24355 24356 24357 24358 24359 24360 24361 24362 24363 24364 24365 24366 24367 24368 24369 24370 24371 24372 24373 24374 24375 24376 24377 24378 24379 24380 24381 24382 24383 24384 24385 24386 24387 24388 24389 24390 24391 24392 24393 24394 24395 24396 24397 24398 24399 24400 24401 24402 24403 24404 24405 24406 24407 24408 24409 24410 24411 24412 24413 24414 24415 24416 24417 24418 24419 24420 24421 24422 24423 24424 24425 24426 24427 24428 24429 24430 24431 24432 24433 24434 24435 24436 24437 24438 24439 24440 24441 24442 24443 24444 24445 24446 24447 24448 24449 24450 24451 24452 24453 24454 24455 24456 24457 24458 24459 24460 24461 24462 24463 24464 24465 24466 24467 24468 24469 24470 24471 24472 24473 24474 24475 24476 24477 24478 24479 24480 24481 24482 24483 24484 24485 24486 24487 24488 24489 24490 24491 24492 24493 24494 24495 24496 24497 24498 24499 24500 24501 24502 24503 24504 24505 24506 24507 24508 24509 24510 24511 24512 24513 24514 24515 24516 24517 24518 24519 24520 24521 24522 24523 24524 24525 24526 24527 24528 24529 24530 24531 24532 24533 24534 24535 24536 24537 24538 24539 24540 24541 24542 24543 24544 24545 24546 24547 24548 24549 24550 24551 24552 24553 24554 24555 24556 24557 24558 24559 24560 24561 24562 24563 24564 24565 24566 24567 24568 24569 24570 24571 24572 24573 24574 24575 24576 24577 24578 24579 24580 24581 24582 24583 24584 24585 24586 24587 24588 24589 24590 24591 24592 24593 24594 24595 24596 24597 24598 24599 24600 24601 24602 24603 24604 24605 24606 24607 24608 24609 24610 24611 24612 24613 24614 24615 24616 24617 24618 24619 24620 24621 24622 24623 24624 24625 24626 24627 24628 24629 24630 24631 24632 24633 24634 24635 24636 24637 24638 24639 24640 24641 24642 24643 24644 24645 24646 24647 24648 24649 24650 24651 24652 24653 24654 24655 24656 24657 24658 24659 24660 24661 24662 24663 24664 24665 24666 24667 24668 24669 24670 24671 24672 24673 24674 24675 24676 24677 24678 24679 24680 24681 24682 24683 24684 24685 24686 24687 24688 24689 24690 24691 24692 24693 24694 24695 24696 24697 24698 24699 24700 24701 24702 24703 24704 24705 24706 24707 24708 24709 24710 24711 24712 24713 24714 24715 24716 24717 24718 24719 24720 24721 24722 24723 24724 24725 24726 24727 24728 24729 24730 24731 24732 24733 24734 24735 24736 24737 24738 24739 24740 24741 24742 24743 24744 24745 24746 24747 24748 24749 24750 24751 24752 24753 24754 24755 24756 24757 24758 24759 24760 24761 24762 24763 24764 24765 24766 24767 24768 24769 24770 24771 24772 24773 24774 24775 24776 24777 24778 24779 24780 24781 24782 24783 24784 24785 24786 24787 24788 24789 24790 24791 24792 24793 24794 24795 24796 24797 24798 24799 24800 24801 24802 24803 24804 24805 24806 24807 24808 24809 24810 24811 24812 24813 24814 24815 24816 24817 24818 24819 24820 24821 24822 24823 24824 24825 24826 24827 24828 24829 24830 24831 24832 24833 24834 24835 24836 24837 24838 24839 24840 24841 24842 24843 24844 24845 24846 24847 24848 24849 24850 24851 24852 24853 24854 24855 24856 24857 24858 24859 24860 24861 24862 24863 24864 24865 24866 24867 24868 24869 24870 24871 24872 24873 24874 24875 24876 24877 24878 24879 24880 24881 24882 24883 24884 24885 24886 24887 24888 24889 24890 24891 24892 24893 24894 24895 24896 24897 24898 24899 24900 24901 24902 24903 24904 24905 24906 24907 24908 24909 24910 24911 24912 24913 24914 24915 24916 24917 24918 24919 24920 24921 24922 24923 24924 24925 24926 24927 24928 24929 24930 24931 24932 24933 24934 24935 24936 24937 24938 24939 24940 24941 24942 24943 24944 24945 24946 24947 24948 24949 24950 24951 24952 24953 24954 24955 24956 24957 24958 24959 24960 24961 24962 24963 24964 24965 24966 24967 24968 24969 24970 24971 24972 24973 24974 24975 24976 24977 24978 24979 24980 24981 24982 24983 24984 24985 24986 24987 24988 24989 24990 24991 24992 24993 24994 24995 24996 24997 24998 24999 25000 25001 25002 25003 25004 25005 25006 25007 25008 25009 25010 25011 25012 25013 25014 25015 25016 25017 25018 25019 25020 25021 25022 25023 25024 25025 25026 25027 25028 25029 25030 25031 25032 25033 25034 25035 25036 25037 25038 25039 25040 25041 25042 25043 25044 25045 25046 25047 25048 25049 25050 25051 25052 25053 25054 25055 25056 25057 25058 25059 25060 25061 25062 25063 25064 25065 25066 25067 25068 25069 25070 25071 25072 25073 25074 25075 25076 25077 25078 25079 25080 25081 25082 25083 25084 25085 25086 25087 25088 25089 25090 25091 25092 25093 25094 25095 25096 25097 25098 25099 25100 25101 25102 25103 25104 25105 25106 25107 25108 25109 25110 25111 25112 25113 25114 25115 25116 25117 25118 25119 25120 25121 25122 25123 25124 25125 25126 25127 25128 25129 25130 25131 25132 25133 25134 25135 25136 25137 25138 25139 25140 25141 25142 25143 25144 25145 25146 25147 25148 25149 25150 25151 25152 25153 25154 25155 25156 25157 25158 25159 25160 25161 25162 25163 25164 25165 25166 25167 25168 25169 25170 25171 25172 25173 25174 25175 25176 25177 25178 25179 25180 25181 25182 25183 25184 25185 25186 25187 25188 25189 25190 25191 25192 25193 25194 25195 25196 25197 25198 25199 25200 25201 25202 25203 25204 25205 25206 25207 25208 25209 25210 25211 25212 25213 25214 25215 25216 25217 25218 25219 25220 25221 25222 25223 25224 25225 25226 25227 25228 25229 25230 25231 25232 25233 25234 25235 25236 25237 25238 25239 25240 25241 25242 25243 25244 25245 25246 25247 25248 25249 25250 25251 25252 25253 25254 25255 25256 25257 25258 25259 25260 25261 25262 25263 25264 25265 25266 25267 25268 25269 25270 25271 25272 25273 25274 25275 25276 25277 25278 25279 25280 25281 25282 25283 25284 25285 25286 25287 25288 25289 25290 25291 25292 25293 25294 25295 25296 25297 25298 25299 25300 25301 25302 25303 25304 25305 25306 25307 25308 25309 25310 25311 25312 25313 25314 25315 25316 25317 25318 25319 25320 25321 25322 25323 25324 25325 25326 25327 25328 25329 25330 25331 25332 25333 25334 25335 25336 25337 25338 25339 25340 25341 25342 25343 25344 25345 25346 25347 25348 25349 25350 25351 25352 25353 25354 25355 25356 25357 25358 25359 25360 25361 25362 25363 25364 25365 25366 25367 25368 25369 25370 25371 25372 25373 25374 25375 25376 25377 25378 25379 25380 25381 25382 25383 25384 25385 25386 25387 25388 25389 25390 25391 25392 25393 25394 25395 25396 25397 25398 25399 25400 25401 25402 25403 25404 25405 25406 25407 25408 25409 25410 25411 25412 25413 25414 25415 25416 25417 25418 25419 25420 25421 25422 25423 25424 25425 25426 25427 25428 25429 25430 25431 25432 25433 25434 25435 25436 25437 25438 25439 25440 25441 25442 25443 25444 25445 25446 25447 25448 25449 25450 25451 25452 25453 25454 25455 25456 25457 25458 25459 25460 25461 25462 25463 25464 25465 25466 25467 25468 25469 25470 25471 25472 25473 25474 25475 25476 25477 25478 25479 25480 25481 25482 25483 25484 25485 25486 25487 25488 25489 25490 25491 25492 25493 25494 25495 25496 25497 25498 25499 25500 25501 25502 25503 25504 25505 25506 25507 25508 25509 25510 25511 25512 25513 25514 25515 25516 25517 25518 25519 25520 25521 25522 25523 25524 25525 25526 25527 25528 25529 25530 25531 25532 25533 25534 25535 25536 25537 25538 25539 25540 25541 25542 25543 25544 25545 25546 25547 25548 25549 25550 25551 25552 25553 25554 25555 25556 25557 25558 25559 25560 25561 25562 25563 25564 25565 25566 25567 25568 25569 25570 25571 25572 25573 25574 25575 25576 25577 25578 25579 25580 25581 25582 25583 25584 25585 25586 25587 25588 25589 25590 25591 25592 25593 25594 25595 25596 25597 25598 25599 25600 25601 25602 25603 25604 25605 25606 25607 25608 25609 25610 25611 25612 25613 25614 25615 25616 25617 25618 25619 25620 25621 25622 25623 25624 25625 25626 25627 25628 25629 25630 25631 25632 25633 25634 25635 25636 25637 25638 25639 25640 25641 25642 25643 25644 25645 25646 25647 25648 25649 25650 25651 25652 25653 25654 25655 25656 25657 25658 25659 25660 25661 25662 25663 25664 25665 25666 25667 25668 25669 25670 25671 25672 25673 25674 25675 25676 25677 25678 25679 25680 25681 25682 25683 25684 25685 25686 25687 25688 25689 25690 25691 25692 25693 25694 25695 25696 25697 25698 25699 25700 25701 25702 25703 25704 25705 25706 25707 25708 25709 25710 25711 25712 25713 25714 25715 25716 25717 25718 25719 25720 25721 25722 25723 25724 25725 25726 25727 25728 25729 25730 25731 25732 25733 25734 25735 25736 25737 25738 25739 25740 25741 25742 25743 25744 25745 25746 25747 25748 25749 25750 25751 25752 25753 25754 25755 25756 25757 25758 25759 25760 25761 25762 25763 25764 25765 25766 25767 25768 25769 25770 25771 25772 25773 25774 25775 25776 25777 25778 25779 25780 25781 25782 25783 25784 25785 25786 25787 25788 25789 25790 25791 25792 25793 25794 25795 25796 25797 25798 25799 25800 25801 25802 25803 25804 25805 25806 25807 25808 25809 25810 25811 25812 25813 25814 25815 25816 25817 25818 25819 25820 25821 25822 25823 25824 25825 25826 25827 25828 25829 25830 25831 25832 25833 25834 25835 25836 25837 25838 25839 25840 25841 25842 25843 25844 25845 25846 25847 25848 25849 25850 25851 25852 25853 25854 25855 25856 25857 25858 25859 25860 25861 25862 25863 25864 25865 25866 25867 25868 25869 25870 25871 25872 25873 25874 25875 25876 25877 25878 25879 25880 25881 25882 25883 25884 25885 25886 25887 25888 25889 25890 25891 25892 25893 25894 25895 25896 25897 25898 25899 25900 25901 25902 25903 25904 25905 25906 25907 25908 25909 25910 25911 25912 25913 25914 25915 25916 25917 25918 25919 25920 25921 25922 25923 25924 25925 25926 25927 25928 25929 25930 25931 25932 25933 25934 25935 25936 25937 25938 25939 25940 25941 25942 25943 25944 25945 25946 25947 25948 25949 25950 25951 25952 25953 25954 25955 25956 25957 25958 25959 25960 25961 25962 25963 25964 25965 25966 25967 25968 25969 25970 25971 25972 25973 25974 25975 25976 25977 25978 25979 25980 25981 25982 25983 25984 25985 25986 25987 25988 25989 25990 25991 25992 25993 25994 25995 25996 25997 25998 25999 26000 26001 26002 26003 26004 26005 26006 26007 26008 26009 26010 26011 26012 26013 26014 26015 26016 26017 26018 26019 26020 26021 26022 26023 26024 26025 26026 26027 26028 26029 26030 26031 26032 26033 26034 26035 26036 26037 26038 26039 26040 26041 26042 26043 26044 26045 26046 26047 26048 26049 26050 26051 26052 26053 26054 26055 26056 26057 26058 26059 26060 26061 26062 26063 26064 26065 26066 26067 26068 26069 26070 26071 26072 26073 26074 26075 26076 26077 26078 26079 26080 26081 26082 26083 26084 26085 26086 26087 26088 26089 26090 26091 26092 26093 26094 26095 26096 26097 26098 26099 26100 26101 26102 26103 26104 26105 26106 26107 26108 26109 26110 26111 26112 26113 26114 26115 26116 26117 26118 26119 26120 26121 26122 26123 26124 26125 26126 26127 26128 26129 26130 26131 26132 26133 26134 26135 26136 26137 26138 26139 26140 26141 26142 26143 26144 26145 26146 26147 26148 26149 26150 26151 26152 26153 26154 26155 26156 26157 26158 26159 26160 26161 26162 26163 26164 26165 26166 26167 26168 26169 26170 26171 26172 26173 26174 26175 26176 26177 26178 26179 26180 26181 26182 26183 26184 26185 26186 26187 26188 26189 26190 26191 26192 26193 26194 26195 26196 26197 26198 26199 26200 26201 26202 26203 26204 26205 26206 26207 26208 26209 26210 26211 26212 26213 26214 26215 26216 26217 26218 26219 26220 26221 26222 26223 26224 26225 26226 26227 26228 26229 26230 26231 26232 26233 26234 26235 26236 26237 26238 26239 26240 26241 26242 26243 26244 26245 26246 26247 26248 26249 26250 26251 26252 26253 26254 26255 26256 26257 26258 26259 26260 26261 26262 26263 26264 26265 26266 26267 26268 26269 26270 26271 26272 26273 26274 26275 26276 26277 26278 26279 26280 26281 26282 26283 26284 26285 26286 26287 26288 26289 26290 26291 26292 26293 26294 26295 26296 26297 26298 26299 26300 26301 26302 26303 26304 26305 26306 26307 26308 26309 26310 26311 26312 26313 26314 26315 26316 26317 26318 26319 26320 26321 26322 26323 26324 26325 26326 26327 26328 26329 26330 26331 26332 26333 26334 26335 26336 26337 26338 26339 26340 26341 26342 26343 26344 26345 26346 26347 26348 26349 26350 26351 26352 26353 26354 26355 26356 26357 26358 26359 26360 26361 26362 26363 26364 26365 26366 26367 26368 26369 26370 26371 26372 26373 26374 26375 26376 26377 26378 26379 26380 26381 26382 26383 26384 26385 26386 26387 26388 26389 26390 26391 26392 26393 26394 26395 26396 26397 26398 26399 26400 26401 26402 26403 26404 26405 26406 26407 26408 26409 26410 26411 26412 26413 26414 26415 26416 26417 26418 26419 26420 26421 26422 26423 26424 26425 26426 26427 26428 26429 26430 26431 26432 26433 26434 26435 26436 26437 26438 26439 26440 26441 26442 26443 26444 26445 26446 26447 26448 26449 26450 26451 26452 26453 26454 26455 26456 26457 26458 26459 26460 26461 26462 26463 26464 26465 26466 26467 26468 26469 26470 26471 26472 26473 26474 26475 26476 26477 26478 26479 26480 26481 26482 26483 26484 26485 26486 26487 26488 26489 26490 26491 26492 26493 26494 26495 26496 26497 26498 26499 26500 26501 26502 26503 26504 26505 26506 26507 26508 26509 26510 26511 26512 26513 26514 26515 26516 26517 26518 26519 26520 26521 26522 26523 26524 26525 26526 26527 26528 26529 26530 26531 26532 26533 26534 26535 26536 26537 26538 26539 26540 26541 26542 26543 26544 26545 26546 26547 26548 26549 26550 26551 26552 26553 26554 26555 26556 26557 26558 26559 26560 26561 26562 26563 26564 26565 26566 26567 26568 26569 26570 26571 26572 26573 26574 26575 26576 26577 26578 26579 26580 26581 26582 26583 26584 26585 26586 26587 26588 26589 26590 26591 26592 26593 26594 26595 26596 26597 26598 26599 26600 26601 26602 26603 26604 26605 26606 26607 26608 26609 26610 26611 26612 26613 26614 26615 26616 26617 26618 26619 26620 26621 26622 26623 26624 26625 26626 26627 26628 26629 26630 26631 26632 26633 26634 26635 26636 26637 26638 26639 26640 26641 26642 26643 26644 26645 26646 26647 26648 26649 26650 26651 26652 26653 26654 26655 26656 26657 26658 26659 26660 26661 26662 26663 26664 26665 26666 26667 26668 26669 26670 26671 26672 26673 26674 26675 26676 26677 26678 26679 26680 26681 26682 26683 26684 26685 26686 26687 26688 26689 26690 26691 26692 26693 26694 26695 26696 26697 26698 26699 26700 26701 26702 26703 26704 26705 26706 26707 26708 26709 26710 26711 26712 26713 26714 26715 26716 26717 26718 26719 26720 26721 26722 26723 26724 26725 26726 26727 26728 26729 26730 26731 26732 26733 26734 26735 26736 26737 26738 26739 26740 26741 26742 26743 26744 26745 26746 26747 26748 26749 26750 26751 26752 26753 26754 26755 26756 26757 26758 26759 26760 26761 26762 26763 26764 26765 26766 26767 26768 26769 26770 26771 26772 26773 26774 26775 26776 26777 26778 26779 26780 26781 26782 26783 26784 26785 26786 26787 26788 26789 26790 26791 26792 26793 26794 26795 26796 26797 26798 26799 26800 26801 26802 26803 26804 26805 26806 26807 26808 26809 26810 26811 26812 26813 26814 26815 26816 26817 26818 26819 26820 26821 26822 26823 26824 26825 26826 26827 26828 26829 26830 26831 26832 26833 26834 26835 26836 26837 26838 26839 26840 26841 26842 26843 26844 26845 26846 26847 26848 26849 26850 26851 26852 26853 26854 26855 26856 26857 26858 26859 26860 26861 26862 26863 26864 26865 26866 26867 26868 26869 26870 26871 26872 26873 26874 26875 26876 26877 26878 26879 26880 26881 26882 26883 26884 26885 26886 26887 26888 26889 26890 26891 26892 26893 26894 26895 26896 26897 26898 26899 26900 26901 26902 26903 26904 26905 26906 26907 26908 26909 26910 26911 26912 26913 26914 26915 26916 26917 26918 26919 26920 26921 26922 26923 26924 26925 26926 26927 26928 26929 26930 26931 26932 26933 26934 26935 26936 26937 26938 26939 26940 26941 26942 26943 26944 26945 26946 26947 26948 26949 26950 26951 26952 26953 26954 26955 26956 26957 26958 26959 26960 26961 26962 26963 26964 26965 26966 26967 26968 26969 26970 26971 26972 26973 26974 26975 26976 26977 26978 26979 26980 26981 26982 26983 26984 26985 26986 26987 26988 26989 26990 26991 26992 26993 26994 26995 26996 26997 26998 26999 27000 27001 27002 27003 27004 27005 27006 27007 27008 27009 27010 27011 27012 27013 27014 27015 27016 27017 27018 27019 27020 27021 27022 27023 27024 27025 27026 27027 27028 27029 27030 27031 27032 27033 27034 27035 27036 27037 27038 27039 27040 27041 27042 27043 27044 27045 27046 27047 27048 27049 27050 27051 27052 27053 27054 27055 27056 27057 27058 27059 27060 27061 27062 27063 27064 27065 27066 27067 27068 27069 27070 27071 27072 27073 27074 27075 27076 27077 27078 27079 27080 27081 27082 27083 27084 27085 27086 27087 27088 27089 27090 27091 27092 27093 27094 27095 27096 27097 27098 27099 27100 27101 27102 27103 27104 27105 27106 27107 27108 27109 27110 27111 27112 27113 27114 27115 27116 27117 27118 27119 27120 27121 27122 27123 27124 27125 27126 27127 27128 27129 27130 27131 27132 27133 27134 27135 27136 27137 27138 27139 27140 27141 27142 27143 27144 27145 27146 27147 27148 27149 27150 27151 27152 27153 27154 27155 27156 27157 27158 27159 27160 27161 27162 27163 27164 27165 27166 27167 27168 27169 27170 27171 27172 27173 27174 27175 27176 27177 27178 27179 27180 27181 27182 27183 27184 27185 27186 27187 27188 27189 27190 27191 27192 27193 27194 27195 27196 27197 27198 27199 27200 27201 27202 27203 27204 27205 27206 27207 27208 27209 27210 27211 27212 27213 27214 27215 27216 27217 27218 27219 27220 27221 27222 27223 27224 27225 27226 27227 27228 27229 27230 27231 27232 27233 27234 27235 27236 27237 27238 27239 27240 27241 27242 27243 27244 27245 27246 27247 27248 27249 27250 27251 27252 27253 27254 27255 27256 27257 27258 27259 27260 27261 27262 27263 27264 27265 27266 27267 27268 27269 27270 27271 27272 27273 27274 27275 27276 27277 27278 27279 27280 27281 27282 27283 27284 27285 27286 27287 27288 27289 27290 27291 27292 27293 27294 27295 27296 27297 27298 27299 27300 27301 27302 27303 27304 27305 27306 27307 27308 27309 27310 27311 27312 27313 27314 27315 27316 27317 27318 27319 27320 27321 27322 27323 27324 27325 27326 27327 27328 27329 27330 27331 27332 27333 27334 27335 27336 27337 27338 27339 27340 27341 27342 27343 27344 27345 27346 27347 27348 27349 27350 27351 27352 27353 27354 27355 27356 27357 27358 27359 27360 27361 27362 27363 27364 27365 27366 27367 27368 27369 27370 27371 27372 27373 27374 27375 27376 27377 27378 27379 27380 27381 27382 27383 27384 27385 27386 27387 27388 27389 27390 27391 27392 27393 27394 27395 27396 27397 27398 27399 27400 27401 27402 27403 27404 27405 27406 27407 27408 27409 27410 27411 27412 27413 27414 27415 27416 27417 27418 27419 27420 27421 27422 27423 27424 27425 27426 27427 27428 27429 27430 27431 27432 27433 27434 27435 27436 27437 27438 27439 27440 27441 27442 27443 27444 27445 27446 27447 27448 27449 27450 27451 27452 27453 27454 27455 27456 27457 27458 27459 27460 27461 27462 27463 27464 27465 27466 27467 27468 27469 27470 27471 27472 27473 27474 27475 27476 27477 27478 27479 27480 27481 27482 27483 27484 27485 27486 27487 27488 27489 27490 27491 27492 27493 27494 27495 27496 27497 27498 27499 27500 27501 27502 27503 27504 27505 27506 27507 27508 27509 27510 27511 27512 27513 27514 27515 27516 27517 27518 27519 27520 27521 27522 27523 27524 27525 27526 27527 27528 27529 27530 27531 27532 27533 27534 27535 27536 27537 27538 27539 27540 27541 27542 27543 27544 27545 27546 27547 27548 27549 27550 27551 27552 27553 27554 27555 27556 27557 27558 27559 27560 27561 27562 27563 27564 27565 27566 27567 27568 27569 27570 27571 27572 27573 27574 27575 27576 27577 27578 27579 27580 27581 27582 27583 27584 27585 27586 27587 27588 27589 27590 27591 27592 27593 27594 27595 27596 27597 27598 27599 27600 27601 27602 27603 27604 27605 27606 27607 27608 27609 27610 27611 27612 27613 27614 27615 27616 27617 27618 27619 27620 27621 27622 27623 27624 27625 27626 27627 27628 27629 27630 27631 27632 27633 27634 27635 27636 27637 27638 27639 27640 27641 27642 27643 27644 27645 27646 27647 27648 27649 27650 27651 27652 27653 27654 27655 27656 27657 27658 27659 27660 27661 27662 27663 27664 27665 27666 27667 27668 27669 27670 27671 27672 27673 27674 27675 27676 27677 27678 27679 27680 27681 27682 27683 27684 27685 27686 27687 27688 27689 27690 27691 27692 27693 27694 27695 27696 27697 27698 27699 27700 27701 27702 27703 27704 27705 27706 27707 27708 27709 27710 27711 27712 27713 27714 27715 27716 27717 27718 27719 27720 27721 27722 27723 27724 27725 27726 27727 27728 27729 27730 27731 27732 27733 27734 27735 27736 27737 27738 27739 27740 27741 27742 27743 27744 27745 27746 27747 27748 27749 27750 27751 27752 27753 27754 27755 27756 27757 27758 27759 27760 27761 27762 27763 27764 27765 27766 27767 27768 27769 27770 27771 27772 27773 27774 27775 27776 27777 27778 27779 27780 27781 27782 27783 27784 27785 27786 27787 27788 27789 27790 27791 27792 27793 27794 27795 27796 27797 27798 27799 27800 27801 27802 27803 27804 27805 27806 27807 27808 27809 27810 27811 27812 27813 27814 27815 27816 27817 27818 27819 27820 27821 27822 27823 27824 27825 27826 27827 27828 27829 27830 27831 27832 27833 27834 27835 27836 27837 27838 27839 27840 27841 27842 27843 27844 27845 27846 27847 27848 27849 27850 27851 27852 27853 27854 27855 27856 27857 27858 27859 27860 27861 27862 27863 27864 27865 27866 27867 27868 27869 27870 27871 27872 27873 27874 27875 27876 27877 27878 27879 27880 27881 27882 27883 27884 27885 27886 27887 27888 27889 27890 27891 27892 27893 27894 27895 27896 27897 27898 27899 27900 27901 27902 27903 27904 27905 27906 27907 27908 27909 27910 27911 27912 27913 27914 27915 27916 27917 27918 27919 27920 27921 27922 27923 27924 27925 27926 27927 27928 27929 27930 27931 27932 27933 27934 27935 27936 27937 27938 27939 27940 27941 27942 27943 27944 27945 27946 27947 27948 27949 27950 27951 27952 27953 27954 27955 27956 27957 27958 27959 27960 27961 27962 27963 27964 27965 27966 27967 27968 27969 27970 27971 27972 27973 27974 27975 27976 27977 27978 27979 27980 27981 27982 27983 27984 27985 27986 27987 27988 27989 27990 27991 27992 27993 27994 27995 27996 27997 27998 27999 28000 28001 28002 28003 28004 28005 28006 28007 28008 28009 28010 28011 28012 28013 28014 28015 28016 28017 28018 28019 28020 28021 28022 28023 28024 28025 28026 28027 28028 28029 28030 28031 28032 28033 28034 28035 28036 28037 28038 28039 28040 28041 28042 28043 28044 28045 28046 28047 28048 28049 28050 28051 28052 28053 28054 28055 28056 28057 28058 28059 28060 28061 28062 28063 28064 28065 28066 28067 28068 28069 28070 28071 28072 28073 28074 28075 28076 28077 28078 28079 28080 28081 28082 28083 28084 28085 28086 28087 28088 28089 28090 28091 28092 28093 28094 28095 28096 28097 28098 28099 28100 28101 28102 28103 28104 28105 28106 28107 28108 28109 28110 28111 28112 28113 28114 28115 28116 28117 28118 28119 28120 28121 28122 28123 28124 28125 28126 28127 28128 28129 28130 28131 28132 28133 28134 28135 28136 28137 28138 28139 28140 28141 28142 28143 28144 28145 28146 28147 28148 28149 28150 28151 28152 28153 28154 28155 28156 28157 28158 28159 28160 28161 28162 28163 28164 28165 28166 28167 28168 28169 28170 28171 28172 28173 28174 28175 28176 28177 28178 28179 28180 28181 28182 28183 28184 28185 28186 28187 28188 28189 28190 28191 28192 28193 28194 28195 28196 28197 28198 28199 28200 28201 28202 28203 28204 28205 28206 28207 28208 28209 28210 28211 28212 28213 28214 28215 28216 28217 28218 28219 28220 28221 28222 28223 28224 28225 28226 28227 28228 28229 28230 28231 28232 28233 28234 28235 28236 28237 28238 28239 28240 28241 28242 28243 28244 28245 28246 28247 28248 28249 28250 28251 28252 28253 28254 28255 28256 28257 28258 28259 28260 28261 28262 28263 28264 28265 28266 28267 28268 28269 28270 28271 28272 28273 28274 28275 28276 28277 28278 28279 28280 28281 28282 28283 28284 28285 28286 28287 28288 28289 28290 28291 28292 28293 28294 28295 28296 28297 28298 28299 28300 28301 28302 28303 28304 28305 28306 28307 28308 28309 28310 28311 28312 28313 28314 28315 28316 28317 28318 28319 28320 28321 28322 28323 28324 28325 28326 28327 28328 28329 28330 28331 28332 28333 28334 28335 28336 28337 28338 28339 28340 28341 28342 28343 28344 28345 28346 28347 28348 28349 28350 28351 28352 28353 28354 28355 28356 28357 28358 28359 28360 28361 28362 28363 28364 28365 28366 28367 28368 28369 28370 28371 28372 28373 28374 28375 28376 28377 28378 28379 28380 28381 28382 28383 28384 28385 28386 28387 28388 28389 28390 28391 28392 28393 28394 28395 28396 28397 28398 28399 28400 28401 28402 28403 28404 28405 28406 28407 28408 28409 28410 28411 28412 28413 28414 28415 28416 28417 28418 28419 28420 28421 28422 28423 28424 28425 28426 28427 28428 28429 28430 28431 28432 28433 28434 28435 28436 28437 28438 28439 28440 28441 28442 28443 28444 28445 28446 28447 28448 28449 28450 28451 28452 28453 28454 28455 28456 28457 28458 28459 28460 28461 28462 28463 28464 28465 28466 28467 28468 28469 28470 28471 28472 28473 28474 28475 28476 28477 28478 28479 28480 28481 28482 28483 28484 28485 28486 28487 28488 28489 28490 28491 28492 28493 28494 28495 28496 28497 28498 28499 28500 28501 28502 28503 28504 28505 28506 28507 28508 28509 28510 28511 28512 28513 28514 28515 28516 28517 28518 28519 28520 28521 28522 28523 28524 28525 28526 28527 28528 28529 28530 28531 28532 28533 28534 28535 28536 28537 28538 28539 28540 28541 28542 28543 28544 28545 28546 28547 28548 28549 28550 28551 28552 28553 28554 28555 28556 28557 28558 28559 28560 28561 28562 28563 28564 28565 28566 28567 28568 28569 28570 28571 28572 28573 28574 28575 28576 28577 28578 28579 28580 28581 28582 28583 28584 28585 28586 28587 28588 28589 28590 28591 28592 28593 28594 28595 28596 28597 28598 28599 28600 28601 28602 28603 28604 28605 28606 28607 28608 28609 28610 28611 28612 28613 28614 28615 28616 28617 28618 28619 28620 28621 28622 28623 28624 28625 28626 28627 28628 28629 28630 28631 28632 28633 28634 28635 28636 28637 28638 28639 28640 28641 28642 28643 28644 28645 28646 28647 28648 28649 28650 28651 28652 28653 28654 28655 28656 28657 28658 28659 28660 28661 28662 28663 28664 28665 28666 28667 28668 28669 28670 28671 28672 28673 28674 28675 28676 28677 28678 28679 28680 28681 28682 28683 28684 28685 28686 28687 28688 28689 28690 28691 28692 28693 28694 28695 28696 28697 28698 28699 28700 28701 28702 28703 28704 28705 28706 28707 28708 28709 28710 28711 28712 28713 28714 28715 28716 28717 28718 28719 28720 28721 28722 28723 28724 28725 28726 28727 28728 28729 28730 28731 28732 28733 28734 28735 28736 28737 28738 28739 28740 28741 28742 28743 28744 28745 28746 28747 28748 28749 28750 28751 28752 28753 28754 28755 28756 28757 28758 28759 28760 28761 28762 28763 28764 28765 28766 28767 28768 28769 28770 28771 28772 28773 28774 28775 28776 28777 28778 28779 28780 28781 28782 28783 28784 28785 28786 28787 28788 28789 28790 28791 28792 28793 28794 28795 28796 28797 28798 28799 28800 28801 28802 28803 28804 28805 28806 28807 28808 28809 28810 28811 28812 28813 28814 28815 28816 28817 28818 28819 28820 28821 28822 28823 28824 28825 28826 28827 28828 28829 28830 28831 28832 28833 28834 28835 28836 28837 28838 28839 28840 28841 28842 28843 28844 28845 28846 28847 28848 28849 28850 28851 28852 28853 28854 28855 28856 28857 28858 28859 28860 28861 28862 28863 28864 28865 28866 28867 28868 28869 28870 28871 28872 28873 28874 28875 28876 28877 28878 28879 28880 28881 28882 28883 28884 28885 28886 28887 28888 28889 28890 28891 28892 28893 28894 28895 28896 28897 28898 28899 28900 28901 28902 28903 28904 28905 28906 28907 28908 28909 28910 28911 28912 28913 28914 28915 28916 28917 28918 28919 28920 28921 28922 28923 28924 28925 28926 28927 28928 28929 28930 28931 28932 28933 28934 28935 28936 28937 28938 28939 28940 28941 28942 28943 28944 28945 28946 28947 28948 28949 28950 28951 28952 28953 28954 28955 28956 28957 28958 28959 28960 28961 28962 28963 28964 28965 28966 28967 28968 28969 28970 28971 28972 28973 28974 28975 28976 28977 28978 28979 28980 28981 28982 28983 28984 28985 28986 28987 28988 28989 28990 28991 28992 28993 28994 28995 28996 28997 28998 28999 29000 29001 29002 29003 29004 29005 29006 29007 29008 29009 29010 29011 29012 29013 29014 29015 29016 29017 29018 29019 29020 29021 29022 29023 29024 29025 29026 29027 29028 29029 29030 29031 29032 29033 29034 29035 29036 29037 29038 29039 29040 29041 29042 29043 29044 29045 29046 29047 29048 29049 29050 29051 29052 29053 29054 29055 29056 29057 29058 29059 29060 29061 29062 29063 29064 29065 29066 29067 29068 29069 29070 29071 29072 29073 29074 29075 29076 29077 29078 29079 29080 29081 29082 29083 29084 29085 29086 29087 29088 29089 29090 29091 29092 29093 29094 29095 29096 29097 29098 29099 29100 29101 29102 29103 29104 29105 29106 29107 29108 29109 29110 29111 29112 29113 29114 29115 29116 29117 29118 29119 29120 29121 29122 29123 29124 29125 29126 29127 29128 29129 29130 29131 29132 29133 29134 29135 29136 29137 29138 29139 29140 29141 29142 29143 29144 29145 29146 29147 29148 29149 29150 29151 29152 29153 29154 29155 29156 29157 29158 29159 29160 29161 29162 29163 29164 29165 29166 29167 29168 29169 29170 29171 29172 29173 29174 29175 29176 29177 29178 29179 29180 29181 29182 29183 29184 29185 29186 29187 29188 29189 29190 29191 29192 29193 29194 29195 29196 29197 29198 29199 29200 29201 29202 29203 29204 29205 29206 29207 29208 29209 29210 29211 29212 29213 29214 29215 29216 29217 29218 29219 29220 29221 29222 29223 29224 29225 29226 29227 29228 29229 29230 29231 29232 29233 29234 29235 29236 29237 29238 29239 29240 29241 29242 29243 29244 29245 29246 29247 29248 29249 29250 29251 29252 29253 29254 29255 29256 29257 29258 29259 29260 29261 29262 29263 29264 29265 29266 29267 29268 29269 29270 29271 29272 29273 29274 29275 29276 29277 29278 29279 29280 29281 29282 29283 29284 29285 29286 29287 29288 29289 29290 29291 29292 29293 29294 29295 29296 29297 29298 29299 29300 29301 29302 29303 29304 29305 29306 29307 29308 29309 29310 29311 29312 29313 29314 29315 29316 29317 29318 29319 29320 29321 29322 29323 29324 29325 29326 29327 29328 29329 29330 29331 29332 29333 29334 29335 29336 29337 29338 29339 29340 29341 29342 29343 29344 29345 29346 29347 29348 29349 29350 29351 29352 29353 29354 29355 29356 29357 29358 29359 29360 29361 29362 29363 29364 29365 29366 29367 29368 29369 29370 29371 29372 29373 29374 29375 29376 29377 29378 29379 29380 29381 29382 29383 29384 29385 29386 29387 29388 29389 29390 29391 29392 29393 29394 29395 29396 29397 29398 29399 29400 29401 29402 29403 29404 29405 29406 29407 29408 29409 29410 29411 29412 29413 29414 29415 29416 29417 29418 29419 29420 29421 29422 29423 29424 29425 29426 29427 29428 29429 29430 29431 29432 29433 29434 29435 29436 29437 29438 29439 29440 29441 29442 29443 29444 29445 29446 29447 29448 29449 29450 29451 29452 29453 29454 29455 29456 29457 29458 29459 29460 29461 29462 29463 29464 29465 29466 29467 29468 29469 29470 29471 29472 29473 29474 29475 29476 29477 29478 29479 29480 29481 29482 29483 29484 29485 29486 29487 29488 29489 29490 29491 29492 29493 29494 29495 29496 29497 29498 29499 29500 29501 29502 29503 29504 29505 29506 29507 29508 29509 29510 29511 29512 29513 29514 29515 29516 29517 29518 29519 29520 29521 29522 29523 29524 29525 29526 29527 29528 29529 29530 29531 29532 29533 29534 29535 29536 29537 29538 29539 29540 29541 29542 29543 29544 29545 29546 29547 29548 29549 29550 29551 29552 29553 29554 29555 29556 29557 29558 29559 29560 29561 29562 29563 29564 29565 29566 29567 29568 29569 29570 29571 29572 29573 29574 29575 29576 29577 29578 29579 29580 29581 29582 29583 29584 29585 29586 29587 29588 29589 29590 29591 29592 29593 29594 29595 29596 29597 29598 29599 29600 29601 29602 29603 29604 29605 29606 29607 29608 29609 29610 29611 29612 29613 29614 29615 29616 29617 29618 29619 29620 29621 29622 29623 29624 29625 29626 29627 29628 29629 29630 29631 29632 29633 29634 29635 29636 29637 29638 29639 29640 29641 29642 29643 29644 29645 29646 29647 29648 29649 29650 29651 29652 29653 29654 29655 29656 29657 29658 29659 29660 29661 29662 29663 29664 29665 29666 29667 29668 29669 29670 29671 29672 29673 29674 29675 29676 29677 29678 29679 29680 29681 29682 29683 29684 29685 29686 29687 29688 29689 29690 29691 29692 29693 29694 29695 29696 29697 29698 29699 29700 29701 29702 29703 29704 29705 29706 29707 29708 29709 29710 29711 29712 29713 29714 29715 29716 29717 29718 29719 29720 29721 29722 29723 29724 29725 29726 29727 29728 29729 29730 29731 29732 29733 29734 29735 29736 29737 29738 29739 29740 29741 29742 29743 29744 29745 29746 29747 29748 29749 29750 29751 29752 29753 29754 29755 29756 29757 29758 29759 29760 29761 29762 29763 29764 29765 29766 29767 29768 29769 29770 29771 29772 29773 29774 29775 29776 29777 29778 29779 29780 29781 29782 29783 29784 29785 29786 29787 29788 29789 29790 29791 29792 29793 29794 29795 29796 29797 29798 29799 29800 29801 29802 29803 29804 29805 29806 29807 29808 29809 29810 29811 29812 29813 29814 29815 29816 29817 29818 29819 29820 29821 29822 29823 29824 29825 29826 29827 29828 29829 29830 29831 29832 29833 29834 29835 29836 29837 29838 29839 29840 29841 29842 29843 29844 29845 29846 29847 29848 29849 29850 29851 29852 29853 29854 29855 29856 29857 29858 29859 29860 29861 29862 29863 29864 29865 29866 29867 29868 29869 29870 29871 29872 29873 29874 29875 29876 29877 29878 29879 29880 29881 29882 29883 29884 29885 29886 29887 29888 29889 29890 29891 29892 29893 29894 29895 29896 29897 29898 29899 29900 29901 29902 29903 29904 29905 29906 29907 29908 29909 29910 29911 29912 29913 29914 29915 29916 29917 29918 29919 29920 29921 29922 29923 29924 29925 29926 29927 29928 29929 29930 29931 29932 29933 29934 29935 29936 29937 29938 29939 29940 29941 29942 29943 29944 29945 29946 29947 29948 29949 29950 29951 29952 29953 29954 29955 29956 29957 29958 29959 29960 29961 29962 29963 29964 29965 29966 29967 29968 29969 29970 29971 29972 29973 29974 29975 29976 29977 29978 29979 29980 29981 29982 29983 29984 29985 29986 29987 29988 29989 29990 29991 29992 29993 29994 29995 29996 29997 29998 29999 30000 30001 30002 30003 30004 30005 30006 30007 30008 30009 30010 30011 30012 30013 30014 30015 30016 30017 30018 30019 30020 30021 30022 30023 30024 30025 30026 30027 30028 30029 30030 30031 30032 30033 30034 30035 30036 30037 30038 30039 30040 30041 30042 30043 30044 30045 30046 30047 30048 30049 30050 30051 30052 30053 30054 30055 30056 30057 30058 30059 30060 30061 30062 30063 30064 30065 30066 30067 30068 30069 30070 30071 30072 30073 30074 30075 30076 30077 30078 30079 30080 30081 30082 30083 30084 30085 30086 30087 30088 30089 30090 30091 30092 30093 30094 30095 30096 30097 30098 30099 30100 30101 30102 30103 30104 30105 30106 30107 30108 30109 30110 30111 30112 30113 30114 30115 30116 30117 30118 30119 30120 30121 30122 30123 30124 30125 30126 30127 30128 30129 30130 30131 30132 30133 30134 30135 30136 30137 30138 30139 30140 30141 30142 30143 30144 30145 30146 30147 30148 30149 30150 30151 30152 30153 30154 30155 30156 30157 30158 30159 30160 30161 30162 30163 30164 30165 30166 30167 30168 30169 30170 30171 30172 30173 30174 30175 30176 30177 30178 30179 30180 30181 30182 30183 30184 30185 30186 30187 30188 30189 30190 30191 30192 30193 30194 30195 30196 30197 30198 30199 30200 30201 30202 30203 30204 30205 30206 30207 30208 30209 30210 30211 30212 30213 30214 30215 30216 30217 30218 30219 30220 30221 30222 30223 30224 30225 30226 30227 30228 30229 30230 30231 30232 30233 30234 30235 30236 30237 30238 30239 30240 30241 30242 30243 30244 30245 30246 30247 30248 30249 30250 30251 30252 30253 30254 30255 30256 30257 30258 30259 30260 30261 30262 30263 30264 30265 30266 30267 30268 30269 30270 30271 30272 30273 30274 30275 30276 30277 30278 30279 30280 30281 30282 30283 30284 30285 30286 30287 30288 30289 30290 30291 30292 30293 30294 30295 30296 30297 30298 30299 30300 30301 30302 30303 30304 30305 30306 30307 30308 30309 30310 30311 30312 30313 30314 30315 30316 30317 30318 30319 30320 30321 30322 30323 30324 30325 30326 30327 30328 30329 30330 30331 30332 30333 30334 30335 30336 30337 30338 30339 30340 30341 30342 30343 30344 30345 30346 30347 30348 30349 30350 30351 30352 30353 30354 30355 30356 30357 30358 30359 30360 30361 30362 30363 30364 30365 30366 30367 30368 30369 30370 30371 30372 30373 30374 30375 30376 30377 30378 30379 30380 30381 30382 30383 30384 30385 30386 30387 30388 30389 30390 30391 30392 30393 30394 30395 30396 30397 30398 30399 30400 30401 30402 30403 30404 30405 30406 30407 30408 30409 30410 30411 30412 30413 30414 30415 30416 30417 30418 30419 30420 30421 30422 30423 30424 30425 30426 30427 30428 30429 30430 30431 30432 30433 30434 30435 30436 30437 30438 30439 30440 30441 30442 30443 30444 30445 30446 30447 30448 30449 30450 30451 30452 30453 30454 30455 30456 30457 30458 30459 30460 30461 30462 30463 30464 30465 30466 30467 30468 30469 30470 30471 30472 30473 30474 30475 30476 30477 30478 30479 30480 30481 30482 30483 30484 30485 30486 30487 30488 30489 30490 30491 30492 30493 30494 30495 30496 30497 30498 30499 30500 30501 30502 30503 30504 30505 30506 30507 30508 30509 30510 30511 30512 30513 30514 30515 30516 30517 30518 30519 30520 30521 30522 30523 30524 30525 30526 30527 30528 30529 30530 30531 30532 30533 30534 30535 30536 30537 30538 30539 30540 30541 30542 30543 30544 30545 30546 30547 30548 30549 30550 30551 30552 30553 30554 30555 30556 30557 30558 30559 30560 30561 30562 30563 30564 30565 30566 30567 30568 30569 30570 30571 30572 30573 30574 30575 30576 30577 30578 30579 30580 30581 30582 30583 30584 30585 30586 30587 30588 30589 30590 30591 30592 30593 30594 30595 30596 30597 30598 30599 30600 30601 30602 30603 30604 30605 30606 30607 30608 30609 30610 30611 30612 30613 30614 30615 30616 30617 30618 30619 30620 30621 30622 30623 30624 30625 30626 30627 30628 30629 30630 30631 30632 30633 30634 30635 30636 30637 30638 30639 30640 30641 30642 30643 30644 30645 30646 30647 30648 30649 30650 30651 30652 30653 30654 30655 30656 30657 30658 30659 30660 30661 30662 30663 30664 30665 30666 30667 30668 30669 30670 30671 30672 30673 30674 30675 30676 30677 30678 30679 30680 30681 30682 30683 30684 30685 30686 30687 30688 30689 30690 30691 30692 30693 30694 30695 30696 30697 30698 30699 30700 30701 30702 30703 30704 30705 30706 30707 30708 30709 30710 30711 30712 30713 30714 30715 30716 30717 30718 30719 30720 30721 30722 30723 30724 30725 30726 30727 30728 30729 30730 30731 30732 30733 30734 30735 30736 30737 30738 30739 30740 30741 30742 30743 30744 30745 30746 30747 30748 30749 30750 30751 30752 30753 30754 30755 30756 30757 30758 30759 30760 30761 30762 30763 30764 30765 30766 30767 30768 30769 30770 30771 30772 30773 30774 30775 30776 30777 30778 30779 30780 30781 30782 30783 30784 30785 30786 30787 30788 30789 30790 30791 30792 30793 30794 30795 30796 30797 30798 30799 30800 30801 30802 30803 30804 30805 30806 30807 30808 30809 30810 30811 30812 30813 30814 30815 30816 30817 30818 30819 30820 30821 30822 30823 30824 30825 30826 30827 30828 30829 30830 30831 30832 30833 30834 30835 30836 30837 30838 30839 30840 30841 30842 30843 30844 30845 30846 30847 30848 30849 30850 30851 30852 30853 30854 30855 30856 30857 30858 30859 30860 30861 30862 30863 30864 30865 30866 30867 30868 30869 30870 30871 30872 30873 30874 30875 30876 30877 30878 30879 30880 30881 30882 30883 30884 30885 30886 30887 30888 30889 30890 30891 30892 30893 30894 30895 30896 30897 30898 30899 30900 30901 30902 30903 30904 30905 30906 30907 30908 30909 30910 30911 30912 30913 30914 30915 30916 30917 30918 30919 30920 30921 30922 30923 30924 30925 30926 30927 30928 30929 30930 30931 30932 30933 30934 30935 30936 30937 30938 30939 30940 30941 30942 30943 30944 30945 30946 30947 30948 30949 30950 30951 30952 30953 30954 30955 30956 30957 30958 30959 30960 30961 30962 30963 30964 30965 30966 30967 30968 30969 30970 30971 30972 30973 30974 30975 30976 30977 30978 30979 30980 30981 30982 30983 30984 30985 30986 30987 30988 30989 30990 30991 30992 30993 30994 30995 30996 30997 30998 30999 31000 31001 31002 31003 31004 31005 31006 31007 31008 31009 31010 31011 31012 31013 31014 31015 31016 31017 31018 31019 31020 31021 31022 31023 31024 31025 31026 31027 31028 31029 31030 31031 31032 31033 31034 31035 31036 31037 31038 31039 31040 31041 31042 31043 31044 31045 31046 31047 31048 31049 31050 31051 31052 31053 31054 31055 31056 31057 31058 31059 31060 31061 31062 31063 31064 31065 31066 31067 31068 31069 31070 31071 31072 31073 31074 31075 31076 31077 31078 31079 31080 31081 31082 31083 31084 31085 31086 31087 31088 31089 31090 31091 31092 31093 31094 31095 31096 31097 31098 31099 31100 31101 31102 31103 31104 31105 31106 31107 31108 31109 31110 31111 31112 31113 31114 31115 31116 31117 31118 31119 31120 31121 31122 31123 31124 31125 31126 31127 31128 31129 31130 31131 31132 31133 31134 31135 31136 31137 31138 31139 31140 31141 31142 31143 31144 31145 31146 31147 31148 31149 31150 31151 31152 31153 31154 31155 31156 31157 31158 31159 31160 31161 31162 31163 31164 31165 31166 31167 31168 31169 31170 31171 31172 31173 31174 31175 31176 31177 31178 31179 31180 31181 31182 31183 31184 31185 31186 31187 31188 31189 31190 31191 31192 31193 31194 31195 31196 31197 31198 31199 31200 31201 31202 31203 31204 31205 31206 31207 31208 31209 31210 31211 31212 31213 31214 31215 31216 31217 31218 31219 31220 31221 31222 31223 31224 31225 31226 31227 31228 31229 31230 31231 31232 31233 31234 31235 31236 31237 31238 31239 31240 31241 31242 31243 31244 31245 31246 31247 31248 31249 31250 31251 31252 31253 31254 31255 31256 31257 31258 31259 31260 31261 31262 31263 31264 31265 31266 31267 31268 31269 31270 31271 31272 31273 31274 31275 31276 31277 31278 31279 31280 31281 31282 31283 31284 31285 31286 31287 31288 31289 31290 31291 31292 31293 31294 31295 31296 31297 31298 31299 31300 31301 31302 31303 31304 31305 31306 31307 31308 31309 31310 31311 31312 31313 31314 31315 31316 31317 31318 31319 31320 31321 31322 31323 31324 31325 31326 31327 31328 31329 31330 31331 31332 31333 31334 31335 31336 31337 31338 31339 31340 31341 31342 31343 31344 31345 31346 31347 31348 31349 31350 31351 31352 31353 31354 31355 31356 31357 31358 31359 31360 31361 31362 31363 31364 31365 31366 31367 31368 31369 31370 31371 31372 31373 31374 31375 31376 31377 31378 31379 31380 31381 31382 31383 31384 31385 31386 31387 31388 31389 31390 31391 31392 31393 31394 31395 31396 31397 31398 31399 31400 31401 31402 31403 31404 31405 31406 31407 31408 31409 31410 31411 31412 31413 31414 31415 31416 31417 31418 31419 31420 31421 31422 31423 31424 31425 31426 31427 31428 31429 31430 31431 31432 31433 31434 31435 31436 31437 31438 31439 31440 31441 31442 31443 31444 31445 31446 31447 31448 31449 31450 31451 31452 31453 31454 31455 31456 31457 31458 31459 31460 31461 31462 31463 31464 31465 31466 31467 31468 31469 31470 31471 31472 31473 31474 31475 31476 31477 31478 31479 31480 31481 31482 31483 31484 31485 31486 31487 31488 31489 31490 31491 31492 31493 31494 31495 31496 31497 31498 31499 31500 31501 31502 31503 31504 31505 31506 31507 31508 31509 31510 31511 31512 31513 31514 31515 31516 31517 31518 31519 31520 31521 31522 31523 31524 31525 31526 31527 31528 31529 31530 31531 31532 31533 31534 31535 31536 31537 31538 31539 31540 31541 31542 31543 31544 31545 31546 31547 31548 31549 31550 31551 31552 31553 31554 31555 31556 31557 31558 31559 31560 31561 31562 31563 31564 31565 31566 31567 31568 31569 31570 31571 31572 31573 31574 31575 31576 31577 31578 31579 31580 31581 31582 31583 31584 31585 31586 31587 31588 31589 31590 31591 31592 31593 31594 31595 31596 31597 31598 31599 31600 31601 31602 31603 31604 31605 31606 31607 31608 31609 31610 31611 31612 31613 31614 31615 31616 31617 31618 31619 31620 31621 31622 31623 31624 31625 31626 31627 31628 31629 31630 31631 31632 31633 31634 31635 31636 31637 31638 31639 31640 31641 31642 31643 31644 31645 31646 31647 31648 31649 31650 31651 31652 31653 31654 31655 31656 31657 31658 31659 31660 31661 31662 31663 31664 31665 31666 31667 31668 31669 31670 31671 31672 31673 31674 31675 31676 31677 31678 31679 31680 31681 31682 31683 31684 31685 31686 31687 31688 31689 31690 31691 31692 31693 31694 31695 31696 31697 31698 31699 31700 31701 31702 31703 31704 31705 31706 31707 31708 31709 31710 31711 31712 31713 31714 31715 31716 31717 31718 31719 31720 31721 31722 31723 31724 31725 31726 31727 31728 31729 31730 31731 31732 31733 31734 31735 31736 31737 31738 31739 31740 31741 31742 31743 31744 31745 31746 31747 31748 31749 31750 31751 31752 31753 31754 31755 31756 31757 31758 31759 31760 31761 31762 31763 31764 31765 31766 31767 31768 31769 31770 31771 31772 31773 31774 31775 31776 31777 31778 31779 31780 31781 31782 31783 31784 31785 31786 31787 31788 31789 31790 31791 31792 31793 31794 31795 31796 31797 31798 31799 31800 31801 31802 31803 31804 31805 31806 31807 31808 31809 31810 31811 31812 31813 31814 31815 31816 31817 31818 31819 31820 31821 31822 31823 31824 31825 31826 31827 31828 31829 31830 31831 31832 31833 31834 31835 31836 31837 31838 31839 31840 31841 31842 31843 31844 31845 31846 31847 31848 31849 31850 31851 31852 31853 31854 31855 31856 31857 31858 31859 31860 31861 31862 31863 31864 31865 31866 31867 31868 31869 31870 31871 31872 31873 31874 31875 31876 31877 31878 31879 31880 31881 31882 31883 31884 31885 31886 31887 31888 31889 31890 31891 31892 31893 31894 31895 31896 31897 
</DataArray>
<DataArray type="UInt32" Name="offsets" format="ascii">
3 6 9 12 15 17 20 23 26 29 32 35 38 40 43 46 49 52 54 57 60 62 65 68 71 74 76 79 82 85 88 90 93 96 99 102 105 108 111 114 117 120 123 126 129 131 134 137 139 142 145 148 151 154 156 159 162 165 168 171 174 177 179 182 185 188 191 193 196 199 202 205 208 211 214 217 220 222 225 228 230 233 236 238 241 244 247 250 252 255 258 261 264 267 270 273 275 277 279 282 285 287 290 293 296 299 302 304 307 310 313 316 319 322 325 328 331 334 337 340 343 345 348 351 354 356 359 362 365 368 371 374 376 379 382 385 388 391 394 397 400 403 406 409 412 415 418 421 424 427 430 433 436 439 442 445 448 451 453 456 459 462 464 467 470 472 475 478 481 484 487 490 493 496 499 502 505 507 510 513 516 519 522 525 528 531 533 536 539 542 545 548 551 554 557 559 562 565 568 571 574 577 580 583 586 588 591 594 597 600 603 606 609 612 615 618 621 624 627 630 633 636 639 642 645 648 651 654 657 659 662 665 668 670 673 675 678 680 683 686 688 691 694 697 699 702 704 707 709 712 714 716 719 721 724 727 729 732 734 737 740 743 745 748 750 752 755 758 760 763 766 769 771 774 776 778 780 783 785 788 791 794 796 799 801 803 805 808 811 813 815 818 821 824 827 829 832 834 837 840 842 845 848 851 853 856 858 860 862 865 868 871 873 876 878 880 882 884 887 890 893 895 897 900 903 905 907 909 912 914 917 920 923 926 928 931 934 937 940 943 946 949 951 954 957 960 963 966 969 971 973 976 979 982 984 987 990 993 995 998 1000 1003 1005 1007 1010 1013 1016 1019 1021 1024 1027 1029 1032 1035 1038 1041 1043 1046 1048 1051 1054 1057 1060 1063 1065 1067 1070 1073 1076 1079 1082 1085 1088 1091 1093 1096 1099 1102 1104 1107 1110 1112 1115 1117 1120 1123 1126 1129 1132 1135 1138 1141 1144 1147 1150 1152 1155 1157 1160 1162 1165 1168 1171 1173 1176 1178 1181 1183 1186 1189 1192 1195 1198 1201 1203 1206 1208 1211 1214 1217 1219 1222 1225 1228 1230 1233 1235 1237 1240 1243 1246 1249 1251 1254 1257 1260 1263 1265 1267 1270 1273 1275 1278 1280 1283 1285 1287 1290 1293 1296 1298 1301 1304 1307 1310 1312 1315 1318 1321 1324 1327 1330 1333 1336 1339 1342 1345 1347 1350 1353 1356 1359 1361 1364 1367 1370 1372 1375 1377 1379 1381 1384 1387 1390 1392 1394 1397 1399 1402 1405 1407 1410 1413 1416 1419 1421 1424 1427 1430 1433 1436 1439 1442 1445 1448 1451 1454 1456 1458 1461 1464 1466 1469 1472 1475 1477 1480 1483 1486 1489 1492 1495 1497 1500 1503 1506 1508 1511 1514 1517 1519 1522 1525 1528 1531 1534 1537 1540 1543 1546 1549 1552 1554 1557 1560 1563 1565 1568 1571 1574 1577 1580 1583 1586 1588 1591 1594 1597 1600 1603 1605 1608 1611 1614 1617 1620 1623 1626 1629 1632 1635 1638 1641 1644 1647 1650 1653 1656 1659 1662 1664 1667 1670 1673 1676 1678 1681 1684 1686 1689 1692 1695 1698 1701 1704 1707 1709 1712 1715 1718 1721 1724 1727 1730 1733 1735 1738 1740 1743 1746 1748 1751 1754 1757 1759 1762 1765 1767 1770 1773 1776 1778 1781 1783 1786 1789 1791 1794 1796 1799 1802 1805 1808 1811 1814 1817 1820 1823 1826 1829 1832 1835 1838 1841 1844 1847 1850 1853 1856 1859 1862 1864 1867 1869 1872 1874 1877 1880 1883 1886 1889 1892 1895 1898 1901 1904 1907 1910 1913 1916 1919 1921 1924 1927 1930 1933 1936 1939 1942 1945 1948 1950 1953 1956 1959 1962 1965 1968 1971 1974 1977 1980 1983 1986 1989 1992 1995 1998 2001 2004 2007 2010 2013 2016 2019 2022 2025 2028 2031 2034 2037 2039 2042 2045 2047 2050 2053 2056 2058 2060 2063 2065 2068 2071 2074 2077 2080 2082 2085 2088 2091 2094 2097 2099 2102 2105 2108 2111 2114 2117 2120 2123 2126 2129 2132 2135 2138 2141 2144 2147 2150 2153 2156 2159 2162 2165 2168 2171 2174 2177 2180 2183 2186 2189 2192 2195 2198 2201 2204 2207 2210 2213 2216 2219 2222 2225 2228 2231 2234 2237 2240 2243 2246 2248 2251 2254 2257 2260 2263 2266 2269 2272 2275 2278 2281 2284 2287 2290 2293 2295 2298 2301 2304 2307 2309 2312 2315 2318 2321 2324 2327 2330 2333 2336 2339 2342 2345 2348 2351 2354 2357 2360 2363 2366 2369 2372 2375 2378 2381 2384 2387 2390 2392 2395 2398 2400 2403 2405 2407 2409 2411 2414 2417 2419 2422 2425 2428 2431 2434 2437 2440 2443 2446 2449 2452 2455 2458 2461 2464 2467 2470 2472 2475 2478 2480 2483 2485 2488 2491 2494 2497 2499 2502 2504 2507 2510 2513 2516 2518 2521 2524 2527 2529 2532 2535 2538 2541 2544 2546 2549 2551 2554 2557 2559 2561 2564 2566 2569 2572 2575 2578 2581 2584 2587 2590 2593 2596 2599 2601 2604 2607 2610 2612 2615 2618 2621 2623 2626 2629 2631 2633 2635 2638 2641 2644 2647 2650 2653 2656 2659 2662 2665 2668 2670 2673 2676 2679 2682 2685 2688 2691 2694 2696 2698 2700 2703 2706 2709 2712 2715 2718 2721 2724 2726 2728 2731 2734 2737 2739 2742 2745 2747 2750 2753 2756 2759 2762 2765 2768 2771 2774 2777 2780 2782 2785 2788 2791 2794 2797 2800 2803 2806 2808 2811 2814 2817 2820 2823 2826 2829 2832 2835 2838 2840 2843 2845 2847 2849 2852 2855 2858 2861 2864 2867 2870 2872 2874 2877 2879 2882 2885 2888 2891 2894 2896 2899 2901 2903 2906 2909 2912 2914 2917 2919 2922 2925 2928 2931 2933 2936 2939 2942 2945 2948 2951 2954 2957 2960 2963 2966 2969 2972 2975 2978 2981 2984 2986 2989 2992 2995 2997 3000 3003 3006 3009 3012 3014 3017 3020 3023 3026 3029 3032 3034 3037 3039 3042 3045 3048 3051 3054 3057 3060 3063 3065 3068 3071 3074 3076 3079 3082 3085 3088 3091 3094 3097 3100 3103 3106 3109 3112 3115 3118 3121 3124 3127 3130 3133 3136 3139 3142 3145 3148 3151 3153 3155 3157 3160 3163 3166 3169 3171 3174 3177 3180 3183 3185 3188 3191 3194 3197 3200 3203 3206 3208 3211 3214 3217 3220 3223 3226 3229 3232 3234 3237 3240 3243 3246 3249 3252 3255 3258 3261 3264 3267 3270 3272 3275 3278 3281 3284 3287 3290 3292 3295 3298 3301 3304 3307 3310 3313 3316 3318 3321 3324 3327 3329 3332 3335 3338 3341 3344 3347 3350 3353 3356 3359 3362 3365 3367 3370 3373 3376 3379 3382 3385 3388 3391 3394 3397 3400 3403 3406 3409 3412 3415 3418 3421 3424 3427 3430 3433 3436 3439 3442 3445 3448 3451 3454 3457 3460 3463 3466 3469 3472 3475 3478 3481 3484 3487 3490 3493 3496 3499 3502 3505 3508 3510 3513 3516 3519 3522 3525 3528 3531 3534 3537 3540 3543 3546 3549 3552 3555 3558 3561 3564 3567 3570 3573 3576 3579 3582 3584 3587 3590 3593 3596 3599 3602 3605 3608 3611 3614 3616 3619 3622 3624 3627 3630 3633 3636 3639 3642 3645 3648 3651 3653 3656 3658 3661 3664 3667 3670 3672 3675 3678 3680 3683 3685 3688 3691 3694 3697 3700 3702 3705 3708 3711 3714 3717 3720 3723 3726 3728 3731 3734 3737 3740 3743 3746 3749 3752 3755 3758 3761 3764 3767 3770 3772 3775 3777 3779 3782 3785 3788 3791 3794 3796 3799 3802 3805 3808 3811 3814 3817 3820 3823 3826 3829 3832 3835 3838 3841 3843 3846 3849 3852 3855 3858 3861 3864 3867 3870 3873 3876 3879 3882 3885 3888 3891 3893 3896 3899 3902 3905 3908 3910 3912 3915 3918 3920 3923 3926 3929 3932 3935 3938 3941 3944 3947 3950 3952 3955 3958 3961 3964 3967 3970 3973 3976 3979 3981 3984 3986 3989 3992 3995 3998 4001 4003 4006 4009 4012 4015 4017 4020 4023 4026 4028 4031 4034 4037 4039 4042 4045 4047 4050 4053 4056 4059 4062 4065 4068 4071 4074 4077 4080 4083 4086 4089 4092 4095 4097 4100 4103 4106 4109 4112 4115 4118 4120 4123 4126 4129 4132 4135 4138 4141 4144 4147 4150 4153 4156 4159 4162 4165 4168 4171 4174 4177 4180 4183 4186 4189 4192 4195 4198 4201 4203 4206 4209 4212 4215 4217 4220 4223 4226 4228 4231 4234 4237 4240 4243 4246 4249 4252 4255 4257 4260 4262 4265 4268 4271 4274 4277 4280 4283 4286 4289 4292 4295 4298 4301 4304 4307 4310 4313 4316 4318 4320 4323 4326 4329 4331 4334 4337 4339 4342 4345 4347 4350 4353 4356 4358 4361 4364 4366 4369 4372 4375 4378 4381 4384 4387 4390 4393 4396 4399 4402 4405 4408 4411 4414 4417 4420 4423 4426 4428 4431 4433 4436 4439 4442 4445 4448 4451 4454 4457 4460 4463 4466 4468 4471 4473 4476 4479 4482 4484 4487 4490 4493 4496 4499 4501 4504 4507 4510 4513 4516 4519 4521 4524 4527 4530 4533 4536 4539 4542 4545 4548 4551 4554 4556 4559 4562 4565 4568 4571 4574 4577 4580 4582 4585 4588 4591 4593 4596 4599 4601 4604 4607 4610 4613 4616 4618 4621 4624 4627 4630 4633 4636 4639 4642 4645 4647 4650 4653 4655 4658 4660 4663 4665 4667 4669 4672 4674 4677 4680 4683 4686 4689 4692 4694 4697 4700 4703 4706 4709 4712 4714 4717 4720 4723 4726 4729 4732 4735 4737 4740 4743 4746 4749 4751 4754 4757 4760 4763 4766 4768 4771 4773 4776 4779 4782 4785 4788 4791 4794 4797 4800 4803 4805 4808 4811 4814 4817 4820 4823 4826 4828 4831 4834 4837 4840 4843 4846 4849 4851 4854 4856 4859 4862 4865 4868 4871 4874 4877 4880 4882 4885 4888 4891 4893 4895 4898 4901 4904 4907 4910 4912 4914 4917 4919 4922 4925 4927 4930 4933 4935 4938 4941 4944 4947 4950 4953 4956 4959 4961 4964 4967 4970 4973 4976 4978 4981 4984 4987 4990 4992 4995 4998 5000 5003 5006 5009 5012 5015 5018 5021 5024 5027 5030 5033 5036 5039 5042 5045 5048 5051 5054 5057 5060 5063 5066 5069 5072 5075 5078 5081 5084 5087 5090 5093 5096 5099 5102 5105 5108 5111 5114 5117 5120 5123 5125 5128 5131 5133 5136 5139 5142 5145 5148 5150 5153 5156 5159 5162 5164 5167 5170 5173 5176 5179 5182 5185 5188 5191 5194 5197 5200 5203 5206 5209 5212 5215 5218 5221 5224 5227 5230 5233 5236 5238 5241 5244 5247 5249 5252 5255 5258 5261 5264 5267 5269 5272 5275 5278 5281 5284 5287 5290 5293 5296 5299 5302 5304 5307 5309 5311 5314 5317 5319 5322 5325 5328 5331 5334 5337 5340 5343 5346 5349 5352 5354 5357 5360 5362 5365 5368 5371 5374 5377 5380 5383 5386 5389 5392 5395 5398 5401 5404 5407 5409 5412 5415 5418 5421 5424 5427 5430 5432 5435 5437 5440 5443 5446 5449 5451 5454 5456 5459 5462 5465 5468 5471 5474 5477 5480 5483 5485 5488 5491 5494 5497 5500 5503 5506 5509 5512 5515 5518 5521 5524 5527 5530 5533 5536 5538 5541 5544 5547 5550 5553 5556 5559 5562 5565 5568 5571 5574 5577 5580 5583 5586 5589 5592 5595 5598 5601 5604 5607 5610 5613 5615 5617 5620 5623 5626 5629 5632 5635 5638 5641 5644 5647 5650 5652 5655 5658 5661 5664 5666 5669 5672 5675 5678 5680 5683 5686 5689 5692 5695 5698 5701 5704 5706 5709 5712 5715 5718 5721 5724 5727 5730 5733 5735 5738 5741 5744 5747 5750 5753 5756 5759 5762 5765 5768 5771 5774 5777 5780 5783 5786 5789 5792 5795 5797 5800 5803 5806 5809 5812 5815 5818 5821 5824 5827 5830 5833 5836 5839 5841 5844 5846 5849 5852 5855 5858 5861 5864 5867 5870 5872 5875 5878 5880 5883 5886 5889 5892 5895 5898 5901 5904 5907 5910 5913 5916 5919 5922 5925 5928 5931 5934 5937 5940 5943 5946 5949 5952 5955 5958 5961 5964 5967 5970 5973 5976 5979 5982 5985 5988 5990 5993 5996 5998 6001 6004 6007 6010 6012 6015 6017 6020 6023 6025 6028 6030 6033 6036 6039 6042 6045 6047 6050 6053 6056 6059 6062 6065 6068 6071 6074 6077 6080 6083 6085 6088 6091 6094 6096 6099 6102 6105 6108 6111 6114 6117 6120 6123 6125 6128 6131 6134 6137 6139 6141 6144 6147 6150 6153 6156 6159 6162 6165 6167 6170 6173 6176 6179 6182 6184 6187 6190 6193 6195 6198 6201 6204 6206 6209 6212 6215 6218 6220 6223 6226 6229 6232 6235 6238 6241 6244 6247 6250 6253 6256 6259 6262 6264 6267 6270 6273 6276 6279 6282 6284 6287 6289 6291 6294 6296 6299 6301 6304 6307 6310 6313 6315 6318 6321 6324 6327 6329 6332 6335 6338 6341 6344 6347 6350 6353 6356 6358 6361 6364 6367 6370 6373 6376 6379 6382 6385 6388 6391 6394 6397 6400 6402 6405 6408 6411 6413 6416 6419 6422 6424 6427 6429 6432 6435 6438 6441 6444 6447 6450 6453 6456 6459 6462 6465 6468 6471 6474 6477 6479 6482 6485 6488 6491 6494 6497 6499 6502 6505 6508 6511 6514 6517 6520 6523 6526 6529 6532 6535 6538 6541 6544 6547 6550 6553 6555 6558 6561 6564 6567 6570 6573 6576 6579 6582 6585 6588 6591 6594 6597 6600 6603 6606 6609 6612 6615 6618 6621 6624 6627 6630 6633 6636 6639 6642 6645 6648 6651 6654 6657 6659 6662 6665 6668 6671 6673 6676 6679 6682 6685 6688 6691 6694 6696 6699 6702 6705 6708 6711 6714 6717 6720 6723 6725 6728 6731 6733 6736 6739 6742 6745 6748 6750 6753 6756 6759 6761 6764 6767 6769 6772 6775 6778 6781 6784 6787 6790 6793 6796 6799 6802 6805 6808 6811 6814 6817 6820 6823 6826 6829 6831 6834 6837 6840 6843 6846 6849 6852 6855 6858 6861 6863 6865 6868 6870 6873 6876 6879 6882 6885 6887 6890 6893 6896 6899 6901 6904 6907 6910 6913 6916 6918 6921 6923 6926 6929 6931 6934 6937 6940 6943 6946 6949 6952 6955 6957 6960 6963 6966 6969 6972 6975 6977 6980 6983 6986 6989 6992 6995 6997 7000 7003 7006 7009 7011 7014 7017 7019 7022 7024 7027 7030 7032 7035 7038 7041 7044 7047 7050 7052 7055 7058 7061 7064 7066 7069 7072 7075 7078 7081 7084 7087 7090 7092 7094 7097 7100 7103 7106 7109 7112 7115 7118 7120 7123 7126 7129 7132 7135 7138 7140 7143 7146 7149 7152 7155 7158 7161 7163 7166 7169 7172 7174 7177 7180 7183 7186 7189 7192 7195 7198 7201 7204 7207 7210 7212 7215 7218 7221 7224 7226 7229 7232 7234 7237 7240 7243 7246 7248 7251 7254 7257 7259 7261 7264 7267 7270 7272 7275 7278 7281 7283 7286 7289 7292 7295 7298 7301 7304 7307 7310 7312 7315 7318 7321 7323 7326 7329 7332 7335 7338 7341 7344 7347 7350 7353 7356 7359 7361 7364 7366 7369 7372 7374 7377 7380 7382 7385 7388 7391 7394 7397 7400 7403 7405 7408 7411 7414 7417 7420 7422 7425 7427 7430 7433 7436 7438 7440 7443 7445 7447 7450 7452 7455 7458 7461 7464 7467 7470 7472 7475 7477 7480 7483 7486 7489 7492 7495 7498 7501 7504 7507 7510 7513 7516 7518 7521 7524 7526 7529 7531 7534 7537 7539 7542 7545 7548 7550 7552 7555 7558 7560 7563 7566 7569 7572 7575 7578 7581 7584 7587 7590 7593 7596 7599 7602 7605 7608 7611 7614 7617 7620 7623 7626 7629 7631 7633 7636 7638 7641 7643 7646 7649 7651 7653 7656 7659 7661 7664 7667 7669 7672 7675 7677 7680 7682 7685 7688 7691 7694 7696 7699 7702 7705 7708 7710 7713 7715 7717 7720 7722 7725 7728 7730 7732 7735 7738 7741 7743 7746 7749 7752 7755 7757 7759 7762 7765 7768 7771 7774 7776 7779 7782 7785 7788 7791 7794 7797 7800 7803 7806 7809 7811 7814 7816 7819 7821 7824 7827 7829 7832 7834 7837 7840 7843 7846 7849 7852 7855 7858 7860 7863 7866 7868 7871 7874 7877 7880 7882 7885 7888 7891 7894 7897 7900 7903 7906 7909 7912 7915 7918 7920 7923 7926 7929 7932 7935 7938 7941 7944 7947 7950 7953 7955 7958 7961 7964 7967 7970 7973 7975 7978 7980 7983 7986 7988 7991 7994 7997 8000 8003 8006 8009 8012 8015 8018 8021 8024 8027 8030 8033 8036 8039 8041 8043 8046 8049 8052 8054 8057 8060 8062 8065 8068 8071 8074 8077 8080 8083 8086 8089 8092 8095 8098 8101 8104 8107 8110 8113 8116 8119 8122 8125 8128 8131 8134 8137 8139 8141 8144 8147 8150 8153 8156 8159 8162 8165 8168 8171 8174 8176 8179 8182 8185 8188 8191 8194 8197 8200 8203 8206 8209 8212 8215 8218 8221 8224 8227 8230 8233 8236 8239 8242 8245 8248 8251 8254 8257 8260 8263 8266 8269 8272 8275 8277 8280 8283 8286 8289 8292 8294 8297 8300 8302 8305 8308 8310 8312 8315 8318 8321 8324 8327 8330 8333 8336 8339 8342 8345 8348 8351 8353 8356 8359 8361 8364 8367 8370 8373 8376 8379 8381 8384 8387 8389 8392 8395 8398 8401 8404 8407 8410 8413 8416 8419 8422 8425 8428 8430 8433 8436 8439 8442 8445 8448 8451 8453 8456 8459 8462 8465 8468 8471 8474 8477 8480 8483 8486 8489 8491 8494 8497 8499 8502 8505 8508 8511 8514 8517 8520 8523 8526 8529 8532 8535 8538 8541 8544 8547 8550 8553 8556 8559 8561 8564 8567 8569 8572 8574 8577 8580 8583 8585 8588 8591 8593 8596 8598 8601 8604 8607 8609 8612 8615 8618 8621 8623 8626 8629 8632 8635 8638 8641 8644 8646 8649 8652 8655 8657 8660 8663 8666 8669 8672 8675 8678 8681 8684 8687 8690 8693 8695 8698 8701 8704 8707 8710 8713 8716 8719 8721 8724 8727 8730 8733 8736 8739 8742 8745 8748 8751 8754 8756 8759 8762 8765 8768 8771 8774 8777 8780 8783 8786 8789 8792 8795 8798 8801 8804 8807 8810 8813 8815 8817 8820 8823 8826 8828 8831 8834 8837 8840 8843 8846 8849 8852 8855 8858 8861 8864 8866 8869 8872 8875 8878 8881 8884 8887 8890 8893 8895 8898 8901 8904 8907 8910 8913 8916 8919 8922 8925 8928 8931 8934 8937 8940 8943 8945 8948 8950 8953 8956 8959 8962 8965 8967 8970 8973 8976 8979 8981 8984 8987 8990 8992 8995 8998 9001 9003 9006 9009 9012 9015 9018 9021 9024 9027 9030 9032 9035 9038 9041 9043 9046 9049 9051 9054 9057 9060 9063 9066 9069 9071 9074 9077 9080 9083 9086 9089 9092 9095 9097 9100 9103 9106 9108 9111 9114 9117 9120 9123 9126 9129 9132 9135 9138 9141 9144 9147 9150 9153 9156 9159 9162 9165 9168 9171 9174 9177 9180 9183 9186 9189 9191 9194 9197 9200 9203 9206 9209 9212 9214 9217 9220 9223 9226 9229 9232 9235 9238 9241 9244 9247 9250 9253 9256 9259 9262 9265 9268 9271 9274 9277 9280 9283 9286 9289 9291 9294 9296 9299 9302 9305 9308 9311 9314 9316 9319 9322 9325 9327 9330 9333 9335 9338 9341 9344 9347 9350 9353 9356 9359 9362 9365 9368 9371 9373 9376 9379 9382 9385 9388 9390 9393 9396 9399 9402 9405 9408 9411 9414 9417 9420 9423 9426 9429 9431 9434 9437 9440 9442 9445 9448 9451 9454 9457 9460 9463 9466 9469 9472 9475 9478 9480 9482 9485 9488 9491 9494 9496 9499 9502 9505 9508 9511 9514 9517 9520 9523 9525 9527 9530 9533 9536 9539 9542 9544 9547 9550 9553 9556 9559 9561 9564 9567 9570 9573 9576 9578 9581 9583 9586 9589 9592 9595 9597 9600 9602 9605 9607 9609 9612 9615 9618 9621 9624 9627 9630 9632 9634 9637 9640 9643 9646 9649 9652 9654 9656 9658 9661 9663 9665 9668 9671 9674 9676 9679 9682 9685 9688 9691 9693 9695 9697 9700 9702 9705 9708 9711 9713 9716 9718 9720 9723 9726 9729 9732 9735 9738 9741 9743 9745 9748 9751 9753 9755 9757 9760 9763 9766 9769 9772 9775 9778 9781 9784 9787 9790 9793 9796 9799 9802 9805 9808 9811 9814 9817 9820 9823 9826 9829 9832 9835 9838 9841 9844 9847 9850 9853 9856 9859 9862 9865 9868 9871 9874 9877 9879 9882 9885 9888 9891 9894 9897 9900 9903 9906 9909 9911 9914 9917 9920 9923 9926 9929 9931 9934 9937 9939 9942 9945 9948 9951 9954 9957 9960 9963 9966 9969 9972 9975 9978 9980 9983 9985 9988 9991 9994 9997 9999 10002 10005 10008 10010 10013 10016 10018 10021 10024 10027 10029 10032 10035 10037 10040 10043 10046 10049 10052 10054 10057 10060 10063 10066 10069 10072 10075 10077 10080 10083 10086 10089 10092 10095 10098 10100 10103 10106 10108 10111 10114 10117 10120 10122 10125 10127 10130 10133 10136 10139 10142 10144 10147 10150 10153 10156 10158 10161 10164 10167 10170 10173 10176 10178 10180 10183 10186 10189 10192 10195 10197 10200 10203 10205 10208 10211 10214 10217 10220 10223 10226 10229 10232 10235 10237 10240 10243 10246 10249 10252 10255 10258 10261 10264 10267 10270 10273 10276 10279 10282 10285 10288 10291 10293 10296 10299 10302 10305 10308 10311 10313 10316 10319 10322 10325 10328 10331 10334 10336 10338 10341 10344 10347 10350 10352 10355 10358 10361 10364 10367 10370 10373 10375 10378 10381 10383 10386 10388 10390 10392 10395 10398 10401 10404 10407 10410 10412 10415 10418 10421 10424 10427 10429 10432 10435 10438 10441 10443 10446 10449 10452 10454 10457 10460 10463 10465 10468 10471 10474 10477 10480 10483 10486 10489 10492 10495 10498 10501 10504 10507 10510 10513 10516 10519 10522 10525 10528 10531 10534 10537 10540 10542 10545 10548 10551 10554 10557 10560 10563 10565 10568 10570 10573 10576 10579 10582 10585 10588 10590 10593 10596 10598 10601 10604 10607 10609 10612 10615 10617 10620 10623 10626 10629 10632 10634 10637 10640 10643 10645 10647 10650 10653 10656 10659 10662 10665 10668 10671 10674 10677 10680 10683 10685 10688 10691 10694 10697 10700 10703 10706 10709 10712 10714 10717 10720 10723 10726 10729 10731 10733 10736 10739 10742 10745 10748 10751 10754 10757 10760 10762 10765 10768 10771 10774 10777 10780 10783 10786 10788 10791 10794 10797 10800 10803 10806 10809 10812 10815 10818 10821 10824 10827 10830 10833 10836 10839 10842 10844 10847 10850 10853 10856 10858 10861 10863 10866 10868 10871 10874 10877 10880 10883 10886 10889 10892 10895 10898 10901 10904 10907 10910 10913 10916 10919 10921 10924 10927 10930 10933 10936 10938 10941 10944 10947 10949 10951 10954 10957 10960 10963 10966 10968 10971 10974 10977 10980 10982 10985 10988 10991 10994 10997 11000 11003 11006 11008 11011 11014 11017 11020 11023 11026 11029 11031 11034 11037 11040 11043 11046 11049 11052 11055 11058 11060 11063 11066 11069 11072 11075 11078 11081 11084 11087 11090 11093 11096 11099 11102 11105 11108 11111 11114 11116 11119 11122 11125 11128 11131 11134 11137 11140 11143 11146 11149 11152 11155 11157 11160 11163 11166 11169 11172 11175 11177 11180 11183 11185 11188 11191 11193 11196 11199 11202 11205 11208 11211 11214 11217 11220 11223 11226 11229 11232 11235 11238 11241 11244 11247 11250 11253 11256 11259 11262 11265 11268 11271 11273 11276 11278 11281 11283 11285 11288 11291 11294 11296 11299 11302 11305 11308 11311 11314 11317 11320 11323 11325 11327 11330 11332 11335 11338 11341 11344 11347 11350 11353 11356 11359 11362 11365 11368 11371 11374 11376 11379 11381 11383 11386 11388 11391 11394 11397 11400 11403 11406 11409 11412 11415 11417 11419 11422 11425 11428 11431 11434 11437 11440 11443 11446 11449 11452 11455 11458 11461 11464 11467 11470 11473 11476 11479 11482 11485 11487 11490 11493 11496 11499 11502 11504 11507 11510 11513 11516 11519 11521 11524 11527 11530 11532 11535 11538 11541 11544 11547 11550 11553 11556 11559 11561 11564 11567 11570 11573 11575 11578 11581 11584 11587 11590 11593 11595 11598 11601 11604 11607 11610 11613 11616 11618 11621 11624 11627 11630 11632 11635 11638 11641 11644 11647 11650 11653 11656 11659 11662 11664 11667 11670 11673 11676 11678 11681 11684 11687 11689 11692 11695 11698 11701 11704 11706 11709 11712 11715 11718 11721 11724 11727 11730 11733 11736 11739 11742 11745 11748 11750 11752 11755 11758 11760 11763 11766 11769 11772 11775 11778 11781 11783 11786 11789 11792 11795 11798 11801 11803 11806 11809 11812 11815 11818 11821 11824 11827 11830 11833 11836 11839 11842 11845 11848 11851 11854 11857 11860 11863 11866 11869 11872 11874 11877 11880 11883 11886 11889 11892 11895 11898 11900 11903 11906 11909 11912 11914 11917 11920 11923 11926 11929 11931 11934 11936 11939 11941 11944 11947 11950 11953 11956 11959 11962 11964 11967 11970 11973 11975 11978 11981 11984 11987 11990 11992 11995 11998 12001 12004 12007 12009 12012 12014 12017 12020 12022 12025 12027 12030 12033 12036 12039 12042 12044 12047 12050 12053 12055 12058 12061 12064 12067 12070 12073 12076 12079 12082 12085 12087 12090 12093 12096 12099 12102 12105 12108 12111 12114 12117 12120 12123 12126 12129 12132 12135 12138 12141 12144 12147 12150 12153 12155 12158 12161 12164 12167 12170 12173 12176 12179 12182 12185 12188 12191 12194 12197 12200 12203 12206 12209 12211 12214 12217 12220 12222 12225 12228 12231 12234 12237 12240 12242 12245 12248 12251 12253 12255 12258 12260 12263 12265 12267 12270 12272 12275 12278 12280 12283 12286 12288 12290 12293 12296 12299 12302 12305 12308 12311 12314 12316 12319 12321 12324 12327 12330 12333 12336 12339 12342 12345 12348 12351 12354 12357 12360 12363 12366 12369 12372 12375 12378 12381 12384 12387 12389 12392 12395 12398 12401 12404 12407 12410 12413 12415 12418 12421 12423 12426 12429 12431 12433 12436 12439 12441 12444 12447 12450 12453 12456 12459 12462 12465 12468 12471 12474 12477 12480 12483 12486 12489 12492 12495 12498 12501 12504 12507 12510 12513 12516 12519 12522 12525 12528 12531 12534 12537 12540 12543 12546 12549 12552 12555 12558 12560 12563 12565 12568 12571 12574 12577 12580 12583 12586 12589 12592 12595 12598 12601 12604 12607 12610 12613 12616 12619 12622 12625 12628 12631 12634 12637 12640 12643 12646 12649 12652 12655 12658 12661 12664 12667 12670 12673 12676 12679 12682 12685 12687 12690 12693 12695 12698 12701 12704 12707 12710 12712 12715 12717 12720 12723 12725 12728 12731 12734 12737 12740 12743 12745 12748 12751 12754 12757 12760 12763 12766 12769 12772 12775 12778 12780 12783 12786 12788 12790 12793 12795 12798 12801 12803 12806 12809 12812 12815 12817 12820 12823 12826 12829 12832 12835 12838 12841 12844 12846 12849 12851 12854 12857 12860 12863 12866 12869 12872 12874 12877 12879 12882 12885 12888 12891 12894 12897 12900 12903 12906 12908 12911 12913 12916 12919 12922 12925 12928 12931 12934 12937 12940 12943 12945 12948 12951 12954 12956 12959 12962 12964 12967 12970 12972 12975 12978 12981 12984 12986 12989 12992 12995 12997 13000 13003 13006 13009 13012 13015 13018 13021 13024 13027 13030 13033 13036 13039 13041 13044 13047 13050 13053 13056 13059 13061 13064 13066 13069 13071 13074 13077 13080 13082 13085 13088 13091 13094 13097 13100 13103 13106 13108 13111 13114 13117 13120 13123 13125 13128 13131 13133 13136 13139 13142 13145 13148 13151 13154 13157 13160 13162 13165 13168 13171 13173 13176 13179 13182 13185 13188 13191 13193 13196 13199 13202 13205 13208 13211 13214 13217 13220 13223 13226 13229 13232 13235 13238 13241 13244 13247 13250 13253 13256 13259 13262 13265 13268 13271 13274 13277 13280 13283 13286 13288 13291 13294 13297 13300 13303 13305 13308 13311 13313 13315 13318 13321 13324 13327 13329 13332 13335 13338 13341 13344 13346 13349 13352 13355 13358 13361 13364 13367 13370 13373 13376 13379 13382 13385 13388 13391 13394 13396 13399 13402 13405 13408 13411 13414 13417 13420 13422 13424 13427 13430 13433 13436 13439 13442 13444 13447 13450 13453 13456 13458 13461 13464 13467 13470 13473 13476 13479 13482 13485 13488 13491 13494 13497 13500 13503 13506 13509 13512 13515 13518 13521 13524 13527 13530 13532 13535 13538 13540 13543 13546 13549 13552 13555 13558 13561 13564 13567 13570 13573 13576 13579 13582 13585 13588 13591 13594 13597 13600 13603 13606 13609 13612 13615 13618 13621 13623 13626 13628 13631 13634 13637 13640 13643 13645 13648 13651 13654 13657 13660 13663 13666 13669 13672 13675 13678 13681 13684 13687 13690 13693 13696 13699 13702 13705 13707 13709 13712 13714 13717 13720 13723 13726 13729 13732 13735 13738 13741 13744 13747 13750 13753 13756 13759 13762 13764 13767 13770 13773 13775 13778 13781 13784 13787 13790 13793 13796 13799 13802 13805 13808 13811 13814 13816 13819 13822 13825 13828 13831 13834 13837 13840 13843 13846 13849 13852 13855 13858 13861 13864 13867 13870 13873 13876 13879 13882 13884 13887 13890 13893 13896 13899 13902 13905 13908 13911 13914 13917 13920 13923 13925 13928 13930 13933 13936 13938 13940 13943 13946 13949 13952 13955 13958 13961 13964 13967 13970 13973 13976 13979 13982 13985 13988 13991 13994 13997 14000 14002 14005 14008 14010 14013 14016 14019 14021 14024 14027 14030 14033 14036 14039 14041 14044 14047 14050 14052 14055 14058 14061 14064 14067 14070 14073 14076 14078 14081 14084 14086 14089 14092 14094 14097 14099 14102 14105 14108 14111 14113 14115 14118 14121 14123 14125 14128 14131 14133 14136 14139 14142 14145 14147 14150 14153 14155 14157 14160 14162 14165 14168 14171 14174 14177 14180 14183 14186 14189 14192 14195 14198 14201 14204 14207 14210 14213 14216 14219 14222 14224 14227 14230 14233 14236 14238 14241 14244 14247 14250 14252 14254 14257 14260 14263 14266 14269 14272 14275 14278 14281 14284 14287 14290 14292 14295 14298 14301 14303 14306 14309 14312 14315 14318 14321 14324 14326 14329 14332 14335 14337 14340 14343 14345 14347 14350 14353 14356 14358 14361 14364 14367 14369 14372 14375 14378 14381 14384 14387 14390 14393 14396 14399 14402 14405 14408 14411 14414 14417 14420 14423 14425 14428 14431 14434 14437 14440 14443 14446 14449 14452 14455 14458 14461 14464 14467 14470 14473 14476 14479 14481 14483 14486 14489 14492 14495 14498 14500 14502 14505 14507 14510 14513 14516 14519 14522 14525 14528 14531 14534 14536 14539 14542 14545 14547 14550 14553 14556 14559 14562 14565 14568 14571 14574 14577 14580 14583 14586 14589 14591 14594 14597 14600 14603 14606 14609 14612 14614 14617 14620 14622 14625 14628 14631 14634 14637 14640 14642 14645 14648 14651 14654 14656 14659 14662 14665 14668 14671 14674 14676 14679 14682 14685 14688 14691 14694 14697 14700 14702 14704 14707 14710 14713 14715 14717 14720 14723 14726 14729 14732 14734 14737 14740 14743 14746 14749 14752 14754 14757 14760 14763 14766 14768 14771 14774 14777 14780 14783 14785 14788 14791 14794 14797 14799 14802 14805 14808 14811 14814 14817 14820 14823 14826 14829 14832 14835 14838 14841 14844 14847 14850 14853 14856 14859 14862 14865 14868 14871 14874 14876 14879 14882 14885 14888 14890 14893 14895 14898 14900 14903 14906 14908 14911 14914 14916 14919 14922 14924 14927 14930 14933 14936 14939 14942 14944 14947 14950 14952 14955 14957 14959 14961 14964 14967 14969 14972 14974 14976 14979 14982 14985 14987 14990 14992 14995 14998 15001 15004 15007 15010 15012 15015 15018 15021 15023 15026 15029 15032 15035 15038 15041 15044 15046 15049 15052 15055 15057 15060 15062 15064 15067 15070 15073 15076 15079 15082 15085 15087 15090 15093 15096 15099 15102 15105 15108 15111 15113 15115 15118 15121 15124 15127 15129 15132 15135 15137 15140 15143 15146 15148 15151 15154 15157 15159 15161 15164 15167 15170 15173 15175 15178 15181 15184 15187 15190 15192 15194 15197 15200 15203 15206 15209 15212 15215 15218 15221 15224 15227 15230 15233 15236 15239 15242 15245 15248 15251 15254 15257 15260 15263 15266 15269 15272 15275 15278 15281 15284 15287 15289 15292 15295 15298 15300 15303 15306 15309 15312 15315 15318 15321 15324 15327 15330 15333 15336 15339 15342 15345 15347 15350 15352 15354 15357 15360 15362 15365 15368 15371 15374 15377 15380 15383 15386 15389 15392 15395 15398 15401 15404 15407 15410 15413 15416 15419 15422 15425 15428 15431 15433 15436 15439 15441 15443 15446 15449 15452 15455 15458 15461 15464 15466 15469 15472 15475 15477 15480 15483 15486 15489 15491 15493 15496 15499 15502 15505 15508 15511 15514 15516 15519 15522 15525 15528 15530 15533 15536 15539 15542 15544 15547 15550 15553 15556 15559 15562 15565 15568 15571 15574 15577 15580 15583 15586 15589 15592 15595 15598 15601 15603 15606 15609 15612 15615 15618 15621 15624 15627 15630 15633 15636 15639 15642 15645 15648 15651 15653 15656 15659 15662 15664 15667 15670 15673 15676 15679 15682 15685 15688 15691 15693 15696 15699 15702 15705 15708 15711 15714 15717 15720 15723 15726 15729 15732 15735 15738 15741 15744 15747 15750 15753 15756 15758 15761 15764 15767 15770 15773 15776 15779 15782 15785 15788 15791 15794 15797 15800 15803 15806 15809 15811 15814 15817 15820 15823 15826 15828 15831 15834 15837 15840 15843 15846 15849 15852 15855 15858 15861 15864 15867 15870 15873 15876 15879 15882 15885 15888 15891 15894 15897 15900 15903 15906 15909 15911 15914 15917 15919 15922 15925 15928 15930 15933 15936 15939 15942 15945 15948 15951 15954 15957 15960 15963 15966 15969 15972 15975 15977 15980 15982 15985 15988 15991 15994 15997 16000 16003 16006 16009 16011 16014 16017 16020 16023 16026 16029 16032 16035 16038 16040 16042 16045 16048 16051 16054 16057 16060 16063 16066 16069 16072 16075 16078 16081 16084 16087 16090 16093 16096 16099 16102 16105 16108 16111 16114 16117 16120 16123 16126 16129 16132 16135 16138 16141 16144 16147 16150 16153 16156 16159 16162 16165 16168 16171 16174 16177 16180 16183 16186 16189 16192 16195 16198 16201 16204 16207 16210 16213 16216 16219 16222 16225 16228 16231 16234 16237 16240 16243 16246 16249 16252 16255 16257 16260 16263 16266 16269 16272 16275 16277 16280 16283 16286 16289 16292 16295 16298 16301 16304 16306 16309 16311 16314 16317 16320 16323 16326 16329 16332 16335 16338 16341 16344 16347 16350 16353 16356 16359 16362 16365 16368 16371 16374 16377 16380 16383 16386 16389 16392 16395 16398 16401 16404 16407 16410 16413 16415 16418 16421 16424 16426 16428 16431 16434 16437 16440 16443 16446 16449 16452 16455 16458 16461 16464 16467 16470 16473 16476 16479 16482 16485 16488 16491 16494 16496 16498 16501 16504 16507 16510 16513 16516 16519 16522 16524 16527 16530 16533 16536 16539 16542 16544 16547 16550 16553 16556 16559 16561 16564 16567 16570 16573 16575 16578 16581 16584 16586 16589 16592 16595 16597 16600 16603 16605 16608 16611 16614 16617 16620 16623 16626 16629 16632 16635 16638 16641 16644 16646 16649 16652 16655 16658 16661 16664 16667 16670 16672 16675 16678 16681 16684 16687 16690 16693 16696 16699 16702 16705 16707 16710 16713 16716 16718 16721 16724 16727 16730 16732 16735 16738 16741 16744 16747 16750 16753 16756 16758 16761 16763 16766 16769 16771 16774 16777 16780 16783 16786 16788 16791 16794 16797 16800 16803 16806 16809 16812 16815 16818 16821 16824 16826 16829 16832 16835 16838 16841 16844 16847 16850 16853 16855 16858 16861 16864 16867 16870 16873 16875 16878 16881 16884 16887 16890 16893 16896 16898 16901 16904 16907 16910 16913 16915 16918 16921 16924 16927 16930 16933 16936 16939 16942 16945 16948 16951 16954 16957 16960 16963 16966 16969 16972 16975 16978 16981 16984 16987 16990 16993 16996 16999 17002 17005 17008 17011 17014 17017 17020 17023 17026 17029 17032 17035 17038 17041 17044 17047 17050 17053 17056 17058 17061 17063 17066 17069 17072 17075 17078 17081 17084 17087 17090 17093 17096 17099 17102 17105 17107 17110 17113 17116 17119 17122 17125 17128 17131 17134 17137 17140 17143 17146 17149 17152 17154 17157 17160 17162 17165 17167 17170 17173 17176 17179 17182 17184 17187 17190 17193 17196 17199 17202 17205 17208 17211 17214 17217 17220 17223 17226 17229 17232 17235 17238 17241 17244 17246 17249 17252 17255 17258 17261 17264 17267 17270 17273 17276 17279 17281 17284 17286 17289 17292 17294 17297 17299 17302 17305 17308 17311 17314 17317 17320 17322 17325 17327 17330 17333 17336 17339 17341 17344 17347 17350 17353 17355 17357 17360 17363 17365 17368 17371 17374 17377 17380 17383 17386 17389 17392 17395 17398 17401 17404 17407 17410 17413 17415 17418 17421 17424 17427 17430 17433 17436 17439 17442 17445 17448 17451 17454 17457 17459 17462 17464 17467 17470 17473 17476 17479 17482 17485 17487 17490 17492 17495 17498 17501 17504 17507 17510 17513 17516 17519 17521 17523 17526 17529 17532 17534 17537 17540 17543 17546 17548 17551 17553 17556 17559 17561 17564 17566 17568 17570 17573 17576 17578 17581 17584 17587 17589 17591 17593 17596 17599 17602 17605 17608 17611 17614 17617 17620 17623 17626 17628 17631 17634 17637 17640 17643 17646 17648 17651 17654 17657 17659 17662 17665 17668 17671 17674 17677 17680 17683 17685 17688 17691 17694 17696 17699 17702 17705 17708 17711 17714 17717 17720 17723 17726 17729 17732 17735 17738 17741 17744 17747 17750 17753 17756 17759 17762 17765 17768 17771 17774 17777 17780 17783 17786 17789 17792 17795 17798 17801 17804 17807 17810 17813 17816 17819 17822 17825 17828 17831 17834 17837 17840 17843 17846 17849 17852 17855 17858 17861 17864 17867 17870 17873 17876 17878 17881 17884 17887 17890 17893 17895 17898 17901 17904 17907 17909 17912 17915 17918 17920 17923 17926 17929 17932 17935 17938 17941 17944 17947 17950 17953 17956 17959 17962 17965 17968 17971 17974 17977 17980 17983 17986 17989 17992 17995 17998 18001 18004 18007 18010 18013 18016 18019 18022 18025 18028 18031 18034 18037 18040 18042 18045 18048 18050 18053 18056 18059 18062 18065 18068 18071 18073 18076 18079 18082 18085 18088 18091 18094 18097 18100 18103 18106 18108 18111 18114 18116 18119 18121 18124 18127 18130 18132 18135 18138 18141 18144 18147 18150 18153 18156 18158 18161 18164 18167 18170 18172 18175 18178 18181 18184 18186 18189 18191 18194 18197 18200 18203 18206 18209 18212 18215 18218 18221 18224 18227 18229 18232 18234 18237 18240 18243 18246 18249 18252 18255 18258 18261 18264 18267 18270 18273 18275 18278 18281 18284 18287 18290 18293 18296 18299 18302 18304 18307 18310 18313 18315 18318 18321 18324 18327 18330 18333 18336 18339 18342 18345 18348 18351 18354 18357 18360 18363 18366 18369 18372 18375 18378 18381 18384 18387 18390 18393 18396 18399 18402 18405 18408 18411 18414 18417 18420 18422 18425 18428 18430 18433 18436 18439 18442 18444 18447 18450 18453 18456 18459 18462 18465 18468 18471 18474 18477 18480 18483 18486 18489 18491 18494 18497 18500 18503 18506 18509 18512 18515 18518 18520 18523 18525 18528 18531 18534 18537 18540 18543 18546 18548 18551 18554 18557 18560 18563 18566 18569 18572 18575 18578 18581 18584 18587 18590 18592 18595 18598 18601 18604 18607 18610 18613 18616 18619 18622 18625 18627 18630 18633 18636 18639 18642 18645 18648 18651 18654 18657 18660 18663 18666 18669 18672 18675 18678 18681 18684 18687 18690 18693 18696 18698 18701 18703 18706 18709 18712 18715 18718 18721 18723 18726 18728 18731 18734 18737 18739 18742 18745 18748 18750 18753 18756 18759 18761 18764 18767 18769 18772 18775 18778 18781 18784 18787 18790 18792 18795 18798 18801 18804 18807 18810 18813 18815 18818 18821 18824 18827 18830 18833 18836 18839 18842 18845 18848 18851 18854 18856 18859 18862 18865 18868 18871 18874 18877 18880 18882 18885 18888 18891 18894 18897 18900 18903 18906 18909 18912 18915 18918 18921 18924 18927 18930 18933 18936 18939 18942 18944 18947 18950 18953 18956 18959 18962 18965 18968 18971 18974 18977 18980 18983 18986 18989 18992 18995 18998 19001 19004 19007 19010 19013 19016 19019 19022 19025 19028 19031 19034 19037 19040 19043 19046 19049 19052 19055 19058 19061 19064 19067 19070 19073 19076 19079 19082 19085 19088 19091 19094 19096 19099 19101 19104 19107 19110 19112 19115 19118 19120 19122 19125 19127 19130 19133 19136 19139 19142 19145 19148 19151 19154 19157 19160 19163 19166 19169 19172 19175 19178 19181 19184 19187 19190 19193 19196 19199 19202 19205 19208 19211 19214 19217 19220 19223 19226 19229 19232 19234 19237 19240 19243 19246 19248 19251 19254 19256 19259 19262 19265 19267 19270 19273 19276 19279 19281 19284 19286 19288 19291 19294 19297 19300 19302 19305 19308 19311 19313 19316 19319 19322 19324 19327 19330 19333 19336 19339 19342 19344 19347 19350 19353 19356 19359 19362 19365 19368 19371 19374 19377 19380 19383 19386 19389 19392 19395 19398 19401 19404 19406 19409 19412 19415 19418 19421 19424 19427 19430 19433 19436 19439 19442 19445 19448 19451 19454 19457 19460 19462 19465 19468 19470 19473 19476 19478 19481 19484 19487 19490 19493 19496 19499 19502 19505 19508 19511 19513 19516 19519 19522 19525 19527 19530 19533 19536 19539 19541 19544 19547 19550 19552 19555 19558 19561 19564 19567 19570 19573 19576 19579 19582 19585 19588 19591 19594 19597 19600 19603 19606 19609 19612 19615 19618 19621 19624 19627 19629 19632 19635 19638 19641 19644 19647 19650 19653 19655 19658 19661 19664 19666 19669 19672 19675 19678 19681 19684 19687 19690 19693 19696 19699 19702 19705 19708 19711 19714 19717 19720 19723 19726 19729 19732 19735 19738 19740 19743 19746 19749 19751 19754 19757 19760 19763 19766 19769 19772 19775 19777 19780 19783 19785 19788 19791 19794 19797 19799 19802 19805 19808 19811 19814 19817 19820 19822 19825 19827 19830 19833 19835 19838 19841 19843 19845 19848 19851 19854 19857 19860 19863 19866 19869 19872 19875 19878 19881 19884 19887 19890 19893 19896 19899 19902 19905 19908 19910 19913 19916 19919 19922 19924 19927 19930 19933 19936 19939 19942 19945 19948 19951 19954 19957 19960 19963 19965 19968 19971 19973 19976 19979 19982 19985 19988 19991 19994 19997 20000 20003 20006 20009 20012 20015 20018 20021 20024 20027 20030 20033 20036 20039 20042 20045 20048 20051 20054 20057 20060 20063 20066 20069 20072 20075 20078 20081 20084 20087 20090 20093 20096 20099 20102 20105 20108 20111 20114 20117 20120 20123 20126 20129 20132 20135 20138 20141 20144 20147 20150 20153 20156 20159 20162 20165 20168 20171 20174 20177 20180 20183 20186 20189 20192 20195 20198 20201 20204 20207 20210 20213 20216 20219 20222 20225 20228 20231 20234 20237 20240 20243 20246 20249 20252 20255 20258 20261 20264 20267 20270 20273 20276 20279 20282 20285 20288 20291 20294 20297 20300 20303 20306 20309 20312 20315 20318 20321 20324 20327 20330 20333 20336 20339 20342 20345 20348 20351 20354 20357 20359 20362 20365 20368 20371 20374 20377 20380 20382 20385 20388 20391 20394 20397 20400 20403 20406 20409 20411 20414 20416 20419 20422 20425 20427 20430 20433 20435 20438 20441 20444 20447 20450 20453 20456 20459 20462 20465 20468 20471 20474 20477 20480 20483 20486 20489 20492 20495 20498 20501 20504 20507 20510 20513 20516 20519 20522 20525 20528 20531 20534 20537 20540 20543 20546 20548 20551 20554 20556 20558 20561 20564 20566 20569 20572 20574 20577 20580 20583 20585 20588 20591 20594 20597 20600 20603 20606 20609 20612 20614 20617 20620 20623 20626 20629 20632 20634 20637 20640 20643 20646 20649 20652 20655 20658 20661 20664 20667 20670 20673 20676 20679 20682 20685 20688 20691 20694 20697 20700 20703 20706 20709 20712 20715 20718 20721 20724 20727 20729 20732 20735 20738 20741 20744 20747 20750 20753 20756 20759 20762 20765 20768 20771 20774 20777 20780 20783 20786 20789 20792 20795 20798 20801 20804 20807 20810 20813 20816 20819 20822 20825 20828 20831 20834 20837 20840 20843 20846 20849 20852 20855 20858 20861 20864 20867 20869 20872 20874 20877 20880 20883 20886 20888 20891 20894 20897 20900 20902 20905 20908 20911 20914 20916 20919 20922 20925 20928 20931 20934 20937 20940 20942 20945 20948 20950 20953 20955 20958 20961 20964 20967 20969 20972 20975 20977 20979 20982 20985 20988 20991 20994 20997 20999 21002 21005 21008 21011 21014 21017 21020 21023 21026 21029 21031 21033 21036 21039 21042 21045 21048 21050 21053 21056 21058 21061 21064 21067 21070 21072 21075 21078 21080 21083 21086 21089 21092 21095 21098 21101 21104 21107 21110 21113 21116 21119 21122 21125 21128 21131 21134 21137 21140 21143 21146 21149 21152 21155 21158 21161 21164 21167 21169 21172 21174 21177 21180 21183 21186 21189 21192 21195 21198 21201 21204 21207 21210 21213 21215 21218 21221 21224 21227 21229 21231 21234 21237 21240 21243 21246 21249 21252 21255 21258 21261 21264 21267 21270 21273 21276 21279 21282 21285 21288 21291 21294 21297 21300 21303 21306 21309 21312 21315 21318 21321 21324 21327 21330 21333 21336 21339 21342 21345 21348 21351 21354 21357 21359 21362 21365 21368 21370 21373 21376 21379 21382 21385 21388 21391 21394 21397 21400 21403 21406 21409 21412 21415 21418 21421 21424 21427 21430 21432 21435 21438 21440 21443 21446 21449 21452 21455 21458 21461 21464 21467 21469 21472 21475 21478 21481 21484 21486 21489 21492 21495 21498 21501 21503 21506 21508 21511 21514 21517 21520 21523 21526 21529 21532 21535 21538 21541 21544 21547 21549 21552 21555 21558 21560 21562 21565 21568 21571 21574 21577 21580 21583 21586 21588 21591 21594 21596 21599 21602 21604 21606 21609 21612 21615 21618 21621 21623 21626 21629 21632 21635 21638 21641 21644 21646 21649 21652 21654 21656 21659 21662 21665 21668 21671 21674 21676 21678 21681 21684 21687 21689 21692 21695 21698 21701 21704 21707 21710 21712 21715 21718 21721 21724 21727 21730 21733 21736 21739 21742 21745 21748 21751 21754 21757 21760 21763 21766 21769 21772 21775 21778 21781 21784 21787 21790 21792 21795 21798 21801 21804 21807 21810 21813 21815 21818 21821 21824 21827 21830 21833 21836 21839 21842 21845 21848 21850 21853 21856 21859 21862 21865 21868 21871 21874 21876 21879 21882 21885 21888 21891 21894 21897 21900 21903 21906 21909 21912 21915 21918 21921 21924 21926 21929 21932 21935 21937 21940 21943 21946 21949 21952 21954 21957 21960 21963 21966 21969 21972 21975 21978 21981 21984 21987 21990 21993 21996 21998 22001 22004 22007 22010 22012 22015 22018 22020 22023 22026 22029 22032 22035 22037 22040 22043 22046 22049 22052 22055 22058 22061 22064 22067 22070 22073 22076 22079 22081 22084 22086 22089 22092 22095 22097 22100 22102 22105 22107 22110 22113 22116 22119 22122 22125 22127 22129 22132 22135 22138 22141 22144 22147 22149 22152 22154 22157 22160 22163 22166 22169 22172 22175 22178 22181 22184 22187 22190 22193 22196 22199 22202 22205 22207 22210 22213 22216 22218 22220 22223 22226 22229 22232 22235 22237 22240 22243 22245 22247 22250 22253 22256 22259 22262 22265 22268 22271 22274 22277 22280 22283 22286 22289 22292 22295 22298 22301 22304 22307 22310 22313 22316 22319 22322 22325 22328 22331 22334 22337 22340 22343 22346 22349 22352 22355 22358 22361 22364 22367 22370 22373 22376 22379 22381 22384 22387 22389 22391 22393 22396 22399 22402 22405 22408 22411 22413 22416 22419 22422 22425 22428 22431 22434 22437 22440 22442 22445 22448 22451 22453 22456 22459 22462 22465 22468 22471 22474 22477 22480 22483 22486 22489 22492 22495 22498 22501 22504 22507 22510 22513 22515 22518 22521 22524 22527 22529 22532 22535 22538 22541 22544 22547 22550 22553 22556 22559 22562 22565 22568 22571 22574 22577 22580 22583 22586 22589 22592 22595 22598 22601 22604 22607 22610 22613 22616 22619 22622 22625 22628 22631 22633 22636 22638 22641 22644 22647 22650 22653 22656 22659 22662 22664 22667 22670 22673 22675 22678 22680 22683 22686 22689 22692 22695 22698 22701 22704 22706 22709 22712 22715 22718 22720 22723 22726 22729 22732 22734 22737 22740 22743 22746 22749 22752 22755 22757 22760 22763 22766 22769 22771 22774 22777 22780 22783 22786 22789 22792 22795 22798 22801 22804 22807 22810 22813 22816 22819 22822 22825 22828 22831 22834 22837 22840 22843 22846 22849 22852 22855 22858 22861 22864 22867 22870 22873 22876 22879 22882 22885 22888 22891 22894 22897 22900 22903 22906 22909 22911 22914 22917 22920 22923 22925 22927 22930 22933 22935 22937 22940 22943 22946 22949 22952 22955 22958 22961 22964 22967 22970 22973 22976 22979 22982 22985 22988 22991 22994 22996 22999 23002 23005 23007 23009 23012 23015 23018 23021 23024 23027 23030 23033 23036 23039 23042 23045 23048 23051 23054 23057 23060 23063 23066 23069 23072 23075 23078 23081 23084 23087 23090 23092 23095 23098 23101 23104 23107 23110 23113 23115 23118 23121 23124 23127 23130 23133 23136 23139 23142 23145 23148 23151 23154 23157 23160 23162 23165 23168 23171 23174 23177 23180 23183 23186 23188 23191 23193 23195 23198 23201 23204 23207 23210 23213 23216 23219 23222 23225 23228 23231 23233 23236 23239 23242 23245 23248 23251 23254 23257 23260 23263 23266 23269 23272 23275 23278 23281 23284 23287 23289 23292 23295 23298 23300 23303 23306 23309 23312 23315 23318 23321 23324 23326 23329 23332 23335 23338 23341 23344 23347 23350 23353 23356 23359 23362 23365 23368 23371 23373 23376 23379 23382 23384 23387 23390 23393 23396 23399 23402 23405 23408 23411 23414 23417 23420 23423 23426 23429 23432 23435 23438 23441 23444 23447 23450 23453 23456 23459 23462 23465 23468 23471 23474 23477 23480 23483 23485 23488 23490 23493 23496 23499 23502 23505 23508 23511 23514 23516 23519 23522 23525 23528 23531 23534 23537 23540 23543 23545 23548 23551 23553 23556 23559 23562 23565 23568 23570 23573 23576 23579 23582 23584 23587 23590 23593 23596 23598 23601 23604 23607 23609 23612 23614 23617 23620 23622 23625 23628 23631 23634 23637 23640 23643 23646 23649 23652 23655 23658 23661 23664 23666 23669 23672 23674 23677 23679 23682 23685 23688 23690 23693 23696 23698 23701 23704 23707 23710 23712 23715 23717 23720 23723 23726 23729 23732 23735 23737 23740 23742 23745 23748 23751 23754 23757 23759 23762 23765 23768 23771 23773 23776 23779 23782 23785 23788 23791 23793 23796 23799 23802 23805 23808 23811 23814 23817 23820 23823 23826 23829 23832 23835 23838 23841 23844 23847 23850 23853 23856 23859 23862 23865 23868 23871 23874 23877 23880 23883 23886 23889 23892 23894 23896 23899 23902 23905 23908 23911 23914 23917 23920 23923 23926 23928 23931 23934 23936 23938 23941 23943 23946 23949 23952 23955 23958 23961 23964 23966 23969 23972 23975 23978 23981 23984 23987 23990 23993 23996 23999 24002 24004 24007 24010 24013 24016 24018 24021 24024 24027 24030 24033 24036 24039 24042 24045 24048 24051 24054 24056 24059 24062 24065 24068 24071 24074 24077 24080 24083 24086 24089 24092 24095 24098 24101 24104 24107 24109 24112 24115 24118 24121 24124 24126 24129 24132 24135 24137 24140 24143 24146 24149 24152 24155 24157 24160 24162 24165 24168 24171 24173 24176 24179 24182 24185 24188 24191 24194 24197 24200 24202 24205 24208 24210 24213 24216 24219 24222 24225 24228 24231 24233 24236 24239 24242 24245 24248 24251 24254 24257 24260 24263 24266 24269 24272 24274 24277 24280 24282 24285 24288 24291 24294 24297 24300 24302 24305 24308 24311 24314 24317 24320 24322 24325 24328 24331 24334 24337 24340 24343 24345 24348 24351 24354 24357 24360 24363 24366 24369 24372 24375 24378 24381 24384 24387 24390 24393 24396 24399 24402 24405 24408 24411 24413 24416 24419 24422 24425 24428 24431 24434 24437 24440 24443 24445 24448 24451 24454 24457 24459 24461 24464 24467 24470 24473 24475 24478 24481 24484 24487 24490 24493 24496 24499 24502 24504 24507 24510 24513 24516 24519 24522 24525 24528 24531 24534 24537 24539 24542 24545 24548 24550 24553 24556 24559 24561 24564 24567 24570 24573 24576 24579 24582 24585 24588 24591 24594 24597 24599 24602 24605 24608 24611 24614 24616 24619 24622 24624 24627 24630 24633 24636 24639 24642 24645 24648 24651 24654 24657 24660 24663 24666 24668 24671 24674 24677 24680 24683 24686 24689 24691 24694 24697 24700 24702 24705 24708 24711 24714 24717 24719 24722 24725 24728 24731 24734 24737 24740 24743 24746 24748 24751 24754 24757 24760 24763 24766 24769 24772 24774 24777 24780 24783 24786 24789 24791 24794 24797 24800 24803 24806 24809 24812 24814 24817 24820 24823 24826 24829 24832 24835 24838 24841 24844 24847 24850 24853 24856 24859 24862 24865 24868 24871 24874 24877 24880 24883 24886 24889 24892 24895 24898 24901 24904 24907 24910 24913 24916 24919 24922 24925 24928 24931 24934 24937 24940 24943 24946 24949 24952 24955 24958 24960 24963 24966 24969 24972 24975 24978 24981 24983 24986 24989 24992 24995 24998 25001 25004 25007 25010 25013 25016 25019 25022 25025 25028 25031 25034 25037 25040 25043 25046 25049 25051 25053 25056 25059 25061 25063 25066 25069 25072 25075 25078 25081 25084 25086 25089 25092 25095 25098 25101 25104 25107 25110 25113 25116 25119 25122 25125 25128 25130 25133 25136 25139 25142 25145 25148 25151 25154 25156 25159 25162 25164 25167 25170 25173 25175 25178 25181 25184 25187 25190 25193 25196 25199 25202 25205 25208 25211 25214 25217 25220 25223 25226 25229 25232 25235 25238 25241 25244 25247 25250 25253 25256 25259 25261 25264 25267 25270 25273 25276 25279 25282 25285 25287 25290 25293 25296 25299 25302 25305 25307 25309 25312 25315 25318 25321 25323 25326 25329 25331 25334 25337 25339 25342 25345 25348 25351 25354 25357 25359 25362 25365 25368 25371 25374 25377 25380 25383 25385 25388 25391 25394 25397 25400 25403 25406 25409 25412 25415 25418 25420 25423 25426 25428 25431 25434 25437 25440 25443 25446 25449 25451 25454 25457 25460 25462 25465 25467 25470 25472 25475 25478 25481 25484 25487 25490 25493 25496 25499 25502 25505 25508 25511 25514 25517 25520 25523 25525 25528 25530 25533 25536 25539 25542 25545 25548 25551 25554 25557 25560 25562 25565 25568 25571 25574 25577 25580 25583 25585 25588 25591 25594 25596 25599 25601 25603 25606 25609 25611 25614 25617 25620 25623 25625 25628 25631 25634 25636 25639 25642 25645 25647 25650 25652 25654 25657 25660 25663 25666 25669 25672 25674 25677 25680 25683 25686 25689 25692 25695 25698 25700 25702 25704 25707 25709 25712 25715 25717 25719 25722 25725 25727 25730 25733 25736 25739 25742 25745 25748 25751 25754 25757 25760 25762 25765 25768 25771 25774 25777 25780 25783 25786 25789 25792 25795 25798 25801 25803 25805 25808 25811 25814 25817 25819 25822 25825 25828 25830 25833 25836 25839 25842 25845 25847 25849 25852 25855 25858 25860 25863 25866 25869 25872 25875 25878 25881 25884 25887 25890 25893 25896 25899 25902 25905 25907 25910 25913 25916 25918 25921 25924 25927 25929 25932 25935 25938 25941 25944 25947 25949 25952 25955 25958 25961 25964 25966 25969 25972 25975 25978 25981 25984 25987 25990 25992 25995 25998 26001 26004 26007 26010 26013 26016 26019 26021 26024 26027 26030 26033 26035 26038 26040 26043 26046 26048 26051 26053 26056 26059 26062 26065 26068 26071 26073 26076 26078 26080 26083 26086 26089 26092 26095 26098 26101 26104 26106 26109 26111 26114 26116 26119 26121 26124 26127 26130 26133 26136 26139 26142 26145 26148 26151 26154 26156 26159 26162 26165 26167 26170 26173 26176 26179 26182 26185 26188 26191 26193 26196 26199 26202 26205 26208 26211 26214 26217 26220 26222 26225 26228 26231 26234 26236 26239 26242 26244 26247 26250 26253 26256 26259 26262 26265 26268 26271 26273 26276 26279 26282 26284 26287 26290 26293 26296 26299 26302 26305 26308 26311 26314 26317 26320 26323 26326 26329 26332 26335 26338 26341 26343 26346 26349 26352 26355 26358 26361 26364 26367 26370 26373 26375 26378 26381 26384 26387 26390 26393 26396 26399 26402 26405 26408 26411 26414 26417 26420 26423 26426 26429 26432 26435 26438 26441 26444 26447 26450 26453 26456 26459 26462 26465 26468 26471 26474 26477 26480 26483 26486 26489 26492 26495 26498 26501 26504 26507 26510 26512 26514 26517 26520 26523 26526 26529 26532 26535 26538 26541 26544 26547 26550 26553 26555 26557 26560 26563 26566 26568 26571 26574 26576 26579 26582 26585 26587 26590 26593 26596 26598 26601 26604 26607 26610 26613 26616 26619 26622 26624 26627 26630 26632 26635 26637 26639 26642 26645 26648 26651 26654 26657 26659 26662 26664 26666 26668 26671 26674 26676 26679 26682 26684 26686 26689 26692 26695 26698 26701 26704 26707 26710 26713 26716 26719 26722 26725 26728 26731 26734 26737 26740 26743 26746 26749 26751 26754 26757 26760 26763 26766 26769 26772 26775 26778 26780 26783 26786 26789 26792 26795 26798 26801 26803 26805 26808 26811 26814 26817 26820 26823 26826 26829 26832 26835 26838 26841 26844 26847 26850 26853 26856 26859 26862 26865 26868 26871 26874 26876 26879 26881 26884 26887 26890 26893 26896 26899 26902 26904 26907 26910 26913 26915 26917 26920 26923 26925 26928 26931 26934 26937 26939 26942 26945 26948 26950 26953 26956 26959 26961 26964 26967 26970 26973 26976 26979 26982 26985 26988 26990 26992 26995 26998 27001 27004 27007 27009 27012 27015 27017 27019 27021 27024 27027 27030 27033 27036 27038 27041 27044 27047 27050 27053 27056 27059 27062 27065 27067 27070 27072 27075 27078 27081 27084 27087 27090 27093 27096 27099 27102 27105 27108 27111 27114 27117 27120 27123 27126 27129 27132 27135 27138 27141 27144 27146 27149 27152 27155 27158 27160 27162 27165 27168 27171 27173 27176 27179 27182 27185 27188 27191 27194 27197 27200 27203 27206 27209 27212 27215 27218 27221 27223 27226 27229 27232 27234 27237 27240 27242 27245 27248 27251 27254 27257 27260 27263 27266 27269 27272 27275 27278 27281 27283 27286 27289 27291 27294 27297 27300 27302 27305 27307 27310 27312 27315 27317 27319 27321 27324 27327 27330 27333 27336 27339 27342 27345 27347 27350 27353 27356 27359 27362 27365 27368 27371 27373 27376 27379 27381 27384 27387 27390 27393 27396 27399 27402 27405 27408 27411 27414 27417 27420 27423 27426 27429 27432 27435 27438 27441 27444 27446 27449 27452 27455 27458 27461 27464 27467 27470 27473 27476 27478 27481 27483 27486 27489 27491 27494 27496 27499 27501 27504 27507 27509 27512 27514 27517 27520 27522 27525 27528 27531 27533 27536 27539 27542 27545 27548 27551 27554 27557 27560 27563 27566 27569 27572 27575 27578 27581 27584 27587 27590 27593 27596 27599 27602 27605 27608 27611 27614 27617 27620 27623 27626 27629 27632 27635 27638 27641 27644 27647 27650 27653 27656 27659 27662 27665 27668 27671 27674 27677 27680 27683 27686 27689 27692 27695 27698 27701 27704 27707 27710 27713 27716 27718 27721 27724 27726 27729 27732 27735 27738 27741 27744 27746 27748 27751 27754 27757 27760 27763 27766 27769 27772 27775 27778 27781 27784 27787 27790 27793 27796 27799 27802 27804 27807 27810 27813 27815 27818 27821 27824 27827 27830 27833 27836 27839 27842 27845 27848 27851 27854 27857 27860 27863 27865 27868 27871 27874 27877 27880 27883 27886 27888 27891 27894 27897 27900 27903 27906 27909 27912 27914 27917 27919 27922 27925 27928 27931 27934 27937 27940 27943 27946 27949 27952 27955 27958 27961 27964 27967 27969 27972 27975 27978 27981 27984 27987 27990 27992 27995 27998 28001 28004 28006 28009 28012 28015 28018 28021 28024 28027 28029 28032 28035 28037 28039 28042 28045 28047 28050 28053 28056 28059 28062 28065 28067 28070 28073 28076 28079 28082 28085 28088 28091 28094 28096 28099 28102 28104 28107 28110 28112 28115 28118 28120 28123 28126 28129 28132 28135 28137 28140 28143 28146 28149 28152 28155 28158 28161 28163 28166 28169 28172 28175 28178 28181 28184 28186 28189 28192 28195 28198 28201 28204 28207 28210 28213 28216 28219 28222 28224 28227 28230 28233 28236 28239 28242 28245 28247 28249 28252 28254 28257 28259 28262 28265 28268 28271 28274 28277 28280 28283 28286 28289 28292 28295 28298 28301 28304 28306 28309 28311 28314 28317 28320 28323 28326 28329 28332 28335 28337 28340 28342 28345 28347 28350 28352 28355 28357 28360 28363 28365 28368 28371 28374 28377 28380 28382 28385 28388 28391 28394 28397 28400 28403 28406 28408 28411 28414 28417 28420 28423 28425 28428 28431 28433 28436 28438 28440 28443 28446 28449 28452 28455 28458 28461 28464 28466 28469 28472 28475 28478 28481 28484 28487 28490 28493 28496 28499 28502 28505 28507 28510 28513 28516 28519 28522 28525 28528 28530 28533 28536 28539 28541 28544 28547 28550 28553 28556 28559 28562 28565 28568 28571 28574 28577 28580 28583 28586 28589 28592 28594 28597 28600 28603 28606 28609 28612 28615 28617 28620 28623 28625 28628 28631 28634 28637 28640 28643 28646 28649 28652 28655 28658 28661 28664 28667 28670 28672 28675 28678 28681 28684 28686 28689 28692 28695 28698 28701 28704 28707 28710 28713 28716 28719 28722 28725 28728 28731 28734 28737 28740 28743 28746 28749 28752 28755 28758 28761 28763 28766 28769 28772 28775 28778 28781 28783 28786 28789 28792 28795 28798 28801 28804 28807 28810 28812 28814 28817 28820 28823 28825 28828 28830 28833 28836 28839 28842 28845 28848 28851 28854 28857 28860 28863 28866 28869 28872 28875 28877 28880 28883 28886 28889 28892 28895 28898 28901 28904 28907 28910 28913 28915 28917 28920 28923 28926 28929 28932 28935 28938 28941 28943 28946 28949 28951 28954 28957 28959 28961 28964 28967 28970 28973 28976 28979 28982 28984 28987 28990 28993 28996 28999 29002 29005 29008 29011 29013 29016 29019 29022 29024 29027 29030 29033 29036 29039 29041 29044 29047 29050 29053 29056 29059 29062 29065 29068 29071 29074 29077 29079 29082 29085 29088 29090 29093 29096 29099 29101 29104 29107 29110 29113 29116 29119 29122 29125 29128 29131 29134 29137 29140 29143 29146 29149 29152 29155 29158 29161 29164 29167 29170 29173 29176 29179 29182 29185 29188 29191 29194 29197 29199 29202 29205 29208 29211 29214 29217 29220 29223 29226 29229 29232 29235 29238 29241 29244 29247 29250 29253 29256 29259 29262 29265 29268 29271 29273 29276 29278 29281 29284 29286 29289 29292 29295 29298 29301 29304 29307 29310 29313 29315 29318 29321 29324 29327 29330 29333 29336 29339 29342 29345 29348 29351 29354 29357 29359 29362 29365 29368 29371 29373 29376 29379 29382 29384 29387 29390 29393 29396 29399 29402 29405 29408 29411 29414 29417 29420 29423 29426 29429 29432 29435 29438 29441 29444 29447 29450 29453 29456 29459 29462 29465 29468 29471 29474 29477 29480 29483 29486 29489 29492 29495 29498 29501 29504 29507 29510 29513 29516 29519 29522 29525 29528 29531 29534 29537 29540 29543 29546 29549 29552 29555 29558 29561 29564 29567 29570 29573 29576 29579 29582 29585 29588 29591 29594 29597 29600 29603 29606 29609 29612 29615 29618 29621 29624 29627 29630 29633 29636 29639 29642 29645 29648 29651 29654 29657 29660 29663 29666 29669 29672 29675 29678 29681 29684 29687 29690 29693 29696 29699 29702 29705 29708 29711 29714 29717 29720 29723 29726 29729 29732 29735 29738 29741 29744 29747 29750 29753 29756 29759 29762 29765 29768 29771 29774 29777 29780 29783 29786 29789 29792 29795 29798 29801 29804 29807 29810 29813 29816 29819 29822 29825 29828 29831 29834 29837 29840 29843 29846 29849 29852 29855 29858 29861 29864 29867 29870 29873 29876 29879 29882 29885 29888 29891 29894 29897 29900 29903 29906 29909 29912 29915 29918 29921 29924 29927 29930 29933 29936 29939 29942 29945 29948 29951 29953 29956 29959 29962 29965 29968 29971 29974 29977 29980 29983 29986 29989 29992 29995 29998 30001 30003 30006 30009 30012 30015 30018 30021 30024 30027 30029 30032 30035 30038 30041 30043 30046 30049 30052 30055 30058 30061 30064 30067 30070 30073 30076 30079 30082 30085 30088 30091 30094 30097 30100 30103 30106 30109 30111 30114 30117 30120 30123 30126 30129 30132 30135 30138 30141 30144 30147 30150 30152 30154 30157 30160 30163 30166 30169 30171 30174 30176 30179 30182 30185 30188 30191 30194 30197 30200 30203 30206 30209 30211 30214 30217 30220 30223 30226 30229 30232 30234 30237 30240 30243 30246 30249 30252 30255 30258 30261 30264 30267 30270 30273 30276 30279 30281 30283 30286 30289 30292 30295 30298 30301 30304 30307 30310 30313 30316 30319 30321 30324 30327 30330 30333 30336 30339 30342 30345 30348 30351 30354 30357 30360 30363 30366 30369 30371 30374 30377 30380 30383 30386 30389 30392 30394 30397 30400 30403 30406 30409 30412 30415 30418 30421 30424 30426 30428 30431 30434 30437 30440 30443 30446 30449 30452 30455 30458 30461 30464 30467 30470 30473 30476 30479 30482 30485 30488 30491 30494 30497 30500 30503 30506 30509 30512 30515 30518 30520 30523 30526 30529 30532 30535 30537 30540 30543 30546 30549 30552 30555 30558 30561 30564 30567 30569 30572 30575 30578 30581 30583 30586 30589 30592 30595 30598 30601 30604 30607 30610 30613 30615 30618 30620 30623 30626 30629 30632 30635 30638 30641 30644 30647 30650 30653 30656 30659 30662 30665 30668 30671 30674 30677 30680 30683 30686 30689 30692 30695 30698 30701 30704 30707 30710 30713 30715 30718 30721 30724 30727 30730 30732 30735 30738 30741 30744 30747 30750 30753 30756 30759 30762 30765 30768 30771 30774 30777 30780 30783 30786 30788 30791 30794 30796 30799 30802 30805 30807 30810 30813 30816 30819 30822 30824 30827 30830 30833 30836 30839 30842 30845 30848 30851 30854 30856 30859 30862 30865 30868 30871 30874 30876 30879 30882 30885 30888 30891 30893 30895 30898 30901 30903 30906 30909 30911 30914 30917 30920 30923 30926 30929 30932 30935 30938 30941 30943 30946 30949 30951 30954 30957 30959 30962 30965 30967 30970 30973 30975 30978 30981 30983 30986 30989 30992 30995 30998 31001 31003 31006 31009 31012 31015 31018 31021 31024 31027 31030 31033 31036 31038 31041 31044 31047 31050 31053 31056 31059 31061 31064 31067 31070 31073 31075 31078 31081 31084 31086 31089 31092 31095 31098 31101 31104 31107 31110 31113 31116 31119 31121 31124 31127 31130 31133 31136 31139 31142 31145 31148 31151 31154 31157 31160 31163 31166 31169 31172 31175 31178 31181 31184 31187 31190 31193 31195 31198 31201 31204 31207 31210 31212 31215 31218 31221 31224 31227 31230 31233 31236 31239 31242 31245 31248 31251 31254 31256 31259 31262 31264 31267 31269 31272 31275 31278 31281 31283 31286 31288 31290 31293 31295 31298 31301 31304 31307 31310 31313 31316 31318 31321 31323 31326 31329 31332 31335 31338 31341 31343 31346 31349 31352 31355 31358 31361 31363 31366 31369 31372 31375 31377 31380 31383 31386 31389 31392 31394 31397 31400 31402 31405 31408 31411 31414 31416 31419 31422 31425 31428 31430 31433 31436 31439 31442 31445 31448 31450 31453 31456 31459 31462 31465 31468 31471 31474 31477 31479 31482 31485 31488 31491 31494 31497 31499 31502 31505 31508 31511 31513 31516 31519 31522 31525 31528 31531 31534 31537 31540 31543 31546 31549 31552 31555 31558 31561 31563 31566 31569 31572 31574 31577 31580 31582 31585 31588 31591 31594 31597 31600 31603 31606 31609 31612 31615 31618 31621 31624 31627 31630 31632 31635 31637 31640 31643 31646 31649 31652 31655 31658 31661 31664 31667 31670 31673 31676 31679 31682 31685 31688 31691 31694 31697 31700 31703 31706 31709 31712 31715 31717 31720 31723 31725 31728 31731 31734 31737 31740 31743 31746 31749 31752 31755 31757 31760 31763 31766 31769 31771 31774 31777 31780 31783 31785 31788 31791 31794 31797 31800 31803 31806 31809 31812 31814 31817 31820 31823 31826 31829 31832 31835 31838 31841 31844 31847 31850 31853 31856 31859 31862 31865 31868 31871 31874 31877 31880 31883 31886 31889 31892 31895 31898 
</DataArray>
<DataArray type="UInt32" Name="types" format="ascii">
5 5 5 5 5 3 5 5 5 5 5 5 5 3 5 5 5 5 3 5 5 3 5 5 5 5 3 5 5 5 5 3 5 5 5 5 5 5 5 5 5 5 5 5 5 3 5 5 3 5 5 5 5 5 3 5 5 5 5 5 5 5 3 5 5 5 5 3 5 5 5 5 5 5 5 5 5 3 5 5 3 5 5 3 5 5 5 5 3 5 5 5 5 5 5 5 3 3 3 5 5 3 5 5 5 5 5 3 5 5 5 5 5 5 5 5 5 5 5 5 5 3 5 5 5 3 5 5 5 5 5 5 3 5 5 5 5 5 5 5 5 5 5 5 5 5 5 5 5 5 5 5 5 5 5 5 5 5 3 5 5 5 3 5 5 3 5 5 5 5 5 5 5 5 5 5 5 3 5 5 5 5 5 5 5 5 3 5 5 5 5 5 5 5 5 3 5 5 5 5 5 5 5 5 5 3 5 5 5 5 5 5 5 5 5 5 5 5 5 5 5 5 5 5 5 5 5 5 5 3 5 5 5 3 5 3 5 3 5 5 3 5 5 5 3 5 3 5 3 5 3 3 5 3 5 5 3 5 3 5 5 5 3 5 3 3 5 5 3 5 5 5 3 5 3 3 3 5 3 5 5 5 3 5 3 3 3 5 5 3 3 5 5 5 5 3 5 3 5 5 3 5 5 5 3 5 3 3 3 5 5 5 3 5 3 3 3 3 5 5 5 3 3 5 5 3 3 3 5 3 5 5 5 5 3 5 5 5 5 5 5 5 3 5 5 5 5 5 5 3 3 5 5 5 3 5 5 5 3 5 3 5 3 3 5 5 5 5 3 5 5 3 5 5 5 5 3 5 3 5 5 5 5 5 3 3 5 5 5 5 5 5 5 5 3 5 5 5 3 5 5 3 5 3 5 5 5 5 5 5 5 5 5 5 5 3 5 3 5 3 5 5 5 3 5 3 5 3 5 5 5 5 5 5 3 5 3 5 5 5 3 5 5 5 3 5 3 3 5 5 5 5 3 5 5 5 5 3 3 5 5 3 5 3 5 3 3 5 5 5 3 5 5 5 5 3 5 5 5 5 5 5 5 5 5 5 5 3 5 5 5 5 3 5 5 5 3 5 3 3 3 5 5 5 3 3 5 3 5 5 3 5 5 5 5 3 5 5 5 5 5 5 5 5 5 5 5 3 3 5 5 3 5 5 5 3 5 5 5 5 5 5 3 5 5 5 3 5 5 5 3 5 5 5 5 5 5 5 5 5 5 5 3 5 5 5 3 5 5 5 5 5 5 5 3 5 5 5 5 5 3 5 5 5 5 5 5 5 5 5 5 5 5 5 5 5 5 5 5 5 3 5 5 5 5 3 5 5 3 5 5 5 5 5 5 5 3 5 5 5 5 5 5 5 5 3 5 3 5 5 3 5 5 5 3 5 5 3 5 5 5 3 5 3 5 5 3 5 3 5 5 5 5 5 5 5 5 5 5 5 5 5 5 5 5 5 5 5 5 5 5 3 5 3 5 3 5 5 5 5 5 5 5 5 5 5 5 5 5 5 5 3 5 5 5 5 5 5 5 5 5 3 5 5 5 5 5 5 5 5 5 5 5 5 5 5 5 5 5 5 5 5 5 5 5 5 5 5 5 5 5 3 5 5 3 5 5 5 3 3 5 3 5 5 5 5 5 3 5 5 5 5 5 3 5 5 5 5 5 5 5 5 5 5 5 5 5 5 5 5 5 5 5 5 5 5 5 5 5 5 5 5 5 5 5 5 5 5 5 5 5 5 5 5 5 5 5 5 5 5 5 5 5 3 5 5 5 5 5 5 5 5 5 5 5 5 5 5 5 3 5 5 5 5 3 5 5 5 5 5 5 5 5 5 5 5 5 5 5 5 5 5 5 5 5 5 5 5 5 5 5 5 3 5 5 3 5 3 3 3 3 5 5 3 5 5 5 5 5 5 5 5 5 5 5 5 5 5 5 5 5 3 5 5 3 5 3 5 5 5 5 3 5 3 5 5 5 5 3 5 5 5 3 5 5 5 5 5 3 5 3 5 5 3 3 5 3 5 5 5 5 5 5 5 5 5 5 5 3 5 5 5 3 5 5 5 3 5 5 3 3 3 5 5 5 5 5 5 5 5 5 5 5 3 5 5 5 5 5 5 5 5 3 3 3 5 5 5 5 5 5 5 5 3 3 5 5 5 3 5 5 3 5 5 5 5 5 5 5 5 5 5 5 3 5 5 5 5 5 5 5 5 3 5 5 5 5 5 5 5 5 5 5 3 5 3 3 3 5 5 5 5 5 5 5 3 3 5 3 5 5 5 5 5 3 5 3 3 5 5 5 3 5 3 5 5 5 5 3 5 5 5 5 5 5 5 5 5 5 5 5 5 5 5 5 5 3 5 5 5 3 5 5 5 5 5 3 5 5 5 5 5 5 3 5 3 5 5 5 5 5 5 5 5 3 5 5 5 3 5 5 5 5 5 5 5 5 5 5 5 5 5 5 5 5 5 5 5 5 5 5 5 5 5 3 3 3 5 5 5 5 3 5 5 5 5 3 5 5 5 5 5 5 5 3 5 5 5 5 5 5 5 5 3 5 5 5 5 5 5 5 5 5 5 5 5 3 5 5 5 5 5 5 3 5 5 5 5 5 5 5 5 3 5 5 5 3 5 5 5 5 5 5 5 5 5 5 5 5 3 5 5 5 5 5 5 5 5 5 5 5 5 5 5 5 5 5 5 5 5 5 5 5 5 5 5 5 5 5 5 5 5 5 5 5 5 5 5 5 5 5 5 5 5 5 5 5 3 5 5 5 5 5 5 5 5 5 5 5 5 5 5 5 5 5 5 5 5 5 5 5 5 3 5 5 5 5 5 5 5 5 5 5 3 5 5 3 5 5 5 5 5 5 5 5 5 3 5 3 5 5 5 5 3 5 5 3 5 3 5 5 5 5 5 3 5 5 5 5 5 5 5 5 3 5 5 5 5 5 5 5 5 5 5 5 5 5 5 3 5 3 3 5 5 5 5 5 3 5 5 5 5 5 5 5 5 5 5 5 5 5 5 5 3 5 5 5 5 5 5 5 5 5 5 5 5 5 5 5 5 3 5 5 5 5 5 3 3 5 5 3 5 5 5 5 5 5 5 5 5 5 3 5 5 5 5 5 5 5 5 5 3 5 3 5 5 5 5 5 3 5 5 5 5 3 5 5 5 3 5 5 5 3 5 5 3 5 5 5 5 5 5 5 5 5 5 5 5 5 5 5 5 3 5 5 5 5 5 5 5 3 5 5 5 5 5 5 5 5 5 5 5 5 5 5 5 5 5 5 5 5 5 5 5 5 5 5 5 3 5 5 5 5 3 5 5 5 3 5 5 5 5 5 5 5 5 5 3 5 3 5 5 5 5 5 5 5 5 5 5 5 5 5 5 5 5 5 5 3 3 5 5 5 3 5 5 3 5 5 3 5 5 5 3 5 5 3 5 5 5 5 5 5 5 5 5 5 5 5 5 5 5 5 5 5 5 5 3 5 3 5 5 5 5 5 5 5 5 5 5 5 3 5 3 5 5 5 3 5 5 5 5 5 3 5 5 5 5 5 5 3 5 5 5 5 5 5 5 5 5 5 5 3 5 5 5 5 5 5 5 5 3 5 5 5 3 5 5 3 5 5 5 5 5 3 5 5 5 5 5 5 5 5 5 3 5 5 3 5 3 5 3 3 3 5 3 5 5 5 5 5 5 3 5 5 5 5 5 5 3 5 5 5 5 5 5 5 3 5 5 5 5 3 5 5 5 5 5 3 5 3 5 5 5 5 5 5 5 5 5 5 3 5 5 5 5 5 5 5 3 5 5 5 5 5 5 5 3 5 3 5 5 5 5 5 5 5 5 3 5 5 5 3 3 5 5 5 5 5 3 3 5 3 5 5 3 5 5 3 5 5 5 5 5 5 5 5 3 5 5 5 5 5 3 5 5 5 5 3 5 5 3 5 5 5 5 5 5 5 5 5 5 5 5 5 5 5 5 5 5 5 5 5 5 5 5 5 5 5 5 5 5 5 5 5 5 5 5 5 5 5 5 5 3 5 5 3 5 5 5 5 5 3 5 5 5 5 3 5 5 5 5 5 5 5 5 5 5 5 5 5 5 5 5 5 5 5 5 5 5 5 5 3 5 5 5 3 5 5 5 5 5 5 3 5 5 5 5 5 5 5 5 5 5 5 3 5 3 3 5 5 3 5 5 5 5 5 5 5 5 5 5 5 3 5 5 3 5 5 5 5 5 5 5 5 5 5 5 5 5 5 5 3 5 5 5 5 5 5 5 3 5 3 5 5 5 5 3 5 3 5 5 5 5 5 5 5 5 5 3 5 5 5 5 5 5 5 5 5 5 5 5 5 5 5 5 5 3 5 5 5 5 5 5 5 5 5 5 5 5 5 5 5 5 5 5 5 5 5 5 5 5 5 3 3 5 5 5 5 5 5 5 5 5 5 5 3 5 5 5 5 3 5 5 5 5 3 5 5 5 5 5 5 5 5 3 5 5 5 5 5 5 5 5 5 3 5 5 5 5 5 5 5 5 5 5 5 5 5 5 5 5 5 5 5 5 3 5 5 5 5 5 5 5 5 5 5 5 5 5 5 3 5 3 5 5 5 5 5 5 5 5 3 5 5 3 5 5 5 5 5 5 5 5 5 5 5 5 5 5 5 5 5 5 5 5 5 5 5 5 5 5 5 5 5 5 5 5 5 5 5 5 3 5 5 3 5 5 5 5 3 5 3 5 5 3 5 3 5 5 5 5 5 3 5 5 5 5 5 5 5 5 5 5 5 5 3 5 5 5 3 5 5 5 5 5 5 5 5 5 3 5 5 5 5 3 3 5 5 5 5 5 5 5 5 3 5 5 5 5 5 3 5 5 5 3 5 5 5 3 5 5 5 5 3 5 5 5 5 5 5 5 5 5 5 5 5 5 5 3 5 5 5 5 5 5 3 5 3 3 5 3 5 3 5 5 5 5 3 5 5 5 5 3 5 5 5 5 5 5 5 5 5 3 5 5 5 5 5 5 5 5 5 5 5 5 5 5 3 5 5 5 3 5 5 5 3 5 3 5 5 5 5 5 5 5 5 5 5 5 5 5 5 5 5 3 5 5 5 5 5 5 3 5 5 5 5 5 5 5 5 5 5 5 5 5 5 5 5 5 5 3 5 5 5 5 5 5 5 5 5 5 5 5 5 5 5 5 5 5 5 5 5 5 5 5 5 5 5 5 5 5 5 5 5 5 3 5 5 5 5 3 5 5 5 5 5 5 5 3 5 5 5 5 5 5 5 5 5 3 5 5 3 5 5 5 5 5 3 5 5 5 3 5 5 3 5 5 5 5 5 5 5 5 5 5 5 5 5 5 5 5 5 5 5 5 3 5 5 5 5 5 5 5 5 5 5 3 3 5 3 5 5 5 5 5 3 5 5 5 5 3 5 5 5 5 5 3 5 3 5 5 3 5 5 5 5 5 5 5 5 3 5 5 5 5 5 5 3 5 5 5 5 5 5 3 5 5 5 5 3 5 5 3 5 3 5 5 3 5 5 5 5 5 5 3 5 5 5 5 3 5 5 5 5 5 5 5 5 3 3 5 5 5 5 5 5 5 5 3 5 5 5 5 5 5 3 5 5 5 5 5 5 5 3 5 5 5 3 5 5 5 5 5 5 5 5 5 5 5 5 3 5 5 5 5 3 5 5 3 5 5 5 5 3 5 5 5 3 3 5 5 5 3 5 5 5 3 5 5 5 5 5 5 5 5 5 3 5 5 5 3 5 5 5 5 5 5 5 5 5 5 5 5 3 5 3 5 5 3 5 5 3 5 5 5 5 5 5 5 3 5 5 5 5 5 3 5 3 5 5 5 3 3 5 3 3 5 3 5 5 5 5 5 5 3 5 3 5 5 5 5 5 5 5 5 5 5 5 5 5 3 5 5 3 5 3 5 5 3 5 5 5 3 3 5 5 3 5 5 5 5 5 5 5 5 5 5 5 5 5 5 5 5 5 5 5 5 5 5 5 3 3 5 3 5 3 5 5 3 3 5 5 3 5 5 3 5 5 3 5 3 5 5 5 5 3 5 5 5 5 3 5 3 3 5 3 5 5 3 3 5 5 5 3 5 5 5 5 3 3 5 5 5 5 5 3 5 5 5 5 5 5 5 5 5 5 5 3 5 3 5 3 5 5 3 5 3 5 5 5 5 5 5 5 5 3 5 5 3 5 5 5 5 3 5 5 5 5 5 5 5 5 5 5 5 5 3 5 5 5 5 5 5 5 5 5 5 5 3 5 5 5 5 5 5 3 5 3 5 5 3 5 5 5 5 5 5 5 5 5 5 5 5 5 5 5 5 5 3 3 5 5 5 3 5 5 3 5 5 5 5 5 5 5 5 5 5 5 5 5 5 5 5 5 5 5 5 5 5 5 5 5 3 3 5 5 5 5 5 5 5 5 5 5 5 3 5 5 5 5 5 5 5 5 5 5 5 5 5 5 5 5 5 5 5 5 5 5 5 5 5 5 5 5 5 5 5 5 5 3 5 5 5 5 5 3 5 5 3 5 5 3 3 5 5 5 5 5 5 5 5 5 5 5 5 5 3 5 5 3 5 5 5 5 5 5 3 5 5 3 5 5 5 5 5 5 5 5 5 5 5 5 5 3 5 5 5 5 5 5 5 3 5 5 5 5 5 5 5 5 5 5 5 5 3 5 5 3 5 5 5 5 5 5 5 5 5 5 5 5 5 5 5 5 5 5 5 5 3 5 5 3 5 3 5 5 5 3 5 5 3 5 3 5 5 5 3 5 5 5 5 3 5 5 5 5 5 5 5 3 5 5 5 3 5 5 5 5 5 5 5 5 5 5 5 5 3 5 5 5 5 5 5 5 5 3 5 5 5 5 5 5 5 5 5 5 5 3 5 5 5 5 5 5 5 5 5 5 5 5 5 5 5 5 5 5 5 3 3 5 5 5 3 5 5 5 5 5 5 5 5 5 5 5 5 3 5 5 5 5 5 5 5 5 5 3 5 5 5 5 5 5 5 5 5 5 5 5 5 5 5 5 3 5 3 5 5 5 5 5 3 5 5 5 5 3 5 5 5 3 5 5 5 3 5 5 5 5 5 5 5 5 5 3 5 5 5 3 5 5 3 5 5 5 5 5 5 3 5 5 5 5 5 5 5 5 3 5 5 5 3 5 5 5 5 5 5 5 5 5 5 5 5 5 5 5 5 5 5 5 5 5 5 5 5 5 5 5 3 5 5 5 5 5 5 5 3 5 5 5 5 5 5 5 5 5 5 5 5 5 5 5 5 5 5 5 5 5 5 5 5 5 3 5 3 5 5 5 5 5 5 3 5 5 5 3 5 5 3 5 5 5 5 5 5 5 5 5 5 5 5 3 5 5 5 5 5 3 5 5 5 5 5 5 5 5 5 5 5 5 5 3 5 5 5 3 5 5 5 5 5 5 5 5 5 5 5 5 3 3 5 5 5 5 3 5 5 5 5 5 5 5 5 5 3 3 5 5 5 5 5 3 5 5 5 5 5 3 5 5 5 5 5 3 5 3 5 5 5 5 3 5 3 5 3 3 5 5 5 5 5 5 5 3 3 5 5 5 5 5 5 3 3 3 5 3 3 5 5 5 3 5 5 5 5 5 3 3 3 5 3 5 5 5 3 5 3 3 5 5 5 5 5 5 5 3 3 5 5 3 3 3 5 5 5 5 5 5 5 5 5 5 5 5 5 5 5 5 5 5 5 5 5 5 5 5 5 5 5 5 5 5 5 5 5 5 5 5 5 5 5 5 3 5 5 5 5 5 5 5 5 5 5 3 5 5 5 5 5 5 3 5 5 3 5 5 5 5 5 5 5 5 5 5 5 5 5 3 5 3 5 5 5 5 3 5 5 5 3 5 5 3 5 5 5 3 5 5 3 5 5 5 5 5 3 5 5 5 5 5 5 5 3 5 5 5 5 5 5 5 3 5 5 3 5 5 5 5 3 5 3 5 5 5 5 5 3 5 5 5 5 3 5 5 5 5 5 5 3 3 5 5 5 5 5 3 5 5 3 5 5 5 5 5 5 5 5 5 5 3 5 5 5 5 5 5 5 5 5 5 5 5 5 5 5 5 5 5 3 5 5 5 5 5 5 3 5 5 5 5 5 5 5 3 3 5 5 5 5 3 5 5 5 5 5 5 5 3 5 5 3 5 3 3 3 5 5 5 5 5 5 3 5 5 5 5 5 3 5 5 5 5 3 5 5 5 3 5 5 5 3 5 5 5 5 5 5 5 5 5 5 5 5 5 5 5 5 5 5 5 5 5 5 5 5 5 3 5 5 5 5 5 5 5 3 5 3 5 5 5 5 5 5 3 5 5 3 5 5 5 3 5 5 3 5 5 5 5 5 3 5 5 5 3 3 5 5 5 5 5 5 5 5 5 5 5 5 3 5 5 5 5 5 5 5 5 5 3 5 5 5 5 5 3 3 5 5 5 5 5 5 5 5 5 3 5 5 5 5 5 5 5 5 3 5 5 5 5 5 5 5 5 5 5 5 5 5 5 5 5 5 5 3 5 5 5 5 3 5 3 5 3 5 5 5 5 5 5 5 5 5 5 5 5 5 5 5 5 5 3 5 5 5 5 5 3 5 5 5 3 3 5 5 5 5 5 3 5 5 5 5 3 5 5 5 5 5 5 5 5 3 5 5 5 5 5 5 5 3 5 5 5 5 5 5 5 5 5 3 5 5 5 5 5 5 5 5 5 5 5 5 5 5 5 5 5 5 3 5 5 5 5 5 5 5 5 5 5 5 5 5 3 5 5 5 5 5 5 3 5 5 3 5 5 3 5 5 5 5 5 5 5 5 5 5 5 5 5 5 5 5 5 5 5 5 5 5 5 5 5 5 3 5 3 5 3 3 5 5 5 3 5 5 5 5 5 5 5 5 5 3 3 5 3 5 5 5 5 5 5 5 5 5 5 5 5 5 5 3 5 3 3 5 3 5 5 5 5 5 5 5 5 5 3 3 5 5 5 5 5 5 5 5 5 5 5 5 5 5 5 5 5 5 5 5 5 5 3 5 5 5 5 5 3 5 5 5 5 5 3 5 5 5 3 5 5 5 5 5 5 5 5 5 3 5 5 5 5 3 5 5 5 5 5 5 3 5 5 5 5 5 5 5 3 5 5 5 5 3 5 5 5 5 5 5 5 5 5 5 3 5 5 5 5 3 5 5 5 3 5 5 5 5 5 3 5 5 5 5 5 5 5 5 5 5 5 5 5 5 3 3 5 5 3 5 5 5 5 5 5 5 3 5 5 5 5 5 5 3 5 5 5 5 5 5 5 5 5 5 5 5 5 5 5 5 5 5 5 5 5 5 5 3 5 5 5 5 5 5 5 5 3 5 5 5 5 3 5 5 5 5 5 3 5 3 5 3 5 5 5 5 5 5 5 3 5 5 5 3 5 5 5 5 5 3 5 5 5 5 5 3 5 3 5 5 3 5 3 5 5 5 5 5 3 5 5 5 3 5 5 5 5 5 5 5 5 5 5 3 5 5 5 5 5 5 5 5 5 5 5 5 5 5 5 5 5 5 5 5 5 5 3 5 5 5 5 5 5 5 5 5 5 5 5 5 5 5 5 5 5 3 5 5 5 3 5 5 5 5 5 5 3 5 5 5 3 3 5 3 5 3 3 5 3 5 5 3 5 5 3 3 5 5 5 5 5 5 5 5 3 5 3 5 5 5 5 5 5 5 5 5 5 5 5 5 5 5 5 5 5 5 5 5 5 3 5 5 5 5 5 5 5 5 3 5 5 3 5 5 3 3 5 5 3 5 5 5 5 5 5 5 5 5 5 5 5 5 5 5 5 5 5 5 5 5 5 5 5 5 5 5 5 5 5 5 5 5 5 5 5 5 5 5 3 5 3 5 5 5 5 5 5 5 5 5 5 5 5 5 5 5 5 5 5 5 5 5 5 5 5 5 5 5 5 5 5 5 5 5 5 5 5 5 5 5 5 3 5 5 3 5 5 5 5 5 3 5 3 5 5 3 5 5 5 5 5 5 3 5 5 5 5 5 5 5 5 5 5 5 3 5 5 3 3 5 3 5 5 3 5 5 5 5 3 5 5 5 5 5 5 5 5 5 3 5 3 5 5 5 5 5 5 5 3 5 3 5 5 5 5 5 5 5 5 5 3 5 3 5 5 5 5 5 5 5 5 5 5 3 5 5 5 3 5 5 3 5 5 3 5 5 5 5 3 5 5 5 3 5 5 5 5 5 5 5 5 5 5 5 5 5 5 3 5 5 5 5 5 5 3 5 3 5 3 5 5 5 3 5 5 5 5 5 5 5 5 3 5 5 5 5 5 3 5 5 3 5 5 5 5 5 5 5 5 5 3 5 5 5 3 5 5 5 5 5 5 3 5 5 5 5 5 5 5 5 5 5 5 5 5 5 5 5 5 5 5 5 5 5 5 5 5 5 5 5 5 5 5 3 5 5 5 5 5 3 5 5 3 3 5 5 5 5 3 5 5 5 5 5 3 5 5 5 5 5 5 5 5 5 5 5 5 5 5 5 5 3 5 5 5 5 5 5 5 5 3 3 5 5 5 5 5 5 3 5 5 5 5 3 5 5 5 5 5 5 5 5 5 5 5 5 5 5 5 5 5 5 5 5 5 5 5 5 3 5 5 3 5 5 5 5 5 5 5 5 5 5 5 5 5 5 5 5 5 5 5 5 5 5 5 5 5 5 5 3 5 3 5 5 5 5 5 3 5 5 5 5 5 5 5 5 5 5 5 5 5 5 5 5 5 5 5 5 3 3 5 3 5 5 5 5 5 5 5 5 5 5 5 5 5 5 5 5 3 5 5 5 3 5 5 5 5 5 5 5 5 5 5 5 5 5 3 5 5 5 5 5 5 5 5 5 5 5 5 5 5 5 5 5 5 5 5 5 5 3 5 5 5 5 5 5 5 5 5 5 5 5 5 3 5 3 5 5 3 3 5 5 5 5 5 5 5 5 5 5 5 5 5 5 5 5 5 5 5 5 3 5 5 3 5 5 5 3 5 5 5 5 5 5 3 5 5 5 3 5 5 5 5 5 5 5 5 3 5 5 3 5 5 3 5 3 5 5 5 5 3 3 5 5 3 3 5 5 3 5 5 5 5 3 5 5 3 3 5 3 5 5 5 5 5 5 5 5 5 5 5 5 5 5 5 5 5 5 5 5 3 5 5 5 5 3 5 5 5 5 3 3 5 5 5 5 5 5 5 5 5 5 5 5 3 5 5 5 3 5 5 5 5 5 5 5 3 5 5 5 3 5 5 3 3 5 5 5 3 5 5 5 3 5 5 5 5 5 5 5 5 5 5 5 5 5 5 5 5 5 5 3 5 5 5 5 5 5 5 5 5 5 5 5 5 5 5 5 5 5 3 3 5 5 5 5 5 3 3 5 3 5 5 5 5 5 5 5 5 5 3 5 5 5 3 5 5 5 5 5 5 5 5 5 5 5 5 5 5 3 5 5 5 5 5 5 5 3 5 5 3 5 5 5 5 5 5 3 5 5 5 5 3 5 5 5 5 5 5 3 5 5 5 5 5 5 5 5 3 3 5 5 5 3 3 5 5 5 5 5 3 5 5 5 5 5 5 3 5 5 5 5 3 5 5 5 5 5 3 5 5 5 5 3 5 5 5 5 5 5 5 5 5 5 5 5 5 5 5 5 5 5 5 5 5 5 5 5 5 3 5 5 5 5 3 5 3 5 3 5 5 3 5 5 3 5 5 3 5 5 5 5 5 5 3 5 5 3 5 3 3 3 5 5 3 5 3 3 5 5 5 3 5 3 5 5 5 5 5 5 3 5 5 5 3 5 5 5 5 5 5 5 3 5 5 5 3 5 3 3 5 5 5 5 5 5 5 3 5 5 5 5 5 5 5 5 3 3 5 5 5 5 3 5 5 3 5 5 5 3 5 5 5 3 3 5 5 5 5 3 5 5 5 5 5 3 3 5 5 5 5 5 5 5 5 5 5 5 5 5 5 5 5 5 5 5 5 5 5 5 5 5 5 5 5 5 5 5 3 5 5 5 3 5 5 5 5 5 5 5 5 5 5 5 5 5 5 5 3 5 3 3 5 5 3 5 5 5 5 5 5 5 5 5 5 5 5 5 5 5 5 5 5 5 5 5 5 5 3 5 5 3 3 5 5 5 5 5 5 5 3 5 5 5 3 5 5 5 5 3 3 5 5 5 5 5 5 5 3 5 5 5 5 3 5 5 5 5 3 5 5 5 5 5 5 5 5 5 5 5 5 5 5 5 5 5 5 5 3 5 5 5 5 5 5 5 5 5 5 5 5 5 5 5 5 3 5 5 5 3 5 5 5 5 5 5 5 5 5 3 5 5 5 5 5 5 5 5 5 5 5 5 5 5 5 5 5 5 5 5 5 3 5 5 5 5 5 5 5 5 5 5 5 5 5 5 5 5 5 3 5 5 5 5 5 3 5 5 5 5 5 5 5 5 5 5 5 5 5 5 5 5 5 5 5 5 5 5 5 5 5 5 5 3 5 5 3 5 5 5 3 5 5 5 5 5 5 5 5 5 5 5 5 5 5 5 3 5 3 5 5 5 5 5 5 5 5 5 3 5 5 5 5 5 5 5 5 5 3 3 5 5 5 5 5 5 5 5 5 5 5 5 5 5 5 5 5 5 5 5 5 5 5 5 5 5 5 5 5 5 5 5 5 5 5 5 5 5 5 5 5 5 5 5 5 5 5 5 5 5 5 5 5 5 5 5 5 5 5 5 5 5 5 5 5 5 5 5 5 5 5 3 5 5 5 5 5 5 3 5 5 5 5 5 5 5 5 5 3 5 3 5 5 5 5 5 5 5 5 5 5 5 5 5 5 5 5 5 5 5 5 5 5 5 5 5 5 5 5 5 5 5 5 5 5 3 5 5 5 3 3 5 5 5 5 5 5 5 5 5 5 5 5 5 5 5 5 5 5 5 5 5 5 3 3 5 5 5 5 5 5 5 5 3 5 5 5 5 5 5 3 5 5 5 5 5 3 5 5 5 5 3 5 5 5 3 5 5 5 3 5 5 3 5 5 5 5 5 5 5 5 5 5 5 5 5 3 5 5 5 5 5 5 5 5 3 5 5 5 5 5 5 5 5 5 5 5 3 5 5 5 3 5 5 5 5 3 5 5 5 5 5 5 5 5 3 5 3 5 5 3 5 5 5 5 5 3 5 5 5 5 5 5 5 5 5 5 5 5 3 5 5 5 5 5 5 5 5 5 3 5 5 5 5 5 5 3 5 5 5 5 5 5 5 3 5 5 5 5 5 3 5 5 5 5 5 5 5 5 5 5 5 5 5 5 5 5 5 5 5 5 5 5 5 5 5 5 5 5 5 5 5 5 5 5 5 5 5 5 5 5 5 5 5 5 5 5 5 3 5 3 5 5 5 5 5 5 5 5 5 5 5 5 5 5 3 5 5 5 5 5 5 5 5 5 5 5 5 5 5 5 3 5 5 3 5 3 5 5 5 5 5 3 5 5 5 5 5 5 5 5 5 5 5 5 5 5 5 5 5 5 5 5 3 5 5 5 5 5 5 5 5 5 5 5 3 5 3 5 5 3 5 3 5 5 5 5 5 5 5 3 5 3 5 5 5 5 3 5 5 5 5 3 3 5 5 3 5 5 5 5 5 5 5 5 5 5 5 5 5 5 5 5 3 5 5 5 5 5 5 5 5 5 5 5 5 5 5 3 5 3 5 5 5 5 5 5 5 3 5 3 5 5 5 5 5 5 5 5 5 3 3 5 5 5 3 5 5 5 5 3 5 3 5 5 3 5 3 3 3 5 5 3 5 5 5 3 3 3 5 5 5 5 5 5 5 5 5 5 5 3 5 5 5 5 5 5 3 5 5 5 3 5 5 5 5 5 5 5 5 3 5 5 5 3 5 5 5 5 5 5 5 5 5 5 5 5 5 5 5 5 5 5 5 5 5 5 5 5 5 5 5 5 5 5 5 5 5 5 5 5 5 5 5 5 5 5 5 5 5 5 5 5 5 5 5 5 5 5 5 5 5 5 5 5 3 5 5 5 5 5 3 5 5 5 5 3 5 5 5 3 5 5 5 5 5 5 5 5 5 5 5 5 5 5 5 5 5 5 5 5 5 5 5 5 5 5 5 5 5 5 5 5 5 5 5 5 5 5 5 5 3 5 5 3 5 5 5 5 5 5 5 3 5 5 5 5 5 5 5 5 5 5 5 3 5 5 3 5 3 5 5 5 3 5 5 5 5 5 5 5 5 3 5 5 5 5 3 5 5 5 5 3 5 3 5 5 5 5 5 5 5 5 5 5 5 5 3 5 3 5 5 5 5 5 5 5 5 5 5 5 5 5 3 5 5 5 5 5 5 5 5 5 3 5 5 5 3 5 5 5 5 5 5 5 5 5 5 5 5 5 5 5 5 5 5 5 5 5 5 5 5 5 5 5 5 5 5 5 5 5 5 5 3 5 5 3 5 5 5 5 3 5 5 5 5 5 5 5 5 5 5 5 5 5 5 5 3 5 5 5 5 5 5 5 5 5 3 5 3 5 5 5 5 5 5 5 3 5 5 5 5 5 5 5 5 5 5 5 5 5 5 3 5 5 5 5 5 5 5 5 5 5 5 3 5 5 5 5 5 5 5 5 5 5 5 5 5 5 5 5 5 5 5 5 5 5 5 3 5 3 5 5 5 5 5 5 3 5 3 5 5 5 3 5 5 5 3 5 5 5 3 5 5 3 5 5 5 5 5 5 5 3 5 5 5 5 5 5 5 3 5 5 5 5 5 5 5 5 5 5 5 5 5 3 5 5 5 5 5 5 5 5 3 5 5 5 5 5 5 5 5 5 5 5 5 5 5 5 5 5 5 5 5 3 5 5 5 5 5 5 5 5 5 5 5 5 5 5 5 5 5 5 5 5 5 5 5 5 5 5 5 5 5 5 5 5 5 5 5 5 5 5 5 5 5 5 5 5 5 5 5 5 5 5 3 5 3 5 5 5 3 5 5 3 3 5 3 5 5 5 5 5 5 5 5 5 5 5 5 5 5 5 5 5 5 5 5 5 5 5 5 5 5 5 5 5 5 5 5 5 5 5 3 5 5 5 5 3 5 5 3 5 5 5 3 5 5 5 5 3 5 3 3 5 5 5 5 3 5 5 5 3 5 5 5 3 5 5 5 5 5 5 3 5 5 5 5 5 5 5 5 5 5 5 5 5 5 5 5 5 5 5 5 3 5 5 5 5 5 5 5 5 5 5 5 5 5 5 5 5 5 5 3 5 5 3 5 5 3 5 5 5 5 5 5 5 5 5 5 5 3 5 5 5 5 3 5 5 5 5 3 5 5 5 3 5 5 5 5 5 5 5 5 5 5 5 5 5 5 5 5 5 5 5 5 5 5 5 5 5 3 5 5 5 5 5 5 5 5 3 5 5 5 3 5 5 5 5 5 5 5 5 5 5 5 5 5 5 5 5 5 5 5 5 5 5 5 5 3 5 5 5 3 5 5 5 5 5 5 5 5 3 5 5 3 5 5 5 5 3 5 5 5 5 5 5 5 3 5 3 5 5 3 5 5 3 3 5 5 5 5 5 5 5 5 5 5 5 5 5 5 5 5 5 5 5 5 5 3 5 5 5 5 3 5 5 5 5 5 5 5 5 5 5 5 5 5 3 5 5 3 5 5 5 5 5 5 5 5 5 5 5 5 5 5 5 5 5 5 5 5 5 5 5 5 5 5 5 5 5 5 5 5 5 5 5 5 5 5 5 5 5 5 5 5 5 5 5 5 5 5 5 5 5 5 5 5 5 5 5 5 5 5 5 5 5 5 5 5 5 5 5 5 5 5 5 5 5 5 5 5 5 5 5 5 5 5 5 5 5 5 5 5 5 5 5 5 5 5 5 5 5 5 5 5 5 5 5 5 5 5 5 5 5 5 5 5 5 5 5 5 5 5 5 5 5 5 5 5 3 5 5 5 5 5 5 5 3 5 5 5 5 5 5 5 5 5 3 5 3 5 5 5 3 5 5 3 5 5 5 5 5 5 5 5 5 5 5 5 5 5 5 5 5 5 5 5 5 5 5 5 5 5 5 5 5 5 5 5 5 5 5 5 5 3 5 5 3 3 5 5 3 5 5 3 5 5 5 3 5 5 5 5 5 5 5 5 5 3 5 5 5 5 5 5 3 5 5 5 5 5 5 5 5 5 5 5 5 5 5 5 5 5 5 5 5 5 5 5 5 5 5 5 5 5 5 5 3 5 5 5 5 5 5 5 5 5 5 5 5 5 5 5 5 5 5 5 5 5 5 5 5 5 5 5 5 5 5 5 5 5 5 5 5 5 5 5 5 5 5 5 5 5 5 3 5 3 5 5 5 5 3 5 5 5 5 3 5 5 5 5 3 5 5 5 5 5 5 5 5 3 5 5 3 5 3 5 5 5 5 3 5 5 3 3 5 5 5 5 5 5 3 5 5 5 5 5 5 5 5 5 5 3 3 5 5 5 5 5 3 5 5 3 5 5 5 5 3 5 5 3 5 5 5 5 5 5 5 5 5 5 5 5 5 5 5 5 5 5 5 5 5 5 5 5 5 5 5 5 5 3 5 3 5 5 5 5 5 5 5 5 5 5 5 5 5 3 5 5 5 5 3 3 5 5 5 5 5 5 5 5 5 5 5 5 5 5 5 5 5 5 5 5 5 5 5 5 5 5 5 5 5 5 5 5 5 5 5 5 5 5 5 5 5 5 3 5 5 5 3 5 5 5 5 5 5 5 5 5 5 5 5 5 5 5 5 5 5 5 5 3 5 5 3 5 5 5 5 5 5 5 5 5 3 5 5 5 5 5 3 5 5 5 5 5 3 5 3 5 5 5 5 5 5 5 5 5 5 5 5 5 3 5 5 5 3 3 5 5 5 5 5 5 5 5 3 5 5 3 5 5 3 3 5 5 5 5 5 3 5 5 5 5 5 5 5 3 5 5 3 3 5 5 5 5 5 5 3 3 5 5 5 3 5 5 5 5 5 5 5 3 5 5 5 5 5 5 5 5 5 5 5 5 5 5 5 5 5 5 5 5 5 5 5 5 5 5 3 5 5 5 5 5 5 5 3 5 5 5 5 5 5 5 5 5 5 5 3 5 5 5 5 5 5 5 5 3 5 5 5 5 5 5 5 5 5 5 5 5 5 5 5 5 3 5 5 5 3 5 5 5 5 5 3 5 5 5 5 5 5 5 5 5 5 5 5 5 5 3 5 5 5 5 3 5 5 3 5 5 5 5 5 3 5 5 5 5 5 5 5 5 5 5 5 5 5 5 3 5 3 5 5 5 3 5 3 5 3 5 5 5 5 5 5 3 3 5 5 5 5 5 5 3 5 3 5 5 5 5 5 5 5 5 5 5 5 5 5 5 5 5 5 3 5 5 5 3 3 5 5 5 5 5 3 5 5 3 3 5 5 5 5 5 5 5 5 5 5 5 5 5 5 5 5 5 5 5 5 5 5 5 5 5 5 5 5 5 5 5 5 5 5 5 5 5 5 5 5 5 5 5 5 3 5 5 3 3 3 5 5 5 5 5 5 3 5 5 5 5 5 5 5 5 5 3 5 5 5 3 5 5 5 5 5 5 5 5 5 5 5 5 5 5 5 5 5 5 5 5 3 5 5 5 5 3 5 5 5 5 5 5 5 5 5 5 5 5 5 5 5 5 5 5 5 5 5 5 5 5 5 5 5 5 5 5 5 5 5 5 3 5 3 5 5 5 5 5 5 5 5 3 5 5 5 3 5 3 5 5 5 5 5 5 5 5 3 5 5 5 5 3 5 5 5 5 3 5 5 5 5 5 5 5 3 5 5 5 5 3 5 5 5 5 5 5 5 5 5 5 5 5 5 5 5 5 5 5 5 5 5 5 5 5 5 5 5 5 5 5 5 5 5 5 5 5 5 5 5 5 5 5 5 5 5 5 3 5 5 5 5 3 3 5 5 3 3 5 5 5 5 5 5 5 5 5 5 5 5 5 5 5 5 5 5 5 3 5 5 5 3 3 5 5 5 5 5 5 5 5 5 5 5 5 5 5 5 5 5 5 5 5 5 5 5 5 5 5 5 3 5 5 5 5 5 5 5 3 5 5 5 5 5 5 5 5 5 5 5 5 5 5 5 3 5 5 5 5 5 5 5 5 3 5 3 3 5 5 5 5 5 5 5 5 5 5 5 5 3 5 5 5 5 5 5 5 5 5 5 5 5 5 5 5 5 5 5 3 5 5 5 3 5 5 5 5 5 5 5 5 3 5 5 5 5 5 5 5 5 5 5 5 5 5 5 5 3 5 5 5 3 5 5 5 5 5 5 5 5 5 5 5 5 5 5 5 5 5 5 5 5 5 5 5 5 5 5 5 5 5 5 5 5 5 3 5 3 5 5 5 5 5 5 5 5 3 5 5 5 5 5 5 5 5 5 3 5 5 3 5 5 5 5 5 3 5 5 5 5 3 5 5 5 5 3 5 5 5 3 5 3 5 5 3 5 5 5 5 5 5 5 5 5 5 5 5 5 5 3 5 5 3 5 3 5 5 5 3 5 5 3 5 5 5 5 3 5 3 5 5 5 5 5 5 3 5 3 5 5 5 5 5 3 5 5 5 5 3 5 5 5 5 5 5 3 5 5 5 5 5 5 5 5 5 5 5 5 5 5 5 5 5 5 5 5 5 5 5 5 5 5 5 5 5 5 5 5 5 3 3 5 5 5 5 5 5 5 5 5 5 3 5 5 3 3 5 3 5 5 5 5 5 5 5 3 5 5 5 5 5 5 5 5 5 5 5 5 3 5 5 5 5 3 5 5 5 5 5 5 5 5 5 5 5 5 3 5 5 5 5 5 5 5 5 5 5 5 5 5 5 5 5 5 3 5 5 5 5 5 3 5 5 5 3 5 5 5 5 5 5 3 5 3 5 5 5 3 5 5 5 5 5 5 5 5 5 3 5 5 3 5 5 5 5 5 5 5 3 5 5 5 5 5 5 5 5 5 5 5 5 5 3 5 5 3 5 5 5 5 5 5 3 5 5 5 5 5 5 3 5 5 5 5 5 5 5 3 5 5 5 5 5 5 5 5 5 5 5 5 5 5 5 5 5 5 5 5 5 5 3 5 5 5 5 5 5 5 5 5 5 3 5 5 5 5 3 3 5 5 5 5 3 5 5 5 5 5 5 5 5 5 3 5 5 5 5 5 5 5 5 5 5 5 3 5 5 5 3 5 5 5 3 5 5 5 5 5 5 5 5 5 5 5 5 3 5 5 5 5 5 3 5 5 3 5 5 5 5 5 5 5 5 5 5 5 5 5 5 3 5 5 5 5 5 5 5 3 5 5 5 3 5 5 5 5 5 3 5 5 5 5 5 5 5 5 5 3 5 5 5 5 5 5 5 5 3 5 5 5 5 5 3 5 5 5 5 5 5 5 3 5 5 5 5 5 5 5 5 5 5 5 5 5 5 5 5 5 5 5 5 5 5 5 5 5 5 5 5 5 5 5 5 5 5 5 5 5 5 5 5 5 5 5 5 5 5 5 5 3 5 5 5 5 5 5 5 3 5 5 5 5 5 5 5 5 5 5 5 5 5 5 5 5 5 5 5 5 5 5 3 3 5 5 3 3 5 5 5 5 5 5 5 3 5 5 5 5 5 5 5 5 5 5 5 5 5 5 3 5 5 5 5 5 5 5 5 3 5 5 3 5 5 5 3 5 5 5 5 5 5 5 5 5 5 5 5 5 5 5 5 5 5 5 5 5 5 5 5 5 5 5 5 3 5 5 5 5 5 5 5 5 3 5 5 5 5 5 5 3 3 5 5 5 5 3 5 5 3 5 5 3 5 5 5 5 5 5 3 5 5 5 5 5 5 5 5 3 5 5 5 5 5 5 5 5 5 5 5 3 5 5 3 5 5 5 5 5 5 5 3 5 5 5 3 5 3 5 3 5 5 5 5 5 5 5 5 5 5 5 5 5 5 5 5 5 3 5 3 5 5 5 5 5 5 5 5 5 5 3 5 5 5 5 5 5 5 3 5 5 5 3 5 3 3 5 5 3 5 5 5 5 3 5 5 5 3 5 5 5 3 5 3 3 5 5 5 5 5 5 3 5 5 5 5 5 5 5 5 3 3 3 5 3 5 5 3 3 5 5 3 5 5 5 5 5 5 5 5 5 5 5 3 5 5 5 5 5 5 5 5 5 5 5 5 5 3 3 5 5 5 5 3 5 5 5 3 5 5 5 5 5 3 3 5 5 5 3 5 5 5 5 5 5 5 5 5 5 5 5 5 5 5 3 5 5 5 3 5 5 5 3 5 5 5 5 5 5 3 5 5 5 5 5 3 5 5 5 5 5 5 5 5 3 5 5 5 5 5 5 5 5 5 3 5 5 5 5 3 5 3 5 5 3 5 3 5 5 5 5 5 5 3 5 3 3 5 5 5 5 5 5 5 5 3 5 3 5 3 5 3 5 5 5 5 5 5 5 5 5 5 5 3 5 5 5 3 5 5 5 5 5 5 5 5 3 5 5 5 5 5 5 5 5 5 3 5 5 5 5 3 5 5 3 5 5 5 5 5 5 5 5 5 3 5 5 5 3 5 5 5 5 5 5 5 5 5 5 5 5 5 5 5 5 5 5 5 3 5 5 5 5 5 5 5 5 5 5 3 5 5 5 5 5 5 5 5 5 5 5 5 5 5 5 5 5 5 5 5 5 5 5 5 5 5 5 5 5 5 5 5 5 5 5 5 5 5 5 5 5 5 5 5 5 3 3 5 5 5 5 5 5 5 5 5 5 5 5 5 3 3 5 5 5 3 5 5 3 5 5 5 3 5 5 5 3 5 5 5 5 5 5 5 5 3 5 5 3 5 3 3 5 5 5 5 5 5 3 5 3 3 3 5 5 3 5 5 3 3 5 5 5 5 5 5 5 5 5 5 5 5 5 5 5 5 5 5 5 5 5 3 5 5 5 5 5 5 5 5 5 3 5 5 5 5 5 5 5 3 3 5 5 5 5 5 5 5 5 5 5 5 5 5 5 5 5 5 5 5 5 5 5 5 3 5 3 5 5 5 5 5 5 5 3 5 5 5 3 3 5 5 3 5 5 5 5 3 5 5 5 3 5 5 5 3 5 5 5 5 5 5 5 5 5 3 3 5 5 5 5 5 3 5 5 3 3 3 5 5 5 5 5 3 5 5 5 5 5 5 5 5 5 3 5 3 5 5 5 5 5 5 5 5 5 5 5 5 5 5 5 5 5 5 5 5 5 5 5 5 3 5 5 5 5 3 3 5 5 5 3 5 5 5 5 5 5 5 5 5 5 5 5 5 5 5 5 3 5 5 5 3 5 5 3 5 5 5 5 5 5 5 5 5 5 5 5 5 3 5 5 3 5 5 5 3 5 3 5 3 5 3 3 3 5 5 5 5 5 5 5 5 3 5 5 5 5 5 5 5 5 3 5 5 3 5 5 5 5 5 5 5 5 5 5 5 5 5 5 5 5 5 5 5 5 5 3 5 5 5 5 5 5 5 5 5 5 3 5 3 5 5 3 5 3 5 3 5 5 3 5 3 5 5 3 5 5 5 3 5 5 5 5 5 5 5 5 5 5 5 5 5 5 5 5 5 5 5 5 5 5 5 5 5 5 5 5 5 5 5 5 5 5 5 5 5 5 5 5 5 5 5 5 5 5 5 5 5 5 5 5 5 5 5 5 5 5 5 5 5 3 5 5 3 5 5 5 5 5 5 3 3 5 5 5 5 5 5 5 5 5 5 5 5 5 5 5 5 5 5 3 5 5 5 3 5 5 5 5 5 5 5 5 5 5 5 5 5 5 5 5 3 5 5 5 5 5 5 5 3 5 5 5 5 5 5 5 5 3 5 3 5 5 5 5 5 5 5 5 5 5 5 5 5 5 5 5 3 5 5 5 5 5 5 5 3 5 5 5 5 3 5 5 5 5 5 5 5 3 5 5 3 3 5 5 3 5 5 5 5 5 5 3 5 5 5 5 5 5 5 5 5 3 5 5 3 5 5 3 5 5 3 5 5 5 5 5 3 5 5 5 5 5 5 5 5 3 5 5 5 5 5 5 5 3 5 5 5 5 5 5 5 5 5 5 5 5 3 5 5 5 5 5 5 5 3 3 5 3 5 3 5 5 5 5 5 5 5 5 5 5 5 5 5 5 5 3 5 3 5 5 5 5 5 5 5 5 3 5 3 5 3 5 3 5 3 5 5 3 5 5 5 5 5 3 5 5 5 5 5 5 5 5 3 5 5 5 5 5 3 5 5 3 5 3 3 5 5 5 5 5 5 5 5 3 5 5 5 5 5 5 5 5 5 5 5 5 5 3 5 5 5 5 5 5 5 3 5 5 5 3 5 5 5 5 5 5 5 5 5 5 5 5 5 5 5 5 5 3 5 5 5 5 5 5 5 3 5 5 3 5 5 5 5 5 5 5 5 5 5 5 5 5 5 5 3 5 5 5 5 3 5 5 5 5 5 5 5 5 5 5 5 5 5 5 5 5 5 5 5 5 5 5 5 5 5 3 5 5 5 5 5 5 3 5 5 5 5 5 5 5 5 5 3 3 5 5 5 3 5 3 5 5 5 5 5 5 5 5 5 5 5 5 5 5 5 3 5 5 5 5 5 5 5 5 5 5 5 5 3 3 5 5 5 5 5 5 5 5 3 5 5 3 5 5 3 3 5 5 5 5 5 5 5 3 5 5 5 5 5 5 5 5 5 3 5 5 5 3 5 5 5 5 5 3 5 5 5 5 5 5 5 5 5 5 5 5 3 5 5 5 3 5 5 5 3 5 5 5 5 5 5 5 5 5 5 5 5 5 5 5 5 5 5 5 5 5 5 5 5 5 5 5 5 5 5 5 5 3 5 5 5 5 5 5 5 5 5 5 5 5 5 5 5 5 5 5 5 5 5 5 5 5 3 5 3 5 5 3 5 5 5 5 5 5 5 5 5 3 5 5 5 5 5 5 5 5 5 5 5 5 5 5 3 5 5 5 5 3 5 5 5 3 5 5 5 5 5 5 5 5 5 5 5 5 5 5 5 5 5 5 5 5 5 5 5 5 5 5 5 5 5 5 5 5 5 5 5 5 5 5 5 5 5 5 5 5 5 5 5 5 5 5 5 5 5 5 5 5 5 5 5 5 5 5 5 5 5 5 5 5 5 5 5 5 5 5 5 5 5 5 5 5 5 5 5 5 5 5 5 5 5 5 5 5 5 5 5 5 5 5 5 5 5 5 5 5 5 5 5 5 5 5 5 5 5 5 5 5 5 5 5 5 5 5 5 5 5 5 5 5 5 5 5 5 5 5 5 5 5 5 5 5 5 5 5 5 5 5 5 5 5 5 5 5 5 5 5 5 5 5 5 5 5 5 5 5 5 5 5 5 5 5 5 5 5 5 5 5 5 5 5 5 5 5 5 5 5 5 5 5 5 3 5 5 5 5 5 5 5 5 5 5 5 5 5 5 5 5 3 5 5 5 5 5 5 5 5 3 5 5 5 5 3 5 5 5 5 5 5 5 5 5 5 5 5 5 5 5 5 5 5 5 5 5 5 3 5 5 5 5 5 5 5 5 5 5 5 5 5 3 3 5 5 5 5 5 3 5 3 5 5 5 5 5 5 5 5 5 5 5 3 5 5 5 5 5 5 5 3 5 5 5 5 5 5 5 5 5 5 5 5 5 5 5 3 3 5 5 5 5 5 5 5 5 5 5 5 5 3 5 5 5 5 5 5 5 5 5 5 5 5 5 5 5 5 3 5 5 5 5 5 5 5 3 5 5 5 5 5 5 5 5 5 5 3 3 5 5 5 5 5 5 5 5 5 5 5 5 5 5 5 5 5 5 5 5 5 5 5 5 5 5 5 5 5 5 3 5 5 5 5 5 3 5 5 5 5 5 5 5 5 5 5 3 5 5 5 5 3 5 5 5 5 5 5 5 5 5 5 3 5 3 5 5 5 5 5 5 5 5 5 5 5 5 5 5 5 5 5 5 5 5 5 5 5 5 5 5 5 5 5 5 5 3 5 5 5 5 5 3 5 5 5 5 5 5 5 5 5 5 5 5 5 5 5 5 5 5 3 5 5 3 5 5 5 3 5 5 5 5 5 3 5 5 5 5 5 5 5 5 5 5 3 5 5 5 5 5 5 3 5 5 5 5 5 3 3 5 5 3 5 5 3 5 5 5 5 5 5 5 5 5 5 3 5 5 3 5 5 3 5 5 3 5 5 3 5 5 3 5 5 5 5 5 5 3 5 5 5 5 5 5 5 5 5 5 5 3 5 5 5 5 5 5 5 3 5 5 5 5 3 5 5 5 3 5 5 5 5 5 5 5 5 5 5 5 3 5 5 5 5 5 5 5 5 5 5 5 5 5 5 5 5 5 5 5 5 5 5 5 5 3 5 5 5 5 5 3 5 5 5 5 5 5 5 5 5 5 5 5 5 5 3 5 5 3 5 3 5 5 5 5 3 5 3 3 5 3 5 5 5 5 5 5 5 3 5 3 5 5 5 5 5 5 3 5 5 5 5 5 5 3 5 5 5 5 3 5 5 5 5 5 3 5 5 3 5 5 5 5 3 5 5 5 5 3 5 5 5 5 5 5 3 5 5 5 5 5 5 5 5 5 3 5 5 5 5 5 5 3 5 5 5 5 3 5 5 5 5 5 5 5 5 5 5 5 5 5 5 5 5 3 5 5 5 3 5 5 3 5 5 5 5 5 5 5 5 5 5 5 5 5 5 5 5 3 5 3 5 5 5 5 5 5 5 5 5 5 5 5 5 5 5 5 5 5 5 5 5 5 5 5 5 5 3 5 5 3 5 5 5 5 5 5 5 5 5 5 3 5 5 5 5 3 5 5 5 5 3 5 5 5 5 5 5 5 5 5 3 5 5 5 5 5 5 5 5 5 5 5 5 5 5 5 5 5 5 5 5 5 5 5 5 5 5 5 5 
</DataArray>
</Cells>
<PointData Scalars="" Vectors="displacement," Tensors="">
<DataArray type="Float64" Name="displacement" NumberOfComponents="3" format="ascii">
-0.034997426016886754 -0.034998012806472759 0 -0.032620504939313448 -0.034360723552526354 0 -0.029503326311211601 -0.034995329897742122 0 -0.034997426016886754 -0.034998012806472759 0 -0.034425689352141707 -0.033706572033831192 0 -0.032620504939313448 -0.034360723552526354 0 -0.034997426016886754 -0.034998012806472759 0 -0.034425689352141707 -0.033706572033831192 0 -0.034998039961288141 -0.031405241764737246 0 -0.034425689352141707 -0.033706572033831192 0 -0.034998039961288141 -0.031405241764737246 0 -0.034611416951397612 -0.033167185291363109 0 -0.034998039961288141 -0.031405241764737246 0 -0.034611416951397612 -0.033167185291363109 0 -0.035092371459997947 -0.030769225806800214 0 -0.034188997539466852 -0.033445935515710505 0 -0.034841058103774282 -0.034093736324464656 0 -0.034611416951397612 -0.033167185291363109 0 -0.037285147657592742 -0.033265442089498172 0 -0.037504120310852596 -0.031989485374012264 0 -0.034611416951397612 -0.033167185291363109 0 -0.037504120310852596 -0.031989485374012264 0 -0.036422050089069215 -0.030947549854545373 0 -0.034425689352141707 -0.033706572033831192 0 -0.034611416951397612 -0.033167185291363109 0 -0.032620504939313448 -0.034360723552526354 0 -0.034611416951397612 -0.033167185291363109 0 -0.032620504939313448 -0.034360723552526354 0 -0.031862836471450176 -0.034933912312445109 0 -0.032620504939313448 -0.034360723552526354 0 -0.030391612581712159 -0.034612270055009525 0 -0.031862836471450176 -0.034933912312445109 0 -0.032620504939313448 -0.034360723552526354 0 -0.029503326311211601 -0.034995329897742122 0 -0.030391612581712159 -0.034612270055009525 0 -0.02949266381904091 -0.034999993429117651 0 -0.028749714521557317 -0.036315360709206788 0 -0.027572047752015345 -0.034999990988956717 0 -0.029493010824251351 -0.035000143208010613 0 -0.029621138718274081 -0.035696856963064398 0 -0.027572047752015345 -0.034999990988956717 0 -0.027290736495725169 -0.03648670092089866 0 -0.02599428868318324 -0.036093386739443664 0 -0.027572047752015345 -0.034999990988956717 0 -0.025651400651413185 -0.034999989834781829 0 -0.02599428868318324 -0.036093386739443664 0 -0.028749714521557317 -0.036315360709206788 0 -0.027572047752015345 -0.034999990988956717 0 -0.027290736495725169 -0.03648670092089866 0 -0.028749714521557317 -0.036315360709206788 0 -0.027290736495725169 -0.03648670092089866 0 -0.028017092854660489 -0.03762748441403857 0 -0.029621138718274081 -0.035696856963064398 0 -0.031335785981221081 -0.035122328249539335 0 -0.027290736495725169 -0.03648670092089866 0 -0.02636816228409064 -0.037273550029560801 0 -0.028017092854660489 -0.03762748441403857 0 -0.027290736495725169 -0.03648670092089866 0 -0.02636816228409064 -0.037273550029560801 0 -0.02599428868318324 -0.036093386739443664 0 -0.025738042444290291 -0.036613180097521854 0 -0.031335785981221081 -0.035122328249539335 0 -0.025738494096638902 -0.03697728815302323 0 -0.025730379306571478 -0.037037092450779463 0 -0.025788660918767019 -0.037017056441775442 0 -0.025738494096638902 -0.03697728815302323 0 -0.025730379306571478 -0.037037092450779463 0 -0.02563933300922526 -0.037082408108926497 0 -0.025730379306571478 -0.037037092450779463 0 -0.025788660918767019 -0.037017056441775442 0 -0.025701354746681747 -0.03706888970446294 0 -0.038893127611892654 -0.033259018457143526 0 -0.039265985562231931 -0.032186149644141217 0 -0.038368179219658072 -0.03251890748372456 0 -0.031335785981221081 -0.035122328249539335 0 -0.03233393682270639 -0.034533462712679583 0 -0.039265985562231931 -0.032186149644141217 0 -0.038368179219658072 -0.03251890748372456 0 -0.038669959227829287 -0.031826519628754824 0 -0.025701354746681747 -0.03706888970446294 0 -0.02563933300922526 -0.037082408108926497 0 -0.025615939141138164 -0.037072495037788172 0 -0.025730379306571478 -0.037037092450779463 0 -0.025701354746681747 -0.03706888970446294 0 -0.02563933300922526 -0.037082408108926497 0 -0.038893127611892654 -0.033259018457143526 0 -0.037285147657592742 -0.033265442089498172 0 -0.038368179219658072 -0.03251890748372456 0 -0.031335785981221081 -0.035122328249539335 0 -0.034841058103774282 -0.034093736324464656 0 -0.030391612581712159 -0.034612270055009525 0 -0.030259537142665809 -0.035114515644450076 0 -0.031862836471450176 -0.034933912312445109 0 -0.038368179219658072 -0.03251890748372456 0 -0.037504120310852596 -0.031989485374012264 0 -0.038225067470022737 -0.031899327583164043 0 -0.038368179219658072 -0.03251890748372456 0 -0.038225067470022737 -0.031899327583164043 0 -0.038669959227829287 -0.031826519628754824 0 -0.037285147657592742 -0.033265442089498172 0 -0.038368179219658072 -0.03251890748372456 0 -0.037504120310852596 -0.031989485374012264 0 -0.037504120310852596 -0.031989485374012264 0 -0.037468362587772273 -0.031132194086108424 0 -0.036422050089069215 -0.030947549854545373 0 -0.037468362587772273 -0.031132194086108424 0 -0.037288885106555605 -0.030299764191336787 0 -0.036422050089069215 -0.030947549854545373 0 -0.037468362587772273 -0.031132194086108424 0 -0.03786997556028017 -0.031149247154573935 0 -0.037833399710407646 -0.030736222576256841 0 -0.037468362587772273 -0.031132194086108424 0 -0.037957576315384552 -0.031510291941030666 0 -0.03786997556028017 -0.031149247154573935 0 -0.037504120310852596 -0.031989485374012264 0 -0.037468362587772273 -0.031132194086108424 0 -0.037957576315384552 -0.031510291941030666 0 -0.037504120310852596 -0.031989485374012264 0 -0.038225067470022737 -0.031899327583164043 0 -0.037957576315384552 -0.031510291941030666 0 -0.038225067470022737 -0.031899327583164043 0 -0.037957576315384552 -0.031510291941030666 0 -0.038362197448935272 -0.031478719245657892 0 -0.038225067470022737 -0.031899327583164043 0 -0.038362197448935272 -0.031478719245657892 0 -0.038669959227829287 -0.031826519628754824 0 -0.038362197448935272 -0.031478719245657892 0 -0.038669959227829287 -0.031826519628754824 0 -0.038657499491538468 -0.031434218015534726 0 -0.038150275550138682 -0.03098297512028236 0 -0.038130498648613217 -0.030639680989409331 0 -0.038362197448935272 -0.031478719245657892 0 -0.038220643795492719 -0.031214968532537059 0 -0.038549309969292456 -0.030664639374120096 0 -0.038362197448935272 -0.031478719245657892 0 -0.03844982596749405 -0.031294101308356068 0 -0.038657499491538468 -0.031434218015534726 0 -0.038119832567404283 -0.030749101461044884 0 -0.038130498648613217 -0.030639680989409331 0 -0.038220643795492719 -0.031214968532537059 0 -0.037833399710407646 -0.030736222576256841 0 -0.038517095952039171 -0.030677423459096013 0 -0.037957576315384552 -0.031510291941030666 0 -0.03786997556028017 -0.031149247154573935 0 -0.038220643795492719 -0.031214968532537059 0 -0.037957576315384552 -0.031510291941030666 0 -0.038362197448935272 -0.031478719245657892 0 -0.038220643795492719 -0.031214968532537059 0 -0.03786997556028017 -0.031149247154573935 0 -0.038220643795492719 -0.031214968532537059 0 -0.037833399710407646 -0.030736222576256841 0 -0.037833399710407646 -0.030736222576256841 0 -0.038517095952039171 -0.030677423459096013 0 -0.037938705312620238 -0.029958922639104279 0 -0.038130498648613217 -0.030639680989409331 0 -0.038254132521946628 -0.02905442112108569 0 -0.038517095952039171 -0.030677423459096013 0 -0.037938705312620238 -0.029958922639104279 0 -0.038712602772509666 -0.029120543184911082 0 -0.037938705312620238 -0.029958922639104279 0 -0.037288885106555605 -0.030299764191336787 0 -0.03737134454378703 -0.029014105674396086 0 -0.037288885106555605 -0.030299764191336787 0 -0.03737134454378703 -0.029014105674396086 0 -0.036446027541771814 -0.030005123174410574 0 -0.037833399710407646 -0.030736222576256841 0 -0.037938705312620238 -0.029958922639104279 0 -0.037288885106555605 -0.030299764191336787 0 -0.037468362587772273 -0.031132194086108424 0 -0.037833399710407646 -0.030736222576256841 0 -0.037288885106555605 -0.030299764191336787 0 -0.039265985562231931 -0.032186149644141217 0 -0.0393874102205529 -0.031422981789709745 0 -0.038993314280713516 -0.031512123551744847 0 -0.025701354746681747 -0.03706888970446294 0 -0.025623862173252972 -0.037015338586472192 0 -0.025615939141138164 -0.037072495037788172 0 -0.03233393682270639 -0.034533462712679583 0 -0.032330961751721309 -0.034279707216583959 0 -0.0393874102205529 -0.031422981789709745 0 -0.038993314280713516 -0.031512123551744847 0 -0.039108699137249278 -0.031235798530869305 0 -0.039265985562231931 -0.032186149644141217 0 -0.038993314280713516 -0.031512123551744847 0 -0.038669959227829287 -0.031826519628754824 0 -0.038993314280713516 -0.031512123551744847 0 -0.038669959227829287 -0.031826519628754824 0 -0.038657499491538468 -0.031434218015534726 0 -0.03844982596749405 -0.031294101308356068 0 -0.03883780590115192 -0.031133121472203807 0 -0.038831990821418146 -0.030759928950058135 0 -0.038130498648613217 -0.030639680989409331 0 -0.038319536554094258 -0.029816051802517434 0 -0.038993314280713516 -0.031512123551744847 0 -0.038657499491538468 -0.031434218015534726 0 -0.03883780590115192 -0.031133121472203807 0 -0.03844982596749405 -0.031294101308356068 0 -0.038657499491538468 -0.031434218015534726 0 -0.03883780590115192 -0.031133121472203807 0 -0.038993314280713516 -0.031512123551744847 0 -0.03883780590115192 -0.031133121472203807 0 -0.039108699137249278 -0.031235798530869305 0 -0.03883780590115192 -0.031133121472203807 0 -0.039108699137249278 -0.031235798530869305 0 -0.03921095679770692 -0.030890600429758608 0 -0.0393874102205529 -0.031422981789709745 0 -0.03921095679770692 -0.030890600429758608 0 -0.039565747155156553 -0.030888930616450379 0 -0.0393874102205529 -0.031422981789709745 0 -0.039108699137249278 -0.031235798530869305 0 -0.03921095679770692 -0.030890600429758608 0 -0.03921095679770692 -0.030890600429758608 0 -0.039095825506285951 -0.030672261860215579 0 -0.038831990821418146 -0.030759928950058135 0 -0.03921095679770692 -0.030890600429758608 0 -0.039095825506285951 -0.030672261860215579 0 -0.039249214037260879 -0.030654054539570295 0 -0.03883780590115192 -0.031133121472203807 0 -0.03921095679770692 -0.030890600429758608 0 -0.038831990821418146 -0.030759928950058135 0 -0.038319536554094258 -0.029816051802517434 0 -0.037830944025490969 -0.026529379706470277 0 -0.038430832032398193 -0.028791915999412498 0 -0.037984713899323973 -0.027175093139287808 0 -0.039329149784446155 -0.027193957642792383 0 -0.038430832032398193 -0.028791915999412498 0 -0.037984713899323973 -0.027175093139287808 0 -0.037755609442777942 -0.028782774268721809 0 -0.03870681410457194 -0.026199629997113092 0 -0.037830944025490969 -0.026529379706470277 0 -0.039077665112267609 -0.030410305922507333 0 -0.039249214037260879 -0.030654054539570295 0 -0.039303684616290316 -0.030443477470390629 0 -0.039095825506285951 -0.030672261860215579 0 -0.039077665112267609 -0.030410305922507333 0 -0.039249214037260879 -0.030654054539570295 0 -0.037830944025490969 -0.026529379706470277 0 -0.037173188431628472 -0.027003722882245805 0 -0.039095825506285951 -0.030672261860215579 0 -0.038831990821418146 -0.030759928950058135 0 -0.039077665112267609 -0.030410305922507333 0 -0.037531143360869337 -0.030395291300179313 0 -0.038430832032398193 -0.028791915999412498 0 -0.037755609442777942 -0.028782774268721809 0 -0.037938705312620238 -0.029958922639104279 0 -0.03737134454378703 -0.029014105674396086 0 -0.038712602772509666 -0.029120543184911082 0 -0.038917232665887196 -0.027649736362327003 0 -0.03737134454378703 -0.029014105674396086 0 -0.038712602772509666 -0.029120543184911082 0 -0.03870681410457194 -0.026199629997113092 0 -0.038254132521946628 -0.02905442112108569 0 -0.038917232665887196 -0.027649736362327003 0 -0.03737134454378703 -0.029014105674396086 0 -0.036954549462304476 -0.027639070747856452 0 -0.03737134454378703 -0.029014105674396086 0 -0.036246990521958816 -0.028817741799397126 0 -0.036954549462304476 -0.027639070747856452 0 -0.036246990521958816 -0.028817741799397126 0 -0.035042543976813507 -0.027615502265638719 0 -0.036954549462304476 -0.027639070747856452 0 -0.03737134454378703 -0.029014105674396086 0 -0.036246990521958816 -0.028817741799397126 0 -0.036446027541771814 -0.030005123174410574 0 -0.036246990521958816 -0.028817741799397126 0 -0.035551111186452218 -0.029512637021422875 0 -0.036446027541771814 -0.030005123174410574 0 -0.035953247529770867 -0.029432921421100884 0 -0.035576879659990457 -0.028216164034416964 0 -0.03553370712613399 -0.02968851022143737 0 -0.03786755911328752 -0.028199653751118665 0 -0.037603551876915983 -0.027207305750988356 0 -0.036452907937081933 -0.027433699800168278 0 -0.036591500597518548 -0.02869962670183418 0 -0.035926326730212003 -0.027758392286217532 0 -0.036591500597518548 -0.02869962670183418 0 -0.036587866520096643 -0.028741594905769902 0 -0.036591500597518548 -0.02869962670183418 0 -0.036537575387248271 -0.027838751800567295 0 -0.036246990521958816 -0.028817741799397126 0 -0.035551111186452218 -0.029512637021422875 0 -0.035296362851278379 -0.028565257722564897 0 -0.036246990521958816 -0.028817741799397126 0 -0.035296362851278379 -0.028565257722564897 0 -0.035042543976813507 -0.027615502265638719 0 -0.036537575387248271 -0.027838751800567295 0 -0.036494430290168828 -0.026473522572813633 0 -0.037603551876915983 -0.027207305750988356 0 -0.036934653404012419 -0.026846003654115096 0 -0.037337667451328993 -0.026207181901895606 0 -0.036934653404012419 -0.026846003654115096 0 -0.036452907937081933 -0.027433699800168278 0 -0.036553469816376444 -0.026187724871814116 0 -0.036452907937081933 -0.027433699800168278 0 -0.035704801585647553 -0.026068211125639007 0 -0.036553469816376444 -0.026187724871814116 0 -0.036934653404012419 -0.026846003654115096 0 -0.036553469816376444 -0.026187724871814116 0 -0.037337667451328993 -0.026207181901895606 0 -0.037603551876915983 -0.027207305750988356 0 -0.036934653404012419 -0.026846003654115096 0 -0.036452907937081933 -0.027433699800168278 0 -0.035000112130648485 -0.026666854146876858 0 -0.035926326730212003 -0.027758392286217532 0 -0.034999998277000337 -0.026666248295236911 0 -0.036452907937081933 -0.027433699800168278 0 -0.035704801585647553 -0.026068211125639007 0 -0.034999874172512088 -0.026667527136650073 0 -0.035576879659990457 -0.028216164034416964 0 -0.034999123949368632 -0.028699159392332415 0 -0.035576879659990457 -0.028216164034416964 0 -0.03553370712613399 -0.02968851022143737 0 -0.034999123949368632 -0.028699159392332415 0 -0.03553370712613399 -0.02968851022143737 0 -0.034999123949368632 -0.028699159392332415 0 -0.035092371459997947 -0.030769225806800214 0 -0.034998039961288141 -0.031405241764737246 0 -0.034999123949368632 -0.028699159392332415 0 -0.035092371459997947 -0.030769225806800214 0 -0.03553370712613399 -0.02968851022143737 0 -0.035092371459997947 -0.030769225806800214 0 -0.035439259846603122 -0.030874861132368536 0 -0.034611416951397612 -0.033167185291363109 0 -0.035092371459997947 -0.030769225806800214 0 -0.035439259846603122 -0.030874861132368536 0 -0.034611416951397612 -0.033167185291363109 0 -0.035439259846603122 -0.030874861132368536 0 -0.036422050089069215 -0.030947549854545373 0 -0.035439259846603122 -0.030874861132368536 0 -0.036422050089069215 -0.030947549854545373 0 -0.035928510369998189 -0.030199765092823589 0 -0.036422050089069215 -0.030947549854545373 0 -0.036446027541771814 -0.030005123174410574 0 -0.035928510369998189 -0.030199765092823589 0 -0.037288885106555605 -0.030299764191336787 0 -0.036422050089069215 -0.030947549854545373 0 -0.036446027541771814 -0.030005123174410574 0 -0.035917958382548694 -0.029450890073377207 0 -0.036446027541771814 -0.030005123174410574 0 -0.035939418157325279 -0.029582927387764642 0 -0.036446027541771814 -0.030005123174410574 0 -0.035939418157325279 -0.029582927387764642 0 -0.035928510369998189 -0.030199765092823589 0 -0.036591500597518548 -0.02869962670183418 0 -0.036477705356682447 -0.0292414451183024 0 -0.03553370712613399 -0.02968851022143737 0 -0.035939418157325279 -0.029582927387764642 0 -0.035928510369998189 -0.030199765092823589 0 -0.035953247529770867 -0.029432921421100884 0 -0.03553370712613399 -0.02968851022143737 0 -0.035939418157325279 -0.029582927387764642 0 -0.03553370712613399 -0.02968851022143737 0 -0.035439259846603122 -0.030874861132368536 0 -0.035928510369998189 -0.030199765092823589 0 -0.016831634224498026 -0.037860679657209434 0 -0.012932358738093577 -0.036137559033334932 0 -0.017467095060171998 -0.037546077412193672 0 -0.017362266160575023 -0.039547095241960345 0 -0.016298457763757063 -0.037995837859586899 0 -0.019193043214361907 -0.038330756294232285 0 -0.017814904553958021 -0.037870680539132638 0 -0.017684231739139192 -0.039424524437411693 0 -0.019193043214361907 -0.038330756294232285 0 -0.019111836137740354 -0.039684286764662201 0 -0.017684231739139192 -0.039424524437411693 0 -0.019193043214361907 -0.038330756294232285 0 -0.020447330274452315 -0.038929849021065437 0 -0.019111836137740354 -0.039684286764662201 0 -0.019193043214361907 -0.038330756294232285 0 -0.018681355893621354 -0.03712359033344332 0 -0.019765438894478467 -0.036990958850556525 0 -0.019193043214361907 -0.038330756294232285 0 -0.018681355893621354 -0.03712359033344332 0 -0.017814904553958021 -0.037870680539132638 0 -0.016831634224498026 -0.037860679657209434 0 -0.017534288146032573 -0.036465953929984432 0 -0.018681355893621354 -0.03712359033344332 0 -0.017814904553958021 -0.037870680539132638 0 -0.017871709442760633 -0.036224572550127898 0 -0.017467095060171998 -0.037546077412193672 0 -0.017871709442760633 -0.036224572550127898 0 -0.016115336987670582 -0.036505566185269185 0 -0.017871709442760633 -0.036224572550127898 0 -0.017968530515001781 -0.03499964271782894 0 -0.019125827641640048 -0.035987901582190257 0 -0.017871709442760633 -0.036224572550127898 0 -0.017968530515001781 -0.03499964271782894 0 -0.016772788490145497 -0.035638373347779619 0 -0.017968530515001781 -0.03499964271782894 0 -0.019125827641640048 -0.035987901582190257 0 -0.019889433418612081 -0.034999918585395147 0 -0.018681355893621354 -0.03712359033344332 0 -0.017871709442760633 -0.036224572550127898 0 -0.019125827641640048 -0.035987901582190257 0 -0.018681355893621354 -0.03712359033344332 0 -0.019125827641640048 -0.035987901582190257 0 -0.019765438894478467 -0.036990958850556525 0 -0.019765438894478467 -0.036990958850556525 0 -0.020413921869208432 -0.035885300646669734 0 -0.020874081933094972 -0.036815836638574469 0 -0.019125827641640048 -0.035987901582190257 0 -0.019765438894478467 -0.036990958850556525 0 -0.020413921869208432 -0.035885300646669734 0 -0.019889433418612081 -0.034999918585395147 0 -0.020413921869208432 -0.035885300646669734 0 -0.021810059715041612 -0.034999919705633237 0 -0.019125827641640048 -0.035987901582190257 0 -0.019889433418612081 -0.034999918585395147 0 -0.020413921869208432 -0.035885300646669734 0 -0.020413921869208432 -0.035885300646669734 0 -0.021810059715041612 -0.034999919705633237 0 -0.021414375890869263 -0.036077276776954964 0 -0.021414375890869263 -0.036077276776954964 0 -0.020874081933094972 -0.036815836638574469 0 -0.02206764568993537 -0.036752765660438488 0 -0.020413921869208432 -0.035885300646669734 0 -0.021414375890869263 -0.036077276776954964 0 -0.020874081933094972 -0.036815836638574469 0 -0.020874081933094972 -0.036815836638574469 0 -0.021468268448547954 -0.03753542579001759 0 -0.02206764568993537 -0.036752765660438488 0 -0.021468268448547954 -0.03753542579001759 0 -0.021240697926199627 -0.038496237154219431 0 -0.022005339537711877 -0.038133416029156868 0 -0.021468268448547954 -0.03753542579001759 0 -0.02047154340064631 -0.037841187403764749 0 -0.021240697926199627 -0.038496237154219431 0 -0.020874081933094972 -0.036815836638574469 0 -0.021468268448547954 -0.03753542579001759 0 -0.02047154340064631 -0.037841187403764749 0 -0.019193043214361907 -0.038330756294232285 0 -0.019765438894478467 -0.036990958850556525 0 -0.02047154340064631 -0.037841187403764749 0 -0.019765438894478467 -0.036990958850556525 0 -0.020874081933094972 -0.036815836638574469 0 -0.02047154340064631 -0.037841187403764749 0 -0.019193043214361907 -0.038330756294232285 0 -0.02047154340064631 -0.037841187403764749 0 -0.020447330274452315 -0.038929849021065437 0 -0.02047154340064631 -0.037841187403764749 0 -0.020447330274452315 -0.038929849021065437 0 -0.021240697926199627 -0.038496237154219431 0 -0.020447330274452315 -0.038929849021065437 0 -0.021240697926199627 -0.038496237154219431 0 -0.021285555351007231 -0.039359312253972489 0 -0.021240697926199627 -0.038496237154219431 0 -0.022317114785794186 -0.039008874256922683 0 -0.021285555351007231 -0.039359312253972489 0 -0.021240697926199627 -0.038496237154219431 0 -0.022005339537711877 -0.038133416029156868 0 -0.022317114785794186 -0.039008874256922683 0 -0.021666549770417674 -0.03862559576572841 0 -0.022401642418457157 -0.037996816425204215 0 -0.022411079971731009 -0.038856729730347109 0 -0.02347850520577725 -0.038936154424899665 0 -0.022898339952155049 -0.037790976940268839 0 -0.022005339537711877 -0.038133416029156868 0 -0.022317114785794186 -0.039008874256922683 0 -0.022898339952155049 -0.037790976940268839 0 -0.023665969052952349 -0.0388839274043958 0 -0.023843969016051909 -0.038188425645706341 0 -0.023089975254729906 -0.036950968231125786 0 -0.023713214910881013 -0.037473556945083752 0 -0.024906953707152318 -0.037366221076833753 0 -0.023665969052952349 -0.0388839274043958 0 -0.023843969016051909 -0.038188425645706341 0 -0.024589911937323961 -0.038092759342813989 0 -0.023843969016051909 -0.038188425645706341 0 -0.023089975254729906 -0.036950968231125786 0 -0.023632570320856642 -0.037245541733075059 0 -0.023713214910881013 -0.037473556945083752 0 -0.023293915723461546 -0.037579074117301457 0 -0.02347850520577725 -0.038936154424899665 0 -0.023089975254729906 -0.036950968231125786 0 -0.022898339952155049 -0.037790976940268839 0 -0.023843969016051909 -0.038188425645706341 0 -0.023955825624112297 -0.037577853899874981 0 -0.024329698382247224 -0.03765695857958961 0 -0.023843969016051909 -0.038188425645706341 0 -0.023955825624112297 -0.037577853899874981 0 -0.023632570320856642 -0.037245541733075059 0 -0.023955825624112297 -0.037577853899874981 0 -0.024124735007379033 -0.037167721797772668 0 -0.024329698382247224 -0.03765695857958961 0 -0.023955825624112297 -0.037577853899874981 0 -0.024124735007379033 -0.037167721797772668 0 -0.023632570320856642 -0.037245541733075059 0 -0.023089975254729906 -0.036950968231125786 0 -0.022303096155119374 -0.037432569095141421 0 -0.02206764568993537 -0.036752765660438488 0 -0.023089975254729906 -0.036950968231125786 0 -0.022898339952155049 -0.037790976940268839 0 -0.022303096155119374 -0.037432569095141421 0 -0.021468268448547954 -0.03753542579001759 0 -0.022005339537711877 -0.038133416029156868 0 -0.022303096155119374 -0.037432569095141421 0 -0.022005339537711877 -0.038133416029156868 0 -0.022898339952155049 -0.037790976940268839 0 -0.022303096155119374 -0.037432569095141421 0 -0.021468268448547954 -0.03753542579001759 0 -0.022303096155119374 -0.037432569095141421 0 -0.02206764568993537 -0.036752765660438488 0 -0.021414375890869263 -0.036077276776954964 0 -0.02206764568993537 -0.036752765660438488 0 -0.023150718463370138 -0.036280002205023101 0 -0.021801124591527568 -0.036140067369815468 0 -0.023096318539460807 -0.036406253606941864 0 -0.021414375890869263 -0.036077276776954964 0 -0.022373903834771242 -0.035817494735943735 0 -0.023066915495473343 -0.036537008748545471 0 -0.023089975254729906 -0.036950968231125786 0 -0.02206764568993537 -0.036752765660438488 0 -0.023150718463370138 -0.036280002205023101 0 -0.021810059715041612 -0.034999919705633237 0 -0.023730742869659583 -0.034999981541424773 0 -0.023063943439008923 -0.035641603312241948 0 -0.021810059715041612 -0.034999919705633237 0 -0.022373903834771242 -0.035817494735943735 0 -0.023063943439008923 -0.035641603312241948 0 -0.021810059715041612 -0.034999919705633237 0 -0.021414375890869263 -0.036077276776954964 0 -0.022373903834771242 -0.035817494735943735 0 -0.022373903834771242 -0.035817494735943735 0 -0.023063943439008923 -0.035641603312241948 0 -0.023066915495473343 -0.036537008748545471 0 -0.023063943439008923 -0.035641603312241948 0 -0.023066915495473343 -0.036537008748545471 0 -0.024356689851206779 -0.035891506360066557 0 -0.023730742869659583 -0.034999981541424773 0 -0.023063943439008923 -0.035641603312241948 0 -0.024356689851206779 -0.035891506360066557 0 -0.023096318539460807 -0.036406253606941864 0 -0.024823650522957444 -0.036741178894880155 0 -0.023066915495473343 -0.036537008748545471 0 -0.024720170263501959 -0.036912940475066457 0 -0.024356689851206779 -0.035891506360066557 0 -0.024124735007379033 -0.037167721797772668 0 -0.023150718463370138 -0.036280002205023101 0 -0.024945296554765847 -0.036645120702615996 0 -0.023089975254729906 -0.036950968231125786 0 -0.023632570320856642 -0.037245541733075059 0 -0.023150718463370138 -0.036280002205023101 0 -0.024124735007379033 -0.037167721797772668 0 -0.023632570320856642 -0.037245541733075059 0 -0.023150718463370138 -0.036280002205023101 0 -0.024720170263501959 -0.036912940475066457 0 -0.024356689851206779 -0.035891506360066557 0 -0.02599428868318324 -0.036093386739443664 0 -0.023730742869659583 -0.034999981541424773 0 -0.024356689851206779 -0.035891506360066557 0 -0.025651400651413185 -0.034999989834781829 0 -0.024356689851206779 -0.035891506360066557 0 -0.025651400651413185 -0.034999989834781829 0 -0.02599428868318324 -0.036093386739443664 0 -0.02636816228409064 -0.037273550029560801 0 -0.024720170263501959 -0.036912940475066457 0 -0.02599428868318324 -0.036093386739443664 0 -0.025738042444290291 -0.036613180097521854 0 -0.024823650522957444 -0.036741178894880155 0 -0.025738494096638902 -0.03697728815302323 0 -0.02563933300922526 -0.037082408108926497 0 -0.025417274341018224 -0.03711311941949931 0 -0.025738494096638902 -0.03697728815302323 0 -0.024945296554765847 -0.036645120702615996 0 -0.025417274341018224 -0.03711311941949931 0 -0.02563933300922526 -0.037082408108926497 0 -0.025417274341018224 -0.03711311941949931 0 -0.025535541161292055 -0.037092621698852427 0 -0.024945296554765847 -0.036645120702615996 0 -0.025417274341018224 -0.03711311941949931 0 -0.024731377063032359 -0.037325281907441464 0 -0.024124735007379033 -0.037167721797772668 0 -0.024945296554765847 -0.036645120702615996 0 -0.024731377063032359 -0.037325281907441464 0 -0.024124735007379033 -0.037167721797772668 0 -0.024731377063032359 -0.037325281907441464 0 -0.024329698382247224 -0.03765695857958961 0 -0.024731377063032359 -0.037325281907441464 0 -0.024329698382247224 -0.03765695857958961 0 -0.024589911937323961 -0.038092759342813989 0 -0.025417274341018224 -0.03711311941949931 0 -0.025625641443221259 -0.037093386542500835 0 -0.025535541161292055 -0.037092621698852427 0 -0.025417274341018224 -0.03711311941949931 0 -0.024731377063032359 -0.037325281907441464 0 -0.024589911937323961 -0.038092759342813989 0 -0.025248755077855903 -0.037207020385162118 0 -0.024906953707152318 -0.037366221076833753 0 -0.025625641443221259 -0.037093386542500835 0 -0.025590660602468 -0.037067062273645486 0 -0.025535541161292055 -0.037092621698852427 0 -0.023843969016051909 -0.038188425645706341 0 -0.024329698382247224 -0.03765695857958961 0 -0.024589911937323961 -0.038092759342813989 0 -0.025625641443221259 -0.037093386542500835 0 -0.025637384796125175 -0.037066292827679939 0 -0.025590660602468 -0.037067062273645486 0 -0.025676437923809109 -0.037045213768757169 0 -0.025625641443221259 -0.037093386542500835 0 -0.025637384796125175 -0.037066292827679939 0 -0.025637384796125175 -0.037066292827679939 0 -0.025625047721522045 -0.03704530933670061 0 -0.025652078260608814 -0.037018505935968254 0 -0.025637384796125175 -0.037066292827679939 0 -0.025625047721522045 -0.03704530933670061 0 -0.025590660602468 -0.037067062273645486 0 -0.025625047721522045 -0.03704530933670061 0 -0.025590660602468 -0.037067062273645486 0 -0.025626545444377157 -0.037036546581906506 0 -0.025590660602468 -0.037067062273645486 0 -0.025615939141138164 -0.037072495037788172 0 -0.025626545444377157 -0.037036546581906506 0 -0.02563933300922526 -0.037082408108926497 0 -0.025615939141138164 -0.037072495037788172 0 -0.025535541161292055 -0.037092621698852427 0 -0.025590660602468 -0.037067062273645486 0 -0.025615939141138164 -0.037072495037788172 0 -0.025535541161292055 -0.037092621698852427 0 -0.025623862173252972 -0.037015338586472192 0 -0.025615939141138164 -0.037072495037788172 0 -0.025626545444377157 -0.037036546581906506 0 -0.025623862173252972 -0.037015338586472192 0 -0.025626545444377157 -0.037036546581906506 0 -0.025643801490112361 -0.036979189968526296 0 -0.025626545444377157 -0.037036546581906506 0 -0.025659022291542061 -0.036986057594394252 0 -0.025643801490112361 -0.036979189968526296 0 -0.025637384796125175 -0.037066292827679939 0 -0.025652078260608814 -0.037018505935968254 0 -0.025707937413583085 -0.036988479233901549 0 -0.025625047721522045 -0.03704530933670061 0 -0.025626545444377157 -0.037036546581906506 0 -0.025652078260608814 -0.037018505935968254 0 -0.025652078260608814 -0.037018505935968254 0 -0.025681362755390073 -0.036982004963111756 0 -0.025659022291542061 -0.036986057594394252 0 -0.025652078260608814 -0.037018505935968254 0 -0.025681362755390073 -0.036982004963111756 0 -0.025707937413583085 -0.036988479233901549 0 -0.025626545444377157 -0.037036546581906506 0 -0.025652078260608814 -0.037018505935968254 0 -0.025659022291542061 -0.036986057594394252 0 -0.025659022291542061 -0.036986057594394252 0 -0.025668354082915776 -0.03694164948715125 0 -0.025643801490112361 -0.036979189968526296 0 -0.025668354082915776 -0.03694164948715125 0 -0.02564435086570856 -0.03690271842489113 0 -0.025712163008233004 -0.036888045988659274 0 -0.025659022291542061 -0.036986057594394252 0 -0.025686176286813019 -0.03695775745659971 0 -0.025668354082915776 -0.03694164948715125 0 -0.025681362755390073 -0.036982004963111756 0 -0.025659022291542061 -0.036986057594394252 0 -0.025686176286813019 -0.03695775745659971 0 -0.025681362755390073 -0.036982004963111756 0 -0.025686176286813019 -0.03695775745659971 0 -0.02570355431628198 -0.036963696969267941 0 -0.025238199140599153 -0.035301065806234377 0 -0.02475168065400217 -0.034970818221784897 0 -0.025686176286813019 -0.03695775745659971 0 -0.025668354082915776 -0.03694164948715125 0 -0.025712163008233004 -0.036888045988659274 0 -0.025686176286813019 -0.03695775745659971 0 -0.025712163008233004 -0.036888045988659274 0 -0.02571670825117519 -0.036958320990787774 0 -0.025623862173252972 -0.037015338586472192 0 -0.025643801490112361 -0.036979189968526296 0 -0.02564435086570856 -0.03690271842489113 0 -0.032330961751721309 -0.034279707216583959 0 -0.032681820111389287 -0.03216796145378762 0 -0.025668354082915776 -0.03694164948715125 0 -0.025643801490112361 -0.036979189968526296 0 -0.02564435086570856 -0.03690271842489113 0 -0.038279002257652482 -0.031610821114729751 0 -0.032681820111389287 -0.03216796145378762 0 -0.03921095679770692 -0.030890600429758608 0 -0.039337791968676893 -0.030844460161760498 0 -0.039249214037260879 -0.030654054539570295 0 -0.032681820111389287 -0.03216796145378762 0 -0.033442600599559086 -0.029462311114404654 0 -0.039337791968676893 -0.030844460161760498 0 -0.039249214037260879 -0.030654054539570295 0 -0.039415624665698111 -0.030632169877360244 0 -0.039249214037260879 -0.030654054539570295 0 -0.039415624665698111 -0.030632169877360244 0 -0.039303684616290316 -0.030443477470390629 0 -0.037173188431628472 -0.027003722882245805 0 -0.03146804995304231 -0.026655794409225234 0 -0.039415624665698111 -0.030632169877360244 0 -0.039303684616290316 -0.030443477470390629 0 -0.039477379898461618 -0.03044649612796313 0 -0.030175423906806512 -0.029702331084829767 0 -0.03068383901467189 -0.028937217845612682 0 -0.031012989345414379 -0.030426262738335229 0 -0.026101344205282911 -0.027864516883804778 0 -0.026060276142755044 -0.027773031234686909 0 -0.026035729620891093 -0.027821069503411781 0 -0.030483911607417046 -0.026440513306800681 0 -0.026631213479027149 -0.031327403602377922 0 -0.031113543655205248 -0.024525272659171569 0 -0.028286766119616027 -0.02448712554191039 0 -0.031275899698734594 -0.025218654339888492 0 -0.030483911607417046 -0.026440513306800681 0 -0.027742993257787181 -0.024588658893627564 0 -0.030939972298104329 -0.027886700732353917 0 -0.030301624410516613 -0.027877602073216885 0 -0.030750736719013214 -0.027072644972601267 0 -0.030483911607417046 -0.026440513306800681 0 -0.03146804995304231 -0.026655794409225234 0 -0.030175423906806512 -0.029702331084829767 0 -0.03068383901467189 -0.028937217845612682 0 -0.030596254960018866 -0.028935724589204036 0 -0.033442600599559086 -0.029462311114404654 0 -0.03146804995304231 -0.026655794409225234 0 -0.032681820111389287 -0.03216796145378762 0 -0.026631213479027149 -0.031327403602377922 0 -0.029761841653343175 -0.030462417816764183 0 -0.030175423906806512 -0.029702331084829767 0 -0.031012989345414379 -0.030426262738335229 0 -0.026631213479027149 -0.031327403602377922 0 -0.023618330691063678 -0.030247688642846056 0 -0.025995875360468976 -0.02777125345229281 0 -0.026035729620891093 -0.027821069503411781 0 -0.025958906317164698 -0.02783347074404792 0 -0.026060276142755044 -0.027773031234686909 0 -0.025995875360468976 -0.02777125345229281 0 -0.026035729620891093 -0.027821069503411781 0 -0.027742993257787181 -0.024588658893627564 0 -0.022174030272080023 -0.022613429743099531 0 -0.026035729620891093 -0.027821069503411781 0 -0.026060958896325155 -0.02786553344624821 0 -0.025958906317164698 -0.02783347074404792 0 -0.027742993257787181 -0.024588658893627564 0 -0.022440377189523908 -0.026030785455996554 0 -0.026101344205282911 -0.027864516883804778 0 -0.026035729620891093 -0.027821069503411781 0 -0.026060958896325155 -0.02786553344624821 0 -0.026881035792656296 -0.024619110452605605 0 -0.022034620381041273 -0.024545411094189496 0 -0.022740128970192119 -0.022901235273476175 0 -0.019613643457412133 -0.025683979066340276 0 -0.020037727450505513 -0.024701063995034692 0 -0.017487463747414542 -0.024732677144026296 0 -0.022174030272080023 -0.022613429743099531 0 -0.022440377189523908 -0.026030785455996554 0 -0.022215923521946901 -0.02772990391111637 0 -0.02140907500644056 -0.029596390409089825 0 -0.01923880261078242 -0.02780498749874382 0 -0.023618330691063678 -0.030247688642846056 0 -0.022440377189523908 -0.026030785455996554 0 -0.023618330691063678 -0.030247688642846056 0 -0.018033491340075085 -0.030171210526895361 0 -0.022031317301381345 -0.032866068032264967 0 -0.021406171739824943 -0.032340311634282526 0 -0.020465265964153032 -0.032899955071577919 0 -0.021406171739824943 -0.032340311634282526 0 -0.022416927767336055 -0.031983162978854514 0 -0.021302647615885083 -0.031775103656395159 0 -0.023941426933098139 -0.034522085551242754 0 -0.021219696128501477 -0.035556837435732187 0 -0.021406171739824943 -0.032340311634282526 0 -0.021302647615885083 -0.031775103656395159 0 -0.020812855709674536 -0.03217857632957917 0 -0.024226297346969385 -0.031599467022427032 0 -0.024785721969223774 -0.032870981054173284 0 -0.024504902546687114 -0.032818797443498637 0 -0.024226297346969385 -0.031599467022427032 0 -0.025337622718965416 -0.031566712842751248 0 -0.024785721969223774 -0.032870981054173284 0 -0.023618330691063678 -0.030247688642846056 0 -0.023941426933098139 -0.034522085551242754 0 -0.022031317301381345 -0.032866068032264967 0 -0.021406171739824943 -0.032340311634282526 0 -0.022416927767336055 -0.031983162978854514 0 -0.026631213479027149 -0.031327403602377922 0 -0.02475168065400217 -0.034970818221784897 0 -0.02475168065400217 -0.034970818221784897 0 -0.024429163648640909 -0.035754837826083366 0 -0.023941426933098139 -0.034522085551242754 0 -0.024429163648640909 -0.035754837826083366 0 -0.024584743349205962 -0.034459937746914499 0 -0.024182721038794191 -0.034385155828947904 0 -0.024335220579011132 -0.035044711282930907 0 -0.023941426933098139 -0.034522085551242754 0 -0.02475168065400217 -0.034970818221784897 0 -0.025676437923809109 -0.037045213768757169 0 -0.025637384796125175 -0.037066292827679939 0 -0.025655411672323471 -0.036981044455911792 0 -0.023277955585754954 -0.035671791306806235 0 -0.023362262989071528 -0.036028394092075137 0 -0.022802319336479433 -0.036060684792266456 0 -0.023307330326584177 -0.036154130564146923 0 -0.023362262989071528 -0.036028394092075137 0 -0.022802319336479433 -0.036060684792266456 0 -0.025092335186299428 -0.036890566673324812 0 -0.024429163648640909 -0.035754837826083366 0 -0.025681362755390073 -0.036982004963111756 0 -0.02570355431628198 -0.036963696969267941 0 -0.025707937413583085 -0.036988479233901549 0 -0.023713214910881013 -0.037473556945083752 0 -0.024429163648640909 -0.035754837826083366 0 -0.023713214910881013 -0.037473556945083752 0 -0.021219696128501477 -0.035556837435732187 0 -0.021666549770417674 -0.03862559576572841 0 -0.020484743187150919 -0.036238761349061552 0 -0.022411079971731009 -0.038856729730347109 0 -0.02347850520577725 -0.038936154424899665 0 -0.022245093156805496 -0.039910146246190124 0 -0.022411079971731009 -0.038856729730347109 0 -0.022245093156805496 -0.039910146246190124 0 -0.021935716516360206 -0.039849730522981575 0 -0.021219696128501477 -0.035556837435732187 0 -0.020484743187150919 -0.036238761349061552 0 -0.020484743187150919 -0.036238761349061552 0 -0.018273412172764535 -0.036138399077199873 0 -0.022317114785794186 -0.039008874256922683 0 -0.021756375640266248 -0.040157942136352875 0 -0.021285555351007231 -0.039359312253972489 0 -0.018212135056323017 -0.034932733432317932 0 -0.018744245937269633 -0.035033436841221954 0 -0.018335070995053025 -0.034656959525381663 0 -0.021756375640266248 -0.040157942136352875 0 -0.021285555351007231 -0.039359312253972489 0 -0.02054732578138611 -0.039933670176706154 0 -0.020447330274452315 -0.038929849021065437 0 -0.021285555351007231 -0.039359312253972489 0 -0.02054732578138611 -0.039933670176706154 0 -0.018273412172764535 -0.036138399077199873 0 -0.016351751388869715 -0.035966868933378394 0 -0.014694141933276757 -0.032046248678787442 0 -0.014073974335918425 -0.032623129195668558 0 -0.013544591676953814 -0.031835119746944987 0 -0.019269556496322393 -0.038933705904515281 0 -0.018273412172764535 -0.036138399077199873 0 -0.020447330274452315 -0.038929849021065437 0 -0.020530919758975263 -0.039933945767786 0 -0.019111836137740354 -0.039684286764662201 0 -0.014694141933276757 -0.032046248678787442 0 -0.014073974335918425 -0.032623129195668558 0 -0.01480649909465016 -0.03322627682248986 0 -0.018273412172764535 -0.036138399077199873 0 -0.01695183334251928 -0.032436876647094097 0 -0.014073974335918425 -0.032623129195668558 0 -0.014138500956420615 -0.033184987242214636 0 -0.01480649909465016 -0.03322627682248986 0 -0.017934152323215366 -0.03231129329664359 0 -0.018126783279342622 -0.031862746616498461 0 -0.018274345481507966 -0.03200405595069266 0 -0.018744245937269633 -0.035033436841221954 0 -0.018335070995053025 -0.034656959525381663 0 -0.018676766760990903 -0.034356544501680214 0 -0.019522141631731611 -0.033755305494301467 0 -0.01695183334251928 -0.032436876647094097 0 -0.021406171739824943 -0.032340311634282526 0 -0.020812855709674536 -0.03217857632957917 0 -0.020465265964153032 -0.032899955071577919 0 -0.019522141631731611 -0.033755305494301467 0 -0.018033491340075085 -0.030171210526895361 0 -0.021219696128501477 -0.035556837435732187 0 -0.019522141631731611 -0.033755305494301467 0 -0.020484743187150919 -0.036238761349061552 0 -0.019522141631731611 -0.033755305494301467 0 -0.019868304198187869 -0.034918234494289629 0 -0.019963120937402212 -0.034935215110725268 0 -0.020036444933671214 -0.03476677931517895 0 -0.02140907500644056 -0.029596390409089825 0 -0.01923880261078242 -0.02780498749874382 0 -0.018879835403639338 -0.028562325980946265 0 -0.018126783279342622 -0.031862746616498461 0 -0.018258912195140007 -0.031858296613856522 0 -0.018274345481507966 -0.03200405595069266 0 -0.018033491340075085 -0.030171210526895361 0 -0.016170780557958078 -0.030106291472703935 0 -0.016173436780247082 -0.030503926126100346 0 -0.016945333425818856 -0.02884823476460617 0 -0.017105702825270436 -0.030478069289583486 0 -0.018033491340075085 -0.030171210526895361 0 -0.016600205958340171 -0.027551340376559496 0 -0.016600205958340171 -0.027551340376559496 0 -0.016170780557958078 -0.030106291472703935 0 -0.022174030272080023 -0.022613429743099531 0 -0.014572673808026531 -0.022839589674428489 0 -0.022440377189523908 -0.026030785455996554 0 -0.016600205958340171 -0.027551340376559496 0 -0.020037727450505513 -0.024701063995034692 0 -0.017017809121870099 -0.023474863771441031 0 -0.017487463747414542 -0.024732677144026296 0 -0.019613643457412133 -0.025683979066340276 0 -0.017487463747414542 -0.024732677144026296 0 -0.017224946554590979 -0.025648996166124222 0 -0.017017809121870099 -0.023474863771441031 0 -0.017487463747414542 -0.024732677144026296 0 -0.017194034183466839 -0.025333034273847498 0 -0.016600205958340171 -0.027551340376559496 0 -0.014421716825579292 -0.023517848211611462 0 -0.01463247415698671 -0.023615365211611922 0 -0.014421716825579292 -0.023517848211611462 0 -0.017487463747414542 -0.024732677144026296 0 -0.017194998543130148 -0.025331831601114557 0 -0.017224946554590979 -0.025648996166124222 0 -0.014465625435700411 -0.023326181802428236 0 -0.014302982963793093 -0.021625024808044471 0 -0.0152777957053464 -0.021639100679682353 0 -0.014421716825579292 -0.023517848211611462 0 -0.013671866574001733 -0.022961879617461455 0 -0.014421716825579292 -0.023517848211611462 0 -0.014572673808026531 -0.022839589674428489 0 -0.014572673808026531 -0.022839589674428489 0 -0.013671866574001733 -0.022961879617461455 0 -0.012714130132672139 -0.027053252433865738 0 -0.011802512217811804 -0.026225946901106054 0 -0.011232128319446507 -0.02633531672171804 0 -0.013671866574001733 -0.022961879617461455 0 -0.0080454317387699294 -0.023419692678939234 0 -0.012714130132672139 -0.027053252433865738 0 -0.011232128319446507 -0.02633531672171804 0 -0.010706191594464343 -0.027020352068227737 0 -0.012825865189092799 -0.026825632641940784 0 -0.012714130132672139 -0.027053252433865738 0 -0.012289707500297483 -0.026349357663193497 0 -0.012714130132672139 -0.027053252433865738 0 -0.012289707500297483 -0.026349357663193497 0 -0.011802512217811804 -0.026225946901106054 0 -0.012716765073907278 -0.025473313197736876 0 -0.012825865189092799 -0.026825632641940784 0 -0.012289707500297483 -0.026349357663193497 0 -0.016600205958340171 -0.027551340376559496 0 -0.015508412091291663 -0.027338215467929316 0 -0.012696146326078349 -0.025491170666354805 0 -0.012289707500297483 -0.026349357663193497 0 -0.012009886760776854 -0.025691046961970644 0 -0.012289707500297483 -0.026349357663193497 0 -0.011802512217811804 -0.026225946901106054 0 -0.012009886760776854 -0.025691046961970644 0 -0.011802512217811804 -0.026225946901106054 0 -0.011492930902773585 -0.025837034416087395 0 -0.012009886760776854 -0.025691046961970644 0 -0.011492930902773585 -0.025837034416087395 0 -0.010983337511189824 -0.025507812583361177 0 -0.011232128319446507 -0.02633531672171804 0 -0.011802512217811804 -0.026225946901106054 0 -0.011492930902773585 -0.025837034416087395 0 -0.011232128319446507 -0.02633531672171804 0 -0.011615867613951671 -0.025355469979794883 0 -0.012637154176895303 -0.024849999256469635 0 -0.01095530121991083 -0.024892012679731696 0 -0.011492930902773585 -0.025837034416087395 0 -0.011615867613951671 -0.025355469979794883 0 -0.010983337511189824 -0.025507812583361177 0 -0.016170780557958078 -0.030106291472703935 0 -0.012398157622818807 -0.029236466545362119 0 -0.014838088788488609 -0.033476620021887081 0 -0.014606125402748429 -0.033392022958380251 0 -0.013741708545403922 -0.033508025659404743 0 -0.011492930902773585 -0.025837034416087395 0 -0.011615867613951671 -0.025355469979794883 0 -0.012009886760776854 -0.025691046961970644 0 -0.011615867613951671 -0.025355469979794883 0 -0.012009886760776854 -0.025691046961970644 0 -0.012637154176895303 -0.024849999256469635 0 -0.012696146326078349 -0.025491170666354805 0 -0.012009886760776854 -0.025691046961970644 0 -0.012637154176895303 -0.024849999256469635 0 -0.014138500956420615 -0.033184987242214636 0 -0.014606125402748429 -0.033392022958380251 0 -0.01480649909465016 -0.03322627682248986 0 -0.014838088788488609 -0.033476620021887081 0 -0.014606125402748429 -0.033392022958380251 0 -0.01481889472675476 -0.033210721644530629 0 -0.016170780557958078 -0.030106291472703935 0 -0.01695183334251928 -0.032436876647094097 0 -0.016599817655320738 -0.032682395630354091 0 -0.01695183334251928 -0.032436876647094097 0 -0.014138500956420615 -0.033184987242214636 0 -0.014606125402748429 -0.033392022958380251 0 -0.013741708545403922 -0.033508025659404743 0 -0.010983337511189824 -0.025507812583361177 0 -0.010315478444355725 -0.026981742321878215 0 -0.0093080583790432995 -0.024949672634826652 0 -0.01095530121991083 -0.024892012679731696 0 -0.010983337511189824 -0.025507812583361177 0 -0.0093080583790432995 -0.024949672634826652 0 -0.012398157622818807 -0.029236466545362119 0 -0.0066955791588480884 -0.028510247270887891 0 -0.013741708545403922 -0.033508025659404743 0 -0.012653617225215325 -0.033528279856889137 0 -0.013314153001629737 -0.032815544239875649 0 -0.011615867613951671 -0.025355469979794883 0 -0.01095530121991083 -0.024892012679731696 0 -0.010983337511189824 -0.025507812583361177 0 -0.010983337511189824 -0.025507812583361177 0 -0.010315478444355725 -0.026981742321878215 0 -0.010684434322941578 -0.026985062478727333 0 -0.0092974711134876167 -0.025718721934950207 0 -0.0080454317387699294 -0.023419692678939234 0 -0.010983337511189824 -0.025507812583361177 0 -0.011232128319446507 -0.02633531672171804 0 -0.010706191594464343 -0.027020352068227737 0 -0.0058293233009247651 -0.023198274533717231 0 -0.0080454317387699294 -0.023419692678939234 0 0.0020798429154839124 -0.022184486704269278 0 -0.00090476384338503482 -0.024122388773007056 0 -0.00058780050649157739 -0.027707511880023208 0 -0.0058293233009247651 -0.023198274533717231 0 -0.0049444222571244168 -0.021832968142707548 0 -0.0058293233009247651 -0.023198274533717231 0 -0.0066955791588480884 -0.028510247270887891 0 0.0020798429154839124 -0.022184486704269278 0 -0.00090476384338503482 -0.024122388773007056 0 -0.0039709357278183109 -0.022203011244152616 0 -0.00090476384338503482 -0.024122388773007056 0 -0.0027192223353984224 -0.026107625780887597 0 -0.0039709357278183109 -0.022203011244152616 0 -0.00090476384338503482 -0.024122388773007056 0 -0.0027192223353984224 -0.026107625780887597 0 -0.00058780050649157739 -0.027707511880023208 0 -0.00052145611134394372 -0.028403281344728686 0 -0.0023629007585211585 -0.028928068652304174 0 -0.0052478257191000358 -0.028257316520384868 0 -0.0066955791588480884 -0.028510247270887891 0 -0.0050545132576412608 -0.028115010043202718 0 -0.0027192223353984224 -0.026107625780887597 0 -0.00058780050649157739 -0.027707511880023208 0 -0.0049449511709884668 -0.027706575231574167 0 -0.00052145611134394372 -0.028403281344728686 0 -0.0023629007585211585 -0.028928068652304174 0 -0.0021598470477564684 -0.03170838341959497 0 -0.0066955791588480884 -0.028510247270887891 0 -0.0062215877429997197 -0.031840566666887136 0 -0.012653617225215325 -0.033528279856889137 0 -0.012294564357548039 -0.032789379935542068 0 -0.013314153001629737 -0.032815544239875649 0 -0.012294564357548039 -0.032789379935542068 0 -0.013314153001629737 -0.032815544239875649 0 -0.012888179232326855 -0.032269076818526164 0 -0.0020471685626662762 -0.031773313758979377 0 -0.0024336153398158752 -0.032573040716727571 0 -0.0015844756700064185 -0.037388156350470575 0 -0.0023629007585211585 -0.028928068652304174 0 -0.0020697297304405524 -0.031787951597246643 0 -0.0034783153055759205 -0.030424119468935897 0 -0.0052738642477946048 -0.03066086948499127 0 -0.0062215877429997197 -0.031840566666887136 0 -0.0020697297304405524 -0.031787951597246643 0 -0.0024336153398158752 -0.032573040716727571 0 -0.0038281113165425703 -0.032434365682031431 0 -0.0062215877429997197 -0.031840566666887136 0 -0.0060775570803408433 -0.031768128557595851 0 -0.014073974335918425 -0.032623129195668558 0 -0.013314153001629737 -0.032815544239875649 0 -0.013544591676953814 -0.031835119746944987 0 -0.014138500956420615 -0.033184987242214636 0 -0.013741708545403922 -0.033508025659404743 0 -0.013314153001629737 -0.032815544239875649 0 -0.014073974335918425 -0.032623129195668558 0 -0.014138500956420615 -0.033184987242214636 0 -0.013314153001629737 -0.032815544239875649 0 -0.013314153001629737 -0.032815544239875649 0 -0.013544591676953814 -0.031835119746944987 0 -0.012888179232326855 -0.032269076818526164 0 -0.013544591676953814 -0.031835119746944987 0 -0.012888179232326855 -0.032269076818526164 0 -0.012402446490761105 -0.03163708730906846 0 -0.0062215877429997197 -0.031840566666887136 0 -0.012932358738093577 -0.036137559033334932 0 -0.016351751388869715 -0.035966868933378394 0 -0.012932358738093577 -0.036137559033334932 0 -0.012294564357548039 -0.032789379935542068 0 -0.012888179232326855 -0.032269076818526164 0 -0.012402446490761105 -0.03163708730906846 0 -0.0024336153398158752 -0.032573040716727571 0 -0.0015844756700064185 -0.037388156350470575 0 -0.0031683755895110387 -0.034358760722740266 0 -0.0055186965698806479 -0.015706070649690058 0 -0.0045172928605486428 -0.016929566789175562 0 -0.0057961014956255672 -0.01469574376393795 0 -0.0055186965698806479 -0.015706070649690058 0 -0.0060822463271845949 -0.016235568286199212 0 -0.0065718696557740585 -0.015206065776724577 0 -0.0055186965698806479 -0.015706070649690058 0 -0.006058521565706969 -0.01500055151913217 0 -0.0065718696557740585 -0.015206065776724577 0 -0.006058521565706969 -0.01500055151913217 0 -0.0063275426643760804 -0.014494970539575189 0 -0.0065718696557740585 -0.015206065776724577 0 -0.0055186965698806479 -0.015706070649690058 0 -0.006058521565706969 -0.01500055151913217 0 -0.0057961014956255672 -0.01469574376393795 0 -0.0054698120197207625 -0.015176537176047229 0 -0.0051940189806263309 -0.014770555989689814 0 -0.0054610594671853111 -0.014507849115092227 0 -0.0051896322906216392 -0.016796202151889789 0 -0.0055728114859631582 -0.015131090746560711 0 -0.0048775380253193576 -0.016158873681237671 0 -0.0057961014956255672 -0.01469574376393795 0 -0.0058415959745178811 -0.014322724345243341 0 -0.0054698120197207625 -0.015176537176047229 0 -0.0054610594671853111 -0.014507849115092227 0 -0.0058415959745178811 -0.014322724345243341 0 -0.0050233985376273594 -0.016192360333799279 0 -0.0048775380253193576 -0.016158873681237671 0 -0.0057961014956255672 -0.01469574376393795 0 -0.0072965898617164742 -0.017369343879793601 0 -0.0061066867109608128 -0.014533490542660333 0 -0.0050233985376273594 -0.016192360333799279 0 -0.0054569537098165064 -0.016861429175222011 0 -0.0057961014956255672 -0.01469574376393795 0 -0.00487412779600159 -0.016161838784895605 0 -0.0054569537098165064 -0.016861429175222011 0 -0.0042123933373639354 -0.017526284406813513 0 -0.0072965898617164742 -0.017369343879793601 0 -0.0095556714034104439 -0.019287747948130041 0 -0.0050233985376273594 -0.016192360333799279 0 -0.00487412779600159 -0.016161838784895605 0 -0.0054569537098165064 -0.016861429175222011 0 -0.0072035504505800181 -0.0173445189435994 0 -0.0072965898617164742 -0.017369343879793601 0 -0.0045172928605486428 -0.016929566789175562 0 -0.0054214237694039874 -0.016512967166657486 0 -0.0055874062804988685 -0.017284078584070654 0 -0.0055186965698806479 -0.015706070649690058 0 -0.0045172928605486428 -0.016929566789175562 0 -0.0054214237694039874 -0.016512967166657486 0 -0.0055186965698806479 -0.015706070649690058 0 -0.0054214237694039874 -0.016512967166657486 0 -0.0060822463271845949 -0.016235568286199212 0 -0.0054214237694039874 -0.016512967166657486 0 -0.0060822463271845949 -0.016235568286199212 0 -0.0055874062804988685 -0.017284078584070654 0 -0.0060822463271845949 -0.016235568286199212 0 -0.0055874062804988685 -0.017284078584070654 0 -0.006847151129229451 -0.017144965574543453 0 -0.0045172928605486428 -0.016929566789175562 0 -0.0055874062804988685 -0.017284078584070654 0 -0.004942333091275051 -0.018676392591177697 0 -0.0055874062804988685 -0.017284078584070654 0 -0.0061255794437232482 -0.018817216817236412 0 -0.006847151129229451 -0.017144965574543453 0 -0.0055874062804988685 -0.017284078584070654 0 -0.004942333091275051 -0.018676392591177697 0 -0.0061255794437232482 -0.018817216817236412 0 -0.0039861202454042014 -0.020817732290252407 0 -0.0050635194714129285 -0.019908303957950776 0 -0.0066217517471896881 -0.021070435360764559 0 -0.0061255794437232482 -0.018817216817236412 0 -0.0050635194714129285 -0.019908303957950776 0 -0.0066217517471896881 -0.021070435360764559 0 -0.004942333091275051 -0.018676392591177697 0 -0.0061255794437232482 -0.018817216817236412 0 -0.0050635194714129285 -0.019908303957950776 0 -0.0066274381929916923 -0.021375212095942005 0 -0.0095556714034104439 -0.019287747948130041 0 -0.0075040878643575807 -0.024070304193918347 0 -0.0064912949152048528 -0.024055351956667855 0 -0.0067672293498991492 -0.02255750464498452 0 -0.0080454317387699294 -0.023419692678939234 0 -0.0066274381929916923 -0.021375212095942005 0 -0.0039861202454042014 -0.020817732290252407 0 -0.0050635194714129285 -0.019908303957950776 0 -0.0036517482536947972 -0.020153040667871672 0 -0.0058293233009247651 -0.023198274533717231 0 -0.0066274381929916923 -0.021375212095942005 0 -0.004942333091275051 -0.018676392591177697 0 -0.0050635194714129285 -0.019908303957950776 0 -0.0036517482536947972 -0.020153040667871672 0 -0.0045172928605486428 -0.016929566789175562 0 -0.004942333091275051 -0.018676392591177697 0 -0.0036517482536947972 -0.020153040667871672 0 -0.0054569537098165064 -0.016861429175222011 0 -0.0050604418298847726 -0.019259548084242364 0 -0.0042123933373639354 -0.017526284406813513 0 -0.0051896322906216392 -0.016796202151889789 0 -0.0066274381929916923 -0.021375212095942005 0 -0.011975915358262812 -0.019590772302831679 0 -0.011302189992210051 -0.019962468796477117 0 -0.011769330878424111 -0.0191898852489987 0 -0.0095556714034104439 -0.019287747948130041 0 -0.010265001148560087 -0.019665072314059312 0 -0.0099790468371600913 -0.02165445343706365 0 -0.010168313149063978 -0.02159776320253716 0 -0.010080560486588459 -0.021401846680313988 0 -0.013671866574001733 -0.022961879617461455 0 -0.0095556714034104439 -0.019287747948130041 0 -0.0099790468371600913 -0.02165445343706365 0 -0.010158603138782514 -0.021654366224115096 0 -0.010168313149063978 -0.02159776320253716 0 -0.011455221415097203 -0.020764185795802696 0 -0.011975915358262812 -0.019590772302831679 0 -0.011302189992210051 -0.019962468796477117 0 -0.011391997995552704 -0.020763743060405116 0 -0.011455221415097203 -0.020764185795802696 0 -0.011302189992210051 -0.019962468796477117 0 -0.017453914917336957 -0.021838099766887373 0 -0.01817107458117247 -0.021848799371285567 0 -0.017919205032070191 -0.02151088810090579 0 -0.017453914917336957 -0.021838099766887373 0 -0.017919205032070191 -0.02151088810090579 0 -0.017737277309576163 -0.021121854445348174 0 -0.01817107458117247 -0.021848799371285567 0 -0.017919205032070191 -0.02151088810090579 0 -0.018109605554465787 -0.021126715239007204 0 -0.014572673808026531 -0.022839589674428489 0 -0.015025146289085106 -0.02047903305447182 0 -0.017919205032070191 -0.02151088810090579 0 -0.017737277309576163 -0.021121854445348174 0 -0.018109605554465787 -0.021126715239007204 0 -0.020786954772553819 -0.020202610835270706 0 -0.016408606298535015 -0.019586008452752136 0 -0.024998776581792601 -0.020040415843810746 0 -0.024269323318570724 -0.021677838919628729 0 -0.025211490172793213 -0.02119305552591623 0 -0.011302189992210051 -0.019962468796477117 0 -0.011232737023362492 -0.019179457986399775 0 -0.011769330878424111 -0.0191898852489987 0 -0.017737277309576163 -0.021121854445348174 0 -0.018109605554465787 -0.021126715239007204 0 -0.018030989295464112 -0.020385714180193665 0 -0.015025146289085106 -0.02047903305447182 0 -0.016408606298535015 -0.019586008452752136 0 -0.025072043993914918 -0.021938794711052555 0 -0.024269323318570724 -0.021677838919628729 0 -0.025211490172793213 -0.02119305552591623 0 -0.025072043993914918 -0.021938794711052555 0 -0.024269323318570724 -0.021677838919628729 0 -0.024365194693107824 -0.022798936835136917 0 -0.025072043993914918 -0.021938794711052555 0 -0.02489264744236596 -0.022900921180460495 0 -0.024365194693107824 -0.022798936835136917 0 -0.016408606298535015 -0.019586008452752136 0 -0.017119301215319932 -0.018072983284285266 0 -0.016584176858156295 -0.01660750970790623 0 -0.015442281986250752 -0.019291672389725609 0 -0.01515999690098257 -0.016340173120003309 0 -0.012408708524767232 -0.01719556489467728 0 -0.016408606298535015 -0.019586008452752136 0 -0.0072965898617164742 -0.017369343879793601 0 -0.012408708524767232 -0.01719556489467728 0 -0.012236907465709828 -0.018892268307615215 0 -0.011435936082005381 -0.018726591033450538 0 -0.011769330878424111 -0.0191898852489987 0 -0.012236907465709828 -0.018892268307615215 0 -0.011928535573953821 -0.019530633809536409 0 -0.011769330878424111 -0.0191898852489987 0 -0.011435936082005381 -0.018726591033450538 0 -0.011232737023362492 -0.019179457986399775 0 -0.011769330878424111 -0.0191898852489987 0 -0.0047900199114178669 -0.015049778535333038 0 -0.0051940189806263309 -0.014770555989689814 0 -0.0049636969191582661 -0.014562818582310382 0 -0.012408708524767232 -0.01719556489467728 0 -0.0095599329251475924 -0.015775773007709042 0 -0.0054698120197207625 -0.015176537176047229 0 -0.0047900199114178669 -0.015049778535333038 0 -0.0051940189806263309 -0.014770555989689814 0 -0.0051940189806263309 -0.014770555989689814 0 -0.0049636969191582661 -0.014562818582310382 0 -0.0052114962220109369 -0.014421450561004729 0 -0.0051940189806263309 -0.014770555989689814 0 -0.0052114962220109369 -0.014421450561004729 0 -0.0054610594671853111 -0.014507849115092227 0 -0.025224756748763476 -0.014648188458548195 0 -0.025424623950201609 -0.014417733932121875 0 -0.025783605989068165 -0.014905857608751192 0 -0.016293577769192248 -0.015858646122550207 0 -0.021485658244502728 -0.018249515241353452 0 -0.021485658244502728 -0.018249515241353452 0 -0.017119301215319932 -0.018072983284285266 0 -0.01754926834358329 -0.017287368302393889 0 -0.016484768155696539 -0.018539712929892298 0 -0.017692173172463216 -0.018766970186836877 0 -0.012129999870042995 -0.016037202246215545 0 -0.012059916645279257 -0.016138149291701459 0 -0.012182899560971121 -0.016096224352061456 0 -0.012408708524767232 -0.01719556489467728 0 -0.017119301215319932 -0.018072983284285266 0 -0.012129999870042995 -0.016037202246215545 0 -0.012182899560971121 -0.016096224352061456 0 -0.012180384005677796 -0.016047288345055175 0 -0.016293577769192248 -0.015858646122550207 0 -0.017119301215319932 -0.018072983284285266 0 -0.025424623950201609 -0.014417733932121875 0 -0.025783605989068165 -0.014905857608751192 0 -0.026297937420793598 -0.014575618192077281 0 -0.021485658244502728 -0.018249515241353452 0 -0.026443061617483003 -0.018805684894927954 0 -0.026443061617483003 -0.018805684894927954 0 -0.034509571004653121 -0.0195052047415732 0 -0.026944048587110376 -0.023312381466727546 0 -0.028252338447497135 -0.02124821221717961 0 -0.02897334554795172 -0.023688354568599662 0 -0.026944048587110376 -0.023312381466727546 0 -0.026512400221210184 -0.02111371805761756 0 -0.028252338447497135 -0.02124821221717961 0 -0.025072043993914918 -0.021938794711052555 0 -0.02489264744236596 -0.022900921180460495 0 -0.026512400221210184 -0.02111371805761756 0 -0.021485658244502728 -0.018249515241353452 0 -0.025216184789844377 -0.020959585490949017 0 -0.024929128210770733 -0.022921365276945774 0 -0.026944048587110376 -0.023312381466727546 0 -0.026512400221210184 -0.02111371805761756 0 -0.025072043993914918 -0.021938794711052555 0 -0.025211490172793213 -0.02119305552591623 0 -0.026512400221210184 -0.02111371805761756 0 -0.024998776581792601 -0.020040415843810746 0 -0.025211490172793213 -0.02119305552591623 0 -0.026512400221210184 -0.02111371805761756 0 -0.024998776581792601 -0.020040415843810746 0 -0.026512400221210184 -0.02111371805761756 0 -0.027079124185035938 -0.020229053223634576 0 -0.022174030272080023 -0.022613429743099531 0 -0.020786954772553819 -0.020202610835270706 0 -0.025719867021183219 -0.018395652891893943 0 -0.024998776581792601 -0.020040415843810746 0 -0.02678789213092098 -0.019224825021383538 0 -0.024998776581792601 -0.020040415843810746 0 -0.02678789213092098 -0.019224825021383538 0 -0.027079124185035938 -0.020229053223634576 0 -0.027876466687429283 -0.018434159242402166 0 -0.025719867021183219 -0.018395652891893943 0 -0.02678789213092098 -0.019224825021383538 0 -0.027876466687429283 -0.018434159242402166 0 -0.027982349868319104 -0.019080694489867642 0 -0.02678789213092098 -0.019224825021383538 0 -0.02678789213092098 -0.019224825021383538 0 -0.028040115221093932 -0.019765976967439609 0 -0.027079124185035938 -0.020229053223634576 0 -0.027982349868319104 -0.019080694489867642 0 -0.02678789213092098 -0.019224825021383538 0 -0.028040115221093932 -0.019765976967439609 0 -0.026512400221210184 -0.02111371805761756 0 -0.027079124185035938 -0.020229053223634576 0 -0.028252338447497135 -0.02124821221717961 0 -0.028040115221093932 -0.019765976967439609 0 -0.027079124185035938 -0.020229053223634576 0 -0.028252338447497135 -0.02124821221717961 0 -0.028040115221093932 -0.019765976967439609 0 -0.028252338447497135 -0.02124821221717961 0 -0.028758528178000071 -0.019942396249840285 0 -0.028252338447497135 -0.02124821221717961 0 -0.029486301901407472 -0.020345562460992676 0 -0.030099594133589338 -0.021741192929917823 0 -0.028252338447497135 -0.02124821221717961 0 -0.029486301901407472 -0.020345562460992676 0 -0.028758528178000071 -0.019942396249840285 0 -0.030134522383072494 -0.021274884983157674 0 -0.030084412405275103 -0.023760346218361868 0 -0.028040115221093932 -0.019765976967439609 0 -0.028758528178000071 -0.019942396249840285 0 -0.028798485835952004 -0.018982498073266664 0 -0.035058038658153247 -0.024323999591502679 0 -0.032397069596036505 -0.024288612839369336 0 -0.032281695772525966 -0.024851260275377068 0 -0.029486301901407472 -0.020345562460992676 0 -0.028758528178000071 -0.019942396249840285 0 -0.028798485835952004 -0.018982498073266664 0 -0.027876466687429283 -0.018434159242402166 0 -0.027982349868319104 -0.019080694489867642 0 -0.028705763878640805 -0.018787444113184497 0 -0.027742993257787181 -0.024588658893627564 0 -0.030084412405275103 -0.023760346218361868 0 -0.028286766119616027 -0.02448712554191039 0 -0.031275899698734594 -0.025218654339888492 0 -0.031406678359130115 -0.025777390221737299 0 -0.032397069596036505 -0.024288612839369336 0 -0.032222012209673384 -0.024598640845593094 0 -0.032281695772525966 -0.024851260275377068 0 -0.027982349868319104 -0.019080694489867642 0 -0.028040115221093932 -0.019765976967439609 0 -0.028705763878640805 -0.018787444113184497 0 -0.03146804995304231 -0.026655794409225234 0 -0.030706873658079833 -0.025600016343029958 0 -0.028040115221093932 -0.019765976967439609 0 -0.028798485835952004 -0.018982498073266664 0 -0.028749593835145044 -0.018765589309250239 0 -0.030483911607417046 -0.026440513306800681 0 -0.030706873658079833 -0.025600016343029958 0 -0.030706873658079833 -0.025600016343029958 0 -0.030084412405275103 -0.023760346218361868 0 -0.030015603073680501 -0.023475957615946067 0 -0.030084412405275103 -0.023760346218361868 0 -0.035058038658153247 -0.024323999591502679 0 -0.032281695772525966 -0.024851260275377068 0 -0.036447481779235798 -0.026565119994477804 0 -0.029486301901407472 -0.020345562460992676 0 -0.028798485835952004 -0.018982498073266664 0 -0.031243329055960483 -0.019791185364592165 0 -0.028798485835952004 -0.018982498073266664 0 -0.02874775448499324 -0.018764917207087093 0 -0.031243329055960483 -0.019791185364592165 0 -0.030084412405275103 -0.023760346218361868 0 -0.03659490143671984 -0.022684623002333176 0 -0.035278957613908937 -0.021964497586176253 0 -0.03659490143671984 -0.022684623002333176 0 -0.029486301901407472 -0.020345562460992676 0 -0.030099594133589338 -0.021741192929917823 0 -0.031243329055960483 -0.019791185364592165 0 -0.035278957613908937 -0.021964497586176253 0 -0.034509571004653121 -0.0195052047415732 0 -0.04071701828119198 -0.021979749583322824 0 -0.041121557214096417 -0.021203634052538688 0 -0.040425375765362107 -0.021571988366200629 0 -0.028252338447497135 -0.02124821221717961 0 -0.030099594133589338 -0.021741192929917823 0 -0.02897334554795172 -0.023688354568599662 0 -0.034509571004653121 -0.0195052047415732 0 -0.041444132313664186 -0.021030851784829874 0 -0.041121557214096417 -0.021203634052538688 0 -0.040430649613139448 -0.021064060852043771 0 -0.040425375765362107 -0.021571988366200629 0 -0.041497885033549738 -0.020926126234072154 0 -0.042285916379912108 -0.019995380788751776 0 -0.041021191789516777 -0.019612309643065668 0 -0.042738767126782221 -0.021148076451761366 0 -0.041497885033549738 -0.020926126234072154 0 -0.042285916379912108 -0.019995380788751776 0 -0.042738767126782221 -0.021148076451761366 0 -0.042285916379912108 -0.019995380788751776 0 -0.043620918676225924 -0.019611031054800939 0 -0.034509571004653121 -0.0195052047415732 0 -0.03503655342907077 -0.017207742324350302 0 -0.042285916379912108 -0.019995380788751776 0 -0.041989671930926557 -0.018642411301498355 0 -0.043620918676225924 -0.019611031054800939 0 -0.042285916379912108 -0.019995380788751776 0 -0.041989671930926557 -0.018642411301498355 0 -0.041021191789516777 -0.019612309643065668 0 -0.041989671930926557 -0.018642411301498355 0 -0.042185108224926056 -0.0174349093483697 0 -0.043108344057873171 -0.017916479888927053 0 -0.041989671930926557 -0.018642411301498355 0 -0.042185108224926056 -0.0174349093483697 0 -0.041426728784810143 -0.017475979767225074 0 -0.042185108224926056 -0.0174349093483697 0 -0.04164142819270817 -0.016840076298282589 0 -0.042188484733808325 -0.016639440716383597 0 -0.042185108224926056 -0.0174349093483697 0 -0.041426728784810143 -0.017475979767225074 0 -0.04164142819270817 -0.016840076298282589 0 -0.042185108224926056 -0.0174349093483697 0 -0.043108344057873171 -0.017916479888927053 0 -0.042666714715295255 -0.016739453316163399 0 -0.043108344057873171 -0.017916479888927053 0 -0.042666714715295255 -0.016739453316163399 0 -0.043701179089211055 -0.016891936325918108 0 -0.041989671930926557 -0.018642411301498355 0 -0.043108344057873171 -0.017916479888927053 0 -0.043620918676225924 -0.019611031054800939 0 -0.026031940036685554 -0.016545269977362477 0 -0.025827692284228661 -0.016266813233595658 0 -0.026591833064428558 -0.015667380218600497 0 -0.043108344057873171 -0.017916479888927053 0 -0.044466534549845692 -0.018059497772164486 0 -0.043620918676225924 -0.019611031054800939 0 -0.030932663300789122 -0.015892727254857405 0 -0.03503655342907077 -0.017207742324350302 0 -0.030932663300789122 -0.015892727254857405 0 -0.037023205082264622 -0.015769092510969546 0 -0.043108344057873171 -0.017916479888927053 0 -0.044466534549845692 -0.018059497772164486 0 -0.043701179089211055 -0.016891936325918108 0 -0.029616925911967591 -0.011257497766688431 0 -0.031182962422432701 -0.01347762411254185 0 -0.029445254548909724 -0.014025740462283512 0 -0.030932663300789122 -0.015892727254857405 0 -0.021889629479261159 -0.014488898932251377 0 -0.025968323621331654 -0.016491989261168159 0 -0.025469499662670383 -0.016442981434103405 0 -0.025524200876984524 -0.01716422801577153 0 -0.029616925911967591 -0.011257497766688431 0 -0.029445254548909724 -0.014025740462283512 0 -0.028016043398810031 -0.0139756452442126 0 -0.025968323621331654 -0.016491989261168159 0 -0.025827692284228661 -0.016266813233595658 0 -0.025469499662670383 -0.016442981434103405 0 -0.030932663300789122 -0.015892727254857405 0 -0.02950067353560289 -0.015248188743030569 0 -0.025827692284228661 -0.016266813233595658 0 -0.025885392487138358 -0.015611164665435065 0 -0.025343889135596671 -0.015584378917825372 0 -0.025827692284228661 -0.016266813233595658 0 -0.025885392487138358 -0.015611164665435065 0 -0.026591833064428558 -0.015667380218600497 0 -0.025783605989068165 -0.014905857608751192 0 -0.026297937420793598 -0.014575618192077281 0 -0.026591833064428558 -0.015667380218600497 0 -0.026297937420793598 -0.014575618192077281 0 -0.027179136039197044 -0.014743958620796617 0 -0.026591833064428558 -0.015667380218600497 0 -0.025783605989068165 -0.014905857608751192 0 -0.025885392487138358 -0.015611164665435065 0 -0.026591833064428558 -0.015667380218600497 0 -0.025783605989068165 -0.014905857608751192 0 -0.025885392487138358 -0.015611164665435065 0 -0.025343889135596671 -0.015584378917825372 0 -0.016293577769192248 -0.015858646122550207 0 -0.016509143674751266 -0.013420807497578296 0 -0.025224756748763476 -0.014648188458548195 0 -0.025783605989068165 -0.014905857608751192 0 -0.025343889135596671 -0.015584378917825372 0 -0.0077232493001252898 -0.011735837601423741 0 -0.0076493289286921158 -0.011786838026757075 0 -0.0076853450483675536 -0.011843283207428515 0 -0.0076493289286921158 -0.011786838026757075 0 -0.0076162088610330419 -0.01182327744510531 0 -0.0076853450483675536 -0.011843283207428515 0 -0.016293577769192248 -0.015858646122550207 0 -0.0086673478436661566 -0.014608576101001929 0 -0.0077232493001252898 -0.011735837601423741 0 -0.0076493289286921158 -0.011786838026757075 0 -0.00754542326285509 -0.011813912845257303 0 -0.012059916645279257 -0.016138149291701459 0 -0.012182899560971121 -0.016096224352061456 0 -0.01198601324316614 -0.016240497990340639 0 -0.0049636969191582661 -0.014562818582310382 0 -0.0052114962220109369 -0.014421450561004729 0 -0.0051014751947848908 -0.014019863400246005 0 -0.0095599329251475924 -0.015775773007709042 0 -0.0086673478436661566 -0.014608576101001929 0 -0.0052114962220109369 -0.014421450561004729 0 -0.0051014751947848908 -0.014019863400246005 0 -0.0053276121441991463 -0.014210571695037722 0 -0.0076493289286921158 -0.011786838026757075 0 -0.0075986435740332658 -0.0118151369885033 0 -0.0076162088610330419 -0.01182327744510531 0 -0.0076493289286921158 -0.011786838026757075 0 -0.00754542326285509 -0.011813912845257303 0 -0.0075986435740332658 -0.0118151369885033 0 -0.0075986435740332658 -0.0118151369885033 0 -0.0076162088610330419 -0.01182327744510531 0 -0.0075790016097005706 -0.011834873657098566 0 -0.00754542326285509 -0.011813912845257303 0 -0.0075986435740332658 -0.0118151369885033 0 -0.0075790016097005706 -0.011834873657098566 0 -0.0075790016097005706 -0.011834873657098566 0 -0.0075997094184632298 -0.011853908387418687 0 -0.0075276421858105971 -0.011876784164467542 0 -0.0076162088610330419 -0.01182327744510531 0 -0.0075790016097005706 -0.011834873657098566 0 -0.0075997094184632298 -0.011853908387418687 0 -0.00754542326285509 -0.011813912845257303 0 -0.0075790016097005706 -0.011834873657098566 0 -0.0075276421858105971 -0.011876784164467542 0 -0.0075997094184632298 -0.011853908387418687 0 -0.0075276421858105971 -0.011876784164467542 0 -0.0075851986982451653 -0.011912539747479424 0 -0.0075997094184632298 -0.011853908387418687 0 -0.0076853450483675536 -0.011843283207428515 0 -0.0075851986982451653 -0.011912539747479424 0 -0.0076853450483675536 -0.011843283207428515 0 -0.0076667506947272384 -0.011970009692173404 0 -0.0075851986982451653 -0.011912539747479424 0 -0.016509143674751266 -0.013420807497578296 0 -0.017160212639791075 -0.014128307370110655 0 -0.0076162088610330419 -0.01182327744510531 0 -0.0075997094184632298 -0.011853908387418687 0 -0.0076853450483675536 -0.011843283207428515 0 -0.025827692284228661 -0.016266813233595658 0 -0.025343889135596671 -0.015584378917825372 0 -0.025469499662670383 -0.016442981434103405 0 -0.0076667506947272384 -0.011970009692173404 0 -0.0075492590602867869 -0.012008574840386126 0 -0.0075851986982451653 -0.011912539747479424 0 -0.017160212639791075 -0.014128307370110655 0 -0.021889629479261159 -0.014488898932251377 0 -0.0076667506947272384 -0.011970009692173404 0 -0.0075492590602867869 -0.012008574840386126 0 -0.0076526900565269682 -0.012075077867404265 0 -0.0075492590602867869 -0.012008574840386126 0 -0.0074889051717451022 -0.011953135955587835 0 -0.0074058958253176701 -0.012064986153948321 0 -0.0075492590602867869 -0.012008574840386126 0 -0.0074058958253176701 -0.012064986153948321 0 -0.0075370188225553697 -0.012071323417358023 0 -0.0075492590602867869 -0.012008574840386126 0 -0.0074889051717451022 -0.011953135955587835 0 -0.0075851986982451653 -0.011912539747479424 0 -0.0075276421858105971 -0.011876784164467542 0 -0.0074889051717451022 -0.011953135955587835 0 -0.0075851986982451653 -0.011912539747479424 0 -0.0074889051717451022 -0.011953135955587835 0 -0.0073599881379098281 -0.011913450114280171 0 -0.0074058958253176701 -0.012064986153948321 0 -0.0075276421858105971 -0.011876784164467542 0 -0.0074889051717451022 -0.011953135955587835 0 -0.0073599881379098281 -0.011913450114280171 0 -0.0068057015648233235 -0.012636705836011168 0 -0.0070237190668463916 -0.012221619584359683 0 -0.0073599881379098281 -0.011913450114280171 0 -0.0074058958253176701 -0.012064986153948321 0 -0.0071324156273481548 -0.012163045867137678 0 -0.0059304849151790478 -0.012996226610338966 0 -0.0071699390796387541 -0.012834140316847358 0 -0.0071324156273481548 -0.012163045867137678 0 -0.0059304849151790478 -0.012996226610338966 0 -0.0065922657856103224 -0.013654221036498921 0 -0.0071699390796387541 -0.012834140316847358 0 -0.0059304849151790478 -0.012996226610338966 0 -0.0065922657856103224 -0.013654221036498921 0 -0.006015727692536125 -0.013837936376793062 0 -0.00754542326285509 -0.011813912845257303 0 -0.0075276421858105971 -0.011876784164467542 0 -0.0073599881379098281 -0.011913450114280171 0 -0.0086673478436661566 -0.014608576101001929 0 -0.0068057015648233235 -0.012636705836011168 0 -0.0059304849151790478 -0.012996226610338966 0 -0.006015727692536125 -0.013837936376793062 0 -0.0055721641496184375 -0.014051735304547484 0 -0.0051014751947848908 -0.014019863400246005 0 -0.0059304849151790478 -0.012996226610338966 0 -0.0055721641496184375 -0.014051735304547484 0 -0.006015727692536125 -0.013837936376793062 0 -0.0055721641496184375 -0.014051735304547484 0 -0.0057677700903491181 -0.014134326306404712 0 -0.0057677700903491181 -0.014134326306404712 0 -0.0055139751067797031 -0.014231595439780515 0 -0.005642695295347405 -0.014303366232595767 0 -0.0055721641496184375 -0.014051735304547484 0 -0.0057677700903491181 -0.014134326306404712 0 -0.0055139751067797031 -0.014231595439780515 0 -0.0057677700903491181 -0.014134326306404712 0 -0.005642695295347405 -0.014303366232595767 0 -0.0058415959745178811 -0.014322724345243341 0 -0.0051014751947848908 -0.014019863400246005 0 -0.0055721641496184375 -0.014051735304547484 0 -0.0053276121441991463 -0.014210571695037722 0 -0.0055721641496184375 -0.014051735304547484 0 -0.0055139751067797031 -0.014231595439780515 0 -0.0053276121441991463 -0.014210571695037722 0 -0.0052114962220109369 -0.014421450561004729 0 -0.0053276121441991463 -0.014210571695037722 0 -0.0054610594671853111 -0.014507849115092227 0 -0.0055139751067797031 -0.014231595439780515 0 -0.0053276121441991463 -0.014210571695037722 0 -0.0054610594671853111 -0.014507849115092227 0 -0.0055139751067797031 -0.014231595439780515 0 -0.0054610594671853111 -0.014507849115092227 0 -0.005642695295347405 -0.014303366232595767 0 -0.0054610594671853111 -0.014507849115092227 0 -0.005642695295347405 -0.014303366232595767 0 -0.0058415959745178811 -0.014322724345243341 0 -0.006058521565706969 -0.01500055151913217 0 -0.0057961014956255672 -0.01469574376393795 0 -0.0063275426643760804 -0.014494970539575189 0 -0.0065922657856103224 -0.013654221036498921 0 -0.006015727692536125 -0.013837936376793062 0 -0.0063275426643760804 -0.014494970539575189 0 -0.0057961014956255672 -0.01469574376393795 0 -0.0058415959745178811 -0.014322724345243341 0 -0.0063275426643760804 -0.014494970539575189 0 -0.006015727692536125 -0.013837936376793062 0 -0.0057677700903491181 -0.014134326306404712 0 -0.0058415959745178811 -0.014322724345243341 0 -0.006015727692536125 -0.013837936376793062 0 -0.0058415959745178811 -0.014322724345243341 0 -0.0063275426643760804 -0.014494970539575189 0 -0.037122193552987535 -0.023397972379736402 0 -0.037751678532895204 -0.023114419436694542 0 -0.037873747105194408 -0.024117730403867929 0 -0.037122193552987535 -0.023397972379736402 0 -0.037751678532895204 -0.023114419436694542 0 -0.036636797775570419 -0.022533789712403021 0 -0.037580545424780461 -0.022482064185631187 0 -0.038640536277544955 -0.022921657042441583 0 -0.037751678532895204 -0.023114419436694542 0 -0.037873747105194408 -0.024117730403867929 0 -0.038811900336272936 -0.0235878982658537 0 -0.037479169061058568 -0.021831336971946631 0 -0.037560422732656966 -0.021426790133090491 0 -0.038229593207949823 -0.021338397290431087 0 -0.037479169061058568 -0.021831336971946631 0 -0.037560422732656966 -0.021426790133090491 0 -0.037212872985967649 -0.021283403076578181 0 -0.037560422732656966 -0.021426790133090491 0 -0.037212872985967649 -0.021283403076578181 0 -0.037588250962599837 -0.020806203253046562 0 -0.037580545424780461 -0.022482064185631187 0 -0.036407487557412771 -0.022107104066668999 0 -0.037479169061058568 -0.021831336971946631 0 -0.037212872985967649 -0.021283403076578181 0 -0.03637144051321569 -0.021697032622044362 0 -0.036636797775570419 -0.022533789712403021 0 -0.035821426383134077 -0.022932857821556869 0 -0.036498678086095644 -0.023034859168508139 0 -0.036407487557412771 -0.022107104066668999 0 -0.035000481062962469 -0.021724069766477287 0 -0.035821426383134077 -0.022932857821556869 0 -0.03499997355267271 -0.023371435884430757 0 -0.035000030713445179 -0.021724130009012254 0 -0.036636797775570419 -0.022533789712403021 0 -0.035821426383134077 -0.022932857821556869 0 -0.035000030713445179 -0.021724130009012254 0 -0.035821426383134077 -0.022932857821556869 0 -0.035907571274712918 -0.024031940498357725 0 -0.03499997355267271 -0.023371435884430757 0 -0.037122193552987535 -0.023397972379736402 0 -0.036498678086095644 -0.023034859168508139 0 -0.036807714485894746 -0.024068918690463705 0 -0.035907571274712918 -0.024031940498357725 0 -0.036498678086095644 -0.023034859168508139 0 -0.03695568856433145 -0.024623809977300369 0 -0.035821426383134077 -0.022932857821556869 0 -0.035907571274712918 -0.024031940498357725 0 -0.036498678086095644 -0.023034859168508139 0 -0.037122193552987535 -0.023397972379736402 0 -0.036636797775570419 -0.022533789712403021 0 -0.036498678086095644 -0.023034859168508139 0 -0.036552922022448815 -0.023342040121447874 0 -0.036719108416136459 -0.024301649076840896 0 -0.035907571274712918 -0.024031940498357725 0 -0.03695568856433145 -0.024623809977300369 0 -0.036016435509932394 -0.025185322430503781 0 -0.035907571274712918 -0.024031940498357725 0 -0.034999978315114019 -0.025018886582560608 0 -0.036016435509932394 -0.025185322430503781 0 -0.035907571274712918 -0.024031940498357725 0 -0.03499997355267271 -0.023371435884430757 0 -0.034999978315114019 -0.025018886582560608 0 -0.034999998277000337 -0.026666248295236911 0 -0.034999978315114019 -0.025018886582560608 0 -0.035704801585647553 -0.026068211125639007 0 -0.034999978315114019 -0.025018886582560608 0 -0.036016435509932394 -0.025185322430503781 0 -0.035704801585647553 -0.026068211125639007 0 -0.03695568856433145 -0.024623809977300369 0 -0.036016435509932394 -0.025185322430503781 0 -0.036553469816376444 -0.026187724871814116 0 -0.03695568856433145 -0.024623809977300369 0 -0.036553469816376444 -0.026187724871814116 0 -0.037374879510889067 -0.026199782706689972 0 -0.036016435509932394 -0.025185322430503781 0 -0.035704801585647553 -0.026068211125639007 0 -0.036553469816376444 -0.026187724871814116 0 -0.036726482797981186 -0.026396704170969763 0 -0.036494430290168828 -0.026473522572813633 0 -0.036807714485894746 -0.024068918690463705 0 -0.037082351674425237 -0.025067323609694932 0 -0.037873747105194408 -0.024117730403867929 0 -0.036719108416136459 -0.024301649076840896 0 -0.036494430290168828 -0.026473522572813633 0 -0.037122193552987535 -0.023397972379736402 0 -0.036807714485894746 -0.024068918690463705 0 -0.037873747105194408 -0.024117730403867929 0 -0.037082351674425237 -0.025067323609694932 0 -0.037873747105194408 -0.024117730403867929 0 -0.038412565668217019 -0.025074421161874118 0 -0.036494430290168828 -0.026473522572813633 0 -0.037710668105368009 -0.026354838778140495 0 -0.037873747105194408 -0.024117730403867929 0 -0.038412565668217019 -0.025074421161874118 0 -0.039078138501837147 -0.024459793055648327 0 -0.039719318742300398 -0.025088746689549662 0 -0.038412565668217019 -0.025074421161874118 0 -0.039078138501837147 -0.024459793055648327 0 -0.039719318742300398 -0.025088746689549662 0 -0.039078138501837147 -0.024459793055648327 0 -0.03987124400683037 -0.024041175831591093 0 -0.03870681410457194 -0.026199629997113092 0 -0.037710668105368009 -0.026354838778140495 0 -0.039078138501837147 -0.024459793055648327 0 -0.03987124400683037 -0.024041175831591093 0 -0.038811900336272936 -0.0235878982658537 0 -0.039469148752155417 -0.022338930477082693 0 -0.03945259574674085 -0.02245533938073312 0 -0.038477886607196886 -0.022132697003452179 0 -0.039203750794368858 -0.023687869719846447 0 -0.038640536277544955 -0.022921657042441583 0 -0.037873747105194408 -0.024117730403867929 0 -0.039078138501837147 -0.024459793055648327 0 -0.038811900336272936 -0.0235878982658537 0 -0.038092439634567946 -0.024480484144147299 0 -0.038099524039693432 -0.02445777233172482 0 -0.038080067967668767 -0.024447643388929047 0 -0.037707234939872429 -0.024364971978564385 0 -0.035058038658153247 -0.024323999591502679 0 -0.036447481779235798 -0.026565119994477804 0 -0.037830944025490969 -0.026529379706470277 0 -0.03659490143671984 -0.022684623002333176 0 -0.038075055707351646 -0.024483555628942558 0 -0.038092439634567946 -0.024480484144147299 0 -0.038080067967668767 -0.024447643388929047 0 -0.03870681410457194 -0.026199629997113092 0 -0.039203750794368858 -0.023687869719846447 0 -0.039451284731750656 -0.022441890882492811 0 -0.040039577179664949 -0.022251131493968939 0 -0.039741762535590003 -0.022141326580820488 0 -0.039469148752155417 -0.022338930477082693 0 -0.039451284731750656 -0.022441890882492811 0 -0.039741762535590003 -0.022141326580820488 0 -0.039221880932217477 -0.023573272476396002 0 -0.039203750794368858 -0.023687869719846447 0 -0.04071701828119198 -0.021979749583322824 0 -0.040281133176410543 -0.022766512619167879 0 -0.040039577179664949 -0.022251131493968939 0 -0.03659490143671984 -0.022684623002333176 0 -0.039203750794368858 -0.023687869719846447 0 -0.040281133176410543 -0.022766512619167879 0 -0.039451284731750656 -0.022441890882492811 0 -0.040039577179664949 -0.022251131493968939 0 -0.04071701828119198 -0.021979749583322824 0 -0.040425375765362107 -0.021571988366200629 0 -0.040039577179664949 -0.022251131493968939 0 -0.040425375765362107 -0.021571988366200629 0 -0.040039577179664949 -0.022251131493968939 0 -0.039937070657712355 -0.021619710160137477 0 -0.040039577179664949 -0.022251131493968939 0 -0.039937070657712355 -0.021619710160137477 0 -0.039741762535590003 -0.022141326580820488 0 -0.039469148752155417 -0.022338930477082693 0 -0.039567890408817377 -0.021837426522743911 0 -0.039074880767427357 -0.021650192668410471 0 -0.039937070657712355 -0.021619710160137477 0 -0.039741762535590003 -0.022141326580820488 0 -0.039567890408817377 -0.021837426522743911 0 -0.039937070657712355 -0.021619710160137477 0 -0.039567890408817377 -0.021837426522743911 0 -0.039563269505994675 -0.021399939091849698 0 -0.039469148752155417 -0.022338930477082693 0 -0.039741762535590003 -0.022141326580820488 0 -0.039567890408817377 -0.021837426522743911 0 -0.039567890408817377 -0.021837426522743911 0 -0.039563269505994675 -0.021399939091849698 0 -0.039074880767427357 -0.021650192668410471 0 -0.039937070657712355 -0.021619710160137477 0 -0.039563269505994675 -0.021399939091849698 0 -0.039713601507667437 -0.020870990316065693 0 -0.039563269505994675 -0.021399939091849698 0 -0.038954646404646076 -0.020583683883949957 0 -0.039713601507667437 -0.020870990316065693 0 -0.040430649613139448 -0.021064060852043771 0 -0.039937070657712355 -0.021619710160137477 0 -0.039713601507667437 -0.020870990316065693 0 -0.040430649613139448 -0.021064060852043771 0 -0.040425375765362107 -0.021571988366200629 0 -0.039937070657712355 -0.021619710160137477 0 -0.038477886607196886 -0.022132697003452179 0 -0.039074880767427357 -0.021650192668410471 0 -0.038229593207949823 -0.021338397290431087 0 -0.037479169061058568 -0.021831336971946631 0 -0.038477886607196886 -0.022132697003452179 0 -0.038229593207949823 -0.021338397290431087 0 -0.039469148752155417 -0.022338930477082693 0 -0.038477886607196886 -0.022132697003452179 0 -0.039074880767427357 -0.021650192668410471 0 -0.039074880767427357 -0.021650192668410471 0 -0.038229593207949823 -0.021338397290431087 0 -0.038954646404646076 -0.020583683883949957 0 -0.039563269505994675 -0.021399939091849698 0 -0.039074880767427357 -0.021650192668410471 0 -0.038954646404646076 -0.020583683883949957 0 -0.038229593207949823 -0.021338397290431087 0 -0.038954646404646076 -0.020583683883949957 0 -0.037816514096226286 -0.020026524515394682 0 -0.038954646404646076 -0.020583683883949957 0 -0.039071412107849292 -0.019359081832031104 0 -0.039898076590759134 -0.019838434833386084 0 -0.038954646404646076 -0.020583683883949957 0 -0.039071412107849292 -0.019359081832031104 0 -0.037816514096226286 -0.020026524515394682 0 -0.039071412107849292 -0.019359081832031104 0 -0.037816514096226286 -0.020026524515394682 0 -0.038357766630722039 -0.018377231150652564 0 -0.038068520890613113 -0.020071184784010331 0 -0.03863784982299736 -0.018420884287214664 0 -0.038357792129966886 -0.020185392650572918 0 -0.038926546023817614 -0.018478068406361244 0 -0.037835012564303744 -0.019105099662835454 0 -0.041444132313664186 -0.021030851784829874 0 -0.039909035551189687 -0.020775484043090434 0 -0.041497885033549738 -0.020926126234072154 0 -0.040242929528570066 -0.020730651788379812 0 -0.041021191789516777 -0.019612309643065668 0 -0.039186737938758293 -0.020637146282076371 0 -0.039909035551189687 -0.020775484043090434 0 -0.038954646404646076 -0.020583683883949957 0 -0.040242929528570066 -0.020730651788379812 0 -0.039898076590759134 -0.019838434833386084 0 -0.040242929528570066 -0.020730651788379812 0 -0.039898076590759134 -0.019838434833386084 0 -0.041021191789516777 -0.019612309643065668 0 -0.039071412107849292 -0.019359081832031104 0 -0.039898076590759134 -0.019838434833386084 0 -0.040176736848677633 -0.018923226899743413 0 -0.039898076590759134 -0.019838434833386084 0 -0.041021191789516777 -0.019612309643065668 0 -0.040176736848677633 -0.018923226899743413 0 -0.041989671930926557 -0.018642411301498355 0 -0.041021191789516777 -0.019612309643065668 0 -0.04097040152318767 -0.018183663142472866 0 -0.041021191789516777 -0.019612309643065668 0 -0.04097040152318767 -0.018183663142472866 0 -0.040176736848677633 -0.018923226899743413 0 -0.041989671930926557 -0.018642411301498355 0 -0.04097040152318767 -0.018183663142472866 0 -0.041426728784810143 -0.017475979767225074 0 -0.039071412107849292 -0.019359081832031104 0 -0.040176736848677633 -0.018923226899743413 0 -0.039775338895109986 -0.017795251560636025 0 -0.04097040152318767 -0.018183663142472866 0 -0.040176736848677633 -0.018923226899743413 0 -0.039775338895109986 -0.017795251560636025 0 -0.039775338895109986 -0.017795251560636025 0 -0.040804901873578048 -0.016982027005036628 0 -0.039902521512219839 -0.016549863935197764 0 -0.039775338895109986 -0.017795251560636025 0 -0.03912184412337464 -0.016767079832301152 0 -0.039902521512219839 -0.016549863935197764 0 -0.04097040152318767 -0.018183663142472866 0 -0.039775338895109986 -0.017795251560636025 0 -0.040804901873578048 -0.016982027005036628 0 -0.04097040152318767 -0.018183663142472866 0 -0.040804901873578048 -0.016982027005036628 0 -0.041426728784810143 -0.017475979767225074 0 -0.040804901873578048 -0.016982027005036628 0 -0.041426728784810143 -0.017475979767225074 0 -0.04164142819270817 -0.016840076298282589 0 -0.039071412107849292 -0.019359081832031104 0 -0.039775338895109986 -0.017795251560636025 0 -0.038357766630722039 -0.018377231150652564 0 -0.03863784982299736 -0.018420884287214664 0 -0.039075053449104009 -0.017139909819728533 0 -0.039775338895109986 -0.017795251560636025 0 -0.038357766630722039 -0.018377231150652564 0 -0.03912184412337464 -0.016767079832301152 0 -0.038926546023817614 -0.018478068406361244 0 -0.037856722957851446 -0.017621364287775006 0 -0.03912184412337464 -0.016767079832301152 0 -0.037856722957851446 -0.017621364287775006 0 -0.036816782930297186 -0.019051287023670874 0 -0.036515689290786017 -0.0176344839553268 0 -0.037856722957851446 -0.017621364287775006 0 -0.036816782930297186 -0.019051287023670874 0 -0.037835012564303744 -0.019105099662835454 0 -0.038926546023817614 -0.018478068406361244 0 -0.037856722957851446 -0.017621364287775006 0 -0.037835012564303744 -0.019105099662835454 0 -0.038357792129966886 -0.020185392650572918 0 -0.037835012564303744 -0.019105099662835454 0 -0.037016355382097348 -0.020491779999688126 0 -0.036816782930297186 -0.019051287023670874 0 -0.037835012564303744 -0.019105099662835454 0 -0.037016355382097348 -0.020491779999688126 0 -0.037212872985967649 -0.021283403076578181 0 -0.037016355382097348 -0.020491779999688126 0 -0.037588250962599837 -0.020806203253046562 0 -0.037212872985967649 -0.021283403076578181 0 -0.03637144051321569 -0.021697032622044362 0 -0.037016355382097348 -0.020491779999688126 0 -0.037653090860439539 -0.021137038726194535 0 -0.038068520890613113 -0.020071184784010331 0 -0.037560422732656966 -0.021426790133090491 0 -0.038229593207949823 -0.021338397290431087 0 -0.037816514096226286 -0.020026524515394682 0 -0.037560422732656966 -0.021426790133090491 0 -0.038357792129966886 -0.020185392650572918 0 -0.037588250962599837 -0.020806203253046562 0 -0.038357792129966886 -0.020185392650572918 0 -0.037016355382097348 -0.020491779999688126 0 -0.037588250962599837 -0.020806203253046562 0 -0.03637144051321569 -0.021697032622044362 0 -0.0349999983929501 -0.021722688050539524 0 -0.03602137780789922 -0.020372669083112797 0 -0.03637144051321569 -0.021697032622044362 0 -0.037016355382097348 -0.020491779999688126 0 -0.03602137780789922 -0.020372669083112797 0 -0.036816782930297186 -0.019051287023670874 0 -0.037016355382097348 -0.020491779999688126 0 -0.03602137780789922 -0.020372669083112797 0 -0.03602137780789922 -0.020372669083112797 0 -0.034999785554366537 -0.019773754297868269 0 -0.035862418235325322 -0.01881353635370225 0 -0.0349999983929501 -0.021722688050539524 0 -0.03602137780789922 -0.020372669083112797 0 -0.034999785554366537 -0.019773754297868269 0 -0.034999785554366537 -0.019773754297868269 0 -0.035862418235325322 -0.01881353635370225 0 -0.034999843426289159 -0.017823285730165613 0 -0.036816782930297186 -0.019051287023670874 0 -0.03602137780789922 -0.020372669083112797 0 -0.035862418235325322 -0.01881353635370225 0 -0.036816782930297186 -0.019051287023670874 0 -0.035862418235325322 -0.01881353635370225 0 -0.036515689290786017 -0.0176344839553268 0 -0.035862418235325322 -0.01881353635370225 0 -0.036515689290786017 -0.0176344839553268 0 -0.034999843426289159 -0.017823285730165613 0 -0.034999843426289159 -0.017823285730165613 0 -0.036178876122895789 -0.016168021340530865 0 -0.03499985309445016 -0.01587326420994347 0 -0.036515689290786017 -0.0176344839553268 0 -0.034999843426289159 -0.017823285730165613 0 -0.036178876122895789 -0.016168021340530865 0 -0.036515689290786017 -0.0176344839553268 0 -0.036178876122895789 -0.016168021340530865 0 -0.037232680120264261 -0.016333501918860748 0 -0.036178876122895789 -0.016168021340530865 0 -0.037232680120264261 -0.016333501918860748 0 -0.036513060858870294 -0.014656066649375974 0 -0.036178876122895789 -0.016168021340530865 0 -0.03499985309445016 -0.01587326420994347 0 -0.036513060858870294 -0.014656066649375974 0 -0.037856722957851446 -0.017621364287775006 0 -0.037232680120264261 -0.016333501918860748 0 -0.038373548834275913 -0.015997506833725066 0 -0.037856722957851446 -0.017621364287775006 0 -0.036515689290786017 -0.0176344839553268 0 -0.037232680120264261 -0.016333501918860748 0 -0.037232680120264261 -0.016333501918860748 0 -0.037779825991710099 -0.015186283977877107 0 -0.036513060858870294 -0.014656066649375974 0 -0.037232680120264261 -0.016333501918860748 0 -0.037779825991710099 -0.015186283977877107 0 -0.038373548834275913 -0.015997506833725066 0 -0.037779825991710099 -0.015186283977877107 0 -0.037915541203987844 -0.013973213825954473 0 -0.038751642854410684 -0.014903706262116925 0 -0.037779825991710099 -0.015186283977877107 0 -0.037915541203987844 -0.013973213825954473 0 -0.036513060858870294 -0.014656066649375974 0 -0.037915541203987844 -0.013973213825954473 0 -0.036513060858870294 -0.014656066649375974 0 -0.036811413978540604 -0.012840091371734476 0 -0.03499985309445016 -0.01587326420994347 0 -0.036513060858870294 -0.014656066649375974 0 -0.034999874508084103 -0.013923088434333552 0 -0.036513060858870294 -0.014656066649375974 0 -0.035811258830454301 -0.012868322118949891 0 -0.036811413978540604 -0.012840091371734476 0 -0.036513060858870294 -0.014656066649375974 0 -0.034999874508084103 -0.013923088434333552 0 -0.035811258830454301 -0.012868322118949891 0 -0.034999874508084103 -0.013923088434333552 0 -0.035811258830454301 -0.012868322118949891 0 -0.034999873639008798 -0.011973274430553994 0 -0.035811258830454301 -0.012868322118949891 0 -0.034999873639008798 -0.011973274430553994 0 -0.035538169421605342 -0.011673165209799059 0 -0.034999512791684846 -0.01197114945954696 0 -0.034854830029322659 -0.010934735172698658 0 -0.034999998259669318 -0.011972722873141358 0 -0.035612325544595834 -0.011545327524042781 0 -0.034999998756788379 -0.011133607575636632 0 -0.035587178526939538 -0.011508279116528875 0 -0.034999938754986831 -0.01113342311602245 0 -0.035626725071184223 -0.010798152225697836 0 -0.034854830029322659 -0.010934735172698658 0 -0.035000173664172102 -0.011133546407544565 0 -0.031888132660194503 -0.0094191293939785807 0 -0.033352906716082889 -0.0094403058232203456 0 -0.033508767808410021 -0.010539142277220567 0 -0.031888132660194503 -0.0094191293939785807 0 -0.033352906716082889 -0.0094403058232203456 0 -0.033416407755711017 -0.0083418247240134077 0 -0.035587178526939538 -0.011508279116528875 0 -0.035626725071184223 -0.010798152225697836 0 -0.036953726280609452 -0.010501943441364034 0 -0.034854830029322659 -0.010934735172698658 0 -0.035200418871153306 -0.0095693587229760974 0 -0.034854830029322659 -0.010934735172698658 0 -0.035025563154375598 -0.011586314444015613 0 -0.035811258830454301 -0.012868322118949891 0 -0.035538169421605342 -0.011673165209799059 0 -0.036811413978540604 -0.012840091371734476 0 -0.036482528250070638 -0.012861554011706501 0 -0.035025563154375598 -0.011586314444015613 0 -0.035071142568034258 -0.011730059545706713 0 -0.033508767808410021 -0.010539142277220567 0 -0.034608528127078236 -0.0094628805574035364 0 -0.035071142568034258 -0.011730059545706713 0 -0.034608528127078236 -0.0094628805574035364 0 -0.036124922329202988 -0.010193307508130328 0 -0.034608528127078236 -0.0094628805574035364 0 -0.036097622151117774 -0.0088071523382467001 0 -0.036124922329202988 -0.010193307508130328 0 -0.033352906716082889 -0.0094403058232203456 0 -0.034608528127078236 -0.0094628805574035364 0 -0.033416407755711017 -0.0083418247240134077 0 -0.033352906716082889 -0.0094403058232203456 0 -0.033508767808410021 -0.010539142277220567 0 -0.034608528127078236 -0.0094628805574035364 0 -0.036658905070333085 -0.0084123526397923542 0 -0.035200418871153306 -0.0095693587229760974 0 -0.038278196265955619 -0.00951020717571977 0 -0.036888556906654199 -0.0093826956092127427 0 -0.036953726280609452 -0.010501943441364034 0 -0.034608528127078236 -0.0094628805574035364 0 -0.035028126212599195 -0.0072548572115886155 0 -0.033416407755711017 -0.0083418247240134077 0 -0.035028126212599195 -0.0072548572115886155 0 -0.036406614797915862 -0.0073794623030784745 0 -0.036097622151117774 -0.0088071523382467001 0 -0.034608528127078236 -0.0094628805574035364 0 -0.035028126212599195 -0.0072548572115886155 0 -0.036097622151117774 -0.0088071523382467001 0 -0.035028126212599195 -0.0072548572115886155 0 -0.036406614797915862 -0.0073794623030784745 0 -0.036643827032807143 -0.0063077354769817719 0 -0.036658905070333085 -0.0084123526397923542 0 -0.038024880772867385 -0.007443543274285527 0 -0.038278196265955619 -0.00951020717571977 0 -0.036888556906654199 -0.0093826956092127427 0 -0.037583422160364317 -0.0084467232917634968 0 -0.036888556906654199 -0.0093826956092127427 0 -0.035841670799586639 -0.0087848303564937412 0 -0.035727262902219926 -0.010080634341423995 0 -0.036888556906654199 -0.0093826956092127427 0 -0.035841670799586639 -0.0087848303564937412 0 -0.037583422160364317 -0.0084467232917634968 0 -0.034999986852404512 -0.0090677969157002981 0 -0.035841670799586639 -0.0087848303564937412 0 -0.035727262902219926 -0.010080634341423995 0 -0.034999938754986831 -0.01113342311602245 0 -0.034999986852404512 -0.0090677969157002981 0 -0.035727262902219926 -0.010080634341423995 0 -0.034999938754986831 -0.01113342311602245 0 -0.035727262902219926 -0.010080634341423995 0 -0.035626725071184223 -0.010798152225697836 0 -0.035727262902219926 -0.010080634341423995 0 -0.035626725071184223 -0.010798152225697836 0 -0.036953726280609452 -0.010501943441364034 0 -0.036888556906654199 -0.0093826956092127427 0 -0.035727262902219926 -0.010080634341423995 0 -0.036953726280609452 -0.010501943441364034 0 -0.038396886344794476 -0.0083526096171008084 0 -0.039436455445371423 -0.0080894453727154356 0 -0.038777981938648509 -0.0074592446343428962 0 -0.039436455445371423 -0.0080894453727154356 0 -0.039442427554332846 -0.0072891174942001005 0 -0.038777981938648509 -0.0074592446343428962 0 -0.038396886344794476 -0.0083526096171008084 0 -0.038777981938648509 -0.0074592446343428962 0 -0.038006897840545437 -0.0074781407487627969 0 -0.039436455445371423 -0.0080894453727154356 0 -0.039442427554332846 -0.0072891174942001005 0 -0.040179493663680212 -0.0073934402173126239 0 -0.039436455445371423 -0.0080894453727154356 0 -0.040176135970264024 -0.0084324430771183408 0 -0.040179493663680212 -0.0073934402173126239 0 -0.039442427554332846 -0.0072891174942001005 0 -0.039729379282274428 -0.0067541494568561355 0 -0.040179493663680212 -0.0073934402173126239 0 -0.039442427554332846 -0.0072891174942001005 0 -0.039729379282274428 -0.0067541494568561355 0 -0.0389536090718492 -0.0067472036798722906 0 -0.039442427554332846 -0.0072891174942001005 0 -0.0389536090718492 -0.0067472036798722906 0 -0.038777981938648509 -0.0074592446343428962 0 -0.038777981938648509 -0.0074592446343428962 0 -0.038408029332469437 -0.006850466013571181 0 -0.038006897840545437 -0.0074781407487627969 0 -0.0389536090718492 -0.0067472036798722906 0 -0.038777981938648509 -0.0074592446343428962 0 -0.038408029332469437 -0.006850466013571181 0 -0.0389536090718492 -0.0067472036798722906 0 -0.038408029332469437 -0.006850466013571181 0 -0.038436081912164445 -0.0064003209647044311 0 -0.038408029332469437 -0.006850466013571181 0 -0.037758215908160211 -0.0068305259443731756 0 -0.038047974820221313 -0.0064094499162205814 0 -0.037758215908160211 -0.0068305259443731756 0 -0.037529426215627083 -0.0064132244897307884 0 -0.038047974820221313 -0.0064094499162205814 0 -0.037758215908160211 -0.0068305259443731756 0 -0.037311950604217381 -0.007310231975971573 0 -0.037176636281577018 -0.0067729529243666818 0 -0.037758215908160211 -0.0068305259443731756 0 -0.037176636281577018 -0.0067729529243666818 0 -0.037529426215627083 -0.0064132244897307884 0 -0.037758215908160211 -0.0068305259443731756 0 -0.037311950604217381 -0.007310231975971573 0 -0.038006897840545437 -0.0074781407487627969 0 -0.038408029332469437 -0.006850466013571181 0 -0.037758215908160211 -0.0068305259443731756 0 -0.038006897840545437 -0.0074781407487627969 0 -0.037176636281577018 -0.0067729529243666818 0 -0.036406614797915862 -0.0073794623030784745 0 -0.036643827032807143 -0.0063077354769817719 0 -0.037311950604217381 -0.007310231975971573 0 -0.037176636281577018 -0.0067729529243666818 0 -0.036406614797915862 -0.0073794623030784745 0 -0.036406614797915862 -0.0073794623030784745 0 -0.037321756768008398 -0.0081347680906524427 0 -0.036097622151117774 -0.0088071523382467001 0 -0.037311950604217381 -0.007310231975971573 0 -0.036406614797915862 -0.0073794623030784745 0 -0.037321756768008398 -0.0081347680906524427 0 -0.038396886344794476 -0.0083526096171008084 0 -0.038006897840545437 -0.0074781407487627969 0 -0.037321756768008398 -0.0081347680906524427 0 -0.037311950604217381 -0.007310231975971573 0 -0.038006897840545437 -0.0074781407487627969 0 -0.037321756768008398 -0.0081347680906524427 0 -0.038396886344794476 -0.0083526096171008084 0 -0.037321756768008398 -0.0081347680906524427 0 -0.037597274842729712 -0.0096659292138815568 0 -0.037321756768008398 -0.0081347680906524427 0 -0.037597274842729712 -0.0096659292138815568 0 -0.036097622151117774 -0.0088071523382467001 0 -0.037597274842729712 -0.0096659292138815568 0 -0.036097622151117774 -0.0088071523382467001 0 -0.036124922329202988 -0.010193307508130328 0 -0.035071142568034258 -0.011730059545706713 0 -0.036124922329202988 -0.010193307508130328 0 -0.037095543580183521 -0.011353920149175618 0 -0.037597274842729712 -0.0096659292138815568 0 -0.036124922329202988 -0.010193307508130328 0 -0.037095543580183521 -0.011353920149175618 0 -0.037597274842729712 -0.0096659292138815568 0 -0.038818876486394864 -0.010928830371340211 0 -0.037095543580183521 -0.011353920149175618 0 -0.038818876486394864 -0.010928830371340211 0 -0.039292153648438424 -0.0093613569726179475 0 -0.039736735459570661 -0.010542041977347446 0 -0.037597274842729712 -0.0096659292138815568 0 -0.038818876486394864 -0.010928830371340211 0 -0.039292153648438424 -0.0093613569726179475 0 -0.038818876486394864 -0.010928830371340211 0 -0.039736735459570661 -0.010542041977347446 0 -0.039778475939571657 -0.011714389171731208 0 -0.038396886344794476 -0.0083526096171008084 0 -0.037597274842729712 -0.0096659292138815568 0 -0.039292153648438424 -0.0093613569726179475 0 -0.038396886344794476 -0.0083526096171008084 0 -0.039436455445371423 -0.0080894453727154356 0 -0.039292153648438424 -0.0093613569726179475 0 -0.040176135970264024 -0.0084324430771183408 0 -0.040201333175045526 -0.0098579037454784302 0 -0.04070778813036597 -0.0086491018597841772 0 -0.039292153648438424 -0.0093613569726179475 0 -0.040176135970264024 -0.0084324430771183408 0 -0.040201333175045526 -0.0098579037454784302 0 -0.039436455445371423 -0.0080894453727154356 0 -0.039292153648438424 -0.0093613569726179475 0 -0.040176135970264024 -0.0084324430771183408 0 -0.040201333175045526 -0.0098579037454784302 0 -0.04070778813036597 -0.0086491018597841772 0 -0.040998863675156143 -0.01082346348957256 0 -0.039292153648438424 -0.0093613569726179475 0 -0.040201333175045526 -0.0098579037454784302 0 -0.039736735459570661 -0.010542041977347446 0 -0.040201333175045526 -0.0098579037454784302 0 -0.039736735459570661 -0.010542041977347446 0 -0.040667666203065764 -0.011075061001459491 0 -0.040201333175045526 -0.0098579037454784302 0 -0.040667666203065764 -0.011075061001459491 0 -0.040998863675156143 -0.01082346348957256 0 -0.040658217507752212 -0.011757639321874971 0 -0.040792329028286521 -0.012511100770979689 0 -0.040667666203065764 -0.011075061001459491 0 -0.041155336392807072 -0.011786781574469433 0 -0.040998863675156143 -0.01082346348957256 0 -0.040667666203065764 -0.011075061001459491 0 -0.040690926820227805 -0.01232329077485715 0 -0.041924321869010267 -0.012661285822987211 0 -0.040690926820227805 -0.01232329077485715 0 -0.040899286448502922 -0.013242140975776471 0 -0.041924321869010267 -0.012661285822987211 0 -0.040690926820227805 -0.01232329077485715 0 -0.039778475939571657 -0.011714389171731208 0 -0.039953580769044678 -0.013127624918350168 0 -0.040667666203065764 -0.011075061001459491 0 -0.040690926820227805 -0.01232329077485715 0 -0.039778475939571657 -0.011714389171731208 0 -0.039736735459570661 -0.010542041977347446 0 -0.040667666203065764 -0.011075061001459491 0 -0.039778475939571657 -0.011714389171731208 0 -0.038818876486394864 -0.010928830371340211 0 -0.039778475939571657 -0.011714389171731208 0 -0.038517936871729892 -0.012596383102800639 0 -0.039778475939571657 -0.011714389171731208 0 -0.039953580769044678 -0.013127624918350168 0 -0.038517936871729892 -0.012596383102800639 0 -0.039953580769044678 -0.013127624918350168 0 -0.040533306489531261 -0.014083794981761742 0 -0.039295003366246764 -0.01519083422470042 0 -0.039953580769044678 -0.013127624918350168 0 -0.038517936871729892 -0.012596383102800639 0 -0.039295003366246764 -0.01519083422470042 0 -0.040533306489531261 -0.014083794981761742 0 -0.040899286448502922 -0.013242140975776471 0 -0.04154213603118774 -0.013936223162201966 0 -0.040533306489531261 -0.014083794981761742 0 -0.040918023783544227 -0.014972404114971355 0 -0.04154213603118774 -0.013936223162201966 0 -0.040899286448502922 -0.013242140975776471 0 -0.041924321869010267 -0.012661285822987211 0 -0.04154213603118774 -0.013936223162201966 0 -0.039953580769044678 -0.013127624918350168 0 -0.040533306489531261 -0.014083794981761742 0 -0.040899286448502922 -0.013242140975776471 0 -0.040690926820227805 -0.01232329077485715 0 -0.039953580769044678 -0.013127624918350168 0 -0.040899286448502922 -0.013242140975776471 0 -0.036482528250070638 -0.012861554011706501 0 -0.037836694459223608 -0.014058585498471996 0 -0.035071142568034258 -0.011730059545706713 0 -0.037095543580183521 -0.011353920149175618 0 -0.036735608030073398 -0.013231588780076279 0 -0.037095543580183521 -0.011353920149175618 0 -0.038517936871729892 -0.012596383102800639 0 -0.036735608030073398 -0.013231588780076279 0 -0.038818876486394864 -0.010928830371340211 0 -0.037095543580183521 -0.011353920149175618 0 -0.038517936871729892 -0.012596383102800639 0 -0.038517936871729892 -0.012596383102800639 0 -0.036735608030073398 -0.013231588780076279 0 -0.039295003366246764 -0.01519083422470042 0 -0.037836694459223608 -0.014058585498471996 0 -0.039049215780211442 -0.014974183654022265 0 -0.037779825991710099 -0.015186283977877107 0 -0.038751642854410684 -0.014903706262116925 0 -0.038373548834275913 -0.015997506833725066 0 -0.038751642854410684 -0.014903706262116925 0 -0.038373548834275913 -0.015997506833725066 0 -0.039295003366246764 -0.01519083422470042 0 -0.038373548834275913 -0.015997506833725066 0 -0.03912184412337464 -0.016767079832301152 0 -0.039295003366246764 -0.01519083422470042 0 -0.037856722957851446 -0.017621364287775006 0 -0.038373548834275913 -0.015997506833725066 0 -0.03912184412337464 -0.016767079832301152 0 -0.040918023783544227 -0.014972404114971355 0 -0.04061160878993602 -0.01590933945719912 0 -0.041657871389815367 -0.01541341574831572 0 -0.040918023783544227 -0.014972404114971355 0 -0.041885284773160433 -0.014737963956275309 0 -0.04154213603118774 -0.013936223162201966 0 -0.040918023783544227 -0.014972404114971355 0 -0.041657871389815367 -0.01541341574831572 0 -0.041885284773160433 -0.014737963956275309 0 -0.039295003366246764 -0.01519083422470042 0 -0.039902521512219839 -0.016549863935197764 0 -0.04061160878993602 -0.01590933945719912 0 -0.040533306489531261 -0.014083794981761742 0 -0.040918023783544227 -0.014972404114971355 0 -0.039295003366246764 -0.01519083422470042 0 -0.040918023783544227 -0.014972404114971355 0 -0.039295003366246764 -0.01519083422470042 0 -0.04061160878993602 -0.01590933945719912 0 -0.03912184412337464 -0.016767079832301152 0 -0.039295003366246764 -0.01519083422470042 0 -0.039902521512219839 -0.016549863935197764 0 -0.040804901873578048 -0.016982027005036628 0 -0.039902521512219839 -0.016549863935197764 0 -0.04061160878993602 -0.01590933945719912 0 -0.040804901873578048 -0.016982027005036628 0 -0.04061160878993602 -0.01590933945719912 0 -0.041304084183846651 -0.016274564061043349 0 -0.04061160878993602 -0.01590933945719912 0 -0.041304084183846651 -0.016274564061043349 0 -0.041657871389815367 -0.01541341574831572 0 -0.040804901873578048 -0.016982027005036628 0 -0.041304084183846651 -0.016274564061043349 0 -0.04164142819270817 -0.016840076298282589 0 -0.04164142819270817 -0.016840076298282589 0 -0.042188484733808325 -0.016639440716383597 0 -0.041899493842401977 -0.0161449491783223 0 -0.041304084183846651 -0.016274564061043349 0 -0.04164142819270817 -0.016840076298282589 0 -0.041899493842401977 -0.0161449491783223 0 -0.042185108224926056 -0.0174349093483697 0 -0.042188484733808325 -0.016639440716383597 0 -0.042666714715295255 -0.016739453316163399 0 -0.042188484733808325 -0.016639440716383597 0 -0.042439142375118442 -0.016435894643094803 0 -0.042666714715295255 -0.016739453316163399 0 -0.042188484733808325 -0.016639440716383597 0 -0.042439142375118442 -0.016435894643094803 0 -0.042257086890217031 -0.016202344500865027 0 -0.042439142375118442 -0.016435894643094803 0 -0.042257086890217031 -0.016202344500865027 0 -0.042735763810220338 -0.016040194318310535 0 -0.042188484733808325 -0.016639440716383597 0 -0.042257086890217031 -0.016202344500865027 0 -0.041899493842401977 -0.0161449491783223 0 -0.042257086890217031 -0.016202344500865027 0 -0.041899493842401977 -0.0161449491783223 0 -0.042334738835090251 -0.015737314457551686 0 -0.042257086890217031 -0.016202344500865027 0 -0.042334738835090251 -0.015737314457551686 0 -0.042735763810220338 -0.016040194318310535 0 -0.041304084183846651 -0.016274564061043349 0 -0.041899493842401977 -0.0161449491783223 0 -0.041657871389815367 -0.01541341574831572 0 -0.042334738835090251 -0.015737314457551686 0 -0.041885284773160433 -0.014737963956275309 0 -0.042673063599420191 -0.014043962931697365 0 -0.041657871389815367 -0.01541341574831572 0 -0.042334738835090251 -0.015737314457551686 0 -0.041885284773160433 -0.014737963956275309 0 -0.040530246628353042 -0.015308810644613981 0 -0.040262594444875434 -0.013683248471016081 0 -0.041899493842401977 -0.0161449491783223 0 -0.041657871389815367 -0.01541341574831572 0 -0.042334738835090251 -0.015737314457551686 0 -0.042334738835090251 -0.015737314457551686 0 -0.042735763810220338 -0.016040194318310535 0 -0.042673063599420191 -0.014043962931697365 0 -0.038683994702006265 -0.014910852262664937 0 -0.037948857100365038 -0.012824720249022006 0 -0.040497676075423344 -0.014744302910313355 0 -0.040157841344530737 -0.01515368466985441 0 -0.039961771789590456 -0.013965103943204682 0 -0.038683994702006265 -0.014910852262664937 0 -0.034101789442812259 -0.015387226852326404 0 -0.038683994702006265 -0.014910852262664937 0 -0.040262594444875434 -0.013683248471016081 0 -0.038683994702006265 -0.014910852262664937 0 -0.040530246628353042 -0.015308810644613981 0 -0.038683994702006265 -0.014910852262664937 0 -0.037023205082264622 -0.015769092510969546 0 -0.042925484289935589 -0.015754939262803861 0 -0.042565139031389684 -0.016198469922074153 0 -0.042666714715295255 -0.016739453316163399 0 -0.042925484289935589 -0.015754939262803861 0 -0.042666714715295255 -0.016739453316163399 0 -0.043701179089211055 -0.016891936325918108 0 -0.040530246628353042 -0.015308810644613981 0 -0.041050957301326602 -0.016100765059305119 0 -0.042439142375118442 -0.016435894643094803 0 -0.042735763810220338 -0.016040194318310535 0 -0.042666714715295255 -0.016739453316163399 0 -0.032826052626544817 -0.015790249625959062 0 -0.031182962422432701 -0.01347762411254185 0 -0.030728740189917531 -0.015387435292082858 0 -0.031182962422432701 -0.01347762411254185 0 -0.029445254548909724 -0.014025740462283512 0 -0.030728740189917531 -0.015387435292082858 0 -0.028856098140950342 -0.014961193104446973 0 -0.028199627436542765 -0.015928022371425651 0 -0.028016043398810031 -0.0139756452442126 0 -0.029445254548909724 -0.014025740462283512 0 -0.029631254885449831 -0.015099408722597062 0 -0.028856098140950342 -0.014961193104446973 0 -0.029445254548909724 -0.014025740462283512 0 -0.029631254885449831 -0.015099408722597062 0 -0.030728740189917531 -0.015387435292082858 0 -0.029445254548909724 -0.014025740462283512 0 -0.028856098140950342 -0.014961193104446973 0 -0.028016043398810031 -0.0139756452442126 0 -0.028199627436542765 -0.015928022371425651 0 -0.028954179799457927 -0.016950714466180315 0 -0.02783494012559265 -0.017906800149897702 0 -0.028856098140950342 -0.014961193104446973 0 -0.028199627436542765 -0.015928022371425651 0 -0.029338456352560972 -0.015887884585401715 0 -0.029631254885449831 -0.015099408722597062 0 -0.029338456352560972 -0.015887884585401715 0 -0.030728740189917531 -0.015387435292082858 0 -0.029631254885449831 -0.015099408722597062 0 -0.028856098140950342 -0.014961193104446973 0 -0.029338456352560972 -0.015887884585401715 0 -0.029338456352560972 -0.015887884585401715 0 -0.028954179799457927 -0.016950714466180315 0 -0.030053326238444193 -0.016625826033741395 0 -0.028199627436542765 -0.015928022371425651 0 -0.029338456352560972 -0.015887884585401715 0 -0.028954179799457927 -0.016950714466180315 0 -0.032826052626544817 -0.015790249625959062 0 -0.030728740189917531 -0.015387435292082858 0 -0.031338871797141128 -0.016876090897966101 0 -0.036891966478799325 -0.013738857020729012 0 -0.036459469995072595 -0.014023180509243175 0 -0.036324554936290894 -0.014350546977955099 0 -0.029338456352560972 -0.015887884585401715 0 -0.030728740189917531 -0.015387435292082858 0 -0.030053326238444193 -0.016625826033741395 0 -0.030728740189917531 -0.015387435292082858 0 -0.030053326238444193 -0.016625826033741395 0 -0.031338871797141128 -0.016876090897966101 0 -0.034101789442812259 -0.015387226852326404 0 -0.033105854313786785 -0.013300113868803951 0 -0.030053326238444193 -0.016625826033741395 0 -0.031338871797141128 -0.016876090897966101 0 -0.029900891276956078 -0.018032905947383951 0 -0.036459469995072595 -0.014023180509243175 0 -0.036324554936290894 -0.014350546977955099 0 -0.036040552052111229 -0.014326623861864696 0 -0.037948857100365038 -0.012824720249022006 0 -0.033105854313786785 -0.013300113868803951 0 -0.028242079465772691 -0.01092448773812482 0 -0.027410403550993046 -0.010858938063407222 0 -0.027178161423993315 -0.011699314259631886 0 -0.033105854313786785 -0.013300113868803951 0 -0.027627158646558726 -0.013909156822205837 0 -0.036362840318148473 -0.012795512656827442 0 -0.037304104116675063 -0.012852435844167346 0 -0.038178293341283712 -0.010824651683350804 0 -0.028954179799457927 -0.016950714466180315 0 -0.029900891276956078 -0.018032905947383951 0 -0.02783494012559265 -0.017906800149897702 0 -0.028954179799457927 -0.016950714466180315 0 -0.030053326238444193 -0.016625826033741395 0 -0.029900891276956078 -0.018032905947383951 0 -0.039423598824276471 -0.011961088378331654 0 -0.039876817968179608 -0.011414357491998156 0 -0.039980178072560005 -0.011351135284408419 0 -0.033105854313786785 -0.013300113868803951 0 -0.033455463595894644 -0.011318232500285255 0 -0.037304104116675063 -0.012852435844167346 0 -0.038178293341283712 -0.010824651683350804 0 -0.039762179507334461 -0.010828864204733581 0 -0.037948857100365038 -0.012824720249022006 0 -0.039084786293061093 -0.011169170706462251 0 -0.039945335946983331 -0.011288489407137382 0 -0.039766492772538894 -0.011118382087695642 0 -0.039968626522962555 -0.011053391964128183 0 -0.039876817968179608 -0.011414357491998156 0 -0.039980178072560005 -0.011351135284408419 0 -0.040297127552131301 -0.010900326083641436 0 -0.039650056153113983 -0.011625964121974627 0 -0.03959938296659541 -0.011288302722379732 0 -0.039316424303954385 -0.01131026453588648 0 -0.039650056153113983 -0.011625964121974627 0 -0.039945335946983331 -0.011288489407137382 0 -0.03959938296659541 -0.011288302722379732 0 -0.037948857100365038 -0.012824720249022006 0 -0.039879921033713489 -0.011200513693548396 0 -0.039945335946983331 -0.011288489407137382 0 -0.03959938296659541 -0.011288302722379732 0 -0.039766492772538894 -0.011118382087695642 0 -0.03959938296659541 -0.011288302722379732 0 -0.039425446859676402 -0.010997642916230651 0 -0.039766492772538894 -0.011118382087695642 0 -0.03959938296659541 -0.011288302722379732 0 -0.039316424303954385 -0.01131026453588648 0 -0.039425446859676402 -0.010997642916230651 0 -0.040069725448449674 -0.01275504324253126 0 -0.040275048242629216 -0.010339921960096924 0 -0.039316424303954385 -0.01131026453588648 0 -0.03905474453285343 -0.011583669768049115 0 -0.038974034991742984 -0.011071110842522769 0 -0.041155336392807072 -0.011786781574469433 0 -0.041401121323575332 -0.010763243301792834 0 -0.040998863675156143 -0.01082346348957256 0 -0.041155336392807072 -0.011786781574469433 0 -0.041632079692340486 -0.012192645697609987 0 -0.041401121323575332 -0.010763243301792834 0 -0.041155336392807072 -0.011786781574469433 0 -0.041632079692340486 -0.012192645697609987 0 -0.041432791686322364 -0.01219446570668198 0 -0.040131122985354671 -0.012912965596446432 0 -0.039931896676854144 -0.012914816306050084 0 -0.040193949666363887 -0.013296441555085642 0 -0.040069725448449674 -0.01275504324253126 0 -0.040477426528747293 -0.012970540771204554 0 -0.041924321869010267 -0.012661285822987211 0 -0.042332128197735963 -0.013396136525714458 0 -0.04154213603118774 -0.013936223162201966 0 -0.040792329028286521 -0.012511100770979689 0 -0.040477426528747293 -0.012970540771204554 0 -0.042332128197735963 -0.013396136525714458 0 -0.04154213603118774 -0.013936223162201966 0 -0.042673063599420191 -0.014043962931697365 0 -0.041885284773160433 -0.014737963956275309 0 -0.04154213603118774 -0.013936223162201966 0 -0.042673063599420191 -0.014043962931697365 0 -0.040069725448449674 -0.01275504324253126 0 -0.040262594444875434 -0.013683248471016081 0 -0.040477426528747293 -0.012970540771204554 0 -0.040262594444875434 -0.013683248471016081 0 -0.039650056153113983 -0.011625964121974627 0 -0.039316424303954385 -0.01131026453588648 0 -0.03905474453285343 -0.011583669768049115 0 -0.037948857100365038 -0.012824720249022006 0 -0.040069725448449674 -0.01275504324253126 0 -0.038768490324743117 -0.013568658801892699 0 -0.039189875690477334 -0.013596514020814026 0 -0.039173491029476537 -0.013503380819534783 0 -0.039015268234927576 -0.013283070479495727 0 -0.038768490324743117 -0.013568658801892699 0 -0.039173491029476537 -0.013503380819534783 0 -0.0073147471900899775 -0.012066896255842062 0 -0.0073893299440702378 -0.011935377179749055 0 -0.007412064392284385 -0.011959204116944849 0 -0.0073147471900899775 -0.012066896255842062 0 -0.0074024151946951765 -0.012081046197063579 0 -0.0073893299440702378 -0.011935377179749055 0 -0.0074058958253176701 -0.012064986153948321 0 -0.0073147471900899775 -0.012066896255842062 0 -0.0071324156273481548 -0.012163045867137678 0 -0.0074058958253176701 -0.012064986153948321 0 -0.0073147471900899775 -0.012066896255842062 0 -0.0074523209091223756 -0.012086035472593121 0 -0.0073147471900899775 -0.012066896255842062 0 -0.0074523209091223756 -0.012086035472593121 0 -0.0074024151946951765 -0.012081046197063579 0 -0.0074523209091223756 -0.012086035472593121 0 -0.0075222366526140833 -0.012139622134150072 0 -0.0074024151946951765 -0.012081046197063579 0 -0.0074523209091223756 -0.012086035472593121 0 -0.0075370188225553697 -0.012071323417358023 0 -0.0075782977393034495 -0.01211340493741484 0 -0.0074523209091223756 -0.012086035472593121 0 -0.0075782977393034495 -0.01211340493741484 0 -0.0075222366526140833 -0.012139622134150072 0 -0.0074058958253176701 -0.012064986153948321 0 -0.0074523209091223756 -0.012086035472593121 0 -0.0075370188225553697 -0.012071323417358023 0 -0.021889629479261159 -0.014488898932251377 0 -0.018033779413608092 -0.014505667762625643 0 -0.0075370188225553697 -0.012071323417358023 0 -0.0076526900565269682 -0.012075077867404265 0 -0.0075782977393034495 -0.01211340493741484 0 -0.0075492590602867869 -0.012008574840386126 0 -0.0075370188225553697 -0.012071323417358023 0 -0.0076526900565269682 -0.012075077867404265 0 -0.028199627436542765 -0.015928022371425651 0 -0.028016043398810031 -0.0139756452442126 0 -0.026882552061897234 -0.015854183517466744 0 -0.018033779413608092 -0.014505667762625643 0 -0.017480757990664918 -0.013311842262130988 0 -0.028199627436542765 -0.015928022371425651 0 -0.026882552061897234 -0.015854183517466744 0 -0.02783494012559265 -0.017906800149897702 0 -0.026882552061897234 -0.015854183517466744 0 -0.02783494012559265 -0.017906800149897702 0 -0.025743102203569363 -0.017768321599219008 0 -0.027410403550993046 -0.010858938063407222 0 -0.027178161423993315 -0.011699314259631886 0 -0.026606355898249393 -0.010820969493070423 0 -0.027627158646558726 -0.013909156822205837 0 -0.017480757990664918 -0.013311842262130988 0 -0.027178161423993315 -0.011699314259631886 0 -0.026160427232557106 -0.011616892442412617 0 -0.026606355898249393 -0.010820969493070423 0 -0.0074594654029307055 -0.011848631784080119 0 -0.0075108310705316039 -0.011855859253494415 0 -0.0074392500470109773 -0.011865867325989637 0 -0.017211827031083152 -0.011811611291241567 0 -0.017480757990664918 -0.013311842262130988 0 -0.017480757990664918 -0.013311842262130988 0 -0.0072796924735391531 -0.012143307521521053 0 -0.0072796924735391531 -0.012143307521521053 0 -0.0074280025804826415 -0.012044619037769082 0 -0.0074594654029307055 -0.011848631784080119 0 -0.0074392500470109773 -0.011865867325989637 0 -0.0074290396739684411 -0.011841966973451397 0 -0.0074594654029307055 -0.011848631784080119 0 -0.0074290396739684411 -0.011841966973451397 0 -0.0074589743423855324 -0.011789419918913859 0 -0.0074290396739684411 -0.011841966973451397 0 -0.0074346908246867649 -0.011855332840590651 0 -0.0074505863675021012 -0.011794308570972781 0 -0.0074290396739684411 -0.011841966973451397 0 -0.0074578016061986998 -0.011792619824163597 0 -0.0074505863675021012 -0.011794308570972781 0 -0.0074290396739684411 -0.011841966973451397 0 -0.0073893299440702378 -0.011935377179749055 0 -0.0074346908246867649 -0.011855332840590651 0 -0.0074392500470109773 -0.011865867325989637 0 -0.0074290396739684411 -0.011841966973451397 0 -0.0073893299440702378 -0.011935377179749055 0 -0.0075115717735677722 -0.011684972101847772 0 -0.007509283278247356 -0.01173175090187588 0 -0.0074589743423855324 -0.011789419918913859 0 -0.0074898851338305863 -0.011744941137924526 0 -0.007509283278247356 -0.01173175090187588 0 -0.0075100827764247062 -0.011750658798831904 0 -0.0074898851338305863 -0.011744941137924526 0 -0.007509283278247356 -0.01173175090187588 0 -0.0074820317770323665 -0.011747695608169777 0 -0.0074898851338305863 -0.011744941137924526 0 -0.0074820317770323665 -0.011747695608169777 0 -0.0074697128082160417 -0.011749875307174355 0 -0.0075115717735677722 -0.011684972101847772 0 -0.007509283278247356 -0.01173175090187588 0 -0.0075821827054176642 -0.011633776125576152 0 -0.014815610674074189 -0.011464663401117174 0 -0.017385654635187087 -0.0091314918336699059 0 -0.007509283278247356 -0.01173175090187588 0 -0.0074778284912361027 -0.011767987312137643 0 -0.0074589743423855324 -0.011789419918913859 0 -0.007509283278247356 -0.01173175090187588 0 -0.0074820317770323665 -0.011747695608169777 0 -0.0074778284912361027 -0.011767987312137643 0 -0.0074820317770323665 -0.011747695608169777 0 -0.0074663740484856318 -0.011768948587300878 0 -0.0074778284912361027 -0.011767987312137643 0 -0.0074290396739684411 -0.011841966973451397 0 -0.0074578016061986998 -0.011792619824163597 0 -0.0074589743423855324 -0.011789419918913859 0 -0.0074663740484856318 -0.011768948587300878 0 -0.0074578016061986998 -0.011792619824163597 0 -0.0074778284912361027 -0.011767987312137643 0 -0.0074578016061986998 -0.011792619824163597 0 -0.0074778284912361027 -0.011767987312137643 0 -0.0074589743423855324 -0.011789419918913859 0 -0.0074663740484856318 -0.011768948587300878 0 -0.0074578016061986998 -0.011792619824163597 0 -0.0074505863675021012 -0.011794308570972781 0 -0.026160427232557106 -0.011616892442412617 0 -0.025743450982401772 -0.012330968806837074 0 -0.026205009293352108 -0.012373757119945157 0 -0.017211827031083152 -0.011811611291241567 0 -0.017099321217224132 -0.012801853374004321 0 -0.023162182167848298 -0.0086759412800054524 0 -0.034362213495968116 -0.0095647368274321843 0 -0.023162182167848298 -0.0086759412800054524 0 -0.017099321217224132 -0.012801853374004321 0 -0.025307390306716571 -0.012960415618638836 0 -0.025743450982401772 -0.012330968806837074 0 -0.026205009293352108 -0.012373757119945157 0 -0.042884607013498069 -0.0076264935030754093 0 -0.042200755204543465 -0.0078364708752244449 0 -0.041899700715293392 -0.0088779411146467542 0 -0.042200755204543465 -0.0078364708752244449 0 -0.041208512948094078 -0.007961095643206139 0 -0.042225679843469713 -0.0072897666656471499 0 -0.042080176447902476 -0.0077166526259547707 0 -0.041733156059047205 -0.0076861155488334547 0 -0.042066032930254155 -0.0073809147228141312 0 -0.041208512948094078 -0.007961095643206139 0 -0.041899700715293392 -0.0088779411146467542 0 -0.040909738482334729 -0.008836304220178743 0 -0.042200755204543465 -0.0078364708752244449 0 -0.041208512948094078 -0.007961095643206139 0 -0.041899700715293392 -0.0088779411146467542 0 -0.027178161423993315 -0.011699314259631886 0 -0.026160427232557106 -0.011616892442412617 0 -0.026205009293352108 -0.012373757119945157 0 -0.039762179507334461 -0.010828864204733581 0 -0.041899700715293392 -0.0088779411146467542 0 -0.040909738482334729 -0.008836304220178743 0 -0.033455463595894644 -0.011318232500285255 0 -0.034362213495968116 -0.0095647368274321843 0 -0.040709790437043432 -0.0092593716191213798 0 -0.040766165804798374 -0.0093469371488049246 0 -0.038178293341283712 -0.010824651683350804 0 -0.039762179507334461 -0.010828864204733581 0 -0.039921754841507728 -0.0089750539428698432 0 -0.039762179507334461 -0.010828864204733581 0 -0.040909738482334729 -0.008836304220178743 0 -0.039921754841507728 -0.0089750539428698432 0 -0.039980178072560005 -0.011351135284408419 0 -0.04047286617766685 -0.010779115321095602 0 -0.040297127552131301 -0.010900326083641436 0 -0.039084786293061093 -0.011169170706462251 0 -0.040766165804798374 -0.0093469371488049246 0 -0.0417501492056329 -0.008155635993686676 0 -0.041733156059047205 -0.0076861155488334547 0 -0.04142236768080728 -0.0079160436019712725 0 -0.042080176447902476 -0.0077166526259547707 0 -0.0417501492056329 -0.008155635993686676 0 -0.041733156059047205 -0.0076861155488334547 0 -0.04167576388967302 -0.0079695746643144577 0 -0.040766165804798374 -0.0093469371488049246 0 -0.041208512948094078 -0.007961095643206139 0 -0.040909738482334729 -0.008836304220178743 0 -0.040152397393080713 -0.008941714732782555 0 -0.041801269318323564 -0.007196248832317842 0 -0.041397297969967536 -0.0075211787135636386 0 -0.041407743055728495 -0.0067922225353759125 0 -0.041733156059047205 -0.0076861155488334547 0 -0.041801269318323564 -0.007196248832317842 0 -0.041397297969967536 -0.0075211787135636386 0 -0.041733156059047205 -0.0076861155488334547 0 -0.041801269318323564 -0.007196248832317842 0 -0.042066032930254155 -0.0073809147228141312 0 -0.041801269318323564 -0.007196248832317842 0 -0.041871917037022685 -0.0066267532147384076 0 -0.041407743055728495 -0.0067922225353759125 0 -0.041871917037022685 -0.0066267532147384076 0 -0.041407743055728495 -0.0067922225353759125 0 -0.041585462654834746 -0.0059078196894318778 0 -0.041871917037022685 -0.0066267532147384076 0 -0.042306975806811614 -0.0069409435793873807 0 -0.042234917252293641 -0.0059173946979732359 0 -0.041801269318323564 -0.007196248832317842 0 -0.041871917037022685 -0.0066267532147384076 0 -0.042306975806811614 -0.0069409435793873807 0 -0.042306975806811614 -0.0069409435793873807 0 -0.042066032930254155 -0.0073809147228141312 0 -0.042225679843469713 -0.0072897666656471499 0 -0.041801269318323564 -0.007196248832317842 0 -0.042306975806811614 -0.0069409435793873807 0 -0.042066032930254155 -0.0073809147228141312 0 -0.042080176447902476 -0.0077166526259547707 0 -0.042066032930254155 -0.0073809147228141312 0 -0.042225679843469713 -0.0072897666656471499 0 -0.04167576388967302 -0.0079695746643144577 0 -0.042014125721427174 -0.0075446848832814179 0 -0.042884607013498069 -0.0076264935030754093 0 -0.042200755204543465 -0.0078364708752244449 0 -0.042505167248922254 -0.007347237230356584 0 -0.042200755204543465 -0.0078364708752244449 0 -0.042225679843469713 -0.0072897666656471499 0 -0.042505167248922254 -0.007347237230356584 0 -0.042884607013498069 -0.0076264935030754093 0 -0.042505167248922254 -0.007347237230356584 0 -0.042740743941984273 -0.0072391678098040028 0 -0.042505167248922254 -0.007347237230356584 0 -0.042582997517986325 -0.007020996970821103 0 -0.042740743941984273 -0.0072391678098040028 0 -0.042505167248922254 -0.007347237230356584 0 -0.042405017481051237 -0.0070583574908019697 0 -0.042582997517986325 -0.007020996970821103 0 -0.042225679843469713 -0.0072897666656471499 0 -0.042505167248922254 -0.007347237230356584 0 -0.042405017481051237 -0.0070583574908019697 0 -0.042306975806811614 -0.0069409435793873807 0 -0.042225679843469713 -0.0072897666656471499 0 -0.042405017481051237 -0.0070583574908019697 0 -0.042306975806811614 -0.0069409435793873807 0 -0.042405017481051237 -0.0070583574908019697 0 -0.042509954476310272 -0.0068439169110467764 0 -0.042378706548407495 -0.0067322831761944249 0 -0.042632081596034835 -0.00611261077705684 0 -0.042306975806811614 -0.0069409435793873807 0 -0.042509954476310272 -0.0068439169110467764 0 -0.042460116089392867 -0.0065373436496883016 0 -0.042509954476310272 -0.0068439169110467764 0 -0.042664520948945225 -0.0068686183189536855 0 -0.042656657731201544 -0.0067072240914396288 0 -0.042509954476310272 -0.0068439169110467764 0 -0.042656657731201544 -0.0067072240914396288 0 -0.042460116089392867 -0.0065373436496883016 0 -0.042509954476310272 -0.0068439169110467764 0 -0.042582997517986325 -0.007020996970821103 0 -0.042664520948945225 -0.0068686183189536855 0 -0.042405017481051237 -0.0070583574908019697 0 -0.042509954476310272 -0.0068439169110467764 0 -0.042582997517986325 -0.007020996970821103 0 -0.042582997517986325 -0.007020996970821103 0 -0.042771847904534602 -0.0069876153028390776 0 -0.042664520948945225 -0.0068686183189536855 0 -0.042771847904534602 -0.0069876153028390776 0 -0.042664520948945225 -0.0068686183189536855 0 -0.042792789553816706 -0.0067999768617571172 0 -0.042656657731201544 -0.0067072240914396288 0 -0.042792789553816706 -0.0067999768617571172 0 -0.042732437247898533 -0.0065486381665146014 0 -0.042664520948945225 -0.0068686183189536855 0 -0.042656657731201544 -0.0067072240914396288 0 -0.042792789553816706 -0.0067999768617571172 0 -0.042792789553816706 -0.0067999768617571172 0 -0.042852057278419363 -0.006828738874863927 0 -0.042732437247898533 -0.0065486381665146014 0 -0.030151351377723529 -0.0036400021525124439 0 -0.028044843126639362 -0.0028919048416150262 0 -0.024264762930317953 0.0017854830310987428 0 -0.022688893011135955 -0.0056148501424965616 0 -0.02642192530627312 0.00094438809503019823 0 -0.028044843126639362 -0.0028919048416150262 0 -0.022955623286866605 -0.0048941398609315774 0 -0.028044843126639362 -0.0028919048416150262 0 -0.019889804272609009 -0.00027127526773861835 0 -0.022955623286866605 -0.0048941398609315774 0 -0.019889804272609009 -0.00027127526773861835 0 -0.042771847904534602 -0.0069876153028390776 0 -0.042884648445170571 -0.006832977803925876 0 -0.042908488904068336 -0.0071966580137701524 0 -0.042771847904534602 -0.0069876153028390776 0 -0.042792789553816706 -0.0067999768617571172 0 -0.042884648445170571 -0.006832977803925876 0 -0.016702279634440757 -0.0040448136541861215 0 -0.016648752094191852 -0.0043339977117580024 0 -0.017318993810627185 -0.0037274026653237582 0 -0.042582997517986325 -0.007020996970821103 0 -0.042771847904534602 -0.0069876153028390776 0 -0.042740743941984273 -0.0072391678098040028 0 -0.042771847904534602 -0.0069876153028390776 0 -0.042908488904068336 -0.0071966580137701524 0 -0.042740743941984273 -0.0072391678098040028 0 -0.021190839315743559 -0.0094936125068231219 0 -0.022669597343574554 -0.0068339491725654495 0 -0.022316599059432448 -0.0085653566426751506 0 -0.042884607013498069 -0.0076264935030754093 0 -0.042908488904068336 -0.0071966580137701524 0 -0.042740743941984273 -0.0072391678098040028 0 -0.023162182167848298 -0.0086759412800054524 0 -0.022955623286866605 -0.0048941398609315774 0 -0.023162182167848298 -0.0086759412800054524 0 -0.017385654635187087 -0.0091314918336699059 0 -0.0074898851338305863 -0.011744941137924526 0 -0.0075100827764247062 -0.011750658798831904 0 -0.0074760094883117578 -0.011752907124240125 0 -0.022955623286866605 -0.0048941398609315774 0 -0.017385654635187087 -0.0091314918336699059 0 -0.040673053600682026 -0.0084020052912746508 0 -0.040794389120203341 -0.007926016633804555 0 -0.040607255769610974 -0.0080347358747869541 0 -0.040673053600682026 -0.0084020052912746508 0 -0.040794389120203341 -0.007926016633804555 0 -0.040781151260799675 -0.008438217994151162 0 -0.040673053600682026 -0.0084020052912746508 0 -0.04070778813036597 -0.0086491018597841772 0 -0.040607255769610974 -0.0080347358747869541 0 -0.040176135970264024 -0.0084324430771183408 0 -0.04070778813036597 -0.0086491018597841772 0 -0.040607255769610974 -0.0080347358747869541 0 -0.040673053600682026 -0.0084020052912746508 0 -0.04070778813036597 -0.0086491018597841772 0 -0.040677897367181325 -0.0084198277411456617 0 -0.040504426185380547 -0.0090268585846167704 0 -0.040275048242629216 -0.010339921960096924 0 -0.04070778813036597 -0.0086491018597841772 0 -0.041620522465030084 -0.010704775624359952 0 -0.040998863675156143 -0.01082346348957256 0 -0.040275048242629216 -0.010339921960096924 0 -0.040558416759042704 -0.010358282052948068 0 -0.040275048242629216 -0.010339921960096924 0 -0.040113664924207697 -0.0098117838433312548 0 -0.039316424303954385 -0.01131026453588648 0 -0.038974034991742984 -0.011071110842522769 0 -0.039425446859676402 -0.010997642916230651 0 -0.040673053600682026 -0.0084020052912746508 0 -0.040677897367181325 -0.0084198277411456617 0 -0.040781151260799675 -0.008438217994151162 0 -0.040781151260799675 -0.008438217994151162 0 -0.041205580548011711 -0.0082781739701824029 0 -0.041075257523284815 -0.0079154543572905797 0 -0.040113664924207697 -0.0098117838433312548 0 -0.040575601286741529 -0.0095785709213326679 0 -0.039425446859676402 -0.010997642916230651 0 -0.039766492772538894 -0.011118382087695642 0 -0.03988749228531905 -0.010901592253339474 0 -0.040766165804798374 -0.0093469371488049246 0 -0.040575601286741529 -0.0095785709213326679 0 -0.04047286617766685 -0.010779115321095602 0 -0.040297127552131301 -0.010900326083641436 0 -0.03988749228531905 -0.010901592253339474 0 -0.0417501492056329 -0.008155635993686676 0 -0.041205580548011711 -0.0082781739701824029 0 -0.04142236768080728 -0.0079160436019712725 0 -0.039945335946983331 -0.011288489407137382 0 -0.040297127552131301 -0.010900326083641436 0 -0.039968626522962555 -0.011053391964128183 0 -0.040297127552131301 -0.010900326083641436 0 -0.039968626522962555 -0.011053391964128183 0 -0.03988749228531905 -0.010901592253339474 0 -0.039879921033713489 -0.011200513693548396 0 -0.040150253917900683 -0.010994485397351539 0 -0.039766492772538894 -0.011118382087695642 0 -0.039968626522962555 -0.011053391964128183 0 -0.03988749228531905 -0.010901592253339474 0 -0.041205580548011711 -0.0082781739701824029 0 -0.04142236768080728 -0.0079160436019712725 0 -0.041075257523284815 -0.0079154543572905797 0 -0.04142236768080728 -0.0079160436019712725 0 -0.041075257523284815 -0.0079154543572905797 0 -0.041397297969967536 -0.0075211787135636386 0 -0.041733156059047205 -0.0076861155488334547 0 -0.04142236768080728 -0.0079160436019712725 0 -0.041397297969967536 -0.0075211787135636386 0 -0.040794389120203341 -0.007926016633804555 0 -0.040781151260799675 -0.008438217994151162 0 -0.041075257523284815 -0.0079154543572905797 0 -0.040794389120203341 -0.007926016633804555 0 -0.041075257523284815 -0.0079154543572905797 0 -0.040969202950342259 -0.0073823466080963178 0 -0.040969202950342259 -0.0073823466080963178 0 -0.041397297969967536 -0.0075211787135636386 0 -0.041407743055728495 -0.0067922225353759125 0 -0.041075257523284815 -0.0079154543572905797 0 -0.040969202950342259 -0.0073823466080963178 0 -0.041397297969967536 -0.0075211787135636386 0 -0.040969202950342259 -0.0073823466080963178 0 -0.041407743055728495 -0.0067922225353759125 0 -0.04070237818004116 -0.0067076843708561472 0 -0.040969202950342259 -0.0073823466080963178 0 -0.04070237818004116 -0.0067076843708561472 0 -0.040663057011609875 -0.0073185943148255661 0 -0.04070237818004116 -0.0067076843708561472 0 -0.040663057011609875 -0.0073185943148255661 0 -0.040536599164358089 -0.0066808139674323754 0 -0.040794389120203341 -0.007926016633804555 0 -0.040663057011609875 -0.0073185943148255661 0 -0.040607255769610974 -0.0080347358747869541 0 -0.040794389120203341 -0.007926016633804555 0 -0.040969202950342259 -0.0073823466080963178 0 -0.040663057011609875 -0.0073185943148255661 0 -0.040663057011609875 -0.0073185943148255661 0 -0.040607255769610974 -0.0080347358747869541 0 -0.040179493663680212 -0.0073934402173126239 0 -0.040176135970264024 -0.0084324430771183408 0 -0.040607255769610974 -0.0080347358747869541 0 -0.040179493663680212 -0.0073934402173126239 0 -0.039729379282274428 -0.0067541494568561355 0 -0.040179493663680212 -0.0073934402173126239 0 -0.040536599164358089 -0.0066808139674323754 0 -0.040663057011609875 -0.0073185943148255661 0 -0.040179493663680212 -0.0073934402173126239 0 -0.040536599164358089 -0.0066808139674323754 0 -0.039943819465335977 -0.0064360724284741209 0 -0.038857409520119714 -0.0060084907899722777 0 -0.039351177400588404 -0.0062790342924088681 0 -0.03912576405160139 -0.0056745626402941148 0 -0.038274322896057131 -0.0059220530358806258 0 -0.039729379282274428 -0.0067541494568561355 0 -0.040536599164358089 -0.0066808139674323754 0 -0.039707581513261606 -0.0061319789973345471 0 -0.03912576405160139 -0.0056745626402941148 0 -0.039579225279272393 -0.0050549527926089426 0 -0.038367988009376436 -0.0053574487603953074 0 -0.039691823780164157 -0.0045964043424908648 0 -0.038629824993100643 -0.0049561317632534898 0 -0.039775873281875054 -0.0041122420443225737 0 -0.038985907518534584 -0.0042898713654574566 0 -0.03911678047418541 -0.0037441880492374174 0 -0.039579225279272393 -0.0050549527926089426 0 -0.040102497311497745 -0.0057047155944487107 0 -0.040653189193105205 -0.0047287702192332854 0 -0.03912576405160139 -0.0056745626402941148 0 -0.039579225279272393 -0.0050549527926089426 0 -0.040102497311497745 -0.0057047155944487107 0 -0.039351177400588404 -0.0062790342924088681 0 -0.03912576405160139 -0.0056745626402941148 0 -0.040102497311497745 -0.0057047155944487107 0 -0.04070237818004116 -0.0067076843708561472 0 -0.039351177400588404 -0.0062790342924088681 0 -0.040102497311497745 -0.0057047155944487107 0 -0.040554434959769022 -0.0066474327698877169 0 -0.039943819465335977 -0.0064360724284741209 0 -0.04070237818004116 -0.0067076843708561472 0 -0.040102497311497745 -0.0057047155944487107 0 -0.040957257273508088 -0.0057684553303616473 0 -0.041407743055728495 -0.0067922225353759125 0 -0.04070237818004116 -0.0067076843708561472 0 -0.040957257273508088 -0.0057684553303616473 0 -0.041407743055728495 -0.0067922225353759125 0 -0.040957257273508088 -0.0057684553303616473 0 -0.041585462654834746 -0.0059078196894318778 0 -0.040957257273508088 -0.0057684553303616473 0 -0.041327914702509232 -0.0051474119255489918 0 -0.041585462654834746 -0.0059078196894318778 0 -0.040957257273508088 -0.0057684553303616473 0 -0.041327914702509232 -0.0051474119255489918 0 -0.040653189193105205 -0.0047287702192332854 0 -0.040102497311497745 -0.0057047155944487107 0 -0.040957257273508088 -0.0057684553303616473 0 -0.040653189193105205 -0.0047287702192332854 0 -0.039691823780164157 -0.0045964043424908648 0 -0.04071690352218036 -0.0043361998329758409 0 -0.039775873281875054 -0.0041122420443225737 0 -0.04066624847330063 -0.0040001613159598151 0 -0.040454275684824875 -0.0032829552938845605 0 -0.04071690352218036 -0.0043361998329758409 0 -0.041499501667779042 -0.0041268747510116591 0 -0.04066624847330063 -0.0040001613159598151 0 -0.040454275684824875 -0.0032829552938845605 0 -0.041604298186248126 -0.0040658925218212856 0 -0.041327914702509232 -0.0051474119255489918 0 -0.040653189193105205 -0.0047287702192332854 0 -0.041604298186248126 -0.0040658925218212856 0 -0.040454275684824875 -0.0032829552938845605 0 -0.041604298186248126 -0.0040658925218212856 0 -0.040970494702413957 -0.0027314997897588053 0 -0.040454275684824875 -0.0032829552938845605 0 -0.039663053150832711 -0.0033938553246577684 0 -0.0398442630202549 -0.0028215861144367783 0 -0.039663053150832711 -0.0033938553246577684 0 -0.0398442630202549 -0.0028215861144367783 0 -0.039182865585335402 -0.0029891264118090872 0 -0.039663053150832711 -0.0033938553246577684 0 -0.039182865585335402 -0.0029891264118090872 0 -0.03911678047418541 -0.0037441880492374174 0 -0.039775873281875054 -0.0041122420443225737 0 -0.039663053150832711 -0.0033938553246577684 0 -0.03911678047418541 -0.0037441880492374174 0 -0.039775873281875054 -0.0041122420443225737 0 -0.040454275684824875 -0.0032829552938845605 0 -0.039663053150832711 -0.0033938553246577684 0 -0.042377409603557209 -0.004594405121842767 0 -0.042632081596034835 -0.00611261077705684 0 -0.042674596107701072 -0.0060611090374405414 0 -0.042732437247898533 -0.0065486381665146014 0 -0.042911878626907617 -0.006341605042124626 0 -0.042852057278419363 -0.006828738874863927 0 -0.042732437247898533 -0.0065486381665146014 0 -0.042911878626907617 -0.006341605042124626 0 -0.042674596107701072 -0.0060611090374405414 0 -0.042732437247898533 -0.0065486381665146014 0 -0.042460116089392867 -0.0065373436496883016 0 -0.028044843126639362 -0.0028919048416150262 0 -0.033370218668951505 -0.0026573451500651393 0 -0.042656657731201544 -0.0067072240914396288 0 -0.042732437247898533 -0.0065486381665146014 0 -0.042460116089392867 -0.0065373436496883016 0 -0.043726052906920061 -0.0047185522655212751 0 -0.043146909248774533 -0.0058477647030604164 0 -0.04311624103055809 -0.0043737148338398556 0 -0.043146909248774533 -0.0058477647030604164 0 -0.042545841770064576 -0.0047327451778580226 0 -0.04311624103055809 -0.0043737148338398556 0 -0.042545841770064576 -0.0047327451778580226 0 -0.041919916282742879 -0.0051785887662113448 0 -0.041604298186248126 -0.0040658925218212856 0 -0.042545841770064576 -0.0047327451778580226 0 -0.042234917252293641 -0.0059173946979732359 0 -0.041919916282742879 -0.0051785887662113448 0 -0.042306975806811614 -0.0069409435793873807 0 -0.043146909248774533 -0.0058477647030604164 0 -0.042234917252293641 -0.0059173946979732359 0 -0.043146909248774533 -0.0058477647030604164 0 -0.042545841770064576 -0.0047327451778580226 0 -0.042234917252293641 -0.0059173946979732359 0 -0.042234917252293641 -0.0059173946979732359 0 -0.041585462654834746 -0.0059078196894318778 0 -0.041919916282742879 -0.0051785887662113448 0 -0.041871917037022685 -0.0066267532147384076 0 -0.042234917252293641 -0.0059173946979732359 0 -0.041585462654834746 -0.0059078196894318778 0 -0.041327914702509232 -0.0051474119255489918 0 -0.041919916282742879 -0.0051785887662113448 0 -0.041604298186248126 -0.0040658925218212856 0 -0.041327914702509232 -0.0051474119255489918 0 -0.041585462654834746 -0.0059078196894318778 0 -0.041919916282742879 -0.0051785887662113448 0 -0.041604298186248126 -0.0040658925218212856 0 -0.041786638465144625 -0.003054024947288893 0 -0.042335062043758004 -0.0037002266398965728 0 -0.041604298186248126 -0.0040658925218212856 0 -0.041786638465144625 -0.003054024947288893 0 -0.040970494702413957 -0.0027314997897588053 0 -0.041786638465144625 -0.003054024947288893 0 -0.042335062043758004 -0.0037002266398965728 0 -0.042295901977287824 -0.0025801607678293428 0 -0.042335062043758004 -0.0037002266398965728 0 -0.042928871723854518 -0.0034027964502233122 0 -0.042295901977287824 -0.0025801607678293428 0 -0.042545841770064576 -0.0047327451778580226 0 -0.041604298186248126 -0.0040658925218212856 0 -0.042335062043758004 -0.0037002266398965728 0 -0.042545841770064576 -0.0047327451778580226 0 -0.042335062043758004 -0.0037002266398965728 0 -0.04311624103055809 -0.0043737148338398556 0 -0.042335062043758004 -0.0037002266398965728 0 -0.04311624103055809 -0.0043737148338398556 0 -0.042928871723854518 -0.0034027964502233122 0 -0.04311624103055809 -0.0043737148338398556 0 -0.042928871723854518 -0.0034027964502233122 0 -0.043513608096688007 -0.0038618163303446762 0 -0.042928871723854518 -0.0034027964502233122 0 -0.043499071890223291 -0.0031344863190935603 0 -0.042952321805941836 -0.0025136309867703332 0 -0.042928871723854518 -0.0034027964502233122 0 -0.043499071890223291 -0.0031344863190935603 0 -0.043513608096688007 -0.0038618163303446762 0 -0.043499071890223291 -0.0031344863190935603 0 -0.043513608096688007 -0.0038618163303446762 0 -0.044263462894630505 -0.0036809286302606319 0 -0.043499071890223291 -0.0031344863190935603 0 -0.04396335362892901 -0.0026176280889149092 0 -0.044263462894630505 -0.0036809286302606319 0 -0.043726052906920061 -0.0047185522655212751 0 -0.043513608096688007 -0.0038618163303446762 0 -0.044263462894630505 -0.0036809286302606319 0 -0.043726052906920061 -0.0047185522655212751 0 -0.04311624103055809 -0.0043737148338398556 0 -0.043513608096688007 -0.0038618163303446762 0 -0.042377409603557209 -0.004594405121842767 0 -0.035587465387829385 -0.0014096513490175044 0 -0.032716689694748863 0.0037486105127211081 0 -0.030689715133746163 0.0021050423481842832 0 -0.040025435931438688 0.0021266344677136652 0 -0.036837779344234371 0.00090502776812213435 0 -0.0378434193877265 0.0060337463893386425 0 -0.037757849635201512 0.0060947205945055191 0 -0.037670341998817462 0.0062002691839345789 0 -0.032945714465947705 0.0028778038989546997 0 -0.032702084844967075 0.0041541744533074906 0 -0.033210378417765855 0.0021551806746630243 0 -0.043181994880503997 -0.0012270962412667188 0 -0.043304251372405886 -0.0021195653017098371 0 -0.04396335362892901 -0.0026176280889149092 0 -0.0378434193877265 0.0060337463893386425 0 -0.037757849635201512 0.0060947205945055191 0 -0.037822430840188583 0.0058491179347936514 0 -0.034834247574846468 0.004251113131150481 0 -0.032716689694748863 0.0037486105127211081 0 -0.043181994880503997 -0.0012270962412667188 0 -0.04280045498493306 -0.0015165878876853731 0 -0.04196679946133236 -0.00026967870695135735 0 -0.04280045498493306 -0.0015165878876853731 0 -0.043304251372405886 -0.0021195653017098371 0 -0.042900556690877112 -0.0020304849760808394 0 -0.043181994880503997 -0.0012270962412667188 0 -0.04280045498493306 -0.0015165878876853731 0 -0.043304251372405886 -0.0021195653017098371 0 -0.043416320971740321 -0.0025967547943903601 0 -0.043304251372405886 -0.0021195653017098371 0 -0.04396335362892901 -0.0026176280889149092 0 -0.034834247574846468 0.004251113131150481 0 -0.036837779344234371 0.00090502776812213435 0 -0.043499071890223291 -0.0031344863190935603 0 -0.043416320971740321 -0.0025967547943903601 0 -0.04396335362892901 -0.0026176280889149092 0 -0.043499071890223291 -0.0031344863190935603 0 -0.043416320971740321 -0.0025967547943903601 0 -0.042952321805941836 -0.0025136309867703332 0 -0.043416320971740321 -0.0025967547943903601 0 -0.043304251372405886 -0.0021195653017098371 0 -0.042952321805941836 -0.0025136309867703332 0 -0.043304251372405886 -0.0021195653017098371 0 -0.042952321805941836 -0.0025136309867703332 0 -0.042900556690877112 -0.0020304849760808394 0 -0.042952321805941836 -0.0025136309867703332 0 -0.042599703160788746 -0.0019933704929665681 0 -0.042900556690877112 -0.0020304849760808394 0 -0.042952321805941836 -0.0025136309867703332 0 -0.042599703160788746 -0.0019933704929665681 0 -0.042295901977287824 -0.0025801607678293428 0 -0.042928871723854518 -0.0034027964502233122 0 -0.042952321805941836 -0.0025136309867703332 0 -0.042295901977287824 -0.0025801607678293428 0 -0.04259790652459975 -0.0013905283965085047 0 -0.041346314494610174 -0.0011158122978349174 0 -0.04280045498493306 -0.0015165878876853731 0 -0.040090105106779343 -0.00053073658873925534 0 -0.04196679946133236 -0.00026967870695135735 0 -0.04280045498493306 -0.0015165878876853731 0 -0.042599703160788746 -0.0019933704929665681 0 -0.042230334208521569 -0.0017000729985364245 0 -0.04280045498493306 -0.0015165878876853731 0 -0.042599703160788746 -0.0019933704929665681 0 -0.042900556690877112 -0.0020304849760808394 0 -0.042599703160788746 -0.0019933704929665681 0 -0.042230334208521569 -0.0017000729985364245 0 -0.042295901977287824 -0.0025801607678293428 0 -0.042230334208521569 -0.0017000729985364245 0 -0.042295901977287824 -0.0025801607678293428 0 -0.041704919660947776 -0.0022835155299382463 0 -0.041786638465144625 -0.003054024947288893 0 -0.041704919660947776 -0.0022835155299382463 0 -0.040970494702413957 -0.0027314997897588053 0 -0.041786638465144625 -0.003054024947288893 0 -0.042295901977287824 -0.0025801607678293428 0 -0.041704919660947776 -0.0022835155299382463 0 -0.042230334208521569 -0.0017000729985364245 0 -0.041704919660947776 -0.0022835155299382463 0 -0.041273545397217545 -0.0014028893969080345 0 -0.041346314494610174 -0.0011158122978349174 0 -0.040465379937257913 -0.00082614367520036718 0 -0.040090105106779343 -0.00053073658873925534 0 -0.03990529383098583 0.00023658947204203179 0 -0.039803135200350052 -7.0772118741301804e-05 0 -0.03990529383098583 0.00023658947204203179 0 -0.03979895803355861 0.00051480804516140701 0 -0.039803135200350052 -7.0772118741301804e-05 0 -0.03990529383098583 0.00023658947204203179 0 -0.03979895803355861 0.00051480804516140701 0 -0.039951120281599965 0.0009227675655340469 0 -0.03979895803355861 0.00051480804516140701 0 -0.039951120281599965 0.0009227675655340469 0 -0.039784313092785364 0.0011272971586901021 0 -0.03990529383098583 0.00023658947204203179 0 -0.039951120281599965 0.0009227675655340469 0 -0.040636364566701173 0.00047397657694703662 0 -0.039951120281599965 0.0009227675655340469 0 -0.040262982212432678 0.0014524768329822776 0 -0.039715531016536305 0.0017257115661828539 0 -0.039951120281599965 0.0009227675655340469 0 -0.040636364566701173 0.00047397657694703662 0 -0.040262982212432678 0.0014524768329822776 0 -0.040090105106779343 -0.00053073658873925534 0 -0.03990529383098583 0.00023658947204203179 0 -0.040636364566701173 0.00047397657694703662 0 -0.040090105106779343 -0.00053073658873925534 0 -0.04196679946133236 -0.00026967870695135735 0 -0.040636364566701173 0.00047397657694703662 0 -0.04196679946133236 -0.00026967870695135735 0 -0.041292774221293675 0.00052705164666697101 0 -0.041753883131629373 0.00093853961053031658 0 -0.04196679946133236 -0.00026967870695135735 0 -0.041292774221293675 0.00052705164666697101 0 -0.040636364566701173 0.00047397657694703662 0 -0.040636364566701173 0.00047397657694703662 0 -0.040966851789991029 0.00084190646945511509 0 -0.040262982212432678 0.0014524768329822776 0 -0.040001414020728765 0.0028672071579199615 0 -0.039848815221395877 0.0025914875700955311 0 -0.040262982212432678 0.0014524768329822776 0 -0.041753883131629373 0.00093853961053031658 0 -0.039513907150557949 0.0025189101032476193 0 -0.041292774221293675 0.00052705164666697101 0 -0.040636364566701173 0.00047397657694703662 0 -0.040966851789991029 0.00084190646945511509 0 -0.040966851789991029 0.00084190646945511509 0 -0.040262982212432678 0.0014524768329822776 0 -0.041753883131629373 0.00093853961053031658 0 -0.041292774221293675 0.00052705164666697101 0 -0.040966851789991029 0.00084190646945511509 0 -0.041753883131629373 0.00093853961053031658 0 -0.037668943166208786 0.0065493232710176529 0 -0.03742144324483631 0.0054163638871803088 0 -0.038164002862280763 0.0036345007276741064 0 -0.038414992856019674 0.0054299266060744353 0 -0.037933734156746599 0.0054568717245825869 0 -0.038164002862280763 0.0036345007276741064 0 -0.033272705234386295 0.0036827275469358844 0 -0.036032134405466001 0.003863403646875551 0 -0.037149925533718299 0.004862343824406045 0 -0.03742144324483631 0.0054163638871803088 0 -0.038164002862280763 0.0036345007276741064 0 -0.036914105736705213 0.0057662663827122941 0 -0.03643031679810281 0.0062795719751232281 0 -0.03639445495657595 0.0052600356202100566 0 -0.037149925533718299 0.004862343824406045 0 -0.036914105736705213 0.0057662663827122941 0 -0.03639445495657595 0.0052600356202100566 0 -0.037149925533718299 0.004862343824406045 0 -0.03742144324483631 0.0054163638871803088 0 -0.036914105736705213 0.0057662663827122941 0 -0.03742144324483631 0.0054163638871803088 0 -0.036914105736705213 0.0057662663827122941 0 -0.037147943331402429 0.0060723941225937113 0 -0.036914105736705213 0.0057662663827122941 0 -0.037147943331402429 0.0060723941225937113 0 -0.03643031679810281 0.0062795719751232281 0 -0.037668943166208786 0.0065493232710176529 0 -0.037147943331402429 0.0060723941225937113 0 -0.03643031679810281 0.0062795719751232281 0 -0.037668943166208786 0.0065493232710176529 0 -0.03742144324483631 0.0054163638871803088 0 -0.037147943331402429 0.0060723941225937113 0 -0.033272705234386295 0.0036827275469358844 0 -0.032716689694748863 0.0037486105127211081 0 -0.0378434193877265 0.0060337463893386425 0 -0.038414992856019674 0.0054299266060744353 0 -0.037822430840188583 0.0058491179347936514 0 -0.026987742547423595 0.0016806108286693587 0 -0.026965413117516292 0.0016690932164882529 0 -0.02696990221466164 0.0016679143997581011 0 -0.043181994880503997 -0.0012270962412667188 0 -0.04196679946133236 -0.00026967870695135735 0 -0.041753883131629373 0.00093853961053031658 0 -0.040025435931438688 0.0021266344677136652 0 -0.040001414020728765 0.0028672071579199615 0 -0.038414992856019674 0.0054299266060744353 0 -0.037933734156746599 0.0054568717245825869 0 -0.037822430840188583 0.0058491179347936514 0 -0.03957171342817415 -0.002038938163922397 0 -0.040334780973608604 -0.0022024181468485631 0 -0.039989239535327729 -0.00083132648730386985 0 -0.03957171342817415 -0.002038938163922397 0 -0.039989239535327729 -0.00083132648730386985 0 -0.039321832322653634 -0.001115220996457243 0 -0.03957171342817415 -0.002038938163922397 0 -0.039321832322653634 -0.001115220996457243 0 -0.039027854092899092 -0.0021785249755432333 0 -0.039182865585335402 -0.0029891264118090872 0 -0.03957171342817415 -0.002038938163922397 0 -0.039027854092899092 -0.0021785249755432333 0 -0.0398442630202549 -0.0028215861144367783 0 -0.039182865585335402 -0.0029891264118090872 0 -0.03957171342817415 -0.002038938163922397 0 -0.0398442630202549 -0.0028215861144367783 0 -0.03957171342817415 -0.002038938163922397 0 -0.040334780973608604 -0.0022024181468485631 0 -0.040454275684824875 -0.0032829552938845605 0 -0.0398442630202549 -0.0028215861144367783 0 -0.040334780973608604 -0.0022024181468485631 0 -0.040454275684824875 -0.0032829552938845605 0 -0.040334780973608604 -0.0022024181468485631 0 -0.040970494702413957 -0.0027314997897588053 0 -0.040334780973608604 -0.0022024181468485631 0 -0.040970494702413957 -0.0027314997897588053 0 -0.041273545397217545 -0.0014028893969080345 0 -0.041704919660947776 -0.0022835155299382463 0 -0.040970494702413957 -0.0027314997897588053 0 -0.041273545397217545 -0.0014028893969080345 0 -0.040334780973608604 -0.0022024181468485631 0 -0.041273545397217545 -0.0014028893969080345 0 -0.039989239535327729 -0.00083132648730386985 0 -0.040465379937257913 -0.00082614367520036718 0 -0.039965519044793382 -0.00077794513533518982 0 -0.039803135200350052 -7.0772118741301804e-05 0 -0.039991488614257192 0.00029643592412268891 0 -0.039989239535327729 -0.00083132648730386985 0 -0.03979895803355861 0.00051480804516140701 0 -0.039803135200350052 -7.0772118741301804e-05 0 -0.039991488614257192 0.00029643592412268891 0 -0.03979895803355861 0.00051480804516140701 0 -0.039991488614257192 0.00029643592412268891 0 -0.039812533162178192 0.0010017544063604855 0 -0.039991488614257192 0.00029643592412268891 0 -0.039724009943859141 -4.8480996511987996e-05 0 -0.039989239535327729 -0.00083132648730386985 0 -0.039724009943859141 -4.8480996511987996e-05 0 -0.039989239535327729 -0.00083132648730386985 0 -0.039321832322653634 -0.001115220996457243 0 -0.039724009943859141 -4.8480996511987996e-05 0 -0.039321832322653634 -0.001115220996457243 0 -0.038988072733029087 -0.00041471359793025938 0 -0.038988072733029087 -0.00041471359793025938 0 -0.038197302635409235 -0.00072357477216463588 0 -0.038631441129356479 -0.0013873966392507723 0 -0.038988072733029087 -0.00041471359793025938 0 -0.038197302635409235 -0.00072357477216463588 0 -0.038527102492213403 0.0001886954585122949 0 -0.038197302635409235 -0.00072357477216463588 0 -0.038631441129356479 -0.0013873966392507723 0 -0.038067550083756119 -0.0017193679188841524 0 -0.039321832322653634 -0.001115220996457243 0 -0.038988072733029087 -0.00041471359793025938 0 -0.038631441129356479 -0.0013873966392507723 0 -0.038631441129356479 -0.0013873966392507723 0 -0.03848722937485953 -0.0023989007783999619 0 -0.039027854092899092 -0.0021785249755432333 0 -0.039321832322653634 -0.001115220996457243 0 -0.038631441129356479 -0.0013873966392507723 0 -0.039027854092899092 -0.0021785249755432333 0 -0.038631441129356479 -0.0013873966392507723 0 -0.03848722937485953 -0.0023989007783999619 0 -0.038067550083756119 -0.0017193679188841524 0 -0.03848722937485953 -0.0023989007783999619 0 -0.038692050038830757 -0.0030670022104127884 0 -0.038276560784340198 -0.0031845589531080097 0 -0.03848722937485953 -0.0023989007783999619 0 -0.039027854092899092 -0.0021785249755432333 0 -0.038692050038830757 -0.0030670022104127884 0 -0.039182865585335402 -0.0029891264118090872 0 -0.039027854092899092 -0.0021785249755432333 0 -0.038692050038830757 -0.0030670022104127884 0 -0.037645321009703706 -0.0029033953177537678 0 -0.037480847320023845 -0.0022292232592049212 0 -0.037252697615078302 -0.0032304752729067619 0 -0.037645321009703706 -0.0029033953177537678 0 -0.037963570418182407 -0.0025844299362049487 0 -0.037875556296334427 -0.0033529879081743204 0 -0.037645321009703706 -0.0029033953177537678 0 -0.037252697615078302 -0.0032304752729067619 0 -0.037494515169393207 -0.0040164543974849625 0 -0.037963570418182407 -0.0025844299362049487 0 -0.038276560784340198 -0.0031845589531080097 0 -0.037875556296334427 -0.0033529879081743204 0 -0.03848722937485953 -0.0023989007783999619 0 -0.037963570418182407 -0.0025844299362049487 0 -0.038276560784340198 -0.0031845589531080097 0 -0.03848722937485953 -0.0023989007783999619 0 -0.037963570418182407 -0.0025844299362049487 0 -0.038067550083756119 -0.0017193679188841524 0 -0.037963570418182407 -0.0025844299362049487 0 -0.037480847320023845 -0.0022292232592049212 0 -0.038067550083756119 -0.0017193679188841524 0 -0.037645321009703706 -0.0029033953177537678 0 -0.037963570418182407 -0.0025844299362049487 0 -0.037480847320023845 -0.0022292232592049212 0 -0.037480847320023845 -0.0022292232592049212 0 -0.037657346323801494 -0.0012592647274021172 0 -0.037254740226198388 -0.0016118580912977516 0 -0.037480847320023845 -0.0022292232592049212 0 -0.037657346323801494 -0.0012592647274021172 0 -0.038067550083756119 -0.0017193679188841524 0 -0.038197302635409235 -0.00072357477216463588 0 -0.037657346323801494 -0.0012592647274021172 0 -0.038067550083756119 -0.0017193679188841524 0 -0.038197302635409235 -0.00072357477216463588 0 -0.037657346323801494 -0.0012592647274021172 0 -0.037786449508109048 -0.00013630192788381581 0 -0.037657346323801494 -0.0012592647274021172 0 -0.03705013232559165 -0.00099965180529024275 0 -0.037786449508109048 -0.00013630192788381581 0 -0.03705013232559165 -0.00099965180529024275 0 -0.036301370300847076 -0.00075173854970358349 0 -0.036459494732738837 -0.0014311217444241062 0 -0.036301370300847076 -0.00075173854970358349 0 -0.036459494732738837 -0.0014311217444241062 0 -0.035884832513503391 -0.0013082339479512607 0 -0.03705013232559165 -0.00099965180529024275 0 -0.036459494732738837 -0.0014311217444241062 0 -0.036837029182775052 -0.0019987708858947768 0 -0.036459494732738837 -0.0014311217444241062 0 -0.036423435565541173 -0.0021609988186945882 0 -0.035974546675071828 -0.0019518245198327667 0 -0.036459494732738837 -0.0014311217444241062 0 -0.036423435565541173 -0.0021609988186945882 0 -0.036837029182775052 -0.0019987708858947768 0 -0.037480847320023845 -0.0022292232592049212 0 -0.036837029182775052 -0.0019987708858947768 0 -0.037254740226198388 -0.0016118580912977516 0 -0.037657346323801494 -0.0012592647274021172 0 -0.03705013232559165 -0.00099965180529024275 0 -0.037254740226198388 -0.0016118580912977516 0 -0.03705013232559165 -0.00099965180529024275 0 -0.036837029182775052 -0.0019987708858947768 0 -0.037254740226198388 -0.0016118580912977516 0 -0.034999986455752898 -0.00080436964457134409 0 -0.035734793317133653 -0.00071041015620038062 0 -0.036039029539436364 0.00089076056120100677 0 -0.035215288663550212 -0.0011901870049428214 0 -0.035688917036368013 -0.00065547924465526549 0 -0.035884832513503391 -0.0013082339479512607 0 -0.035215288663550212 -0.0011901870049428214 0 -0.035884832513503391 -0.0013082339479512607 0 -0.035599739868797026 -0.0018171323509483805 0 -0.036301370300847076 -0.00075173854970358349 0 -0.035688917036368013 -0.00065547924465526549 0 -0.035884832513503391 -0.0013082339479512607 0 -0.036459494732738837 -0.0014311217444241062 0 -0.035884832513503391 -0.0013082339479512607 0 -0.035974546675071828 -0.0019518245198327667 0 -0.035974546675071828 -0.0019518245198327667 0 -0.035599739868797026 -0.0018171323509483805 0 -0.035686652237526643 -0.0023285527226904069 0 -0.035884832513503391 -0.0013082339479512607 0 -0.035974546675071828 -0.0019518245198327667 0 -0.035599739868797026 -0.0018171323509483805 0 -0.034999986455752898 -0.00080436964457134409 0 -0.035734793317133653 -0.00071041015620038062 0 -0.035324675444021958 -0.0023370699696738757 0 -0.035215288663550212 -0.0011901870049428214 0 -0.035599739868797026 -0.0018171323509483805 0 -0.035324675444021958 -0.0023370699696738757 0 -0.034999986455752898 -0.00080436964457134409 0 -0.034999674385465147 -0.0028701545494355459 0 -0.035324675444021958 -0.0023370699696738757 0 -0.035477126126382402 -0.00093465363615988901 0 -0.035332971283767521 -0.0019807063371049941 0 -0.035599739868797026 -0.0018171323509483805 0 -0.035324675444021958 -0.0023370699696738757 0 -0.035686652237526643 -0.0023285527226904069 0 -0.034999674385465147 -0.0028701545494355459 0 -0.035530348439577635 -0.0027945178773703372 0 -0.035551722202347549 -0.0037575076987845213 0 -0.034999674385465147 -0.0028701545494355459 0 -0.035324675444021958 -0.0023370699696738757 0 -0.035530348439577635 -0.0027945178773703372 0 -0.035324675444021958 -0.0023370699696738757 0 -0.035530348439577635 -0.0027945178773703372 0 -0.035686652237526643 -0.0023285527226904069 0 -0.035530348439577635 -0.0027945178773703372 0 -0.03603356490246417 -0.0027370840938897392 0 -0.035551722202347549 -0.0037575076987845213 0 -0.035530348439577635 -0.0027945178773703372 0 -0.03603356490246417 -0.0027370840938897392 0 -0.035686652237526643 -0.0023285527226904069 0 -0.035974546675071828 -0.0019518245198327667 0 -0.03603356490246417 -0.0027370840938897392 0 -0.035686652237526643 -0.0023285527226904069 0 -0.036423435565541173 -0.0021609988186945882 0 -0.035974546675071828 -0.0019518245198327667 0 -0.03603356490246417 -0.0027370840938897392 0 -0.03603356490246417 -0.0027370840938897392 0 -0.036360609801137651 -0.0035688628691946749 0 -0.036602480854590475 -0.0027244284887442596 0 -0.03603356490246417 -0.0027370840938897392 0 -0.036360609801137651 -0.0035688628691946749 0 -0.035551722202347549 -0.0037575076987845213 0 -0.036360609801137651 -0.0035688628691946749 0 -0.035551722202347549 -0.0037575076987845213 0 -0.036144444324638106 -0.0043808775823000867 0 -0.034999674385465147 -0.0028701545494355459 0 -0.035551722202347549 -0.0037575076987845213 0 -0.034999856507624855 -0.0049352714036218718 0 -0.037480847320023845 -0.0022292232592049212 0 -0.036837029182775052 -0.0019987708858947768 0 -0.037027321276806635 -0.0026428494540649259 0 -0.037480847320023845 -0.0022292232592049212 0 -0.037027321276806635 -0.0026428494540649259 0 -0.037252697615078302 -0.0032304752729067619 0 -0.036837029182775052 -0.0019987708858947768 0 -0.037027321276806635 -0.0026428494540649259 0 -0.036602480854590475 -0.0027244284887442596 0 -0.036423435565541173 -0.0021609988186945882 0 -0.036837029182775052 -0.0019987708858947768 0 -0.036602480854590475 -0.0027244284887442596 0 -0.036423435565541173 -0.0021609988186945882 0 -0.03603356490246417 -0.0027370840938897392 0 -0.036602480854590475 -0.0027244284887442596 0 -0.037027321276806635 -0.0026428494540649259 0 -0.036602480854590475 -0.0027244284887442596 0 -0.036834909792852089 -0.0033260151538685376 0 -0.036360609801137651 -0.0035688628691946749 0 -0.036834909792852089 -0.0033260151538685376 0 -0.036941845424099166 -0.0041948851680244622 0 -0.036360609801137651 -0.0035688628691946749 0 -0.036602480854590475 -0.0027244284887442596 0 -0.036834909792852089 -0.0033260151538685376 0 -0.036834909792852089 -0.0033260151538685376 0 -0.037252697615078302 -0.0032304752729067619 0 -0.036941845424099166 -0.0041948851680244622 0 -0.037027321276806635 -0.0026428494540649259 0 -0.036834909792852089 -0.0033260151538685376 0 -0.037252697615078302 -0.0032304752729067619 0 -0.037252697615078302 -0.0032304752729067619 0 -0.036941845424099166 -0.0041948851680244622 0 -0.037494515169393207 -0.0040164543974849625 0 -0.036941845424099166 -0.0041948851680244622 0 -0.036523723796670994 -0.0054775897676317782 0 -0.037091204966987035 -0.0047751430895181341 0 -0.036732018366628996 -0.0053540114780306521 0 -0.037670089486961288 -0.0054773524962111672 0 -0.036941845424099166 -0.0041948851680244622 0 -0.037091204966987035 -0.0047751430895181341 0 -0.037494515169393207 -0.0040164543974849625 0 -0.037091204966987035 -0.0047751430895181341 0 -0.037633497629594823 -0.0045647803614648329 0 -0.037494515169393207 -0.0040164543974849625 0 -0.035551722202347549 -0.0037575076987845213 0 -0.034999856507624855 -0.0049352714036218718 0 -0.036144444324638106 -0.0043808775823000867 0 -0.036360609801137651 -0.0035688628691946749 0 -0.036941845424099166 -0.0041948851680244622 0 -0.036144444324638106 -0.0043808775823000867 0 -0.036941845424099166 -0.0041948851680244622 0 -0.036144444324638106 -0.0043808775823000867 0 -0.036523723796670994 -0.0054775897676317782 0 -0.034999856507624855 -0.0049352714036218718 0 -0.036144444324638106 -0.0043808775823000867 0 -0.036523723796670994 -0.0054775897676317782 0 -0.034999856507624855 -0.0049352714036218718 0 -0.036523723796670994 -0.0054775897676317782 0 -0.034999709104310946 -0.0070013460912117338 0 -0.036523723796670994 -0.0054775897676317782 0 -0.034999709104310946 -0.0070013460912117338 0 -0.036444254497941274 -0.0073636053813226528 0 -0.036523723796670994 -0.0054775897676317782 0 -0.036444254497941274 -0.0073636053813226528 0 -0.037524641850597409 -0.0069166765881875682 0 -0.035841670799586639 -0.0087848303564937412 0 -0.036444254497941274 -0.0073636053813226528 0 -0.037711775810245769 -0.0082777351472268935 0 -0.036159146967812084 -0.008702976760562784 0 -0.037575257025216975 -0.0083576852754663582 0 -0.035841670799586639 -0.0087848303564937412 0 -0.034999709104310946 -0.0070013460912117338 0 -0.036444254497941274 -0.0073636053813226528 0 -0.034999986852404512 -0.0090677969157002981 0 -0.035841670799586639 -0.0087848303564937412 0 -0.034999709104310946 -0.0070013460912117338 0 -0.037670089486961288 -0.0054773524962111672 0 -0.038938319760695929 -0.0057274028265920911 0 -0.038746553762092066 -0.0071588836712138436 0 -0.039731084630204 -0.0077564843585081244 0 -0.040169623669723604 -0.0067118589190720982 0 -0.038746553762092066 -0.0071588836712138436 0 -0.03849914839663806 -0.0061627810632589397 0 -0.040169623669723604 -0.0067118589190720982 0 -0.036523723796670994 -0.0054775897676317782 0 -0.03849914839663806 -0.0061627810632589397 0 -0.037524641850597409 -0.0069166765881875682 0 -0.038746553762092066 -0.0071588836712138436 0 -0.03849914839663806 -0.0061627810632589397 0 -0.037524641850597409 -0.0069166765881875682 0 -0.036444254497941274 -0.0073636053813226528 0 -0.037524641850597409 -0.0069166765881875682 0 -0.037711775810245769 -0.0082777351472268935 0 -0.038746553762092066 -0.0071588836712138436 0 -0.037524641850597409 -0.0069166765881875682 0 -0.037711775810245769 -0.0082777351472268935 0 -0.038278196265955619 -0.00951020717571977 0 -0.037583422160364317 -0.0084467232917634968 0 -0.039205083543022656 -0.008083222915498265 0 -0.038746553762092066 -0.0071588836712138436 0 -0.037711775810245769 -0.0082777351472268935 0 -0.039731084630204 -0.0077564843585081244 0 -0.038278196265955619 -0.00951020717571977 0 -0.039534951311539668 -0.0085921577849800632 0 -0.039205083543022656 -0.008083222915498265 0 -0.037575257025216975 -0.0083576852754663582 0 -0.039604181183566803 -0.007719990788099337 0 -0.039534951311539668 -0.0085921577849800632 0 -0.039205083543022656 -0.008083222915498265 0 -0.040754610476271533 -0.0077133676961984136 0 -0.039604181183566803 -0.007719990788099337 0 -0.039262034282098589 -0.006201638712546584 0 -0.037176636281577018 -0.0067729529243666818 0 -0.036643827032807143 -0.0063077354769817719 0 -0.037529426215627083 -0.0064132244897307884 0 -0.039731084630204 -0.0077564843585081244 0 -0.040169623669723604 -0.0067118589190720982 0 -0.041582331086831119 -0.007295966596758202 0 -0.037633497629594823 -0.0045647803614648329 0 -0.037996186639696075 -0.0042905348743097448 0 -0.038231193994759674 -0.0046086561101226246 0 -0.040169623669723604 -0.0067118589190720982 0 -0.041761784021815497 -0.0071703692525577466 0 -0.041582331086831119 -0.007295966596758202 0 -0.038938319760695929 -0.0057274028265920911 0 -0.03898826610635648 -0.0059446126570604609 0 -0.037996186639696075 -0.0042905348743097448 0 -0.038231193994759674 -0.0046086561101226246 0 -0.038297338757572671 -0.0042001533537272297 0 -0.038086769486274673 -0.0055432240788281899 0 -0.038268417642923769 -0.0056894346362239435 0 -0.038402007083610253 -0.0054935310546641745 0 -0.039262034282098589 -0.006201638712546584 0 -0.038667447883987606 -0.0058999133427322546 0 -0.039059446144175822 -0.0061063039721605252 0 -0.039015804899474885 -0.0061373960476258918 0 -0.03909913366629901 -0.0061174807407345863 0 -0.03898826610635648 -0.0059446126570604609 0 -0.039262034282098589 -0.006201638712546584 0 -0.036643827032807143 -0.0063077354769817719 0 -0.037809205548473862 -0.0060091295173507727 0 -0.037529426215627083 -0.0064132244897307884 0 -0.038086769486274673 -0.0055432240788281899 0 -0.038122946970455478 -0.0057988963736434317 0 -0.037809205548473862 -0.0060091295173507727 0 -0.038122946970455478 -0.0057988963736434317 0 -0.038268417642923769 -0.0056894346362239435 0 -0.03832642908587712 -0.0059563505518701208 0 -0.036643827032807143 -0.0063077354769817719 0 -0.038086769486274673 -0.0055432240788281899 0 -0.037809205548473862 -0.0060091295173507727 0 -0.038086769486274673 -0.0055432240788281899 0 -0.038122946970455478 -0.0057988963736434317 0 -0.038268417642923769 -0.0056894346362239435 0 -0.038024880772867385 -0.007443543274285527 0 -0.039262034282098589 -0.006201638712546584 0 -0.038122946970455478 -0.0057988963736434317 0 -0.037809205548473862 -0.0060091295173507727 0 -0.03832642908587712 -0.0059563505518701208 0 -0.038047974820221313 -0.0064094499162205814 0 -0.038436081912164445 -0.0064003209647044311 0 -0.03832642908587712 -0.0059563505518701208 0 -0.037809205548473862 -0.0060091295173507727 0 -0.038047974820221313 -0.0064094499162205814 0 -0.03832642908587712 -0.0059563505518701208 0 -0.037809205548473862 -0.0060091295173507727 0 -0.037529426215627083 -0.0064132244897307884 0 -0.038047974820221313 -0.0064094499162205814 0 -0.0389536090718492 -0.0067472036798722906 0 -0.038436081912164445 -0.0064003209647044311 0 -0.038723307737767457 -0.0062579389938757736 0 -0.038748496672564713 -0.0059006828829596741 0 -0.039707581513261606 -0.0061319789973345471 0 -0.038402007083610253 -0.0054935310546641745 0 -0.038408029332469437 -0.006850466013571181 0 -0.038047974820221313 -0.0064094499162205814 0 -0.038436081912164445 -0.0064003209647044311 0 -0.039137079415107787 -0.0062664550501558367 0 -0.038748496672564713 -0.0059006828829596741 0 -0.039707581513261606 -0.0061319789973345471 0 -0.038857409520119714 -0.0060084907899722777 0 -0.038667447883987606 -0.0058999133427322546 0 -0.038436081912164445 -0.0064003209647044311 0 -0.038723307737767457 -0.0062579389938757736 0 -0.03832642908587712 -0.0059563505518701208 0 -0.0389536090718492 -0.0067472036798722906 0 -0.038723307737767457 -0.0062579389938757736 0 -0.039137079415107787 -0.0062664550501558367 0 -0.038723307737767457 -0.0062579389938757736 0 -0.039137079415107787 -0.0062664550501558367 0 -0.038748496672564713 -0.0059006828829596741 0 -0.038268417642923769 -0.0056894346362239435 0 -0.038436743303453966 -0.0057613513492438314 0 -0.038402007083610253 -0.0054935310546641745 0 -0.038268417642923769 -0.0056894346362239435 0 -0.038436743303453966 -0.0057613513492438314 0 -0.03832642908587712 -0.0059563505518701208 0 -0.038748496672564713 -0.0059006828829596741 0 -0.038436743303453966 -0.0057613513492438314 0 -0.03832642908587712 -0.0059563505518701208 0 -0.038748496672564713 -0.0059006828829596741 0 -0.038436743303453966 -0.0057613513492438314 0 -0.038402007083610253 -0.0054935310546641745 0 -0.038723307737767457 -0.0062579389938757736 0 -0.038748496672564713 -0.0059006828829596741 0 -0.03832642908587712 -0.0059563505518701208 0 -0.039729379282274428 -0.0067541494568561355 0 -0.039137079415107787 -0.0062664550501558367 0 -0.039707581513261606 -0.0061319789973345471 0 -0.039729379282274428 -0.0067541494568561355 0 -0.0389536090718492 -0.0067472036798722906 0 -0.039137079415107787 -0.0062664550501558367 0 -0.038274322896057131 -0.0059220530358806258 0 -0.038367988009376436 -0.0053574487603953074 0 -0.037255543204273246 -0.0056244699487741599 0 -0.038985907518534584 -0.0042898713654574566 0 -0.03860955466419598 -0.0041049145111457111 0 -0.03911678047418541 -0.0037441880492374174 0 -0.03912576405160139 -0.0056745626402941148 0 -0.038274322896057131 -0.0059220530358806258 0 -0.038367988009376436 -0.0053574487603953074 0 -0.038985907518534584 -0.0042898713654574566 0 -0.038179988679180189 -0.004489585543449655 0 -0.03860955466419598 -0.0041049145111457111 0 -0.038629824993100643 -0.0049561317632534898 0 -0.038667447883987606 -0.0058999133427322546 0 -0.038104835827426041 -0.0044691522879401254 0 -0.038179988679180189 -0.004489585543449655 0 -0.03860955466419598 -0.0041049145111457111 0 -0.03898826610635648 -0.0059446126570604609 0 -0.038667447883987606 -0.0058999133427322546 0 -0.03898826610635648 -0.0059446126570604609 0 -0.038871812069024722 -0.0044883151486451514 0 -0.038231193994759674 -0.0046086561101226246 0 -0.038685191787763071 -0.004216096489731638 0 -0.038297338757572671 -0.0042001533537272297 0 -0.038297338757572671 -0.0042001533537272297 0 -0.038550050329437847 -0.003725591986876658 0 -0.038106479653972507 -0.0038797281082152421 0 -0.038685191787763071 -0.004216096489731638 0 -0.038297338757572671 -0.0042001533537272297 0 -0.038550050329437847 -0.003725591986876658 0 -0.038685191787763071 -0.004216096489731638 0 -0.038550050329437847 -0.003725591986876658 0 -0.03911678047418541 -0.0037441880492374174 0 -0.038550050329437847 -0.003725591986876658 0 -0.03911678047418541 -0.0037441880492374174 0 -0.038885889349181517 -0.0033815872210891246 0 -0.038871812069024722 -0.0044883151486451514 0 -0.039076162555878688 -0.0040437377696750021 0 -0.038550050329437847 -0.003725591986876658 0 -0.038692050038830757 -0.0030670022104127884 0 -0.038885889349181517 -0.0033815872210891246 0 -0.039182865585335402 -0.0029891264118090872 0 -0.03911678047418541 -0.0037441880492374174 0 -0.038885889349181517 -0.0033815872210891246 0 -0.039182865585335402 -0.0029891264118090872 0 -0.038692050038830757 -0.0030670022104127884 0 -0.038885889349181517 -0.0033815872210891246 0 -0.038550050329437847 -0.003725591986876658 0 -0.038276560784340198 -0.0031845589531080097 0 -0.038106479653972507 -0.0038797281082152421 0 -0.038550050329437847 -0.003725591986876658 0 -0.038692050038830757 -0.0030670022104127884 0 -0.038276560784340198 -0.0031845589531080097 0 -0.037875556296334427 -0.0033529879081743204 0 -0.037789925706268178 -0.0040877334997398316 0 -0.038106479653972507 -0.0038797281082152421 0 -0.038276560784340198 -0.0031845589531080097 0 -0.037875556296334427 -0.0033529879081743204 0 -0.038106479653972507 -0.0038797281082152421 0 -0.037875556296334427 -0.0033529879081743204 0 -0.037494515169393207 -0.0040164543974849625 0 -0.037789925706268178 -0.0040877334997398316 0 -0.037645321009703706 -0.0029033953177537678 0 -0.037875556296334427 -0.0033529879081743204 0 -0.037494515169393207 -0.0040164543974849625 0 -0.037633497629594823 -0.0045647803614648329 0 -0.037494515169393207 -0.0040164543974849625 0 -0.037789925706268178 -0.0040877334997398316 0 -0.037633497629594823 -0.0045647803614648329 0 -0.037996186639696075 -0.0042905348743097448 0 -0.037789925706268178 -0.0040877334997398316 0 -0.037996186639696075 -0.0042905348743097448 0 -0.037789925706268178 -0.0040877334997398316 0 -0.038106479653972507 -0.0038797281082152421 0 -0.037996186639696075 -0.0042905348743097448 0 -0.038297338757572671 -0.0042001533537272297 0 -0.038106479653972507 -0.0038797281082152421 0 -0.0057575274579270003 0.008261986213645673 0 -0.0056010449116327106 0.0078182081347629075 0 -0.0062768164560510434 0.0075296991022074178 0 -0.0057575274579270003 0.008261986213645673 0 -0.0051477293238574359 0.0079968140287815341 0 -0.0056010449116327106 0.0078182081347629075 0 -0.0069090391356619318 0.0065571063105020581 0 -0.0084540914802933333 0.0075622247408069507 0 -0.0057575274579270003 0.008261986213645673 0 -0.0067748064607332098 0.00823192309040611 0 -0.0062768164560510434 0.0075296991022074178 0 -0.0067748064607332098 0.00823192309040611 0 -0.0062768164560510434 0.0075296991022074178 0 -0.0075651241638982859 0.0079277915456194507 0 -0.0057575274579270003 0.008261986213645673 0 -0.0063152176815774175 0.0086697452138491497 0 -0.0067748064607332098 0.00823192309040611 0 -0.0063152176815774175 0.0086697452138491497 0 -0.0067748064607332098 0.00823192309040611 0 -0.0067570265156859854 0.0090061521802425985 0 -0.0067748064607332098 0.00823192309040611 0 -0.0067570265156859854 0.0090061521802425985 0 -0.0076147049189385424 0.0085908265437647686 0 -0.0067748064607332098 0.00823192309040611 0 -0.0075651241638982859 0.0079277915456194507 0 -0.0076147049189385424 0.0085908265437647686 0 -0.0067570265156859854 0.0090061521802425985 0 -0.0076147049189385424 0.0085908265437647686 0 -0.0073239713346424555 0.0095117143853819669 0 -0.0063152176815774175 0.0086697452138491497 0 -0.0067570265156859854 0.0090061521802425985 0 -0.0060173285138050633 0.009323872882732516 0 -0.0067570265156859854 0.0090061521802425985 0 -0.0060173285138050633 0.009323872882732516 0 -0.0066062725397780372 0.0097996517361516617 0 -0.0057575274579270003 0.008261986213645673 0 -0.0060173285138050633 0.009323872882732516 0 -0.0047865805983295841 0.0090990927691345282 0 -0.0057575274579270003 0.008261986213645673 0 -0.0063152176815774175 0.0086697452138491497 0 -0.0060173285138050633 0.009323872882732516 0 -0.005530683876161859 0.0091985753529009503 0 -0.0048593885323629802 0.0090926068926693512 0 -0.0051477293238574359 0.0079968140287815341 0 -0.005530683876161859 0.0091985753529009503 0 -0.0048593885323629802 0.0090926068926693512 0 -0.0047098968567513486 0.0099895127144999183 0 -0.0046477892556410156 0.008781459153559228 0 -0.0048593885323629802 0.0090926068926693512 0 -0.0044960696627906107 0.0094151367083142815 0 -0.0046477892556410156 0.008781459153559228 0 -0.0047414671786128581 0.0082399544092863885 0 -0.0051477293238574359 0.0079968140287815341 0 -0.0046477892556410156 0.008781459153559228 0 -0.0048593885323629802 0.0090926068926693512 0 -0.0051477293238574359 0.0079968140287815341 0 -0.005128357768958711 0.0093040624496831884 0 -0.0050949391909216714 0.0082217915860724154 0 -0.0057575274579270003 0.008261986213645673 0 -0.0047865805983295841 0.0090990927691345282 0 -0.0051477293238574359 0.0079968140287815341 0 -0.0051477293238574359 0.0079968140287815341 0 -0.0047515981061957433 0.0079169439834395373 0 -0.0052995188805609475 0.0075991422129910455 0 -0.0051477293238574359 0.0079968140287815341 0 -0.0052995188805609475 0.0075991422129910455 0 -0.0056010449116327106 0.0078182081347629075 0 -0.0047414671786128581 0.0082399544092863885 0 -0.0051477293238574359 0.0079968140287815341 0 -0.0047515981061957433 0.0079169439834395373 0 -0.0047515981061957433 0.0079169439834395373 0 -0.0052995188805609475 0.0075991422129910455 0 -0.0048193837041953756 0.0074975410979765964 0 -0.0054142172778849336 0.0056013897105440837 0 -0.0042613864902509594 0.0047416017258665646 0 -0.0069561140277507828 0.0032450192244581504 0 -0.0054168297199587434 0.001346915587612427 0 -0.0053671575667247314 0.0035577161728195692 0 -0.0071024694297981651 0.003594769057442224 0 -0.0055175104869616357 0.0019104661383888804 0 -0.0053671575667247314 0.0035577161728195692 0 -0.0071586241410499258 0.0053301553292537029 0 -0.0071024694297981651 0.003594769057442224 0 -0.0054142172778849336 0.0056013897105440837 0 -0.0069090391356619318 0.0065571063105020581 0 -0.0052995188805609475 0.0075991422129910455 0 -0.0056010449116327106 0.0078182081347629075 0 -0.0062768164560510434 0.0075296991022074178 0 -0.0071586241410499258 0.0053301553292537029 0 -0.0079832806245336129 0.0047154607683051533 0 -0.0071024694297981651 0.003594769057442224 0 -0.0071586241410499258 0.0053301553292537029 0 -0.0079832806245336129 0.0047154607683051533 0 -0.0082317388647262808 0.0060025338845919613 0 -0.0079832806245336129 0.0047154607683051533 0 -0.0071024694297981651 0.003594769057442224 0 -0.0086301987746294356 0.0033626181620413065 0 -0.0071024694297981651 0.003594769057442224 0 -0.0086301987746294356 0.0033626181620413065 0 -0.0073652645711945975 0.00049535917100077312 0 -0.0073926114644252763 0.00106347714073869 0 -0.0077351989378889666 0.0013249572919486923 0 -0.0076916062768775289 0.0018475242075137802 0 -0.0073926114644252763 0.00106347714073869 0 -0.0077351989378889666 0.0013249572919486923 0 -0.0078511806515317376 0.00074125580551097868 0 -0.007661667914190021 0.00098607166989164328 0 -0.0072190768301079854 0.00033313002541009265 0 -0.0059803722908295725 5.4996112148536273e-05 0 -0.0081544041141051633 0.0015971591482203528 0 -0.0077351989378889666 0.0013249572919486923 0 -0.0078511806515317376 0.00074125580551097868 0 -0.0081544041141051633 0.0015971591482203528 0 -0.007661667914190021 0.00098607166989164328 0 -0.0059803722908295725 5.4996112148536273e-05 0 -0.0077954660379144164 0.001238257635962476 0 -0.0070584074578787653 0.00027421215521106673 0 -0.007661667914190021 0.00098607166989164328 0 -0.0077011309320391555 0.00055338344108015456 0 -0.0072190768301079854 0.00033313002541009265 0 -0.0081544041141051633 0.0015971591482203528 0 -0.0077351989378889666 0.0013249572919486923 0 -0.0076916062768775289 0.0018475242075137802 0 -0.0081544041141051633 0.0015971591482203528 0 -0.007661667914190021 0.00098607166989164328 0 -0.0096126514959569056 0.0029347550030356384 0 -0.0081544041141051633 0.0015971591482203528 0 -0.0076916062768775289 0.0018475242075137802 0 -0.0096126514959569056 0.0029347550030356384 0 -0.0076916062768775289 0.0018475242075137802 0 -0.0074567912900783892 0.0028490328688540551 0 -0.0096126514959569056 0.0029347550030356384 0 -0.0073926114644252763 0.00106347714073869 0 -0.0076916062768775289 0.0018475242075137802 0 -0.0074567912900783892 0.0028490328688540551 0 -0.0079832806245336129 0.0047154607683051533 0 -0.0086301987746294356 0.0033626181620413065 0 -0.0087256060349441833 0.005159137768224728 0 -0.0086301987746294356 0.0033626181620413065 0 -0.0096485445602570302 0.0055982273407014834 0 -0.0087256060349441833 0.005159137768224728 0 -0.0096485445602570302 0.0055982273407014834 0 -0.0087256060349441833 0.005159137768224728 0 -0.0090997730308728028 0.0060515275500828605 0 -0.0079059351524231308 0.0022248775954137974 0 -0.0088410329425798601 0.0043231204489392388 0 -0.0079832806245336129 0.0047154607683051533 0 -0.0087256060349441833 0.005159137768224728 0 -0.0082317388647262808 0.0060025338845919613 0 0.004141120050557905 0.0057096800544335843 0 0.0039349011628537862 0.0048495771299092889 0 -0.0082044328073803494 0.00039238461021779948 0 -0.0079282590708203739 0.0010662897123693844 0 -0.0084365065531321268 0.001432470908586247 0 -0.0082044328073803494 0.00039238461021779948 0 -0.0084365065531321268 0.001432470908586247 0 -0.0091000202794244683 0.00016937237816165159 0 -0.0082044328073803494 0.00039238461021779948 0 -0.0079282590708203739 0.0010662897123693844 0 -0.0077011309320391555 0.00055338344108015456 0 -0.007661667914190021 0.00098607166989164328 0 -0.0077011309320391555 0.00055338344108015456 0 -0.0077319139588119057 0.0010804462813517122 0 -0.0079282590708203739 0.0010662897123693844 0 -0.0077011309320391555 0.00055338344108015456 0 -0.0077319139588119057 0.0010804462813517122 0 -0.006987804914466423 0.0018469577622255338 0 -0.0058573536068032613 0.0035329319036269909 0 -0.0079282590708203739 0.0010662897123693844 0 -0.007607073111521573 0.0016119215161298328 0 -0.0084365065531321268 0.001432470908586247 0 -0.007661667914190021 0.00098607166989164328 0 -0.0077319139588119057 0.0010804462813517122 0 -0.007607073111521573 0.0016119215161298328 0 -0.0079282590708203739 0.0010662897123693844 0 -0.0077319139588119057 0.0010804462813517122 0 -0.007607073111521573 0.0016119215161298328 0 0.017052374203814089 0.010136076343531742 0 0.016992329593856503 0.010329548349177283 0 0.01707220726351499 0.010401574548220991 0 0.004141120050557905 0.0057096800544335843 0 0.0036546284773167218 0.0080212510485255344 0 0.017052374203814089 0.010136076343531742 0 0.016992329593856503 0.010329548349177283 0 0.016917061127544014 0.010283126201348473 0 0.016992329593856503 0.010329548349177283 0 0.016978568961749579 0.010448902438468022 0 0.016935820217379036 0.010410384165555276 0 0.016992329593856503 0.010329548349177283 0 0.01707220726351499 0.010401574548220991 0 0.016978568961749579 0.010448902438468022 0 -0.0058573536068032613 0.0035329319036269909 0 0.0036546284773167218 0.0080212510485255344 0 -0.0096126514959569056 0.0029347550030356384 0 -0.010986014675003365 0.0069703139562634891 0 -0.010627024976109163 0.0070628820949265037 0 -0.007607073111521573 0.0016119215161298328 0 -0.0084365065531321268 0.001432470908586247 0 -0.0078362822365251102 0.0024916946521619733 0 0.016132148544155261 0.01219656246440734 0 0.015740979822184149 0.011372537230246471 0 0.016477345397211896 0.011477589132523624 0 0.0036546284773167218 0.0080212510485255344 0 -0.001032138635929544 0.012395975136564112 0 -0.010627024976109163 0.0070628820949265037 0 -0.010065462302504153 0.0073571392734042024 0 -0.0099493919488010726 0.008980637445182604 0 -0.010986014675003365 0.0069703139562634891 0 -0.010627024976109163 0.0070628820949265037 0 -0.0099493919488010726 0.008980637445182604 0 0.0036546284773167218 0.0080212510485255344 0 0.014438973362654057 0.010115802312577809 0 0.01707220726351499 0.010401574548220991 0 0.016978568961749579 0.010448902438468022 0 0.016982369358593326 0.010580813951497932 0 0.016978568961749579 0.010448902438468022 0 0.016982369358593326 0.010580813951497932 0 0.016903644200289718 0.010501082658515204 0 0.016978568961749579 0.010448902438468022 0 0.016935820217379036 0.010410384165555276 0 0.016903644200289718 0.010501082658515204 0 -0.0071586241410499258 0.0053301553292537029 0 -0.0082317388647262808 0.0060025338845919613 0 -0.0086288122931190894 0.0075668734033944619 0 -0.0062768164560510434 0.0075296991022074178 0 -0.0075651241638982859 0.0079277915456194507 0 -0.0086288122931190894 0.0075668734033944619 0 -0.0086184718493102618 0.0066417896875241586 0 -0.0082317388647262808 0.0060025338845919613 0 -0.0086288122931190894 0.0075668734033944619 0 -0.0086184718493102618 0.0066417896875241586 0 -0.0088689906045586672 0.0070783788396955169 0 -0.0092369053079042352 0.0068356528919502656 0 -0.0088689906045586672 0.0070783788396955169 0 -0.00895212475036683 0.0073086322213705666 0 -0.0092369053079042352 0.0068356528919502656 0 -0.0088689906045586672 0.0070783788396955169 0 -0.00895212475036683 0.0073086322213705666 0 -0.0086288122931190894 0.0075668734033944619 0 -0.0086184718493102618 0.0066417896875241586 0 -0.0088689906045586672 0.0070783788396955169 0 -0.0086288122931190894 0.0075668734033944619 0 -0.0086184718493102618 0.0066417896875241586 0 -0.0090997730308728028 0.0060515275500828605 0 -0.0092369053079042352 0.0068356528919502656 0 -0.0086184718493102618 0.0066417896875241586 0 -0.0082317388647262808 0.0060025338845919613 0 -0.0090997730308728028 0.0060515275500828605 0 -0.0087256060349441833 0.005159137768224728 0 -0.0082317388647262808 0.0060025338845919613 0 -0.0090997730308728028 0.0060515275500828605 0 -0.0096485445602570302 0.0055982273407014834 0 -0.0094724921213518287 0.0062799969392527827 0 -0.0098571637148531996 0.0066759571526818461 0 -0.0074567912900783892 0.0028490328688540551 0 -0.0096126514959569056 0.0029347550030356384 0 -0.010627024976109163 0.0070628820949265037 0 -0.0096485445602570302 0.0055982273407014834 0 -0.010627024976109163 0.0070628820949265037 0 -0.0098571637148531996 0.0066759571526818461 0 -0.0088410329425798601 0.0043231204489392388 0 -0.010350811770018802 0.006429850100331154 0 -0.0090997730308728028 0.0060515275500828605 0 -0.0094724921213518287 0.0062799969392527827 0 -0.0092369053079042352 0.0068356528919502656 0 -0.0096485445602570302 0.0055982273407014834 0 -0.0090997730308728028 0.0060515275500828605 0 -0.0094724921213518287 0.0062799969392527827 0 -0.010627024976109163 0.0070628820949265037 0 -0.0098571637148531996 0.0066759571526818461 0 -0.010065462302504153 0.0073571392734042024 0 -0.0098571637148531996 0.0066759571526818461 0 -0.0092369053079042352 0.0068356528919502656 0 -0.0095424904322829011 0.0075177313732029327 0 -0.0094724921213518287 0.0062799969392527827 0 -0.0098571637148531996 0.0066759571526818461 0 -0.0092369053079042352 0.0068356528919502656 0 -0.0092369053079042352 0.0068356528919502656 0 -0.0091611731769243275 0.0073297535874020962 0 -0.0095424904322829011 0.0075177313732029327 0 -0.00895212475036683 0.0073086322213705666 0 -0.0092369053079042352 0.0068356528919502656 0 -0.0091611731769243275 0.0073297535874020962 0 -0.0080057071492607296 0.0097397150371021524 0 -0.001032138635929544 0.012395975136564112 0 -0.0091611731769243275 0.0073297535874020962 0 -0.0095424904322829011 0.0075177313732029327 0 -0.0088999737885427088 0.0076608934356856813 0 -0.0095424904322829011 0.0075177313732029327 0 -0.010065462302504153 0.0073571392734042024 0 -0.0099493919488010726 0.008980637445182604 0 -0.0088999737885427088 0.0076608934356856813 0 -0.0090819756449660328 0.0093729316734130659 0 -0.010466448822431845 0.010084850571104732 0 -0.0095424904322829011 0.0075177313732029327 0 -0.0088999737885427088 0.0076608934356856813 0 -0.0099493919488010726 0.008980637445182604 0 -0.0098571637148531996 0.0066759571526818461 0 -0.0095424904322829011 0.0075177313732029327 0 -0.010065462302504153 0.0073571392734042024 0 -0.0084813707212150098 0.0089349980772004279 0 -0.0088999737885427088 0.0076608934356856813 0 -0.0090819756449660328 0.0093729316734130659 0 -0.0084813707212150098 0.0089349980772004279 0 -0.0084773252020156602 0.0081211052021693125 0 -0.0081646219987216023 0.0085222568080898526 0 -0.0084813707212150098 0.0089349980772004279 0 -0.0084773252020156602 0.0081211052021693125 0 -0.0088999737885427088 0.0076608934356856813 0 -0.0084773252020156602 0.0081211052021693125 0 -0.0080873447965709392 0.0081411141525056744 0 -0.0081646219987216023 0.0085222568080898526 0 -0.0084773252020156602 0.0081211052021693125 0 -0.0086288122931190894 0.0075668734033944619 0 -0.0080873447965709392 0.0081411141525056744 0 -0.00895212475036683 0.0073086322213705666 0 -0.0086288122931190894 0.0075668734033944619 0 -0.0088999737885427088 0.0076608934356856813 0 -0.0084773252020156602 0.0081211052021693125 0 -0.0086288122931190894 0.0075668734033944619 0 -0.0088999737885427088 0.0076608934356856813 0 -0.00895212475036683 0.0073086322213705666 0 -0.0091611731769243275 0.0073297535874020962 0 -0.0088999737885427088 0.0076608934356856813 0 -0.0075651241638982859 0.0079277915456194507 0 -0.0080873447965709392 0.0081411141525056744 0 -0.0076147049189385424 0.0085908265437647686 0 -0.0075651241638982859 0.0079277915456194507 0 -0.0086288122931190894 0.0075668734033944619 0 -0.0080873447965709392 0.0081411141525056744 0 -0.0080873447965709392 0.0081411141525056744 0 -0.0076147049189385424 0.0085908265437647686 0 -0.0081646219987216023 0.0085222568080898526 0 -0.0076147049189385424 0.0085908265437647686 0 -0.0079486330322493508 0.0091165808383449915 0 -0.0073239713346424555 0.0095117143853819669 0 -0.0076147049189385424 0.0085908265437647686 0 -0.0081646219987216023 0.0085222568080898526 0 -0.0079486330322493508 0.0091165808383449915 0 -0.0084813707212150098 0.0089349980772004279 0 -0.0081646219987216023 0.0085222568080898526 0 -0.0079486330322493508 0.0091165808383449915 0 -0.0079486330322493508 0.0091165808383449915 0 -0.0080965943083675437 0.0099578551418265035 0 -0.0073239713346424555 0.0095117143853819669 0 -0.0084813707212150098 0.0089349980772004279 0 -0.0079486330322493508 0.0091165808383449915 0 -0.0080965943083675437 0.0099578551418265035 0 -0.0080965943083675437 0.0099578551418265035 0 -0.0079636751619133004 0.01139230757516348 0 -0.0070760565599477226 0.010585901732942002 0 -0.0080965943083675437 0.0099578551418265035 0 -0.0088711480543421962 0.010580473707916066 0 -0.0079636751619133004 0.01139230757516348 0 -0.0080965943083675437 0.0099578551418265035 0 -0.0088711480543421962 0.010580473707916066 0 -0.0090819756449660328 0.0093729316734130659 0 -0.0084813707212150098 0.0089349980772004279 0 -0.0080965943083675437 0.0099578551418265035 0 -0.0090819756449660328 0.0093729316734130659 0 -0.0088711480543421962 0.010580473707916066 0 -0.0090819756449660328 0.0093729316734130659 0 -0.010466448822431845 0.010084850571104732 0 -0.0088711480543421962 0.010580473707916066 0 -0.010466448822431845 0.010084850571104732 0 -0.009214705014420059 0.012275860412406822 0 -0.001032138635929544 0.012395975136564112 0 -0.0032258133233237667 0.01685879224663217 0 0.0023852953461045876 0.022658600762209838 0 0.0016907607627721245 0.021418376968120999 0 0.002513319220197451 0.021365852957969986 0 -0.0088711480543421962 0.010580473707916066 0 -0.009214705014420059 0.012275860412406822 0 -0.0079636751619133004 0.01139230757516348 0 -0.009214705014420059 0.012275860412406822 0 -0.0079636751619133004 0.01139230757516348 0 -0.0077423562881630183 0.012775376967854949 0 0.016982369358593326 0.010580813951497932 0 0.016864519223616363 0.010578584033871108 0 0.016841499030131137 0.010670213146262358 0 0.014438973362654057 0.010115802312577809 0 0.015992933344352971 0.010535846073026805 0 0.016982369358593326 0.010580813951497932 0 0.016903644200289718 0.010501082658515204 0 0.016864519223616363 0.010578584033871108 0 0.015740979822184149 0.011372537230246471 0 0.016477345397211896 0.011477589132523624 0 0.016418615393302582 0.010719399374002663 0 0.0023852953461045876 0.022658600762209838 0 0.0032429632968726751 0.021655923540091243 0 0.002513319220197451 0.021365852957969986 0 -0.001032138635929544 0.012395975136564112 0 0.0088033741475719365 0.01504291156899853 0 0.016477345397211896 0.011477589132523624 0 0.016418615393302582 0.010719399374002663 0 0.016812226453383278 0.010762559969315339 0 0.016982369358593326 0.010580813951497932 0 0.016812226453383278 0.010762559969315339 0 0.016841499030131137 0.010670213146262358 0 0.016418615393302582 0.010719399374002663 0 0.016812226453383278 0.010762559969315339 0 0.01675332606219641 0.010705132882276073 0 0.016812226453383278 0.010762559969315339 0 0.016826182872240605 0.010712624933568695 0 0.01675332606219641 0.010705132882276073 0 0.016812226453383278 0.010762559969315339 0 0.016826182872240605 0.010712624933568695 0 0.016837194550161472 0.010718911078315551 0 0.016812226453383278 0.010762559969315339 0 0.016837194550161472 0.010718911078315551 0 0.016841499030131137 0.010670213146262358 0 0.0032429632968726751 0.021655923540091243 0 0.0042347758966324407 0.020670253900478414 0 0.0041327250969765755 0.020712460243844846 0 0.016418615393302582 0.010719399374002663 0 0.016829797750646622 0.010658701322059755 0 0.01675332606219641 0.010705132882276073 0 0.0032429632968726751 0.021655923540091243 0 0.0041327250969765755 0.020712460243844846 0 0.0031152470361583448 0.020727609987409624 0 0.0088033741475719365 0.01504291156899853 0 0.0094887845838384725 0.016387764862923027 0 0.0042557381905918125 0.020682937996077747 0 0.0041327250969765755 0.020712460243844846 0 0.0041870452417939073 0.020448293369989858 0 0.0094887845838384725 0.016387764862923027 0 0.0093131456876366387 0.016494051817693384 0 0.016829797750646622 0.010658701322059755 0 0.016813344878568764 0.010691948426865697 0 0.016844278420540919 0.010702193609166804 0 0.016813344878568764 0.010691948426865697 0 0.016826182872240605 0.010712624933568695 0 0.016844278420540919 0.010702193609166804 0 0.016829797750646622 0.010658701322059755 0 0.016813344878568764 0.010691948426865697 0 0.01675332606219641 0.010705132882276073 0 0.016813344878568764 0.010691948426865697 0 0.016826182872240605 0.010712624933568695 0 0.01675332606219641 0.010705132882276073 0 0.0041327250969765755 0.020712460243844846 0 0.0031152470361583448 0.020727609987409624 0 0.0038419262714719689 0.020256956278622146 0 0.0032429632968726751 0.021655923540091243 0 0.0031152470361583448 0.020727609987409624 0 0.002513319220197451 0.021365852957969986 0 0.0031152470361583448 0.020727609987409624 0 0.002513319220197451 0.021365852957969986 0 0.0021793288495680898 0.020474642443332497 0 0.0030115017153512801 0.019986659904778537 0 0.0036187387625602318 0.019562388044625786 0 0.0023352949182806073 0.019401718990871803 0 0.0030115017153512801 0.019986659904778537 0 0.0021793288495680898 0.020474642443332497 0 0.0023352949182806073 0.019401718990871803 0 0.0031152470361583448 0.020727609987409624 0 0.0030115017153512801 0.019986659904778537 0 0.0021793288495680898 0.020474642443332497 0 0.0031152470361583448 0.020727609987409624 0 0.0030115017153512801 0.019986659904778537 0 0.0038419262714719689 0.020256956278622146 0 0.0038419262714719689 0.020256956278622146 0 0.0036187387625602318 0.019562388044625786 0 0.0043792224275532414 0.020039841832894513 0 0.0030115017153512801 0.019986659904778537 0 0.0038419262714719689 0.020256956278622146 0 0.0036187387625602318 0.019562388044625786 0 0.0036187387625602318 0.019562388044625786 0 0.0043792224275532414 0.020039841832894513 0 0.0046346491534857183 0.019432398666821483 0 0.0043792224275532414 0.020039841832894513 0 0.0041870452417939073 0.020448293369989858 0 0.0045268210927457289 0.02051063927548915 0 0.0038419262714719689 0.020256956278622146 0 0.0043792224275532414 0.020039841832894513 0 0.0041870452417939073 0.020448293369989858 0 0.0041327250969765755 0.020712460243844846 0 0.0038419262714719689 0.020256956278622146 0 0.0041870452417939073 0.020448293369989858 0 0.0042557381905918125 0.020682937996077747 0 0.0041870452417939073 0.020448293369989858 0 0.0045268210927457289 0.02051063927548915 0 0.0094887845838384725 0.016387764862923027 0 0.0086865021692179509 0.017315531783297949 0 -0.0032258133233237667 0.01685879224663217 0 -0.0037698651596811432 0.016957493553334868 0 -0.009214705014420059 0.012275860412406822 0 -0.0077423562881630183 0.012775376967854949 0 -0.008079974936619402 0.014449807044370714 0 0.0016907607627721245 0.021418376968120999 0 0.002513319220197451 0.021365852957969986 0 0.0021793288495680898 0.020474642443332497 0 0.0016907607627721245 0.021418376968120999 0 0.0021793288495680898 0.020474642443332497 0 0.00094237294659465913 0.02007058609460247 0 -0.0037698651596811432 0.016957493553334868 0 0.0015930949097733157 0.019000020593406313 0 0.0021793288495680898 0.020474642443332497 0 0.00094237294659465913 0.02007058609460247 0 0.0023352949182806073 0.019401718990871803 0 -0.0021165682705977726 0.021081130870313977 0 0.00090498148324527736 0.019695712894432969 0 -0.0014046115547626987 0.018855737401695175 0 -0.0037698651596811432 0.016957493553334868 0 -0.0041987119440701874 0.016886276476118553 0 -0.0061873045451897035 0.01417482666645308 0 -0.0054072440813692666 0.014430666637529845 0 -0.0056555240265269537 0.015014479925606002 0 -0.0054072440813692666 0.014430666637529845 0 -0.0049811503044153663 0.014156591551520482 0 -0.0055956558476981137 0.013793222423290147 0 -0.0037698651596811432 0.016957493553334868 0 -0.0055404409173439887 0.014862548953582437 0 -0.0061873045451897035 0.01417482666645308 0 -0.0054072440813692666 0.014430666637529845 0 -0.0055956558476981137 0.013793222423290147 0 -0.0049811503044153663 0.014156591551520482 0 -0.0044925654509653523 0.014472669123922637 0 -0.00478988487922208 0.014933823790803442 0 -0.0054072440813692666 0.014430666637529845 0 -0.0049811503044153663 0.014156591551520482 0 -0.00478988487922208 0.014933823790803442 0 -0.0051680222228966746 0.013663261565460333 0 -0.0051779860274421101 0.011801629159166195 0 -0.0049811503044153663 0.014156591551520482 0 -0.0052540122290891814 0.013079214792505527 0 -0.0055956558476981137 0.013793222423290147 0 -0.0049811503044153663 0.014156591551520482 0 -0.0052540122290891814 0.013079214792505527 0 -0.0046717475067329303 0.011754188070922851 0 -0.0051872040984314123 0.014002761955132094 0 -0.0055404409173439887 0.014862548953582437 0 -0.0052540122290891814 0.013079214792505527 0 -0.0067059173215361896 0.013785145904823999 0 -0.0067337505159179179 0.011979063913869879 0 -0.0077423562881630183 0.012775376967854949 0 -0.0067059173215361896 0.013785145904823999 0 -0.0067337505159179179 0.011979063913869879 0 -0.0077423562881630183 0.012775376967854949 0 -0.008079974936619402 0.014449807044370714 0 -0.0067059173215361896 0.013785145904823999 0 -0.0079636751619133004 0.01139230757516348 0 -0.0077423562881630183 0.012775376967854949 0 -0.0067337505159179179 0.011979063913869879 0 -0.0079636751619133004 0.01139230757516348 0 -0.0067337505159179179 0.011979063913869879 0 -0.0070760565599477226 0.010585901732942002 0 -0.0067337505159179179 0.011979063913869879 0 -0.0058860645420482681 0.010644473354192403 0 -0.0070760565599477226 0.010585901732942002 0 -0.0052540122290891814 0.013079214792505527 0 -0.0067337505159179179 0.011979063913869879 0 -0.0056282267124436102 0.011866076172717142 0 -0.0052540122290891814 0.013079214792505527 0 -0.0056282267124436102 0.011866076172717142 0 -0.0046717475067329303 0.011754188070922851 0 -0.0056282267124436102 0.011866076172717142 0 -0.0058860645420482681 0.010644473354192403 0 -0.0046717475067329303 0.011754188070922851 0 -0.0067337505159179179 0.011979063913869879 0 -0.0056282267124436102 0.011866076172717142 0 -0.0058860645420482681 0.010644473354192403 0 -0.0060173285138050633 0.009323872882732516 0 -0.0047865805983295841 0.0090990927691345282 0 -0.0058860645420482681 0.010644473354192403 0 -0.0047865805983295841 0.0090990927691345282 0 -0.0058860645420482681 0.010644473354192403 0 -0.0046717475067329303 0.011754188070922851 0 -0.0060173285138050633 0.009323872882732516 0 -0.0058860645420482681 0.010644473354192403 0 -0.0066062725397780372 0.0097996517361516617 0 -0.0080965943083675437 0.0099578551418265035 0 -0.0073239713346424555 0.0095117143853819669 0 -0.0070760565599477226 0.010585901732942002 0 -0.0066062725397780372 0.0097996517361516617 0 -0.0073239713346424555 0.0095117143853819669 0 -0.0070760565599477226 0.010585901732942002 0 -0.0067570265156859854 0.0090061521802425985 0 -0.0066062725397780372 0.0097996517361516617 0 -0.0073239713346424555 0.0095117143853819669 0 -0.0058860645420482681 0.010644473354192403 0 -0.0066062725397780372 0.0097996517361516617 0 -0.0070760565599477226 0.010585901732942002 0 -0.0048593885323629802 0.0090926068926693512 0 -0.0047098968567513486 0.0099895127144999183 0 -0.0044960696627906107 0.0094151367083142815 0 -0.0047098968567513486 0.0099895127144999183 0 -0.0044960696627906107 0.0094151367083142815 0 -0.0045287046481534352 0.0096505866698218187 0 -0.005530683876161859 0.0091985753529009503 0 -0.0047098968567513486 0.0099895127144999183 0 -0.0057577573971228143 0.011891174595971169 0 -0.005128357768958711 0.0093040624496831884 0 -0.0051779860274421101 0.011801629159166195 0 -0.0047098968567513486 0.0099895127144999183 0 -0.0057577573971228143 0.011891174595971169 0 -0.0045109021711104164 0.012067800800472928 0 -0.0046322558017997621 0.010176186155038069 0 -0.0041652112096440541 0.010931640280127018 0 -0.0047098968567513486 0.0099895127144999183 0 -0.0045109021711104164 0.012067800800472928 0 -0.0032583815101092598 0.01257068195834554 0 -0.0043145830924608336 0.013539492957127676 0 -0.0036215861002960106 0.013754733956967953 0 -0.0032583815101092598 0.01257068195834554 0 -0.0045109021711104164 0.012067800800472928 0 -0.0043145830924608336 0.013539492957127676 0 -0.0032583815101092598 0.01257068195834554 0 -0.0049811503044153663 0.014156591551520482 0 -0.0057577573971228143 0.011891174595971169 0 -0.0043145830924608336 0.013539492957127676 0 -0.0057577573971228143 0.011891174595971169 0 -0.0045109021711104164 0.012067800800472928 0 -0.0043145830924608336 0.013539492957127676 0 -0.0043145830924608336 0.013539492957127676 0 -0.0044925654509653523 0.014472669123922637 0 -0.0040999636904634016 0.014566489922537652 0 -0.0049811503044153663 0.014156591551520482 0 -0.0043145830924608336 0.013539492957127676 0 -0.0044925654509653523 0.014472669123922637 0 -0.0043145830924608336 0.013539492957127676 0 -0.0036215861002960106 0.013754733956967953 0 -0.0040999636904634016 0.014566489922537652 0 -0.0036215861002960106 0.013754733956967953 0 -0.003643868279633387 0.014353495091797333 0 -0.0040999636904634016 0.014566489922537652 0 -0.0043674856347277885 0.0098167126819458661 0 -0.0041875586444274776 0.0095542255858332877 0 -0.0045287046481534352 0.0096505866698218187 0 -0.0036215861002960106 0.013754733956967953 0 -0.0031619038615736334 0.013925834069924464 0 -0.003643868279633387 0.014353495091797333 0 -0.0033600171126263599 0.012833785655500949 0 -0.0041652112096440541 0.010931640280127018 0 -0.0036215861002960106 0.013754733956967953 0 -0.0031619038615736334 0.013925834069924464 0 -0.0032583815101092598 0.01257068195834554 0 -0.0033600171126263599 0.012833785655500949 0 -0.01283362416437508 0.0098566048428837295 0 -0.0043674856347277885 0.0098167126819458661 0 -0.0040860858066236808 0.0098411296524576718 0 -0.0042227759774260635 0.010034751410890313 0 -0.028738690353246665 0.0065234950686090141 0 -0.030210231687019726 0.0060121452283120741 0 -0.029788570723802015 0.0082999946702558784 0 -0.028738690353246665 0.0065234950686090141 0 -0.030210231687019726 0.0060121452283120741 0 -0.028671852390348695 0.0054073485832762946 0 -0.015770492426025899 0.0084764564561010201 0 -0.016927609525011621 0.0091188553220370259 0 -0.0040860858066236808 0.0098411296524576718 0 -0.0041875586444274776 0.0095542255858332877 0 -0.0039281914399396465 0.0096056459892261727 0 -0.0043674856347277885 0.0098167126819458661 0 -0.0040860858066236808 0.0098411296524576718 0 -0.0041875586444274776 0.0095542255858332877 0 -0.0041875586444274776 0.0095542255858332877 0 -0.0039782078874190463 0.0094037426906685168 0 -0.0039281914399396465 0.0096056459892261727 0 -0.0041875586444274776 0.0095542255858332877 0 -0.0039782078874190463 0.0094037426906685168 0 -0.0040272130715113281 0.0090893456083909335 0 -0.0039782078874190463 0.0094037426906685168 0 -0.0040272130715113281 0.0090893456083909335 0 -0.0037997565500016432 0.009355575897055466 0 -0.0011250174871386149 0.011178239360860813 0 -0.016542551216018209 0.0071991959194884847 0 -0.0041875586444274776 0.0095542255858332877 0 -0.0040272130715113281 0.0090893456083909335 0 -0.0043242849499957039 0.0093526644379701498 0 -0.0040272130715113281 0.0090893456083909335 0 -0.0043242849499957039 0.0093526644379701498 0 -0.0042792172106552694 0.0088965638500719431 0 -0.0043242849499957039 0.0093526644379701498 0 -0.0044960696627906107 0.0094151367083142815 0 -0.0042792172106552694 0.0088965638500719431 0 -0.0041875586444274776 0.0095542255858332877 0 -0.0043242849499957039 0.0093526644379701498 0 -0.0045287046481534352 0.0096505866698218187 0 -0.0043242849499957039 0.0093526644379701498 0 -0.0044960696627906107 0.0094151367083142815 0 -0.0045287046481534352 0.0096505866698218187 0 -0.026965413117516292 0.0016690932164882529 0 -0.02696990221466164 0.0016679143997581011 0 -0.02695294676075061 0.0016375741084426899 0 -0.033272705234386295 0.0036827275469358844 0 -0.030912939614852294 0.0047498756938104542 0 -0.037668943166208786 0.0065493232710176529 0 -0.035198638771272758 0.0078558014336897082 0 -0.03643031679810281 0.0062795719751232281 0 -0.035198638771272758 0.0078558014336897082 0 -0.035406282166024081 0.0058541629717627081 0 -0.034299495980689231 0.006220431648801289 0 -0.035198638771272758 0.0078558014336897082 0 -0.03643031679810281 0.0062795719751232281 0 -0.035406282166024081 0.0058541629717627081 0 -0.03643031679810281 0.0062795719751232281 0 -0.03639445495657595 0.0052600356202100566 0 -0.035406282166024081 0.0058541629717627081 0 -0.03639445495657595 0.0052600356202100566 0 -0.035406282166024081 0.0058541629717627081 0 -0.035781193523526704 0.004698952285171443 0 -0.035406282166024081 0.0058541629717627081 0 -0.035781193523526704 0.004698952285171443 0 -0.034753503544716062 0.0049764883261266494 0 -0.035406282166024081 0.0058541629717627081 0 -0.034299495980689231 0.006220431648801289 0 -0.034753503544716062 0.0049764883261266494 0 -0.034299495980689231 0.006220431648801289 0 -0.033241575084686094 0.0054562617557365042 0 -0.033138509598456836 0.0073184772150729814 0 -0.034299495980689231 0.006220431648801289 0 -0.033241575084686094 0.0054562617557365042 0 -0.034753503544716062 0.0049764883261266494 0 -0.035198638771272758 0.0078558014336897082 0 -0.034299495980689231 0.006220431648801289 0 -0.033138509598456836 0.0073184772150729814 0 -0.035198638771272758 0.0078558014336897082 0 -0.033138509598456836 0.0073184772150729814 0 -0.033000605866926644 0.0090667957128762848 0 -0.030912939614852294 0.0047498756938104542 0 -0.030483039424975433 0.0042358204779332836 0 -0.033138509598456836 0.0073184772150729814 0 -0.031556028704786777 0.0082794687936977203 0 -0.033000605866926644 0.0090667957128762848 0 -0.033138509598456836 0.0073184772150729814 0 -0.031556028704786777 0.0082794687936977203 0 -0.031690977690616226 0.0066187630939018019 0 -0.033241575084686094 0.0054562617557365042 0 -0.033138509598456836 0.0073184772150729814 0 -0.031690977690616226 0.0066187630939018019 0 -0.033241575084686094 0.0054562617557365042 0 -0.031690977690616226 0.0066187630939018019 0 -0.032155930235564338 0.0045079590395191316 0 -0.031690977690616226 0.0066187630939018019 0 -0.030210231687019726 0.0060121452283120741 0 -0.032155930235564338 0.0045079590395191316 0 -0.031690977690616226 0.0066187630939018019 0 -0.030210231687019726 0.0060121452283120741 0 -0.029788570723802015 0.0082999946702558784 0 -0.031556028704786777 0.0082794687936977203 0 -0.031690977690616226 0.0066187630939018019 0 -0.029788570723802015 0.0082999946702558784 0 -0.0039782078874190463 0.0094037426906685168 0 -0.0039281914399396465 0.0096056459892261727 0 -0.0037997565500016432 0.009355575897055466 0 -0.016927609525011621 0.0091188553220370259 0 -0.016542551216018209 0.0071991959194884847 0 -0.031556028704786777 0.0082794687936977203 0 -0.029788570723802015 0.0082999946702558784 0 -0.030839372151165501 0.010205237876339614 0 -0.0036867292095540852 0.0092331209422881946 0 -0.0034154308505028757 0.008877179528823954 0 -0.0037108116403482831 0.0089701199341535118 0 -0.0040272130715113281 0.0090893456083909335 0 -0.0036867292095540852 0.0092331209422881946 0 -0.0037108116403482831 0.0089701199341535118 0 -0.016542551216018209 0.0071991959194884847 0 -0.015128197533201885 0.0049284446262432089 0 -0.027060983114594556 0.0016454115935214658 0 -0.026992530276821459 0.0015806412608517732 0 -0.027057711226655703 0.001474258332627871 0 -0.027060983114594556 0.0016454115935214658 0 -0.027001154353466856 0.0016600238990279179 0 -0.026992530276821459 0.0015806412608517732 0 -0.016542551216018209 0.0071991959194884847 0 -0.030483039424975433 0.0042358204779332836 0 -0.031556028704786777 0.0082794687936977203 0 -0.030839372151165501 0.010205237876339614 0 -0.033000605866926644 0.0090667957128762848 0 -0.027001154353466856 0.0016600238990279179 0 -0.026954700230988449 0.001618567222601081 0 -0.026992530276821459 0.0015806412608517732 0 -0.02696990221466164 0.0016679143997581011 0 -0.027001154353466856 0.0016600238990279179 0 -0.026954700230988449 0.001618567222601081 0 -0.026954700230988449 0.001618567222601081 0 -0.026992530276821459 0.0015806412608517732 0 -0.026906346860625957 0.0015362781884252874 0 -0.026906346860625957 0.0015362781884252874 0 -0.026920409436289962 0.0015883250692809987 0 -0.026922363700427308 0.0015296158861704489 0 -0.030689715133746163 0.0021050423481842832 0 -0.032426685562163736 0.00045723630925674963 0 -0.033187263772124977 0.0016008626928449938 0 -0.033210378417765855 0.0021551806746630243 0 -0.033643655183348657 0.00039670700126492056 0 -0.026954700230988449 0.001618567222601081 0 -0.026906346860625957 0.0015362781884252874 0 -0.026920409436289962 0.0015883250692809987 0 -0.032945714465947705 0.0028778038989546997 0 -0.033187263772124977 0.0016008626928449938 0 -0.033210378417765855 0.0021551806746630243 0 -0.026954700230988449 0.001618567222601081 0 -0.026920409436289962 0.0015883250692809987 0 -0.02695294676075061 0.0016375741084426899 0 -0.02696990221466164 0.0016679143997581011 0 -0.026954700230988449 0.001618567222601081 0 -0.02695294676075061 0.0016375741084426899 0 -0.026965413117516292 0.0016690932164882529 0 -0.026920409436289962 0.0015883250692809987 0 -0.02695294676075061 0.0016375741084426899 0 -0.042674596107701072 -0.0060611090374405414 0 -0.042988954935217594 -0.0057961272103337824 0 -0.042924112653938661 -0.0055608511396629612 0 -0.026635752320463224 0.0010959616092614823 0 -0.026699981583603212 0.0010926329971767635 0 -0.026624631372495496 0.00077325166160823334 0 -0.026699981583603212 0.0010926329971767635 0 -0.026684991774882805 0.0013449591274917558 0 -0.026921802921044 0.0013715652137848745 0 -0.029822345788372673 0.0015419362136522385 0 -0.032126820590672789 -0.00019789708363650245 0 -0.026699981583603212 0.0010926329971767635 0 -0.02664653766873637 0.0012092749543915992 0 -0.026681035751921031 0.0012485208789914785 0 -0.026635752320463224 0.0010959616092614823 0 -0.026699981583603212 0.0010926329971767635 0 -0.02664653766873637 0.0012092749543915992 0 -0.032428824620849152 -0.0012428611345472022 0 -0.035587465387829385 -0.0014096513490175044 0 -0.035571024880650018 0.00082469192487510945 0 -0.035842359863925997 -0.00061537383344158463 0 -0.035956567725029913 -0.00017921094219088834 0 -0.036837779344234371 0.00090502776812213435 0 -0.035587465387829385 -0.0014096513490175044 0 -0.035842359863925997 -0.00061537383344158463 0 -0.035956567725029913 -0.00017921094219088834 0 -0.036007800176923795 -0.00038113010895549407 0 -0.035587465387829385 -0.0014096513490175044 0 -0.032126820590672789 -0.00019789708363650245 0 -0.032426685562163736 0.00045723630925674963 0 -0.032126820590672789 -0.00019789708363650245 0 -0.036837779344234371 0.00090502776812213435 0 -0.032426685562163736 0.00045723630925674963 0 -0.026906346860625957 0.0015362781884252874 0 -0.026922363700427308 0.0015296158861704489 0 -0.026926728364545582 0.0015277502412491737 0 -0.029257749886161751 -9.5692178575479034e-05 0 -0.032126820590672789 -0.00019789708363650245 0 -0.026921802921044 0.0013715652137848745 0 -0.026990605899609405 0.0010919987326168902 0 -0.027057711226655703 0.001474258332627871 0 -0.026992530276821459 0.0015806412608517732 0 -0.026906346860625957 0.0015362781884252874 0 -0.026921802921044 0.0013715652137848745 0 -0.026992530276821459 0.0015806412608517732 0 -0.026921802921044 0.0013715652137848745 0 -0.027057711226655703 0.001474258332627871 0 -0.026906346860625957 0.0015362781884252874 0 -0.026684991774882805 0.0013449591274917558 0 -0.026921802921044 0.0013715652137848745 0 -0.026699981583603212 0.0010926329971767635 0 -0.026921802921044 0.0013715652137848745 0 -0.026990605899609405 0.0010919987326168902 0 -0.026699981583603212 0.0010926329971767635 0 -0.026990605899609405 0.0010919987326168902 0 -0.026624631372495496 0.00077325166160823334 0 -0.015063142471675801 0.0046474242307219865 0 -0.015128197533201885 0.0049284446262432089 0 -0.0029974936111341879 0.0083347955495732019 0 -0.0034710695727823947 0.0084952901738613532 0 -0.0036924243437661966 0.0081113063357527663 0 -0.0029974936111341879 0.0083347955495732019 0 -0.0034710695727823947 0.0084952901738613532 0 -0.0034154308505028757 0.008877179528823954 0 -0.0034710695727823947 0.0084952901738613532 0 -0.0034154308505028757 0.008877179528823954 0 -0.003722129146994606 0.0086034593926191723 0 -0.0034154308505028757 0.008877179528823954 0 -0.0037108116403482831 0.0089701199341535118 0 -0.003722129146994606 0.0086034593926191723 0 -0.003722129146994606 0.0086034593926191723 0 -0.0036924243437661966 0.0081113063357527663 0 -0.0039674289870350252 0.0084243440588933766 0 -0.0034710695727823947 0.0084952901738613532 0 -0.003722129146994606 0.0086034593926191723 0 -0.0036924243437661966 0.0081113063357527663 0 -0.0038082816683442347 0.008002875867695344 0 -0.0042424170348440617 0.0075806192340605646 0 -0.0036362172157461954 0.0070647847659327011 0 -0.0047139906497850213 0.0073160827103674235 0 -0.0044102029835657308 0.0063949021010132291 0 -0.0036924243437661966 0.0081113063357527663 0 -0.0036362172157461954 0.0070647847659327011 0 -0.0047139906497850213 0.0073160827103674235 0 -0.0036362172157461954 0.0070647847659327011 0 -0.0031443739246423017 0.0076683182093900256 0 -0.0030131921405217037 0.0071068306926037094 0 -0.0036362172157461954 0.0070647847659327011 0 -0.0030131921405217037 0.0071068306926037094 0 -0.0031717996555677766 0.006618515003931417 0 -0.0029974936111341879 0.0083347955495732019 0 -0.0036924243437661966 0.0081113063357527663 0 -0.0031443739246423017 0.0076683182093900256 0 -0.0036924243437661966 0.0081113063357527663 0 -0.0036362172157461954 0.0070647847659327011 0 -0.0031443739246423017 0.0076683182093900256 0 -0.026990605899609405 0.0010919987326168902 0 -0.026731126267348818 0.00043450294532156812 0 -0.026624631372495496 0.00077325166160823334 0 -0.015063142471675801 0.0046474242307219865 0 -0.01524482141314254 0.0035472310377832085 0 -0.0029974936111341879 0.0083347955495732019 0 -0.0031443739246423017 0.0076683182093900256 0 -0.0024584394246109495 0.0074439539482121639 0 -0.0030131921405217037 0.0071068306926037094 0 -0.0024584394246109495 0.0074439539482121639 0 -0.0026955514629281867 0.0067505731394157144 0 -0.0031443739246423017 0.0076683182093900256 0 -0.0030131921405217037 0.0071068306926037094 0 -0.0024584394246109495 0.0074439539482121639 0 -0.026093617671392573 -0.00039673660083649012 0 -0.026354366817075123 1.6040710107190909e-05 0 -0.026329390684195458 0.00048045959459392355 0 -0.01524482141314254 0.0035472310377832085 0 -0.019889804272609009 -0.00027127526773861835 0 -0.026731126267348818 0.00043450294532156812 0 -0.026354366817075123 1.6040710107190909e-05 0 -0.02625771071392052 -0.00046114261768301828 0 -0.0024584394246109495 0.0074439539482121639 0 -0.0019992337599669756 0.0064751256428947964 0 -0.0026955514629281867 0.0067505731394157144 0 -0.026731126267348818 0.00043450294532156812 0 -0.026354366817075123 1.6040710107190909e-05 0 -0.026329390684195458 0.00048045959459392355 0 -0.042674596107701072 -0.0060611090374405414 0 -0.042988954935217594 -0.0057961272103337824 0 -0.042911878626907617 -0.006341605042124626 0 -0.026591856278678928 0.0011726623699322408 0 -0.026329390684195458 0.00048045959459392355 0 -0.026624631372495496 0.00077325166160823334 0 -0.032428824620849152 -0.0012428611345472022 0 -0.033370218668951505 -0.0026573451500651393 0 -0.026731126267348818 0.00043450294532156812 0 -0.026329390684195458 0.00048045959459392355 0 -0.026624631372495496 0.00077325166160823334 0 -0.032428824620849152 -0.0012428611345472022 0 -0.03013080842044643 0.00098519317325727516 0 -0.0042792172106552694 0.0088965638500719431 0 -0.0039674289870350252 0.0084243440588933766 0 -0.0043953676357622248 0.0082653256958453297 0 -0.0046477892556410156 0.008781459153559228 0 -0.0047414671786128581 0.0082399544092863885 0 -0.0043953676357622248 0.0082653256958453297 0 -0.0046477892556410156 0.008781459153559228 0 -0.0042792172106552694 0.0088965638500719431 0 -0.0043953676357622248 0.0082653256958453297 0 -0.0046477892556410156 0.008781459153559228 0 -0.0044960696627906107 0.0094151367083142815 0 -0.0042792172106552694 0.0088965638500719431 0 -0.0040272130715113281 0.0090893456083909335 0 -0.0042792172106552694 0.0088965638500719431 0 -0.0039674289870350252 0.0084243440588933766 0 -0.0040272130715113281 0.0090893456083909335 0 -0.003722129146994606 0.0086034593926191723 0 -0.0039674289870350252 0.0084243440588933766 0 -0.0040272130715113281 0.0090893456083909335 0 -0.0037108116403482831 0.0089701199341535118 0 -0.003722129146994606 0.0086034593926191723 0 -0.0039674289870350252 0.0084243440588933766 0 -0.0041349352491588656 0.0079929098356501388 0 -0.0043953676357622248 0.0082653256958453297 0 -0.0036924243437661966 0.0081113063357527663 0 -0.0039674289870350252 0.0084243440588933766 0 -0.0038262460676624565 0.0079352978190547676 0 -0.0039674289870350252 0.0084243440588933766 0 -0.0038262460676624565 0.0079352978190547676 0 -0.0041349352491588656 0.0079929098356501388 0 -0.0042424170348440617 0.0075806192340605646 0 -0.0046076397443104268 0.0068641166747250371 0 -0.0038262460676624565 0.0079352978190547676 0 -0.0041349352491588656 0.0079929098356501388 0 -0.0040884214974530285 0.0075745476162780876 0 -0.0041349352491588656 0.0079929098356501388 0 -0.0044314526232670593 0.0077402792371536102 0 -0.0040884214974530285 0.0075745476162780876 0 -0.0041349352491588656 0.0079929098356501388 0 -0.0044314526232670593 0.0077402792371536102 0 -0.0043953676357622248 0.0082653256958453297 0 -0.0047515981061957433 0.0079169439834395373 0 -0.0044314526232670593 0.0077402792371536102 0 -0.0043953676357622248 0.0082653256958453297 0 -0.0047414671786128581 0.0082399544092863885 0 -0.0047515981061957433 0.0079169439834395373 0 -0.0043953676357622248 0.0082653256958453297 0 -0.0047515981061957433 0.0079169439834395373 0 -0.0044314526232670593 0.0077402792371536102 0 -0.0048193837041953756 0.0074975410979765964 0 -0.0044314526232670593 0.0077402792371536102 0 -0.0044082283395273612 0.0072337154076149513 0 -0.0048193837041953756 0.0074975410979765964 0 -0.0042954405754407465 0.0041275357274134115 0 -0.0042613864902509594 0.0047416017258665646 0 -0.0024552824268984238 0.00077763720872094458 0 -0.0023121003186677654 0.00090493309924258498 0 -0.0037898002834889852 0.0021608409039511963 0 -0.0032938317756609995 0.00054547553259610537 0 -0.0024552824268984238 0.00077763720872094458 0 -0.0037898002834889852 0.0021608409039511963 0 -0.0032938317756609995 0.00054547553259610537 0 -0.0024552824268984238 0.00077763720872094458 0 -0.0026366930093417967 0.00038101320115930783 0 -0.002280653500623194 0.00051389566976077559 0 -0.002325348081208422 0.00088850995979102541 0 -0.0018886840552392388 0.00020965003965378923 0 -0.0024228493945720867 0.00046035855024472041 0 -0.0024552824268984238 0.00077763720872094458 0 -0.0026366930093417967 0.00038101320115930783 0 -0.002280653500623194 0.00051389566976077559 0 -0.0024228493945720867 0.00046035855024472041 0 -0.0024552824268984238 0.00077763720872094458 0 -0.002280653500623194 0.00051389566976077559 0 -0.0024552824268984238 0.00077763720872094458 0 -0.002325348081208422 0.00088850995979102541 0 -0.0042899944637769189 0.0040291792094347065 0 -0.0042954405754407465 0.0041275357274134115 0 -0.0044314526232670593 0.0077402792371536102 0 -0.0044082283395273612 0.0072337154076149513 0 -0.0040884214974530285 0.0075745476162780876 0 -0.0042954405754407465 0.0041275357274134115 0 -0.0046076397443104268 0.0068641166747250371 0 -0.0056144236450907338 0.0065232815127671028 0 -0.0050064728381825473 0.0057842900137857305 0 -0.0044102029835657308 0.0063949021010132291 0 -0.0047139906497850213 0.0073160827103674235 0 -0.0056144236450907338 0.0065232815127671028 0 -0.0044102029835657308 0.0063949021010132291 0 -0.0050064728381825473 0.0057842900137857305 0 -0.0054444782533516374 0.0048982791596443075 0 -0.0041744430036920336 0.0054514485521493326 0 -0.0050064728381825473 0.0057842900137857305 0 -0.0044102029835657308 0.0063949021010132291 0 -0.0041744430036920336 0.0054514485521493326 0 -0.0050064728381825473 0.0057842900137857305 0 -0.0056151525158893876 0.0057244483761027627 0 -0.0054444782533516374 0.0048982791596443075 0 -0.0065046971029216289 0.0057244978374923388 0 -0.0056144236450907338 0.0065232815127671028 0 -0.0056151525158893876 0.0057244483761027627 0 -0.0065046971029216289 0.0057244978374923388 0 -0.0056151525158893876 0.0057244483761027627 0 -0.0054444782533516374 0.0048982791596443075 0 -0.0056144236450907338 0.0065232815127671028 0 -0.0050064728381825473 0.0057842900137857305 0 -0.0056151525158893876 0.0057244483761027627 0 -0.0055565423870084481 -0.0044614674326025954 0 -0.0046781868831426588 -0.0060531964504988147 0 -0.00096120349098495169 -0.00023160518514719891 0 -0.0018886840552392388 0.00020965003965378923 0 -0.0019135960888569143 -0.00060188587221318983 0 -0.00721001036706281 -0.011693918116349671 0 -0.007251563191194456 -0.011697782364350899 0 -0.007282954998955855 -0.011729482494535473 0 -0.00721001036706281 -0.011693918116349671 0 -0.0072892424192144561 -0.01175413224766117 0 -0.007282954998955855 -0.011729482494535473 0 -0.0055565423870084481 -0.0044614674326025954 0 -0.005775538840575186 -0.0032102023796065264 0 -0.0055565423870084481 -0.0044614674326025954 0 -0.0051508581692459058 -0.0087603023242791983 0 -0.007251563191194456 -0.011697782364350899 0 -0.007314920012170106 -0.011698583375766774 0 -0.0072381358179578496 -0.011753900906053851 0 -0.0072999328708417549 -0.011612842496336375 0 -0.007251563191194456 -0.011697782364350899 0 -0.007314920012170106 -0.011698583375766774 0 -0.0072999328708417549 -0.011612842496336375 0 -0.007314920012170106 -0.011698583375766774 0 -0.0073694117093529368 -0.011629701014980882 0 -0.007314920012170106 -0.011698583375766774 0 -0.0073694117093529368 -0.011629701014980882 0 -0.0074027962024386055 -0.011696371648560596 0 -0.0074196243052157941 -0.011642179812830866 0 -0.0073694117093529368 -0.011629701014980882 0 -0.0074027962024386055 -0.011696371648560596 0 -0.0044231056653645864 -0.0077422397769043418 0 -0.0046781868831426588 -0.0060531964504988147 0 -0.0044231056653645864 -0.0077422397769043418 0 -0.0054478395736545964 -0.0097989685217096008 0 -0.0073959069367004471 -0.011603114755879222 0 -0.0074372752970341058 -0.011685872778475142 0 -0.0073188425905400829 -0.01145235026513374 0 -0.0044231056653645864 -0.0077422397769043418 0 -0.0048012927177960348 -0.0097429207643699774 0 -0.0032938317756609995 0.00054547553259610537 0 -0.0027069779988758819 -0.00010680034946006997 0 -0.00416619727086452 0.00040996039034075371 0 -0.0028936054183506727 -0.0010092732159309975 0 -0.0027069779988758819 -0.00010680034946006997 0 -0.00416619727086452 0.00040996039034075371 0 -0.0044231056653645864 -0.0077422397769043418 0 -0.0032736717524399694 -0.0014624888149746115 0 -0.0032938317756609995 0.00054547553259610537 0 -0.0027069779988758819 -0.00010680034946006997 0 -0.0026366930093417967 0.00038101320115930783 0 -0.0027069779988758819 -0.00010680034946006997 0 -0.0026366930093417967 0.00038101320115930783 0 -0.0023182402576730847 0.00017097059613140628 0 -0.0042954405754407465 0.0041275357274134115 0 -0.0055565423870084481 -0.0044614674326025954 0 -0.002325348081208422 0.00088850995979102541 0 -0.00096120349098495169 -0.00023160518514719891 0 -0.0018886840552392388 0.00020965003965378923 0 -0.0024228493945720867 0.00046035855024472041 0 -0.0026366930093417967 0.00038101320115930783 0 -0.0023182402576730847 0.00017097059613140628 0 -0.002280653500623194 0.00051389566976077559 0 -0.0024228493945720867 0.00046035855024472041 0 -0.0023182402576730847 0.00017097059613140628 0 -0.002280653500623194 0.00051389566976077559 0 -0.0023182402576730847 0.00017097059613140628 0 -0.0018886840552392388 0.00020965003965378923 0 -0.0023182402576730847 0.00017097059613140628 0 -0.0018886840552392388 0.00020965003965378923 0 -0.0019135960888569143 -0.00060188587221318983 0 -0.0028936054183506727 -0.0010092732159309975 0 -0.0027069779988758819 -0.00010680034946006997 0 -0.0019135960888569143 -0.00060188587221318983 0 -0.0027069779988758819 -0.00010680034946006997 0 -0.0023182402576730847 0.00017097059613140628 0 -0.0019135960888569143 -0.00060188587221318983 0 -0.0075100827764247062 -0.011750658798831904 0 -0.0074760094883117578 -0.011752907124240125 0 -0.0074534957062630499 -0.011763331770709883 0 -0.017385654635187087 -0.0091314918336699059 0 -0.009177246442148514 -0.0024628058766679424 0 -0.0074532382892860656 -0.011755490376506833 0 -0.0074534957062630499 -0.011763331770709883 0 -0.0074180072538027894 -0.01175952235397934 0 -0.0074760094883117578 -0.011752907124240125 0 -0.0074532382892860656 -0.011755490376506833 0 -0.0074697128082160417 -0.011749875307174355 0 -0.0074760094883117578 -0.011752907124240125 0 -0.0074532382892860656 -0.011755490376506833 0 -0.0074534957062630499 -0.011763331770709883 0 -0.016702279634440757 -0.0040448136541861215 0 -0.016945755000460576 -0.0035785727810098227 0 -0.017318993810627185 -0.0037274026653237582 0 -0.0019992337599669756 0.0064751256428947964 0 -0.0023922308361066969 0.0063195326312254557 0 -0.0026955514629281867 0.0067505731394157144 0 -0.019889804272609009 -0.00027127526773861835 0 -0.009177246442148514 -0.0024628058766679424 0 -0.026093617671392573 -0.00039673660083649012 0 -0.026354366817075123 1.6040710107190909e-05 0 -0.02625771071392052 -0.00046114261768301828 0 -0.0026955514629281867 0.0067505731394157144 0 -0.0030067407060458185 0.0060232839633770569 0 -0.0031717996555677766 0.006618515003931417 0 -0.0023922308361066969 0.0063195326312254557 0 -0.0026955514629281867 0.0067505731394157144 0 -0.0030067407060458185 0.0060232839633770569 0 -0.0030131921405217037 0.0071068306926037094 0 -0.0026955514629281867 0.0067505731394157144 0 -0.0031717996555677766 0.006618515003931417 0 -0.009177246442148514 -0.0024628058766679424 0 -0.0053332311390987697 -0.0024580798034327411 0 -0.0073943337061844827 -0.011768878890307297 0 -0.0074180072538027894 -0.01175952235397934 0 -0.0073706765693826908 -0.011756174358349124 0 -0.0074534957062630499 -0.011763331770709883 0 -0.0073943337061844827 -0.011768878890307297 0 -0.0074180072538027894 -0.01175952235397934 0 -0.0053332311390987697 -0.0024580798034327411 0 -0.005775538840575186 -0.0032102023796065264 0 -0.0030067407060458185 0.0060232839633770569 0 -0.0036685362612734105 0.0063078550585345472 0 -0.0041744430036920336 0.0054514485521493326 0 -0.0073943337061844827 -0.011768878890307297 0 -0.0072892424192144561 -0.01175413224766117 0 -0.0073706765693826908 -0.011756174358349124 0 -0.0030067407060458185 0.0060232839633770569 0 -0.0036685362612734105 0.0063078550585345472 0 -0.0031717996555677766 0.006618515003931417 0 -0.0036362172157461954 0.0070647847659327011 0 -0.0036685362612734105 0.0063078550585345472 0 -0.0031717996555677766 0.006618515003931417 0 -0.0036362172157461954 0.0070647847659327011 0 -0.0036685362612734105 0.0063078550585345472 0 -0.0044102029835657308 0.0063949021010132291 0 -0.0036685362612734105 0.0063078550585345472 0 -0.0044102029835657308 0.0063949021010132291 0 -0.0041744430036920336 0.0054514485521493326 0 -0.007282954998955855 -0.011729482494535473 0 -0.0072954048761733467 -0.011748302322340334 0 -0.0073706765693826908 -0.011756174358349124 0 -0.0072892424192144561 -0.01175413224766117 0 -0.007282954998955855 -0.011729482494535473 0 -0.0073706765693826908 -0.011756174358349124 0 -0.007251563191194456 -0.011697782364350899 0 -0.007282954998955855 -0.011729482494535473 0 -0.0072954048761733467 -0.011748302322340334 0 -0.007251563191194456 -0.011697782364350899 0 -0.0072954048761733467 -0.011748302322340334 0 -0.0072381358179578496 -0.011753900906053851 0 -0.0072954048761733467 -0.011748302322340334 0 -0.0073853891018568095 -0.011760393058068858 0 -0.0073706765693826908 -0.011756174358349124 0 -0.0072954048761733467 -0.011748302322340334 0 -0.0073244308875474781 -0.011759508640868799 0 -0.0072591594482956526 -0.011760815489641219 0 -0.0072954048761733467 -0.011748302322340334 0 -0.0073853891018568095 -0.011760393058068858 0 -0.0073244308875474781 -0.011759508640868799 0 -0.0073853891018568095 -0.011760393058068858 0 -0.0074413835131679961 -0.011753508912374692 0 -0.0073244308875474781 -0.011759508640868799 0 -0.0074180072538027894 -0.01175952235397934 0 -0.0073706765693826908 -0.011756174358349124 0 -0.0074129599544344969 -0.011756955856727171 0 -0.0074180072538027894 -0.01175952235397934 0 -0.0074129599544344969 -0.011756955856727171 0 -0.0074434655138790624 -0.011754228622621181 0 -0.0074532382892860656 -0.011755490376506833 0 -0.0074180072538027894 -0.01175952235397934 0 -0.0074434655138790624 -0.011754228622621181 0 -0.0074129599544344969 -0.011756955856727171 0 -0.0074379102747815957 -0.011758883846060159 0 -0.0074434655138790624 -0.011754228622621181 0 -0.0073853891018568095 -0.011760393058068858 0 -0.0073706765693826908 -0.011756174358349124 0 -0.0074129599544344969 -0.011756955856727171 0 -0.0073853891018568095 -0.011760393058068858 0 -0.0074129599544344969 -0.011756955856727171 0 -0.0074379102747815957 -0.011758883846060159 0 -0.0073853891018568095 -0.011760393058068858 0 -0.0074379102747815957 -0.011758883846060159 0 -0.0074413835131679961 -0.011753508912374692 0 -0.0074379102747815957 -0.011758883846060159 0 -0.0074538689694163447 -0.011769349782793011 0 -0.007451905303259356 -0.011785069651459514 0 -0.0074379102747815957 -0.011758883846060159 0 -0.0074538689694163447 -0.011769349782793011 0 -0.0074611947272466318 -0.011754475174135019 0 -0.0074663740484856318 -0.011768948587300878 0 -0.0074538689694163447 -0.011769349782793011 0 -0.0074505863675021012 -0.011794308570972781 0 -0.0074663740484856318 -0.011768948587300878 0 -0.0074538689694163447 -0.011769349782793011 0 -0.0074611947272466318 -0.011754475174135019 0 -0.0074820317770323665 -0.011747695608169777 0 -0.0074663740484856318 -0.011768948587300878 0 -0.0074611947272466318 -0.011754475174135019 0 -0.0074820317770323665 -0.011747695608169777 0 -0.0074611947272466318 -0.011754475174135019 0 -0.0074697128082160417 -0.011749875307174355 0 -0.0074379102747815957 -0.011758883846060159 0 -0.0074611947272466318 -0.011754475174135019 0 -0.0074434655138790624 -0.011754228622621181 0 -0.0074611947272466318 -0.011754475174135019 0 -0.0074434655138790624 -0.011754228622621181 0 -0.0074697128082160417 -0.011749875307174355 0 -0.0074532382892860656 -0.011755490376506833 0 -0.0074434655138790624 -0.011754228622621181 0 -0.0074697128082160417 -0.011749875307174355 0 -0.0074898851338305863 -0.011744941137924526 0 -0.0074760094883117578 -0.011752907124240125 0 -0.0074697128082160417 -0.011749875307174355 0 -0.0074346908246867649 -0.011855332840590651 0 -0.007451905303259356 -0.011785069651459514 0 -0.0074763030452953414 -0.011861681533185335 0 -0.0073893299440702378 -0.011935377179749055 0 -0.0074346908246867649 -0.011855332840590651 0 -0.007412064392284385 -0.011959204116944849 0 -0.0074346908246867649 -0.011855332840590651 0 -0.0074763030452953414 -0.011861681533185335 0 -0.007412064392284385 -0.011959204116944849 0 -0.0074346908246867649 -0.011855332840590651 0 -0.0074505863675021012 -0.011794308570972781 0 -0.007451905303259356 -0.011785069651459514 0 -0.0074538689694163447 -0.011769349782793011 0 -0.0074505863675021012 -0.011794308570972781 0 -0.007451905303259356 -0.011785069651459514 0 -0.0074379102747815957 -0.011758883846060159 0 -0.007451905303259356 -0.011785069651459514 0 -0.0074413835131679961 -0.011753508912374692 0 -0.007451905303259356 -0.011785069651459514 0 -0.0074413835131679961 -0.011753508912374692 0 -0.0075053729685759275 -0.011816469071057881 0 -0.0074763030452953414 -0.011861681533185335 0 -0.0075053729685759275 -0.011816469071057881 0 -0.0076492152232836659 -0.0119550305032617 0 -0.007451905303259356 -0.011785069651459514 0 -0.0074763030452953414 -0.011861681533185335 0 -0.0075053729685759275 -0.011816469071057881 0 -0.0079399680087619152 -0.012949891984825934 0 -0.0080109748718027139 -0.013017006076138623 0 -0.0079217579201365535 -0.013042787616730464 0 -0.0075590187123141701 -0.01213474917906021 0 -0.0077565197812687805 -0.012531362160311903 0 -0.0075053729685759275 -0.011816469071057881 0 -0.0075841699188851589 -0.011799583046289181 0 -0.0076492152232836659 -0.0119550305032617 0 -0.0074413835131679961 -0.011753508912374692 0 -0.0075053729685759275 -0.011816469071057881 0 -0.0075841699188851589 -0.011799583046289181 0 -0.0073961906913817621 -0.011882739409460828 0 -0.0075590187123141701 -0.01213474917906021 0 -0.0074413835131679961 -0.011753508912374692 0 -0.0073244308875474781 -0.011759508640868799 0 -0.0072733312581436827 -0.011735661095229234 0 -0.0073244308875474781 -0.011759508640868799 0 -0.0072733312581436827 -0.011735661095229234 0 -0.0072591594482956526 -0.011760815489641219 0 -0.0072954048761733467 -0.011748302322340334 0 -0.0072591594482956526 -0.011760815489641219 0 -0.0072381358179578496 -0.011753900906053851 0 -0.0072733312581436827 -0.011735661095229234 0 -0.0072591594482956526 -0.011760815489641219 0 -0.0072193104747174065 -0.011792371107443958 0 -0.0072591594482956526 -0.011760815489641219 0 -0.0072193104747174065 -0.011792371107443958 0 -0.0072381358179578496 -0.011753900906053851 0 -0.0075590187123141701 -0.01213474917906021 0 -0.0076286711329954784 -0.012477938227517806 0 -0.0072193104747174065 -0.011792371107443958 0 -0.0071497640232183277 -0.011907063241398917 0 -0.0072212671112397821 -0.011829008023183783 0 -0.0072733312581436827 -0.011735661095229234 0 -0.0072193104747174065 -0.011792371107443958 0 -0.0071497640232183277 -0.011907063241398917 0 -0.0080109748718027139 -0.013017006076138623 0 -0.0080086293002793411 -0.013083211140985774 0 -0.0079217579201365535 -0.013042787616730464 0 -0.0080086293002793411 -0.013083211140985774 0 -0.0078663034916924904 -0.013184195917566581 0 -0.0080955541048459007 -0.013169992625397489 0 -0.0077565197812687805 -0.012531362160311903 0 -0.0078177905638321683 -0.012735962443261561 0 -0.0080086293002793411 -0.013083211140985774 0 -0.0079217579201365535 -0.013042787616730464 0 -0.0078663034916924904 -0.013184195917566581 0 -0.0074763030452953414 -0.011861681533185335 0 -0.0076492152232836659 -0.0119550305032617 0 -0.007412064392284385 -0.011959204116944849 0 -0.0076492152232836659 -0.0119550305032617 0 -0.007412064392284385 -0.011959204116944849 0 -0.0077667288213783946 -0.012178589768385548 0 -0.007412064392284385 -0.011959204116944849 0 -0.0071324156273481548 -0.012163045867137678 0 -0.0077667288213783946 -0.012178589768385548 0 -0.0073147471900899775 -0.012066896255842062 0 -0.007412064392284385 -0.011959204116944849 0 -0.0071324156273481548 -0.012163045867137678 0 -0.0074368539762025565 -0.011871862403840581 0 -0.007555905243016494 -0.012250540718978282 0 -0.0075659297132217628 -0.012030662928371835 0 -0.0074368539762025565 -0.011871862403840581 0 -0.0074372752970341058 -0.011685872778475142 0 -0.0075659297132217628 -0.012030662928371835 0 -0.0074372752970341058 -0.011685872778475142 0 -0.0075659297132217628 -0.012030662928371835 0 -0.007421873737070454 -0.011649424070331215 0 -0.0073959069367004471 -0.011603114755879222 0 -0.0074372752970341058 -0.011685872778475142 0 -0.0074027962024386055 -0.011696371648560596 0 -0.0074368539762025565 -0.011871862403840581 0 -0.0074027962024386055 -0.011696371648560596 0 -0.0073531318609556745 -0.011750348561571533 0 -0.0074368539762025565 -0.011871862403840581 0 -0.0074372752970341058 -0.011685872778475142 0 -0.0074027962024386055 -0.011696371648560596 0 -0.0074368539762025565 -0.011871862403840581 0 -0.0073531318609556745 -0.011750348561571533 0 -0.007282857503372678 -0.011796727589383075 0 -0.007314920012170106 -0.011698583375766774 0 -0.0074027962024386055 -0.011696371648560596 0 -0.0073531318609556745 -0.011750348561571533 0 -0.007314920012170106 -0.011698583375766774 0 -0.0073531318609556745 -0.011750348561571533 0 -0.007282857503372678 -0.011796727589383075 0 -0.007314920012170106 -0.011698583375766774 0 -0.007282857503372678 -0.011796727589383075 0 -0.0072381358179578496 -0.011753900906053851 0 -0.007282857503372678 -0.011796727589383075 0 -0.0072381358179578496 -0.011753900906053851 0 -0.0072212671112397821 -0.011829008023183783 0 -0.0072193104747174065 -0.011792371107443958 0 -0.0072381358179578496 -0.011753900906053851 0 -0.0072212671112397821 -0.011829008023183783 0 -0.0071497640232183277 -0.011907063241398917 0 -0.0072212671112397821 -0.011829008023183783 0 -0.007271747829517272 -0.011958558090115505 0 -0.007282857503372678 -0.011796727589383075 0 -0.0072212671112397821 -0.011829008023183783 0 -0.007271747829517272 -0.011958558090115505 0 -0.0074368539762025565 -0.011871862403840581 0 -0.007271747829517272 -0.011958558090115505 0 -0.007555905243016494 -0.012250540718978282 0 -0.0074368539762025565 -0.011871862403840581 0 -0.007282857503372678 -0.011796727589383075 0 -0.007271747829517272 -0.011958558090115505 0 -0.0071968937530285998 -0.012249276281905081 0 -0.0077019037045310112 -0.012847304407556286 0 -0.007555905243016494 -0.012250540718978282 0 -0.007271747829517272 -0.011958558090115505 0 -0.0071968937530285998 -0.012249276281905081 0 -0.007555905243016494 -0.012250540718978282 0 -0.0071497640232183277 -0.011907063241398917 0 -0.007271747829517272 -0.011958558090115505 0 -0.0071968937530285998 -0.012249276281905081 0 -0.0076286711329954784 -0.012477938227517806 0 -0.0076431987998254102 -0.012655161964534711 0 -0.0080109748718027139 -0.013017006076138623 0 -0.0080086293002793411 -0.013083211140985774 0 -0.0080186168884034507 -0.013069512765203755 0 -0.0080086293002793411 -0.013083211140985774 0 -0.0080186168884034507 -0.013069512765203755 0 -0.0080955541048459007 -0.013169992625397489 0 -0.0080186168884034507 -0.013069512765203755 0 -0.0080955541048459007 -0.013169992625397489 0 -0.0080266026081245254 -0.013078947787111526 0 -0.0076431987998254102 -0.012655161964534711 0 -0.0077111028595540443 -0.012782858543678482 0 -0.0080186168884034507 -0.013069512765203755 0 -0.0077019037045310112 -0.012847304407556286 0 -0.0080266026081245254 -0.013078947787111526 0 -0.0077019037045310112 -0.012847304407556286 0 -0.007555905243016494 -0.012250540718978282 0 -0.0077430655874357688 -0.012623080760136142 0 -0.007555905243016494 -0.012250540718978282 0 -0.0075659297132217628 -0.012030662928371835 0 -0.0077430655874357688 -0.012623080760136142 0 -0.0075659297132217628 -0.012030662928371835 0 -0.0077430655874357688 -0.012623080760136142 0 -0.0077039984658006707 -0.012238790706302769 0 -0.0077430655874357688 -0.012623080760136142 0 -0.0079634908379649719 -0.012642039845757867 0 -0.0077039984658006707 -0.012238790706302769 0 -0.0079634908379649719 -0.012642039845757867 0 -0.0078631440539820019 -0.012217688798687598 0 -0.0077039984658006707 -0.012238790706302769 0 -0.0079589385729685012 -0.012289799236806807 0 -0.0082479035156650983 -0.01261839885062661 0 -0.0079634908379649719 -0.012642039845757867 0 -0.0078631440539820019 -0.012217688798687598 0 -0.0084786034114788765 -0.012703274713086382 0 -0.0078631440539820019 -0.012217688798687598 0 -0.007421873737070454 -0.011649424070331215 0 -0.0076690246098464641 -0.011855665319262113 0 -0.0078631440539820019 -0.012217688798687598 0 -0.0079826228109290531 -0.012038911034941391 0 -0.0076690246098464641 -0.011855665319262113 0 -0.0078631440539820019 -0.012217688798687598 0 -0.0077039984658006707 -0.012238790706302769 0 -0.007421873737070454 -0.011649424070331215 0 -0.0075659297132217628 -0.012030662928371835 0 -0.0077039984658006707 -0.012238790706302769 0 -0.007421873737070454 -0.011649424070331215 0 -0.0081413795220648781 -0.012228680904891048 0 -0.0084859841273220403 -0.012385509147988073 0 -0.0083321377194473349 -0.012612995837988489 0 -0.0081413795220648781 -0.012228680904891048 0 -0.0083321377194473349 -0.012612995837988489 0 -0.0080548123826644693 -0.012517290077892209 0 -0.0078631440539820019 -0.012217688798687598 0 -0.0081413795220648781 -0.012228680904891048 0 -0.0080548123826644693 -0.012517290077892209 0 -0.0078631440539820019 -0.012217688798687598 0 -0.0079826228109290531 -0.012038911034941391 0 -0.0081413795220648781 -0.012228680904891048 0 -0.0079826228109290531 -0.012038911034941391 0 -0.0081413795220648781 -0.012228680904891048 0 -0.0081640536907639383 -0.012025145454398286 0 -0.0081413795220648781 -0.012228680904891048 0 -0.008332097292277886 -0.011958840408017712 0 -0.0084859841273220403 -0.012385509147988073 0 -0.0042442277905420343 -0.010083371489247582 0 -0.0057327622863446873 -0.011388925850639142 0 -0.0081413795220648781 -0.012228680904891048 0 -0.0081640536907639383 -0.012025145454398286 0 -0.008332097292277886 -0.011958840408017712 0 -0.0046067560723547689 -0.0087304530519037443 0 -0.0074132243838038259 -0.010066689458899136 0 -0.0042442277905420343 -0.010083371489247582 0 -0.0074132243838038259 -0.010066689458899136 0 -0.004836500206989636 -0.010316892543975732 0 -0.0046146804972546709 -0.0092990443749380713 0 -0.0064937736622219756 -0.0097355344473836411 0 -0.0081640536907639383 -0.012025145454398286 0 -0.008332097292277886 -0.011958840408017712 0 -0.0080419448714974685 -0.01193101423565392 0 -0.0046067560723547689 -0.0087304530519037443 0 -0.0042442277905420343 -0.010083371489247582 0 0.0020175860600974847 -0.00807230409787397 0 0.0017525984512180351 -0.0094664357351052931 0 0.0007455048928137521 -0.0083644061938311729 0 -0.010383736349309032 -0.011588937455187845 0 -0.0080419448714974685 -0.01193101423565392 0 -0.0082249665535037014 -0.01094985941627423 0 -0.0079826228109290531 -0.012038911034941391 0 -0.0081640536907639383 -0.012025145454398286 0 -0.0080419448714974685 -0.01193101423565392 0 -0.0079826228109290531 -0.012038911034941391 0 -0.0080419448714974685 -0.01193101423565392 0 -0.0076690246098464641 -0.011855665319262113 0 -0.0080419448714974685 -0.01193101423565392 0 -0.0082249665535037014 -0.01094985941627423 0 -0.007449736715445421 -0.011493661482603867 0 -0.0080419448714974685 -0.01193101423565392 0 -0.0076690246098464641 -0.011855665319262113 0 -0.007449736715445421 -0.011493661482603867 0 -0.0082249665535037014 -0.01094985941627423 0 -0.0076601160124028346 -0.0081879357381850777 0 -0.010157997779194025 -0.0086892308495991957 0 -0.0082249665535037014 -0.01094985941627423 0 -0.0067722130378956302 -0.010719043067271514 0 -0.0076601160124028346 -0.0081879357381850777 0 -0.0082249665535037014 -0.01094985941627423 0 -0.007449736715445421 -0.011493661482603867 0 -0.0067722130378956302 -0.010719043067271514 0 -0.010383736349309032 -0.011588937455187845 0 -0.0082249665535037014 -0.01094985941627423 0 -0.010157997779194025 -0.0086892308495991957 0 -0.0046606500168093609 -0.0047645257383498339 0 -0.0043959770245743058 -0.0035468802659227756 0 -0.0052823870615839206 -0.0037536106492810401 0 -0.0046067560723547689 -0.0087304530519037443 0 -0.0067847583167136563 -0.0061113098959167961 0 -0.007421873737070454 -0.011649424070331215 0 -0.0076690246098464641 -0.011855665319262113 0 -0.007449736715445421 -0.011493661482603867 0 -0.007421873737070454 -0.011649424070331215 0 -0.007449736715445421 -0.011493661482603867 0 -0.0067722130378956302 -0.010719043067271514 0 -0.0062950939291547643 -0.010523726078848102 0 -0.0048012927177960348 -0.0097429207643699774 0 -0.007421873737070454 -0.011649424070331215 0 -0.0067722130378956302 -0.010719043067271514 0 -0.0073188425905400829 -0.01145235026513374 0 -0.0074372752970341058 -0.011685872778475142 0 -0.007421873737070454 -0.011649424070331215 0 -0.0073188425905400829 -0.01145235026513374 0 -0.0018951773221229577 -0.0089334140270616418 0 -0.0049011158928233137 -0.006545203031718896 0 -0.0020045561159585151 -0.0027869769588824253 0 0.0021267551961997311 -0.0073381532417599697 0 -0.0018951773221229577 -0.0089334140270616418 0 -0.0020045561159585151 -0.0027869769588824253 0 -0.0048007242901267492 -0.003727587768602561 0 -0.0049011158928233137 -0.006545203031718896 0 -0.0020045561159585151 -0.0027869769588824253 0 -0.0048007242901267492 -0.003727587768602561 0 -0.0066178480521275063 -0.0051778827003078204 0 -0.0065067831747658489 -0.0029579992554139463 0 -0.0048007242901267492 -0.003727587768602561 0 -0.0049011158928233137 -0.006545203031718896 0 -0.0066178480521275063 -0.0051778827003078204 0 -0.0049011158928233137 -0.006545203031718896 0 -0.0076601160124028346 -0.0081879357381850777 0 -0.0066178480521275063 -0.0051778827003078204 0 -0.0067722130378956302 -0.010719043067271514 0 -0.0018951773221229577 -0.0089334140270616418 0 -0.0049011158928233137 -0.006545203031718896 0 -0.0067722130378956302 -0.010719043067271514 0 -0.0049011158928233137 -0.006545203031718896 0 -0.0076601160124028346 -0.0081879357381850777 0 -0.0076601160124028346 -0.0081879357381850777 0 -0.010157997779194025 -0.0086892308495991957 0 -0.0085993683760529713 -0.0056692030288207178 0 -0.0076601160124028346 -0.0081879357381850777 0 -0.0066178480521275063 -0.0051778827003078204 0 -0.0085993683760529713 -0.0056692030288207178 0 -0.0043959770245743058 -0.0035468802659227756 0 -0.0046822066628804523 -0.0027002359519725438 0 -0.004114187232395595 -0.0023103194271198533 0 -0.010157997779194025 -0.0086892308495991957 0 -0.0094708016314797479 -0.0046060429078570884 0 -0.0085993683760529713 -0.0056692030288207178 0 -0.0043959770245743058 -0.0035468802659227756 0 -0.0052792095932987677 -0.0028039180154050677 0 -0.0052823870615839206 -0.0037536106492810401 0 -0.0067847583167136563 -0.0061113098959167961 0 -0.0073121203911647552 -0.003208971579165938 0 -0.0043959770245743058 -0.0035468802659227756 0 -0.0046822066628804523 -0.0027002359519725438 0 -0.0052792095932987677 -0.0028039180154050677 0 -0.004114187232395595 -0.0023103194271198533 0 -0.004942265235123736 -0.0021317059492084512 0 -0.0049935024919573823 -0.0011649614310800297 0 -0.0046822066628804523 -0.0027002359519725438 0 -0.004942265235123736 -0.0021317059492084512 0 -0.0052792095932987677 -0.0028039180154050677 0 -0.0046822066628804523 -0.0027002359519725438 0 -0.004114187232395595 -0.0023103194271198533 0 -0.004942265235123736 -0.0021317059492084512 0 -0.0093668753907308038 -0.0043929409040886847 0 -0.0077307084981401925 -0.0037853382214553984 0 -0.0075083088413093226 -0.00091314013130476318 0 -0.0066178480521275063 -0.0051778827003078204 0 -0.0085993683760529713 -0.0056692030288207178 0 -0.0077307084981401925 -0.0037853382214553984 0 -0.0093668753907308038 -0.0043929409040886847 0 -0.0085993683760529713 -0.0056692030288207178 0 -0.0077307084981401925 -0.0037853382214553984 0 -0.0073121203911647552 -0.003208971579165938 0 -0.0073683029695866915 -0.0035794785801299962 0 -0.0066178480521275063 -0.0051778827003078204 0 -0.0077307084981401925 -0.0037853382214553984 0 -0.0065067831747658489 -0.0029579992554139463 0 -0.0073121203911647552 -0.003208971579165938 0 -0.0074254609190369161 -0.0018819110804618698 0 -0.0075083088413093226 -0.00091314013130476318 0 -0.0073652645711945975 0.00049535917100077312 0 -0.0057752701343308337 -0.0014102492643824629 0 -0.0065067831747658489 -0.0029579992554139463 0 -0.0075083088413093226 -0.00091314013130476318 0 -0.0057752701343308337 -0.0014102492643824629 0 -0.0077307084981401925 -0.0037853382214553984 0 -0.0065067831747658489 -0.0029579992554139463 0 -0.0075083088413093226 -0.00091314013130476318 0 -0.0075963749147896957 -0.0013237018629003794 0 -0.0075083088413093226 -0.00091314013130476318 0 -0.0079506704942755666 -0.00034867222264393558 0 -0.0073121203911647552 -0.003208971579165938 0 -0.0066478134166877405 -0.00097402958731654052 0 -0.0075083088413093226 -0.00091314013130476318 0 -0.0073652645711945975 0.00049535917100077312 0 -0.0079506704942755666 -0.00034867222264393558 0 -0.0079059351524231308 0.0022248775954137974 0 -0.0072756876766691091 0.00090575058922558248 0 -0.0073926114644252763 0.00106347714073869 0 -0.0073652645711945975 0.00049535917100077312 0 -0.0076355404323868352 0.00052967180894983572 0 -0.0073652645711945975 0.00049535917100077312 0 -0.0076355404323868352 0.00052967180894983572 0 -0.0079506704942755666 -0.00034867222264393558 0 -0.0071024694297981651 0.003594769057442224 0 -0.0073652645711945975 0.00049535917100077312 0 -0.0053283372914516543 0.0006364183748949491 0 -0.0073652645711945975 0.00049535917100077312 0 -0.0053283372914516543 0.0006364183748949491 0 -0.0057752701343308337 -0.0014102492643824629 0 -0.0053671575667247314 0.0035577161728195692 0 -0.0055175104869616357 0.0019104661383888804 0 -0.0037898002834889852 0.0021608409039511963 0 -0.0055175104869616357 0.0019104661383888804 0 -0.0037898002834889852 0.0021608409039511963 0 -0.00416619727086452 0.00040996039034075371 0 -0.0032938317756609995 0.00054547553259610537 0 -0.0037898002834889852 0.0021608409039511963 0 -0.00416619727086452 0.00040996039034075371 0 -0.0053283372914516543 0.0006364183748949491 0 -0.0020045561159585151 -0.0027869769588824253 0 -0.0057752701343308337 -0.0014102492643824629 0 -0.0048007242901267492 -0.003727587768602561 0 -0.0020045561159585151 -0.0027869769588824253 0 -0.0057752701343308337 -0.0014102492643824629 0 -0.0054168297199587434 0.001346915587612427 0 -0.0032736717524399694 -0.0014624888149746115 0 -0.0048007242901267492 -0.003727587768602561 0 -0.0065067831747658489 -0.0029579992554139463 0 -0.0057752701343308337 -0.0014102492643824629 0 -0.0076464314363558 -0.0010150022557937561 0 -0.0069691393449483018 -0.0014909511298831376 0 -0.007281400977393394 -0.0021362928023501175 0 -0.0076464314363558 -0.0010150022557937561 0 -0.0072297334875806281 -0.00033614870890772363 0 -0.0069691393449483018 -0.0014909511298831376 0 -0.0076464314363558 -0.0010150022557937561 0 -0.0079731598660711302 -0.0015470151536122476 0 -0.007281400977393394 -0.0021362928023501175 0 -0.0084089841471577838 -0.00072625128672301189 0 -0.0085755989909163718 -0.0018221066521999874 0 -0.009031672488672109 -0.0011677810376334904 0 -0.0079731598660711302 -0.0015470151536122476 0 -0.0084089841471577838 -0.00072625128672301189 0 -0.0085755989909163718 -0.0018221066521999874 0 -0.0076464314363558 -0.0010150022557937561 0 -0.0079731598660711302 -0.0015470151536122476 0 -0.0084089841471577838 -0.00072625128672301189 0 -0.0082044328073803494 0.00039238461021779948 0 -0.0084089841471577838 -0.00072625128672301189 0 -0.0091000202794244683 0.00016937237816165159 0 -0.0084089841471577838 -0.00072625128672301189 0 -0.0091000202794244683 0.00016937237816165159 0 -0.009031672488672109 -0.0011677810376334904 0 -0.0082044328073803494 0.00039238461021779948 0 -0.0084089841471577838 -0.00072625128672301189 0 -0.0078104610963807535 -0.00027855098672577853 0 -0.0082044328073803494 0.00039238461021779948 0 -0.0077011309320391555 0.00055338344108015456 0 -0.0078104610963807535 -0.00027855098672577853 0 -0.0076464314363558 -0.0010150022557937561 0 -0.0084089841471577838 -0.00072625128672301189 0 -0.0078104610963807535 -0.00027855098672577853 0 -0.0076464314363558 -0.0010150022557937561 0 -0.0078104610963807535 -0.00027855098672577853 0 -0.0072297334875806281 -0.00033614870890772363 0 -0.0077011309320391555 0.00055338344108015456 0 -0.0072190768301079854 0.00033313002541009265 0 -0.0072297334875806281 -0.00033614870890772363 0 -0.0077011309320391555 0.00055338344108015456 0 -0.0078104610963807535 -0.00027855098672577853 0 -0.0072297334875806281 -0.00033614870890772363 0 -0.0072190768301079854 0.00033313002541009265 0 -0.0072297334875806281 -0.00033614870890772363 0 -0.0059803722908295725 5.4996112148536273e-05 0 -0.0072297334875806281 -0.00033614870890772363 0 -0.0059803722908295725 5.4996112148536273e-05 0 -0.0062883353554771199 -0.0011758708185629792 0 -0.0070584074578787653 0.00027421215521106673 0 -0.0066478134166877405 -0.00097402958731654052 0 -0.0059803722908295725 5.4996112148536273e-05 0 -0.0049935024919573823 -0.0011649614310800297 0 -0.0062883353554771199 -0.0011758708185629792 0 -0.0076355404323868352 0.00052967180894983572 0 -0.0078511806515317376 0.00074125580551097868 0 -0.0079506704942755666 -0.00034867222264393558 0 -0.0073926114644252763 0.00106347714073869 0 -0.0076355404323868352 0.00052967180894983572 0 -0.0078511806515317376 0.00074125580551097868 0 -0.0049935024919573823 -0.0011649614310800297 0 -0.0062883353554771199 -0.0011758708185629792 0 -0.005621153924342928 -0.0018778905510059634 0 -0.004942265235123736 -0.0021317059492084512 0 -0.0049935024919573823 -0.0011649614310800297 0 -0.005621153924342928 -0.0018778905510059634 0 -0.0069691393449483018 -0.0014909511298831376 0 -0.0062883353554771199 -0.0011758708185629792 0 -0.0063058359305969867 -0.0023261944347980992 0 -0.0072297334875806281 -0.00033614870890772363 0 -0.0069691393449483018 -0.0014909511298831376 0 -0.0062883353554771199 -0.0011758708185629792 0 -0.0062883353554771199 -0.0011758708185629792 0 -0.0063058359305969867 -0.0023261944347980992 0 -0.005621153924342928 -0.0018778905510059634 0 -0.0069691393449483018 -0.0014909511298831376 0 -0.0063058359305969867 -0.0023261944347980992 0 -0.007281400977393394 -0.0021362928023501175 0 -0.0063058359305969867 -0.0023261944347980992 0 -0.0068662065979594794 -0.0029743976193463721 0 -0.007281400977393394 -0.0021362928023501175 0 -0.0063058359305969867 -0.0023261944347980992 0 -0.005621153924342928 -0.0018778905510059634 0 -0.0052792095932987677 -0.0028039180154050677 0 -0.004942265235123736 -0.0021317059492084512 0 -0.005621153924342928 -0.0018778905510059634 0 -0.0052792095932987677 -0.0028039180154050677 0 -0.0063058359305969867 -0.0023261944347980992 0 -0.0052792095932987677 -0.0028039180154050677 0 -0.0061211815360635883 -0.0033783577797843719 0 -0.0052792095932987677 -0.0028039180154050677 0 -0.0061211815360635883 -0.0033783577797843719 0 -0.0052823870615839206 -0.0037536106492810401 0 -0.0061211815360635883 -0.0033783577797843719 0 -0.0068662065979594794 -0.0029743976193463721 0 -0.0071065012334468446 -0.0037980074104943446 0 -0.0063058359305969867 -0.0023261944347980992 0 -0.0061211815360635883 -0.0033783577797843719 0 -0.0068662065979594794 -0.0029743976193463721 0 -0.0068662065979594794 -0.0029743976193463721 0 -0.0075631001461796219 -0.0031623817805021396 0 -0.0071065012334468446 -0.0037980074104943446 0 -0.007281400977393394 -0.0021362928023501175 0 -0.0079221361304082742 -0.0022500624125704966 0 -0.0075631001461796219 -0.0031623817805021396 0 -0.0068662065979594794 -0.0029743976193463721 0 -0.007281400977393394 -0.0021362928023501175 0 -0.0075631001461796219 -0.0031623817805021396 0 -0.0079731598660711302 -0.0015470151536122476 0 -0.007281400977393394 -0.0021362928023501175 0 -0.0079221361304082742 -0.0022500624125704966 0 -0.0085755989909163718 -0.0018221066521999874 0 -0.0085423365598373234 -0.0024652857856117486 0 -0.0092248132020248449 -0.0020901896924008928 0 -0.0085755989909163718 -0.0018221066521999874 0 -0.0079221361304082742 -0.0022500624125704966 0 -0.0085423365598373234 -0.0024652857856117486 0 -0.0079731598660711302 -0.0015470151536122476 0 -0.0085755989909163718 -0.0018221066521999874 0 -0.0079221361304082742 -0.0022500624125704966 0 -0.0079221361304082742 -0.0022500624125704966 0 -0.0085423365598373234 -0.0024652857856117486 0 -0.0075631001461796219 -0.0031623817805021396 0 -0.0075631001461796219 -0.0031623817805021396 0 -0.0080582219484124345 -0.0037330472200336516 0 -0.0071065012334468446 -0.0037980074104943446 0 -0.0074562031080069565 -0.0039460341489358525 0 -0.0055039820128217898 -0.0047164995754044488 0 -0.0077948931539989904 -0.0029871399100349092 0 -0.010193661699589875 -0.0027088607814821667 0 -0.0075631001461796219 -0.0031623817805021396 0 -0.0080582219484124345 -0.0037330472200336516 0 -0.0091789960406487379 -0.0032015554943008347 0 -0.0085423365598373234 -0.0024652857856117486 0 -0.0075631001461796219 -0.0031623817805021396 0 -0.0092733396225903562 -0.0030310691499502618 0 -0.0080582219484124345 -0.0037330472200336516 0 -0.0076549272539534526 -0.0054899704013969377 0 -0.0034538357297190458 -0.0054245442329940632 0 -0.0080582219484124345 -0.0037330472200336516 0 -0.0076549272539534526 -0.0054899704013969377 0 -0.0092648414585379309 -0.004877626093348947 0 -0.0076549272539534526 -0.0054899704013969377 0 -0.0067898718254640862 -0.0070139400955124623 0 -0.0034538357297190458 -0.0054245442329940632 0 -0.0076549272539534526 -0.0054899704013969377 0 -0.0067898718254640862 -0.0070139400955124623 0 -0.0098235737484024151 -0.0065195298820525469 0 -0.0067898718254640862 -0.0070139400955124623 0 -0.0045508632636152907 -0.0074198764950047184 0 -0.0059351332014597512 -0.0084356355230031412 0 -0.0034538357297190458 -0.0054245442329940632 0 -0.0045508632636152907 -0.0074198764950047184 0 -0.002663480701720307 -0.0091072571899238116 0 -0.0067898718254640862 -0.0070139400955124623 0 -0.0034538357297190458 -0.0054245442329940632 0 -0.0045508632636152907 -0.0074198764950047184 0 -0.0045508632636152907 -0.0074198764950047184 0 -0.002663480701720307 -0.0091072571899238116 0 -0.0059351332014597512 -0.0084356355230031412 0 -0.002663480701720307 -0.0091072571899238116 0 -0.0026237066218668401 -0.010170768737328403 0 -0.0026001357515500053 -0.0098230593692943732 0 -0.0029365553202942108 -0.0093814823881435468 0 -0.0050244431348667584 -0.010164057907238745 0 -0.002663480701720307 -0.0091072571899238116 0 -0.0018190305745990959 -0.010117115854777895 0 -0.0026001357515500053 -0.0098230593692943732 0 -0.002663480701720307 -0.0091072571899238116 0 -0.0073704354162136467 -0.010222546675052386 0 -0.0059351332014597512 -0.0084356355230031412 0 -0.0067898718254640862 -0.0070139400955124623 0 -0.0059351332014597512 -0.0084356355230031412 0 -0.0081402718044215252 -0.0084322442249228618 0 -0.0073704354162136467 -0.010222546675052386 0 -0.0059351332014597512 -0.0084356355230031412 0 -0.0081402718044215252 -0.0084322442249228618 0 -0.0046067560723547689 -0.0087304530519037443 0 -0.0031977927638699301 -0.0061501191960045016 0 -0.0046606500168093609 -0.0047645257383498339 0 -0.0052823870615839206 -0.0037536106492810401 0 -0.0059341166417143992 -0.0042739348200452748 0 0.0020175860600974847 -0.00807230409787397 0 -0.00039338179408088866 -0.0070525810927797201 0 0.0007455048928137521 -0.0083644061938311729 0 -0.0061211815360635883 -0.0033783577797843719 0 -0.0052823870615839206 -0.0037536106492810401 0 -0.0059341166417143992 -0.0042739348200452748 0 -0.0061211815360635883 -0.0033783577797843719 0 -0.0071065012334468446 -0.0037980074104943446 0 -0.0059341166417143992 -0.0042739348200452748 0 -0.0055039820128217898 -0.0047164995754044488 0 -0.0031977927638699301 -0.0061501191960045016 0 -0.0034538357297190458 -0.0054245442329940632 0 -0.002663480701720307 -0.0091072571899238116 0 -0.00039338179408088866 -0.0070525810927797201 0 -0.002663480701720307 -0.0091072571899238116 0 -0.00039622346021287726 -0.0088979633385311337 0 -0.0018190305745990959 -0.010117115854777895 0 -0.002663480701720307 -0.0091072571899238116 0 -0.00039338179408088866 -0.0070525810927797201 0 -0.00039622346021287726 -0.0088979633385311337 0 0.0017525984512180351 -0.0094664357351052931 0 -0.00039622346021287726 -0.0088979633385311337 0 -0.0018190305745990959 -0.010117115854777895 0 0.0017525984512180351 -0.0094664357351052931 0 -0.00039622346021287726 -0.0088979633385311337 0 0.0007455048928137521 -0.0083644061938311729 0 -0.00039338179408088866 -0.0070525810927797201 0 -0.00039622346021287726 -0.0088979633385311337 0 0.0007455048928137521 -0.0083644061938311729 0 -0.0030973869246434817 -0.010276489722889264 0 -0.0029754475213100741 -0.01015456329817277 0 -0.0030360662241460798 -0.010000283932276931 0 -0.0030973869246434817 -0.010276489722889264 0 -0.0029754475213100741 -0.01015456329817277 0 -0.0028137161751736204 -0.010196831023294188 0 -0.0042442277905420343 -0.010083371489247582 0 -0.0017220896984061142 -0.0099865627803097708 0 -0.0029754475213100741 -0.01015456329817277 0 -0.0028137161751736204 -0.010196831023294188 0 -0.0028706494807907161 -0.010058755649853111 0 -0.0028137161751736204 -0.010196831023294188 0 -0.0028706494807907161 -0.010058755649853111 0 -0.0027314190529797574 -0.010050285815732175 0 -0.0028706494807907161 -0.010058755649853111 0 -0.0027314190529797574 -0.010050285815732175 0 -0.0028157245681291305 -0.0098616683744182504 0 -0.0028706494807907161 -0.010058755649853111 0 -0.0030360662241460798 -0.010000283932276931 0 -0.0028157245681291305 -0.0098616683744182504 0 -0.0029754475213100741 -0.01015456329817277 0 -0.0028706494807907161 -0.010058755649853111 0 -0.0030360662241460798 -0.010000283932276931 0 -0.0026699277751139742 -0.010168483199735064 0 -0.0024219616063171985 -0.010272365180576034 0 -0.0024339380903739666 -0.010132439958952164 0 -0.0026237066218668401 -0.010170768737328403 0 -0.0026699277751139742 -0.010168483199735064 0 -0.0024219616063171985 -0.010272365180576034 0 -0.0026237066218668401 -0.010170768737328403 0 -0.0026699277751139742 -0.010168483199735064 0 -0.0026001357515500053 -0.0098230593692943732 0 -0.0018190305745990959 -0.010117115854777895 0 -0.0026699277751139742 -0.010168483199735064 0 -0.0026001357515500053 -0.0098230593692943732 0 -0.0017220896984061142 -0.0099865627803097708 0 -0.0027636385792965982 -0.010217111382866009 0 -0.0028137161751736204 -0.010196831023294188 0 -0.0026699277751139742 -0.010168483199735064 0 -0.0027314190529797574 -0.010050285815732175 0 -0.0026699277751139742 -0.010168483199735064 0 -0.0027314190529797574 -0.010050285815732175 0 -0.0026025000425115223 -0.010039069210885569 0 -0.0027314190529797574 -0.010050285815732175 0 -0.0026025000425115223 -0.010039069210885569 0 -0.0026206558441948368 -0.0098232052550063925 0 -0.0026699277751139742 -0.010168483199735064 0 -0.0026025000425115223 -0.010039069210885569 0 -0.0024339380903739666 -0.010132439958952164 0 -0.0026025000425115223 -0.010039069210885569 0 -0.0024320013682074563 -0.0099015192250931951 0 -0.0024339380903739666 -0.010132439958952164 0 -0.0024320013682074563 -0.0099015192250931951 0 -0.0026206558441948368 -0.0098232052550063925 0 -0.0023537215826605938 -0.0096394418310896037 0 -0.0026025000425115223 -0.010039069210885569 0 -0.0024320013682074563 -0.0099015192250931951 0 -0.0026206558441948368 -0.0098232052550063925 0 -0.0026206558441948368 -0.0098232052550063925 0 -0.0026739290032224521 -0.009685352633209925 0 -0.0028157245681291305 -0.0098616683744182504 0 -0.0027314190529797574 -0.010050285815732175 0 -0.0026206558441948368 -0.0098232052550063925 0 -0.0028157245681291305 -0.0098616683744182504 0 -0.0026206558441948368 -0.0098232052550063925 0 -0.0026739290032224521 -0.009685352633209925 0 -0.0025436399537117492 -0.009599475123810864 0 -0.0026739290032224521 -0.009685352633209925 0 -0.0025436399537117492 -0.009599475123810864 0 -0.0026969898968639242 -0.0095855272647622936 0 -0.0025436399537117492 -0.009599475123810864 0 -0.0023537215826605938 -0.0096394418310896037 0 -0.0023738930827010359 -0.0094473662962687201 0 -0.0026206558441948368 -0.0098232052550063925 0 -0.0025436399537117492 -0.009599475123810864 0 -0.0023537215826605938 -0.0096394418310896037 0 -0.0025436399537117492 -0.009599475123810864 0 -0.0023738930827010359 -0.0094473662962687201 0 -0.0025859734400571857 -0.009499954026188898 0 -0.0025436399537117492 -0.009599475123810864 0 -0.0025859734400571857 -0.009499954026188898 0 -0.0026969898968639242 -0.0095855272647622936 0 -0.0025859734400571857 -0.009499954026188898 0 -0.0026844261334153258 -0.009484578513342801 0 -0.0026969898968639242 -0.0095855272647622936 0 -0.0025859734400571857 -0.009499954026188898 0 -0.0026150536745372967 -0.0094376744339452114 0 -0.0026844261334153258 -0.009484578513342801 0 -0.0026150536745372967 -0.0094376744339452114 0 -0.0026969189132209715 -0.0094532341509156147 0 -0.0026844261334153258 -0.009484578513342801 0 0.008722354242636501 -0.024309388710932293 0 0.0070266770575270285 -0.022776391447022325 0 0.0091918207138366372 -0.022763973275569595 0 -0.0023738930827010359 -0.0094473662962687201 0 -0.0025859734400571857 -0.009499954026188898 0 -0.0026150536745372967 -0.0094376744339452114 0 0.0031739895367160638 -0.016833662978934617 0 0.0021637515383145021 -0.016443270178104288 0 -0.0088271467489473166 -0.013475749578878586 0 -0.00890563592583965 -0.013485606568763193 0 -0.0088097208870578873 -0.013398952759016768 0 -0.0087755851567913861 -0.013425259762053152 0 -0.0088035139541376393 -0.013505158889385423 0 -0.0087587006770597237 -0.013513121907568992 0 -0.0088271467489473166 -0.013475749578878586 0 -0.0087755851567913861 -0.013425259762053152 0 -0.0088035139541376393 -0.013505158889385423 0 -0.0088271467489473166 -0.013475749578878586 0 -0.0088097208870578873 -0.013398952759016768 0 -0.0087755851567913861 -0.013425259762053152 0 -0.0088035139541376393 -0.013505158889385423 0 -0.0087587006770597237 -0.013513121907568992 0 -0.0088039621875160914 -0.013571504106877009 0 -0.0088271467489473166 -0.013475749578878586 0 -0.00890563592583965 -0.013485606568763193 0 -0.0088595492749422647 -0.013545893202452343 0 -0.0088035139541376393 -0.013505158889385423 0 -0.0088595492749422647 -0.013545893202452343 0 -0.0088039621875160914 -0.013571504106877009 0 -0.0088271467489473166 -0.013475749578878586 0 -0.0088035139541376393 -0.013505158889385423 0 -0.0088595492749422647 -0.013545893202452343 0 -0.0027756782433740958 -0.0094717481332688373 0 -0.0026969189132209715 -0.0094532341509156147 0 -0.0026844261334153258 -0.009484578513342801 0 -0.0027756782433740958 -0.0094717481332688373 0 -0.0026844261334153258 -0.009484578513342801 0 -0.0027468859370534779 -0.0095399211192873298 0 -0.0026844261334153258 -0.009484578513342801 0 -0.0027468859370534779 -0.0095399211192873298 0 -0.0026969898968639242 -0.0095855272647622936 0 -0.0027756782433740958 -0.0094717481332688373 0 -0.0027468859370534779 -0.0095399211192873298 0 -0.0028027736956455964 -0.0096026595217177674 0 -0.0027468859370534779 -0.0095399211192873298 0 -0.0026969898968639242 -0.0095855272647622936 0 -0.0028027736956455964 -0.0096026595217177674 0 -0.0027756782433740958 -0.0094717481332688373 0 -0.0028027736956455964 -0.0096026595217177674 0 -0.0029382774876917685 -0.009694676179571475 0 -0.0054513760411262673 -0.010926827015698939 0 -0.005808267895102498 -0.011383512574150626 0 -0.0088097208870578873 -0.013398952759016768 0 -0.0087011439773794254 -0.012896729002462177 0 -0.0083587003824957054 -0.012934532732303505 0 -0.0087642384743735532 -0.013319954727161588 0 -0.0085631747972946277 -0.013034604090667949 0 -0.00890563592583965 -0.013485606568763193 0 -0.0088097208870578873 -0.013398952759016768 0 -0.0087011439773794254 -0.012896729002462177 0 -0.0088097208870578873 -0.013398952759016768 0 -0.0087755851567913861 -0.013425259762053152 0 -0.0087803525555825799 -0.013144020765571038 0 -0.0026739290032224521 -0.009685352633209925 0 -0.0027899146248250213 -0.0096880572465779941 0 -0.0028157245681291305 -0.0098616683744182504 0 -0.0029382774876917685 -0.009694676179571475 0 -0.0027899146248250213 -0.0096880572465779941 0 -0.0028157245681291305 -0.0098616683744182504 0 -0.0026969898968639242 -0.0095855272647622936 0 -0.0028027736956455964 -0.0096026595217177674 0 -0.0027899146248250213 -0.0096880572465779941 0 -0.0026739290032224521 -0.009685352633209925 0 -0.0026969898968639242 -0.0095855272647622936 0 -0.0027899146248250213 -0.0096880572465779941 0 -0.0028027736956455964 -0.0096026595217177674 0 -0.0029382774876917685 -0.009694676179571475 0 -0.0027899146248250213 -0.0096880572465779941 0 -0.0084859841273220403 -0.012385509147988073 0 -0.0087011439773794254 -0.012896729002462177 0 -0.0083321377194473349 -0.012612995837988489 0 -0.0057327622863446873 -0.011388925850639142 0 -0.005808267895102498 -0.011383512574150626 0 -0.0030360662241460798 -0.010000283932276931 0 -0.0029382774876917685 -0.009694676179571475 0 -0.0028157245681291305 -0.0098616683744182504 0 -0.0083321377194473349 -0.012612995837988489 0 -0.0080548123826644693 -0.012517290077892209 0 -0.0083587003824957054 -0.012934532732303505 0 -0.0082479035156650983 -0.01261839885062661 0 -0.0085631747972946277 -0.013034604090667949 0 -0.0084786034114788765 -0.012703274713086382 0 -0.0085278071875106946 -0.013078892185457032 0 -0.0082387455189755539 -0.012990463736209729 0 -0.0085278071875106946 -0.013078892185457032 0 -0.0082387455189755539 -0.012990463736209729 0 -0.0084789427532408861 -0.013234426588044803 0 -0.0084786034114788765 -0.012703274713086382 0 -0.0085278071875106946 -0.013078892185457032 0 -0.0087803525555825799 -0.013144020765571038 0 -0.0087011439773794254 -0.012896729002462177 0 -0.0083321377194473349 -0.012612995837988489 0 -0.0083587003824957054 -0.012934532732303505 0 -0.0085278071875106946 -0.013078892185457032 0 -0.0087803525555825799 -0.013144020765571038 0 -0.0086482160473002924 -0.013267877898066268 0 -0.0077430655874357688 -0.012623080760136142 0 -0.0079634908379649719 -0.012642039845757867 0 -0.0079156363887504626 -0.012937057649342734 0 -0.0079634908379649719 -0.012642039845757867 0 -0.0079156363887504626 -0.012937057649342734 0 -0.0082387455189755539 -0.012990463736209729 0 -0.0079634908379649719 -0.012642039845757867 0 -0.0084786034114788765 -0.012703274713086382 0 -0.0082387455189755539 -0.012990463736209729 0 -0.0082387455189755539 -0.012990463736209729 0 -0.0081541754594619004 -0.01322924025620948 0 -0.0084789427532408861 -0.013234426588044803 0 -0.0079156363887504626 -0.012937057649342734 0 -0.0081541754594619004 -0.01322924025620948 0 -0.0078936428849413921 -0.013156965235440994 0 -0.0079156363887504626 -0.012937057649342734 0 -0.0082387455189755539 -0.012990463736209729 0 -0.0081541754594619004 -0.01322924025620948 0 -0.0081541754594619004 -0.01322924025620948 0 -0.0078936428849413921 -0.013156965235440994 0 -0.0078853668871463767 -0.013497249308719537 0 -0.0081541754594619004 -0.01322924025620948 0 -0.0084826760059506061 -0.013401367411466114 0 -0.0084789427532408861 -0.013234426588044803 0 -0.0083304401392853729 -0.013558372929966903 0 -0.0084826760059506061 -0.013401367411466114 0 -0.0087245198132575429 -0.013580807643033006 0 -0.0083304401392853729 -0.013558372929966903 0 -0.0087245198132575429 -0.013580807643033006 0 -0.0088331176978958155 -0.013888281395833934 0 -0.0081541754594619004 -0.01322924025620948 0 -0.0083304401392853729 -0.013558372929966903 0 -0.0084826760059506061 -0.013401367411466114 0 -0.0081541754594619004 -0.01322924025620948 0 -0.0083304401392853729 -0.013558372929966903 0 -0.0078853668871463767 -0.013497249308719537 0 -0.0087755851567913861 -0.013425259762053152 0 -0.0087803525555825799 -0.013144020765571038 0 -0.0087260682051029919 -0.013395367638419172 0 -0.0087803525555825799 -0.013144020765571038 0 -0.0087260682051029919 -0.013395367638419172 0 -0.0086482160473002924 -0.013267877898066268 0 -0.0087260682051029919 -0.013395367638419172 0 -0.0086482160473002924 -0.013267877898066268 0 -0.0086707106084811403 -0.013439738328519697 0 -0.0085278071875106946 -0.013078892185457032 0 -0.0086482160473002924 -0.013267877898066268 0 -0.0084789427532408861 -0.013234426588044803 0 -0.0084826760059506061 -0.013401367411466114 0 -0.0084789427532408861 -0.013234426588044803 0 -0.0086707106084811403 -0.013439738328519697 0 -0.0086482160473002924 -0.013267877898066268 0 -0.0084789427532408861 -0.013234426588044803 0 -0.0086707106084811403 -0.013439738328519697 0 -0.0086707106084811403 -0.013439738328519697 0 -0.0087245198132575429 -0.013580807643033006 0 -0.0087145744851797897 -0.01352290709478271 0 -0.0084826760059506061 -0.013401367411466114 0 -0.0086707106084811403 -0.013439738328519697 0 -0.0087245198132575429 -0.013580807643033006 0 -0.0087245198132575429 -0.013580807643033006 0 -0.0087145744851797897 -0.01352290709478271 0 -0.008704631142913432 -0.013587623082687095 0 -0.0087145744851797897 -0.01352290709478271 0 -0.0087350402625179634 -0.013570387912326454 0 -0.008704631142913432 -0.013587623082687095 0 -0.0087260682051029919 -0.013395367638419172 0 -0.0086707106084811403 -0.013439738328519697 0 -0.0087145744851797897 -0.01352290709478271 0 -0.0087260682051029919 -0.013395367638419172 0 -0.0087145744851797897 -0.01352290709478271 0 -0.0087587006770597237 -0.013513121907568992 0 -0.0087755851567913861 -0.013425259762053152 0 -0.0087260682051029919 -0.013395367638419172 0 -0.0087587006770597237 -0.013513121907568992 0 -0.0087145744851797897 -0.01352290709478271 0 -0.0087587006770597237 -0.013513121907568992 0 -0.0087350402625179634 -0.013570387912326454 0 -0.0087587006770597237 -0.013513121907568992 0 -0.0087668267547664283 -0.013586639130270363 0 -0.0087350402625179634 -0.013570387912326454 0 -0.0087668267547664283 -0.013586639130270363 0 -0.0087350402625179634 -0.013570387912326454 0 -0.0087376323866356197 -0.013635526034858386 0 -0.0087668267547664283 -0.013586639130270363 0 -0.0087376323866356197 -0.013635526034858386 0 -0.008788124289541073 -0.013649346759682943 0 -0.0087376323866356197 -0.013635526034858386 0 -0.0087042437607670522 -0.013643233059967896 0 -0.008704631142913432 -0.013587623082687095 0 -0.0087350402625179634 -0.013570387912326454 0 -0.0087376323866356197 -0.013635526034858386 0 -0.008704631142913432 -0.013587623082687095 0 -0.0081603225324139075 -0.013766927412497057 0 -0.0076728200439102742 -0.015092086987793853 0 -0.0087245198132575429 -0.013580807643033006 0 -0.0088331176978958155 -0.013888281395833934 0 -0.0090240514738628309 -0.014038597858216994 0 -0.0087245198132575429 -0.013580807643033006 0 -0.008704631142913432 -0.013587623082687095 0 -0.0086688515598002096 -0.013631785088860262 0 -0.0080052313779442451 -0.014929072383407327 0 -0.0076728200439102742 -0.015092086987793853 0 -0.0087042437607670522 -0.013643233059967896 0 -0.008704631142913432 -0.013587623082687095 0 -0.0086688515598002096 -0.013631785088860262 0 -0.0088331176978958155 -0.013888281395833934 0 -0.0093937875080983314 -0.014266129703283215 0 -0.0093955384799438366 -0.014997655872788037 0 -0.0093937875080983314 -0.014266129703283215 0 -0.0093955384799438366 -0.014997655872788037 0 -0.0096551498496828623 -0.015258529211944438 0 -0.0056942794809118832 -0.016528567318161151 0 -0.0068918710011059009 -0.01760279478264716 0 -0.0059789272052099994 -0.018526903311771682 0 -0.0076728200439102742 -0.015092086987793853 0 -0.0074135990896937714 -0.016667000107699236 0 -0.0087080079479930871 -0.013726311525986927 0 -0.0087687782342216192 -0.01381942604212716 0 -0.008776233213321407 -0.013729657579271191 0 -0.006977142316550982 -0.016604495692850062 0 -0.0050872049146567658 -0.020384137564054335 0 -0.0087376323866356197 -0.013635526034858386 0 -0.0087080079479930871 -0.013726311525986927 0 -0.008776233213321407 -0.013729657579271191 0 -0.0087042437607670522 -0.013643233059967896 0 -0.0086688515598002096 -0.013631785088860262 0 -0.0087080079479930871 -0.013726311525986927 0 -0.0076728200439102742 -0.015092086987793853 0 -0.006977142316550982 -0.016604495692850062 0 -0.0087376323866356197 -0.013635526034858386 0 -0.0087042437607670522 -0.013643233059967896 0 -0.0087080079479930871 -0.013726311525986927 0 -0.0089069052054491227 -0.014508377949307268 0 -0.0086714509533474867 -0.014078883276276733 0 -0.0083304401392853729 -0.013558372929966903 0 -0.0081913846533699566 -0.014046138014879269 0 -0.0078853668871463767 -0.013497249308719537 0 -0.0094881176693391196 -0.01499370805590901 0 -0.0094182273737963163 -0.015077720423684019 0 -0.009456296757682418 -0.014672107255290945 0 -0.0083304401392853729 -0.013558372929966903 0 -0.0088331176978958155 -0.013888281395833934 0 -0.0081913846533699566 -0.014046138014879269 0 -0.0093955384799438366 -0.014997655872788037 0 -0.0094881176693391196 -0.01499370805590901 0 -0.0094385418461453187 -0.015112704150348176 0 -0.0088331176978958155 -0.013888281395833934 0 -0.0093955384799438366 -0.014997655872788037 0 -0.0081913846533699566 -0.014046138014879269 0 -0.0093010013673556179 -0.014885886511365232 0 -0.0089069052054491227 -0.014508377949307268 0 -0.0094881176693391196 -0.01499370805590901 0 -0.0094385418461453187 -0.015112704150348176 0 -0.0094182273737963163 -0.015077720423684019 0 -0.0094182273737963163 -0.015077720423684019 0 -0.0093188913956541632 -0.015278693775882196 0 -0.009333840406079489 -0.015091319044454904 0 -0.0094385418461453187 -0.015112704150348176 0 -0.0093188913956541632 -0.015278693775882196 0 -0.0094402904337966241 -0.01535221051150241 0 -0.0094385418461453187 -0.015112704150348176 0 -0.0094182273737963163 -0.015077720423684019 0 -0.0093188913956541632 -0.015278693775882196 0 -0.0094385418461453187 -0.015112704150348176 0 -0.0094402904337966241 -0.01535221051150241 0 -0.0094752867563633238 -0.015229644497533289 0 -0.0093955384799438366 -0.014997655872788037 0 -0.0094385418461453187 -0.015112704150348176 0 -0.0094752867563633238 -0.015229644497533289 0 -0.0094402904337966241 -0.01535221051150241 0 -0.0094752867563633238 -0.015229644497533289 0 -0.0095610861507001415 -0.015402783698275668 0 -0.0094402904337966241 -0.01535221051150241 0 -0.0094908952382913563 -0.0155771933954202 0 -0.0093151867047437126 -0.015555355171536007 0 -0.0094402904337966241 -0.01535221051150241 0 -0.0094908952382913563 -0.0155771933954202 0 -0.0095610861507001415 -0.015402783698275668 0 -0.0093188913956541632 -0.015278693775882196 0 -0.0093151867047437126 -0.015555355171536007 0 -0.0091673649260427433 -0.015536294682076689 0 -0.0093188913956541632 -0.015278693775882196 0 -0.0094402904337966241 -0.01535221051150241 0 -0.0093151867047437126 -0.015555355171536007 0 -0.0068070179210648792 -0.018831586899162981 0 -0.0059789272052099994 -0.018526903311771682 0 -0.0062709145872687335 -0.020522891745652926 0 -0.006353103248740207 -0.022233217330296855 0 -0.0050872049146567658 -0.020384137564054335 0 -0.0068070179210648792 -0.018831586899162981 0 -0.0062709145872687335 -0.020522891745652926 0 -0.0080863410463305248 -0.018673540039835745 0 -0.0068918710011059009 -0.01760279478264716 0 -0.0068070179210648792 -0.018831586899162981 0 -0.0080863410463305248 -0.018673540039835745 0 -0.0068918710011059009 -0.01760279478264716 0 -0.0068070179210648792 -0.018831586899162981 0 -0.0059789272052099994 -0.018526903311771682 0 -0.0074135990896937714 -0.016667000107699236 0 -0.006353103248740207 -0.022233217330296855 0 -0.0096551498496828623 -0.015258529211944438 0 -0.0095610861507001415 -0.015402783698275668 0 -0.0097241237380289031 -0.015515311096297864 0 -0.0093955384799438366 -0.014997655872788037 0 -0.0096551498496828623 -0.015258529211944438 0 -0.0094752867563633238 -0.015229644497533289 0 -0.0096551498496828623 -0.015258529211944438 0 -0.0094752867563633238 -0.015229644497533289 0 -0.0095610861507001415 -0.015402783698275668 0 -0.0094908952382913563 -0.0155771933954202 0 -0.0095610861507001415 -0.015402783698275668 0 -0.0097241237380289031 -0.015515311096297864 0 -0.002018880832072782 -0.027795359151910049 0 -0.0023026256086189846 -0.027803869654287869 0 -0.0022988706855915785 -0.027480089739434659 0 -0.002018880832072782 -0.027795359151910049 0 -0.0023026256086189846 -0.027803869654287869 0 -0.0021658291052800891 -0.027963238246070256 0 -0.0023026256086189846 -0.027803869654287869 0 -0.0022988706855915785 -0.027480089739434659 0 -0.002485901347505425 -0.027679887054831331 0 -0.0023026256086189846 -0.027803869654287869 0 -0.0024730013322452836 -0.027894453371522084 0 -0.002363914980529255 -0.028027477622250184 0 -0.0023026256086189846 -0.027803869654287869 0 -0.002485901347505425 -0.027679887054831331 0 -0.0024730013322452836 -0.027894453371522084 0 -0.0050872049146567658 -0.020384137564054335 0 -0.003583453996336943 -0.024450808768268491 0 -0.0016309785234707972 -0.021636078884208314 0 -0.0030073040083239185 -0.021200666723522811 0 -0.0031196276097677053 -0.022968808246008089 0 -0.00070642333030250699 -0.024818058162050766 0 -0.0015132640079920073 -0.024977980638987554 0 -0.00043527016908704962 -0.023523902595275304 0 -0.0030073040083239185 -0.021200666723522811 0 -0.0041456389023854035 -0.022104532804388993 0 -0.0036721956883503811 -0.019906245865728155 0 -0.0030073040083239185 -0.021200666723522811 0 -0.0041456389023854035 -0.022104532804388993 0 -0.0031196276097677053 -0.022968808246008089 0 -0.003583453996336943 -0.024450808768268491 0 -0.0027264580922845365 -0.025781276114264538 0 -0.0025888679361048264 -0.023551685320205192 0 -0.0027264580922845365 -0.025781276114264538 0 -0.0041456389023854035 -0.022104532804388993 0 -0.0031196276097677053 -0.022968808246008089 0 -0.0046119182367068655 -0.024306209893256579 0 -0.002485901347505425 -0.027679887054831331 0 -0.0024730013322452836 -0.027894453371522084 0 -0.0026691653991326911 -0.027879233943896957 0 -0.00099627332130981577 -0.026066513488841529 0 -0.0014875040063686868 -0.026160568481213078 0 -0.0017231024627712642 -0.02577100065844154 0 -0.00099627332130981577 -0.026066513488841529 0 -0.0017231024627712642 -0.02577100065844154 0 -0.0015132640079920073 -0.024977980638987554 0 -0.0017231024627712642 -0.02577100065844154 0 -0.0023321737249881948 -0.025197317409928879 0 -0.0019023731726742139 -0.026721605692668033 0 -0.00070642333030250699 -0.024818058162050766 0 -0.00099627332130981577 -0.026066513488841529 0 -0.0015132640079920073 -0.024977980638987554 0 -0.0014875040063686868 -0.026160568481213078 0 -0.0017231024627712642 -0.02577100065844154 0 -0.0019023731726742139 -0.026721605692668033 0 -0.0017231024627712642 -0.02577100065844154 0 -0.0023321737249881948 -0.025197317409928879 0 -0.0015132640079920073 -0.024977980638987554 0 -0.0022968400621564632 -0.025488972782964574 0 -0.002044995006564982 -0.026675652225896542 0 -0.0025453397378175833 -0.026092570413602828 0 -0.0023321737249881948 -0.025197317409928879 0 -0.0020565228965370272 -0.026724520105578044 0 -0.0028685714380234555 -0.026211815749049062 0 -0.0025453397378175833 -0.026092570413602828 0 -0.0029472401195868338 -0.025497909977852368 0 -0.0025453397378175833 -0.026092570413602828 0 -0.0029472401195868338 -0.025497909977852368 0 -0.0023321737249881948 -0.025197317409928879 0 -0.0029472401195868338 -0.025497909977852368 0 -0.0021326811057784619 -0.024459878350147606 0 -0.0037384968583318088 -0.025363990830400078 0 -0.0029472401195868338 -0.025497909977852368 0 -0.0023321737249881948 -0.025197317409928879 0 -0.0021326811057784619 -0.024459878350147606 0 0.0030652149189572286 -0.021948751824166321 0 0.0043983562901387264 -0.026404637002278106 0 -0.0021326811057784619 -0.024459878350147606 0 -0.0015132640079920073 -0.024977980638987554 0 -0.00043527016908704962 -0.023523902595275304 0 -0.0023321737249881948 -0.025197317409928879 0 -0.0021326811057784619 -0.024459878350147606 0 -0.0015132640079920073 -0.024977980638987554 0 0.0076116536401742907 -0.019948067263101357 0 0.0067648114372974187 -0.021267360165934359 0 0.0054327542257972296 -0.020978314315174173 0 0.0030652149189572286 -0.021948751824166321 0 -0.0021477218564372215 -0.018026021840804981 0 0.0076116536401742907 -0.019948067263101357 0 0.0083471212196311335 -0.021448605375730834 0 0.0092008664809977089 -0.02049608709232895 0 0.0076116536401742907 -0.019948067263101357 0 0.0067648114372974187 -0.021267360165934359 0 0.0083471212196311335 -0.021448605375730834 0 0.0070266770575270285 -0.022776391447022325 0 0.0083471212196311335 -0.021448605375730834 0 0.0091918207138366372 -0.022763973275569595 0 0.0021637515383145021 -0.016443270178104288 0 -0.0023647551206620854 -0.016790611039924103 0 0.0070266770575270285 -0.022776391447022325 0 0.0067648114372974187 -0.021267360165934359 0 0.0083471212196311335 -0.021448605375730834 0 0.0070266770575270285 -0.022776391447022325 0 0.0067648114372974187 -0.021267360165934359 0 0.0053862846193149993 -0.021186938566929811 0 -0.0027756782433740958 -0.0094717481332688373 0 -0.0026969189132209715 -0.0094532341509156147 0 -0.0027082225241073271 -0.0094323474695642822 0 -0.00890563592583965 -0.013485606568763193 0 -0.0088595492749422647 -0.013545893202452343 0 -0.0088665963612476941 -0.013706297225125437 0 -0.0054513760411262673 -0.010926827015698939 0 -0.0023647551206620854 -0.016790611039924103 0 -0.0026150536745372967 -0.0094376744339452114 0 -0.0026969189132209715 -0.0094532341509156147 0 -0.0027082225241073271 -0.0094323474695642822 0 -0.0088595492749422647 -0.013545893202452343 0 -0.0088429988618740647 -0.013601997768681815 0 -0.0088665963612476941 -0.013706297225125437 0 -0.0088595492749422647 -0.013545893202452343 0 -0.0088429988618740647 -0.013601997768681815 0 -0.0088039621875160914 -0.013571504106877009 0 -0.0088429988618740647 -0.013601997768681815 0 -0.0088039621875160914 -0.013571504106877009 0 -0.0088120916675565129 -0.013612495910104957 0 -0.0087668267547664283 -0.013586639130270363 0 -0.0088120916675565129 -0.013612495910104957 0 -0.008788124289541073 -0.013649346759682943 0 -0.0087587006770597237 -0.013513121907568992 0 -0.0087668267547664283 -0.013586639130270363 0 -0.0088039621875160914 -0.013571504106877009 0 -0.0087668267547664283 -0.013586639130270363 0 -0.0088039621875160914 -0.013571504106877009 0 -0.0088120916675565129 -0.013612495910104957 0 -0.0088429988618740647 -0.013601997768681815 0 -0.0088288300935267083 -0.013651780618824784 0 -0.0088665963612476941 -0.013706297225125437 0 -0.0088120916675565129 -0.013612495910104957 0 -0.008788124289541073 -0.013649346759682943 0 -0.0088288300935267083 -0.013651780618824784 0 -0.0088429988618740647 -0.013601997768681815 0 -0.0088120916675565129 -0.013612495910104957 0 -0.0088288300935267083 -0.013651780618824784 0 -0.008788124289541073 -0.013649346759682943 0 -0.0088111544117158991 -0.013673151382962288 0 -0.0088288300935267083 -0.013651780618824784 0 -0.0088111544117158991 -0.013673151382962288 0 -0.0088288300935267083 -0.013651780618824784 0 -0.0088336894407885069 -0.013690521018121538 0 -0.0016309785234707972 -0.021636078884208314 0 -0.0030073040083239185 -0.021200666723522811 0 -0.0034422617749734819 -0.019788418988509065 0 -0.0088336894407885069 -0.013690521018121538 0 -0.008776233213321407 -0.013729657579271191 0 -0.0088598458902909311 -0.013713438796851761 0 -0.0050872049146567658 -0.020384137564054335 0 -0.003079798311781976 -0.017201075937231951 0 -0.0088111544117158991 -0.013673151382962288 0 -0.0088336894407885069 -0.013690521018121538 0 -0.008776233213321407 -0.013729657579271191 0 -0.0087687782342216192 -0.01381942604212716 0 -0.008776233213321407 -0.013729657579271191 0 -0.0088598458902909311 -0.013713438796851761 0 -0.0087376323866356197 -0.013635526034858386 0 -0.008788124289541073 -0.013649346759682943 0 -0.008776233213321407 -0.013729657579271191 0 -0.008788124289541073 -0.013649346759682943 0 -0.0088111544117158991 -0.013673151382962288 0 -0.008776233213321407 -0.013729657579271191 0 -0.0030073040083239185 -0.021200666723522811 0 -0.0036721956883503811 -0.019906245865728155 0 -0.0034422617749734819 -0.019788418988509065 0 0.0067648114372974187 -0.021267360165934359 0 0.0053862846193149993 -0.021186938566929811 0 0.0054327542257972296 -0.020978314315174173 0 -0.0025888679361048264 -0.023551685320205192 0 -0.0021477218564372215 -0.018026021840804981 0 -0.0088288300935267083 -0.013651780618824784 0 -0.0088336894407885069 -0.013690521018121538 0 -0.0088665963612476941 -0.013706297225125437 0 -0.0023647551206620854 -0.016790611039924103 0 -0.003079798311781976 -0.017201075937231951 0 -0.0043714726451216128 -0.01722754496212996 0 -0.003079798311781976 -0.017201075937231951 0 -0.0088336894407885069 -0.013690521018121538 0 -0.0088665963612476941 -0.013706297225125437 0 -0.0088576192132681173 -0.01371441566472029 0 -0.0023647551206620854 -0.016790611039924103 0 -0.0021477218564372215 -0.018026021840804981 0 -0.0011006423913424782 -0.01783216024303938 0 -0.0010971970874127592 -0.017817831222475242 0 -0.0011101603498667458 -0.017823473022078103 0 -0.0021477218564372215 -0.018026021840804981 0 -0.003079798311781976 -0.017201075937231951 0 -0.0065922657856103224 -0.013654221036498921 0 -0.0063275426643760804 -0.014494970539575189 0 -0.0069837364861248209 -0.014452536859786596 0 -0.0069837364861248209 -0.014452536859786596 0 -0.0077756247142685003 -0.01415196937568289 0 -0.0076049784999560211 -0.015144420218084473 0 -0.0065922657856103224 -0.013654221036498921 0 -0.0069837364861248209 -0.014452536859786596 0 -0.0077756247142685003 -0.01415196937568289 0 -0.0063275426643760804 -0.014494970539575189 0 -0.0069837364861248209 -0.014452536859786596 0 -0.0065718696557740585 -0.015206065776724577 0 -0.0077516184561000588 -0.013975907773729066 0 -0.0078106766110100411 -0.01333409170563957 0 -0.0077756247142685003 -0.01415196937568289 0 -0.0071699390796387541 -0.012834140316847358 0 -0.0078482067811008038 -0.012984352512554136 0 -0.0077756247142685003 -0.01415196937568289 0 -0.007811990975254173 -0.013576076304726495 0 -0.0081570371637748329 -0.014048819847972188 0 -0.0065922657856103224 -0.013654221036498921 0 -0.0077756247142685003 -0.01415196937568289 0 -0.0071699390796387541 -0.012834140316847358 0 -0.0071699390796387541 -0.012834140316847358 0 -0.0071324156273481548 -0.012163045867137678 0 -0.0077667288213783946 -0.012178589768385548 0 -0.0078106766110100411 -0.01333409170563957 0 -0.0078177905638321683 -0.012735962443261561 0 -0.0071699390796387541 -0.012834140316847358 0 -0.0078482067811008038 -0.012984352512554136 0 -0.0077667288213783946 -0.012178589768385548 0 -0.007811990975254173 -0.013576076304726495 0 -0.0078663034916924904 -0.013184195917566581 0 -0.0081473583932802907 -0.013560862178862692 0 -0.0078663034916924904 -0.013184195917566581 0 -0.0080955541048459007 -0.013169992625397489 0 -0.0081473583932802907 -0.013560862178862692 0 -0.0081473583932802907 -0.013560862178862692 0 -0.0081570371637748329 -0.014048819847972188 0 -0.0084329616388504284 -0.014299209200756719 0 -0.0081570371637748329 -0.014048819847972188 0 -0.0084329616388504284 -0.014299209200756719 0 -0.0087449608639819515 -0.015211910062042488 0 -0.0077756247142685003 -0.01415196937568289 0 -0.0081570371637748329 -0.014048819847972188 0 -0.0087449608639819515 -0.015211910062042488 0 -0.007811990975254173 -0.013576076304726495 0 -0.0081473583932802907 -0.013560862178862692 0 -0.0081570371637748329 -0.014048819847972188 0 -0.0084329616388504284 -0.014299209200756719 0 -0.0087960007051304245 -0.01448582517956371 0 -0.00861919711705675 -0.014849164826543181 0 -0.0087960007051304245 -0.01448582517956371 0 -0.0092026241781018019 -0.014134964398563361 0 -0.0091557409549575704 -0.014830053057243079 0 -0.0083464672069338986 -0.013457276038554728 0 -0.0085056979733797704 -0.013683683998989185 0 -0.0087960007051304245 -0.01448582517956371 0 -0.0083284372988378184 -0.013378989140122872 0 -0.0092026241781018019 -0.014134964398563361 0 -0.0081473583932802907 -0.013560862178862692 0 -0.0084329616388504284 -0.014299209200756719 0 -0.0083284372988378184 -0.013378989140122872 0 -0.0084329616388504284 -0.014299209200756719 0 -0.0087960007051304245 -0.01448582517956371 0 -0.0083284372988378184 -0.013378989140122872 0 -0.0080955541048459007 -0.013169992625397489 0 -0.0081473583932802907 -0.013560862178862692 0 -0.0083284372988378184 -0.013378989140122872 0 -0.0080955541048459007 -0.013169992625397489 0 -0.0080266026081245254 -0.013078947787111526 0 -0.0083284372988378184 -0.013378989140122872 0 -0.0077019037045310112 -0.012847304407556286 0 -0.0080266026081245254 -0.013078947787111526 0 -0.0078659457844721878 -0.013103104011454998 0 -0.0083284372988378184 -0.013378989140122872 0 -0.0078659457844721878 -0.013103104011454998 0 -0.0078678109142209431 -0.013164240952793317 0 -0.0080266026081245254 -0.013078947787111526 0 -0.0083284372988378184 -0.013378989140122872 0 -0.0078659457844721878 -0.013103104011454998 0 -0.0077019037045310112 -0.012847304407556286 0 -0.0077430655874357688 -0.012623080760136142 0 -0.0078659457844721878 -0.013103104011454998 0 -0.0077430655874357688 -0.012623080760136142 0 -0.0079156363887504626 -0.012937057649342734 0 -0.0078659457844721878 -0.013103104011454998 0 -0.0079156363887504626 -0.012937057649342734 0 -0.0078659457844721878 -0.013103104011454998 0 -0.0078936428849413921 -0.013156965235440994 0 -0.0078936428849413921 -0.013156965235440994 0 -0.0078678109142209431 -0.013164240952793317 0 -0.0078853668871463767 -0.013497249308719537 0 -0.0078659457844721878 -0.013103104011454998 0 -0.0078936428849413921 -0.013156965235440994 0 -0.0078678109142209431 -0.013164240952793317 0 -0.0092026241781018019 -0.014134964398563361 0 -0.009456296757682418 -0.014672107255290945 0 -0.0091557409549575704 -0.014830053057243079 0 -0.0085056979733797704 -0.013683683998989185 0 -0.0086714509533474867 -0.014078883276276733 0 -0.0094182273737963163 -0.015077720423684019 0 -0.009456296757682418 -0.014672107255290945 0 -0.009333840406079489 -0.015091319044454904 0 -0.009456296757682418 -0.014672107255290945 0 -0.0091557409549575704 -0.014830053057243079 0 -0.009333840406079489 -0.015091319044454904 0 -0.0091557409549575704 -0.014830053057243079 0 -0.009333840406079489 -0.015091319044454904 0 -0.0091449564638262232 -0.015233169368823084 0 -0.0094435865766540582 -0.015312469173854794 0 -0.0098633594960168703 -0.01515496288884572 0 -0.0093188913956541632 -0.015278693775882196 0 -0.009333840406079489 -0.015091319044454904 0 -0.0090914708242253416 -0.015364371123325742 0 -0.0093188913956541632 -0.015278693775882196 0 -0.0090914708242253416 -0.015364371123325742 0 -0.0091673649260427433 -0.015536294682076689 0 -0.0090914708242253416 -0.015364371123325742 0 -0.0091673649260427433 -0.015536294682076689 0 -0.0089456684456223103 -0.015715816630268137 0 -0.0098633594960168703 -0.01515496288884572 0 -0.010243588901813769 -0.022678319255482211 0 -0.0094040716111920344 -0.015510880568466156 0 -0.0091849726480511939 -0.015648449067645169 0 -0.0093464742910576715 -0.015873891428821112 0 -0.0078259362394343269 -0.01641832765672457 0 -0.010243588901813769 -0.022678319255482211 0 -0.0091849726480511939 -0.015648449067645169 0 -0.009179383930548627 -0.015981854768415436 0 -0.0095432493357604439 -0.016051647031583308 0 -0.009333840406079489 -0.015091319044454904 0 -0.0094040716111920344 -0.015510880568466156 0 -0.0091449564638262232 -0.015233169368823084 0 -0.0094040716111920344 -0.015510880568466156 0 -0.0091449564638262232 -0.015233169368823084 0 -0.0091849726480511939 -0.015648449067645169 0 -0.0091449564638262232 -0.015233169368823084 0 -0.0089743223189038008 -0.015408677881494276 0 -0.0091849726480511939 -0.015648449067645169 0 -0.0091849726480511939 -0.015648449067645169 0 -0.0088960396709456459 -0.015858247282766053 0 -0.009179383930548627 -0.015981854768415436 0 -0.0089743223189038008 -0.015408677881494276 0 -0.0091849726480511939 -0.015648449067645169 0 -0.0088960396709456459 -0.015858247282766053 0 -0.0088960396709456459 -0.015858247282766053 0 -0.0086964365825966984 -0.015388655663203889 0 -0.0085491430465194033 -0.015736442085582801 0 -0.0089743223189038008 -0.015408677881494276 0 -0.0088960396709456459 -0.015858247282766053 0 -0.0086964365825966984 -0.015388655663203889 0 -0.0089743223189038008 -0.015408677881494276 0 -0.0086964365825966984 -0.015388655663203889 0 -0.0088528829132725733 -0.015069727465028949 0 -0.0086964365825966984 -0.015388655663203889 0 -0.0088528829132725733 -0.015069727465028949 0 -0.0086031102777264831 -0.015129767136642196 0 -0.0088528829132725733 -0.015069727465028949 0 -0.00861919711705675 -0.014849164826543181 0 -0.0086031102777264831 -0.015129767136642196 0 -0.0091557409549575704 -0.014830053057243079 0 -0.0091449564638262232 -0.015233169368823084 0 -0.0088528829132725733 -0.015069727465028949 0 -0.0091449564638262232 -0.015233169368823084 0 -0.0089743223189038008 -0.015408677881494276 0 -0.0088528829132725733 -0.015069727465028949 0 -0.0087960007051304245 -0.01448582517956371 0 -0.0091557409549575704 -0.014830053057243079 0 -0.0088528829132725733 -0.015069727465028949 0 -0.0087960007051304245 -0.01448582517956371 0 -0.0088528829132725733 -0.015069727465028949 0 -0.00861919711705675 -0.014849164826543181 0 -0.0084329616388504284 -0.014299209200756719 0 -0.00861919711705675 -0.014849164826543181 0 -0.0087449608639819515 -0.015211910062042488 0 -0.0091182994299699241 -0.015657230914977078 0 -0.009539891417287661 -0.016684373583971551 0 -0.0087449608639819515 -0.015211910062042488 0 -0.0086031102777264831 -0.015129767136642196 0 -0.0083917540850581476 -0.01531275601029985 0 -0.0087449608639819515 -0.015211910062042488 0 -0.010555840121169134 -0.01758519592341018 0 -0.008134121709301197 -0.016336535718939577 0 -0.00861919711705675 -0.014849164826543181 0 -0.0087449608639819515 -0.015211910062042488 0 -0.0086031102777264831 -0.015129767136642196 0 -0.0086964365825966984 -0.015388655663203889 0 -0.0085491430465194033 -0.015736442085582801 0 -0.0083917540850581476 -0.01531275601029985 0 -0.0086964365825966984 -0.015388655663203889 0 -0.0086031102777264831 -0.015129767136642196 0 -0.0083917540850581476 -0.01531275601029985 0 -0.0085491430465194033 -0.015736442085582801 0 -0.0082182366999729844 -0.015855844053112828 0 -0.0083917540850581476 -0.01531275601029985 0 -0.010257797895967544 -0.018799121859536524 0 -0.009539891417287661 -0.016684373583971551 0 -0.012403175710920068 -0.02105006435674631 0 -0.010555840121169134 -0.01758519592341018 0 -0.0099893187105717721 -0.019813585512145272 0 -0.012403175710920068 -0.02105006435674631 0 -0.0099893187105717721 -0.019813585512145272 0 -0.010164577809589213 -0.021962745531309703 0 -0.010555840121169134 -0.01758519592341018 0 -0.0081752798485682995 -0.018709832084057791 0 -0.008134121709301197 -0.016336535718939577 0 -0.010555840121169134 -0.01758519592341018 0 -0.0081752798485682995 -0.018709832084057791 0 -0.0099893187105717721 -0.019813585512145272 0 -0.0081752798485682995 -0.018709832084057791 0 -0.0099893187105717721 -0.019813585512145272 0 -0.0086969760676072327 -0.020373121441738633 0 -0.0099893187105717721 -0.019813585512145272 0 -0.0086969760676072327 -0.020373121441738633 0 -0.010164577809589213 -0.021962745531309703 0 -0.0081752798485682995 -0.018709832084057791 0 -0.0086969760676072327 -0.020373121441738633 0 -0.0066217517471896881 -0.021070435360764559 0 -0.0061255794437232482 -0.018817216817236412 0 -0.0081752798485682995 -0.018709832084057791 0 -0.0066217517471896881 -0.021070435360764559 0 -0.0081752798485682995 -0.018709832084057791 0 -0.006847151129229451 -0.017144965574543453 0 -0.008134121709301197 -0.016336535718939577 0 -0.0061255794437232482 -0.018817216817236412 0 -0.0081752798485682995 -0.018709832084057791 0 -0.006847151129229451 -0.017144965574543453 0 -0.0060822463271845949 -0.016235568286199212 0 -0.006847151129229451 -0.017144965574543453 0 -0.0070931569447737685 -0.015972618291271418 0 -0.0060822463271845949 -0.016235568286199212 0 -0.0070931569447737685 -0.015972618291271418 0 -0.0065718696557740585 -0.015206065776724577 0 -0.006847151129229451 -0.017144965574543453 0 -0.0070931569447737685 -0.015972618291271418 0 -0.008134121709301197 -0.016336535718939577 0 -0.0087449608639819515 -0.015211910062042488 0 -0.008134121709301197 -0.016336535718939577 0 -0.0076049784999560211 -0.015144420218084473 0 -0.0070931569447737685 -0.015972618291271418 0 -0.008134121709301197 -0.016336535718939577 0 -0.0076049784999560211 -0.015144420218084473 0 -0.0077756247142685003 -0.01415196937568289 0 -0.0087449608639819515 -0.015211910062042488 0 -0.0076049784999560211 -0.015144420218084473 0 -0.0069837364861248209 -0.014452536859786596 0 -0.0076049784999560211 -0.015144420218084473 0 -0.0065718696557740585 -0.015206065776724577 0 -0.0070931569447737685 -0.015972618291271418 0 -0.0076049784999560211 -0.015144420218084473 0 -0.0065718696557740585 -0.015206065776724577 0 -0.012932358738093577 -0.036137559033334932 0 -0.011060101627279382 -0.038037191862079822 0 -0.0015844756700064185 -0.037388156350470575 0 -0.0048159841955662001 -0.035050711535888748 0 -0.0069370756503829758 -0.038404187276963299 0 -0.0048159841955662001 -0.035050711535888748 0 -0.007343098273420375 -0.034950795514359194 0 -0.0058310550015462015 -0.032627686694318446 0 -0.0015844756700064185 -0.037388156350470575 0 -0.0048159841955662001 -0.035050711535888748 0 -0.0031683755895110387 -0.034358760722740266 0 -0.0048159841955662001 -0.035050711535888748 0 -0.007343098273420375 -0.034950795514359194 0 -0.0069370756503829758 -0.038404187276963299 0 -0.0092051188541458079 -0.036546634406854191 0 -0.007343098273420375 -0.034950795514359194 0 -0.0069370756503829758 -0.038404187276963299 0 -0.0092051188541458079 -0.036546634406854191 0 -0.012341827616319493 -0.038527565445864241 0 -0.0069370756503829758 -0.038404187276963299 0 -0.0092051188541458079 -0.036546634406854191 0 -0.011216476525537047 -0.036874787387425112 0 -0.012341827616319493 -0.038527565445864241 0 -0.011216476525537047 -0.036874787387425112 0 -0.0095914036035913437 -0.034413603617909468 0 -0.01120567963632616 -0.034434995265309937 0 -0.0092051188541458079 -0.036546634406854191 0 -0.011216476525537047 -0.036874787387425112 0 -0.0095914036035913437 -0.034413603617909468 0 -0.0092051188541458079 -0.036546634406854191 0 -0.0095914036035913437 -0.034413603617909468 0 -0.007343098273420375 -0.034950795514359194 0 -0.0095914036035913437 -0.034413603617909468 0 -0.007343098273420375 -0.034950795514359194 0 -0.0078282382632774757 -0.032728633499292711 0 -0.0095914036035913437 -0.034413603617909468 0 -0.0078282382632774757 -0.032728633499292711 0 -0.0094003891726686592 -0.031309055007603295 0 -0.0078282382632774757 -0.032728633499292711 0 -0.0072885511667186344 -0.030198440836274581 0 -0.0058310550015462015 -0.032627686694318446 0 -0.0095914036035913437 -0.034413603617909468 0 -0.0094003891726686592 -0.031309055007603295 0 -0.011409693406341622 -0.032614727739506313 0 -0.0095914036035913437 -0.034413603617909468 0 -0.011409693406341622 -0.032614727739506313 0 -0.01120567963632616 -0.034434995265309937 0 -0.0094003891726686592 -0.031309055007603295 0 -0.0072885511667186344 -0.030198440836274581 0 -0.0098108424306944525 -0.027828347329311543 0 -0.0094003891726686592 -0.031309055007603295 0 -0.01164196458765665 -0.030143537964833374 0 -0.011409693406341622 -0.032614727739506313 0 -0.0094003891726686592 -0.031309055007603295 0 -0.0098108424306944525 -0.027828347329311543 0 -0.01164196458765665 -0.030143537964833374 0 -0.0078282382632774757 -0.032728633499292711 0 -0.0094003891726686592 -0.031309055007603295 0 -0.0072885511667186344 -0.030198440836274581 0 -0.0072885511667186344 -0.030198440836274581 0 -0.005169144685490094 -0.03071411171222244 0 -0.0058310550015462015 -0.032627686694318446 0 -0.007343098273420375 -0.034950795514359194 0 -0.0078282382632774757 -0.032728633499292711 0 -0.0058310550015462015 -0.032627686694318446 0 -0.005169144685490094 -0.03071411171222244 0 -0.0058310550015462015 -0.032627686694318446 0 -0.0038281113165425703 -0.032434365682031431 0 -0.0048159841955662001 -0.035050711535888748 0 -0.0031683755895110387 -0.034358760722740266 0 -0.0038281113165425703 -0.032434365682031431 0 -0.0048159841955662001 -0.035050711535888748 0 -0.0058310550015462015 -0.032627686694318446 0 -0.0038281113165425703 -0.032434365682031431 0 -0.0024336153398158752 -0.032573040716727571 0 -0.0031683755895110387 -0.034358760722740266 0 -0.0038281113165425703 -0.032434365682031431 0 -0.0020697297304405524 -0.031787951597246643 0 -0.0038281113165425703 -0.032434365682031431 0 -0.0034783153055759205 -0.030424119468935897 0 -0.005169144685490094 -0.03071411171222244 0 -0.0038281113165425703 -0.032434365682031431 0 -0.0034783153055759205 -0.030424119468935897 0 -0.0023629007585211585 -0.028928068652304174 0 -0.0034783153055759205 -0.030424119468935897 0 -0.0052478257191000358 -0.028257316520384868 0 -0.005169144685490094 -0.03071411171222244 0 -0.0034783153055759205 -0.030424119468935897 0 -0.0052478257191000358 -0.028257316520384868 0 -0.0072885511667186344 -0.030198440836274581 0 -0.005169144685490094 -0.03071411171222244 0 -0.0052478257191000358 -0.028257316520384868 0 -0.0049449511709884668 -0.027706575231574167 0 -0.0048988191717965947 -0.02526986195637904 0 -0.0072353366754153905 -0.024571352623231874 0 -0.0027192223353984224 -0.026107625780887597 0 -0.0049449511709884668 -0.027706575231574167 0 -0.0048988191717965947 -0.02526986195637904 0 -0.0027192223353984224 -0.026107625780887597 0 -0.0048988191717965947 -0.02526986195637904 0 -0.0039709357278183109 -0.022203011244152616 0 -0.0048988191717965947 -0.02526986195637904 0 -0.0039709357278183109 -0.022203011244152616 0 -0.0072353366754153905 -0.024571352623231874 0 -0.0049444222571244168 -0.021832968142707548 0 -0.0094999096596149937 -0.021874287092847777 0 -0.0039709357278183109 -0.022203011244152616 0 -0.010164577809589213 -0.021962745531309703 0 -0.0072353366754153905 -0.024571352623231874 0 -0.0086969760676072327 -0.020373121441738633 0 -0.0066217517471896881 -0.021070435360764559 0 -0.010164577809589213 -0.021962745531309703 0 -0.010164577809589213 -0.021962745531309703 0 -0.0072353366754153905 -0.024571352623231874 0 -0.010968732141282349 -0.024588372096209357 0 -0.0072885511667186344 -0.030198440836274581 0 -0.0052478257191000358 -0.028257316520384868 0 -0.0098108424306944525 -0.027828347329311543 0 -0.0050545132576412608 -0.028115010043202718 0 -0.0084796642041594927 -0.02793966935947239 0 -0.0072353366754153905 -0.024571352623231874 0 -0.0098108424306944525 -0.027828347329311543 0 -0.010968732141282349 -0.024588372096209357 0 -0.0049449511709884668 -0.027706575231574167 0 -0.0072353366754153905 -0.024571352623231874 0 -0.0098108424306944525 -0.027828347329311543 0 -0.0098108424306944525 -0.027828347329311543 0 -0.014126929575731861 -0.027077066498241292 0 -0.01164196458765665 -0.030143537964833374 0 -0.0098108424306944525 -0.027828347329311543 0 -0.014126929575731861 -0.027077066498241292 0 -0.010968732141282349 -0.024588372096209357 0 -0.014126929575731861 -0.027077066498241292 0 -0.01308154510459477 -0.031520518111518403 0 -0.01164196458765665 -0.030143537964833374 0 -0.0082182366999729844 -0.015855844053112828 0 -0.0081361668703253207 -0.01651648021445631 0 -0.0084158294530481438 -0.016122141918096515 0 -0.012403175710920068 -0.02105006435674631 0 -0.014126929575731861 -0.027077066498241292 0 -0.010968732141282349 -0.024588372096209357 0 -0.010257797895967544 -0.018799121859536524 0 -0.010713254526566983 -0.021528979670797404 0 -0.012403175710920068 -0.02105006435674631 0 -0.010164577809589213 -0.021962745531309703 0 -0.010968732141282349 -0.024588372096209357 0 -0.0085491430465194033 -0.015736442085582801 0 -0.0084158294530481438 -0.016122141918096515 0 -0.0086345548215659221 -0.016105783546976116 0 -0.0085491430465194033 -0.015736442085582801 0 -0.0082182366999729844 -0.015855844053112828 0 -0.0084158294530481438 -0.016122141918096515 0 -0.0084158294530481438 -0.016122141918096515 0 -0.0085235290128925431 -0.016454642067764508 0 -0.0086345548215659221 -0.016105783546976116 0 -0.0081361668703253207 -0.01651648021445631 0 -0.0084158294530481438 -0.016122141918096515 0 -0.0085235290128925431 -0.016454642067764508 0 -0.0081361668703253207 -0.01651648021445631 0 -0.0085235290128925431 -0.016454642067764508 0 -0.0083971422598099667 -0.016772757883847123 0 -0.0085235290128925431 -0.016454642067764508 0 -0.0083971422598099667 -0.016772757883847123 0 -0.0087392810560152426 -0.016802963106882528 0 -0.0081361668703253207 -0.01651648021445631 0 -0.0083971422598099667 -0.016772757883847123 0 -0.0081753931779488791 -0.01731048051981697 0 -0.011708652532610933 -0.037337123585942066 0 -0.011902664413480431 -0.03741815086393608 0 -0.011420675592243301 -0.037458940417380779 0 -0.0099210274866037996 -0.030285309109679654 0 -0.010387661533578455 -0.027237499198320438 0 -0.0083971422598099667 -0.016772757883847123 0 -0.0081753931779488791 -0.01731048051981697 0 -0.0087392810560152426 -0.016802963106882528 0 -0.014126929575731861 -0.027077066498241292 0 -0.01308154510459477 -0.031520518111518403 0 -0.015178187438663728 -0.033648920867008429 0 -0.010713254526566983 -0.021528979670797404 0 -0.0099210274866037996 -0.030285309109679654 0 -0.01308154510459477 -0.031520518111518403 0 -0.01164196458765665 -0.030143537964833374 0 -0.011409693406341622 -0.032614727739506313 0 -0.01308154510459477 -0.031520518111518403 0 -0.011409693406341622 -0.032614727739506313 0 -0.012612123039760751 -0.03390002536896123 0 -0.011409693406341622 -0.032614727739506313 0 -0.012612123039760751 -0.03390002536896123 0 -0.01120567963632616 -0.034434995265309937 0 -0.01308154510459477 -0.031520518111518403 0 -0.012612123039760751 -0.03390002536896123 0 -0.015178187438663728 -0.033648920867008429 0 -0.01189214154359643 -0.037464902223321959 0 -0.011938804819802241 -0.037733118570666496 0 -0.011866175555972852 -0.038107456299155879 0 -0.0099210274866037996 -0.030285309109679654 0 -0.010094983645563719 -0.031534771491569497 0 -0.011216476525537047 -0.036874787387425112 0 -0.011901820854020258 -0.037403990347061565 0 -0.01189214154359643 -0.037464902223321959 0 -0.011216476525537047 -0.036874787387425112 0 -0.01189214154359643 -0.037464902223321959 0 -0.011938804819802241 -0.037733118570666496 0 -0.011216476525537047 -0.036874787387425112 0 -0.012612123039760751 -0.03390002536896123 0 -0.01120567963632616 -0.034434995265309937 0 -0.010205748556925315 -0.034289847794068587 0 -0.0099210274866037996 -0.030285309109679654 0 -0.011216476525537047 -0.036874787387425112 0 -0.012612123039760751 -0.03390002536896123 0 -0.015178187438663728 -0.033648920867008429 0 -0.011216476525537047 -0.036874787387425112 0 -0.011938804819802241 -0.037733118570666496 0 -0.012341827616319493 -0.038527565445864241 0 -0.01178119928133094 -0.037492099180548216 0 -0.01198608004610436 -0.037480226912380704 0 -0.011708652532610933 -0.037337123585942066 0 -0.011392096181350803 -0.037125896405271343 0 -0.011565780322404576 -0.036987994451262884 0 -0.011708652532610933 -0.037337123585942066 0 -0.01189214154359643 -0.037464902223321959 0 -0.011866175555972852 -0.038107456299155879 0 -0.011708652532610933 -0.037337123585942066 0 -0.011565780322404576 -0.036987994451262884 0 -0.011788828625419778 -0.036919670502027227 0 -0.011708652532610933 -0.037337123585942066 0 -0.011902664413480431 -0.03741815086393608 0 -0.01189214154359643 -0.037464902223321959 0 -0.011187824914158548 -0.037213260816800695 0 -0.011392096181350803 -0.037125896405271343 0 -0.01138010125790383 -0.037326945911633783 0 -0.011708652532610933 -0.037337123585942066 0 -0.011392096181350803 -0.037125896405271343 0 -0.01138010125790383 -0.037326945911633783 0 -0.011392096181350803 -0.037125896405271343 0 -0.011180086542146426 -0.037071223137359874 0 -0.011351351744656865 -0.036878302183187502 0 -0.011187824914158548 -0.037213260816800695 0 -0.011392096181350803 -0.037125896405271343 0 -0.011180086542146426 -0.037071223137359874 0 -0.011187824914158548 -0.037213260816800695 0 -0.011180086542146426 -0.037071223137359874 0 -0.0110411592113127 -0.037128765370375183 0 -0.011180086542146426 -0.037071223137359874 0 -0.0110411592113127 -0.037128765370375183 0 -0.010961700877151386 -0.036962800443182633 0 -0.0110411592113127 -0.037128765370375183 0 -0.010891683757372124 -0.037146205938082204 0 -0.010961700877151386 -0.036962800443182633 0 -0.0110411592113127 -0.037128765370375183 0 -0.011029658858099978 -0.037252888422949985 0 -0.010891683757372124 -0.037146205938082204 0 -0.011187824914158548 -0.037213260816800695 0 -0.0110411592113127 -0.037128765370375183 0 -0.011029658858099978 -0.037252888422949985 0 -0.011187824914158548 -0.037213260816800695 0 -0.011029658858099978 -0.037252888422949985 0 -0.011119538227770079 -0.037358339927139016 0 -0.011029658858099978 -0.037252888422949985 0 -0.011119538227770079 -0.037358339927139016 0 -0.011011515260289385 -0.037371127655286593 0 -0.011119538227770079 -0.037358339927139016 0 -0.01138010125790383 -0.037326945911633783 0 -0.011420675592243301 -0.037458940417380779 0 -0.011187824914158548 -0.037213260816800695 0 -0.011119538227770079 -0.037358339927139016 0 -0.01138010125790383 -0.037326945911633783 0 -0.011708652532610933 -0.037337123585942066 0 -0.01138010125790383 -0.037326945911633783 0 -0.011420675592243301 -0.037458940417380779 0 -0.0085235290128925431 -0.016454642067764508 0 -0.0087392810560152426 -0.016802963106882528 0 -0.0088142354646900383 -0.016366164115146246 0 -0.0087392810560152426 -0.016802963106882528 0 -0.0088142354646900383 -0.016366164115146246 0 -0.009120639180093211 -0.016381929502760195 0 -0.010387661533578455 -0.027237499198320438 0 -0.0097165199102634756 -0.026682755648718411 0 -0.0088960396709456459 -0.015858247282766053 0 -0.0085491430465194033 -0.015736442085582801 0 -0.0086345548215659221 -0.016105783546976116 0 -0.0088960396709456459 -0.015858247282766053 0 -0.0088142354646900383 -0.016366164115146246 0 -0.0086345548215659221 -0.016105783546976116 0 -0.0088960396709456459 -0.015858247282766053 0 -0.0088142354646900383 -0.016366164115146246 0 -0.009120639180093211 -0.016381929502760195 0 -0.0085235290128925431 -0.016454642067764508 0 -0.0088142354646900383 -0.016366164115146246 0 -0.0086345548215659221 -0.016105783546976116 0 -0.0088960396709456459 -0.015858247282766053 0 -0.009179383930548627 -0.015981854768415436 0 -0.009120639180093211 -0.016381929502760195 0 -0.009179383930548627 -0.015981854768415436 0 -0.009120639180093211 -0.016381929502760195 0 -0.0095432493357604439 -0.016051647031583308 0 -0.011119538227770079 -0.037358339927139016 0 -0.011070808360558121 -0.037401760339900336 0 -0.011011515260289385 -0.037371127655286593 0 -0.011119538227770079 -0.037358339927139016 0 -0.011420675592243301 -0.037458940417380779 0 -0.011070808360558121 -0.037401760339900336 0 -0.011070808360558121 -0.037401760339900336 0 -0.011058507141028399 -0.037278084767978711 0 -0.011011515260289385 -0.037371127655286593 0 -0.010761341394838846 -0.030330292619977408 0 -0.012150509715969838 -0.032104974089145338 0 -0.010304447905297949 -0.033247696564568024 0 -0.010243588901813769 -0.022678319255482211 0 -0.010190696351663666 -0.036548579597938211 0 -0.0097165199102634756 -0.026682755648718411 0 -0.010243588901813769 -0.022678319255482211 0 -0.0089456684456223103 -0.015715816630268137 0 -0.0091641765343926443 -0.015738456139939384 0 -0.0091144373523863349 -0.01596910614623797 0 -0.010243588901813769 -0.022678319255482211 0 -0.0099662618008318354 -0.02451147767297578 0 -0.0093151867047437126 -0.015555355171536007 0 -0.0091673649260427433 -0.015536294682076689 0 -0.0091641765343926443 -0.015738456139939384 0 -0.0091673649260427433 -0.015536294682076689 0 -0.0089456684456223103 -0.015715816630268137 0 -0.0091641765343926443 -0.015738456139939384 0 -0.0091641765343926443 -0.015738456139939384 0 -0.0091144373523863349 -0.01596910614623797 0 -0.0093132317455926969 -0.015853352629718979 0 -0.012150509715969838 -0.032104974089145338 0 -0.012222234175930541 -0.033357259464704393 0 -0.010304447905297949 -0.033247696564568024 0 -0.012150509715969838 -0.032104974089145338 0 -0.012222234175930541 -0.033357259464704393 0 -0.013352777954396206 -0.033655576233831329 0 -0.0099662618008318354 -0.02451147767297578 0 -0.0090425328655770517 -0.028700601713177145 0 -0.012222234175930541 -0.033357259464704393 0 -0.012525924038553781 -0.034497109301258135 0 -0.013352777954396206 -0.033655576233831329 0 -0.012525924038553781 -0.034497109301258135 0 -0.011356212958904967 -0.034102120554248203 0 -0.010881253675359271 -0.035319164716283755 0 -0.012222234175930541 -0.033357259464704393 0 -0.011356212958904967 -0.034102120554248203 0 -0.010304447905297949 -0.033247696564568024 0 -0.012222234175930541 -0.033357259464704393 0 -0.012525924038553781 -0.034497109301258135 0 -0.011356212958904967 -0.034102120554248203 0 -0.010190696351663666 -0.036548579597938211 0 -0.010529894020498637 -0.036139502821249933 0 -0.011029658858099978 -0.037252888422949985 0 -0.011011515260289385 -0.037371127655286593 0 -0.010891683757372124 -0.037146205938082204 0 -0.011356212958904967 -0.034102120554248203 0 -0.010304447905297949 -0.033247696564568024 0 -0.010881253675359271 -0.035319164716283755 0 -0.010304447905297949 -0.033247696564568024 0 -0.010881253675359271 -0.035319164716283755 0 -0.01004701595950871 -0.035755661845215295 0 -0.01004701595950871 -0.035755661845215295 0 -0.010851254489154086 -0.03589040644135439 0 -0.010381757020791405 -0.036289613078579398 0 -0.010881253675359271 -0.035319164716283755 0 -0.01004701595950871 -0.035755661845215295 0 -0.010851254489154086 -0.03589040644135439 0 -0.010171379513084325 -0.032467962102125741 0 -0.010368659564414179 -0.035080108862196195 0 -0.012074927509618898 -0.03471511332953197 0 -0.010881253675359271 -0.035319164716283755 0 -0.010851254489154086 -0.03589040644135439 0 -0.010171379513084325 -0.032467962102125741 0 -0.010748657838640714 -0.033874294936711853 0 -0.011555618660649138 -0.035109203043102832 0 -0.010851254489154086 -0.03589040644135439 0 -0.011290473000578847 -0.035820758307353588 0 -0.011555618660649138 -0.035109203043102832 0 -0.011290473000578847 -0.035820758307353588 0 -0.01204461842620418 -0.034882162447251383 0 -0.0097651621168528876 -0.036537387971754487 0 -0.0082993484798769643 -0.030969974926740772 0 -0.009584906025278157 -0.037621764715113845 0 -0.0088358170208064895 -0.037718915758992777 0 -0.0090828470097373253 -0.03729160540128397 0 -0.009584906025278157 -0.037621764715113845 0 -0.00955257200218604 -0.03693072760370153 0 -0.010411569276000811 -0.036674200785153224 0 -0.00955257200218604 -0.03693072760370153 0 -0.0091838846753841807 -0.036440310522965723 0 -0.008869650426691144 -0.0368553423628687 0 -0.00955257200218604 -0.03693072760370153 0 -0.008869650426691144 -0.0368553423628687 0 -0.0090828470097373253 -0.03729160540128397 0 -0.009584906025278157 -0.037621764715113845 0 -0.00955257200218604 -0.03693072760370153 0 -0.0090828470097373253 -0.03729160540128397 0 -0.010851254489154086 -0.03589040644135439 0 -0.011290473000578847 -0.035820758307353588 0 -0.010411569276000811 -0.036674200785153224 0 -0.010851254489154086 -0.03589040644135439 0 -0.010381757020791405 -0.036289613078579398 0 -0.010411569276000811 -0.036674200785153224 0 -0.00955257200218604 -0.03693072760370153 0 -0.010411569276000811 -0.036674200785153224 0 -0.0099363696694218934 -0.036628636931427455 0 -0.0097651621168528876 -0.036537387971754487 0 -0.010379065477610203 -0.036546379249946158 0 -0.010381757020791405 -0.036289613078579398 0 -0.010411569276000811 -0.036674200785153224 0 -0.01055913815579319 -0.036686462708225412 0 -0.010411569276000811 -0.036674200785153224 0 -0.0099363696694218934 -0.036628636931427455 0 -0.010201438405805304 -0.036368364768968368 0 -0.010411569276000811 -0.036674200785153224 0 -0.010201438405805304 -0.036368364768968368 0 -0.01055913815579319 -0.036686462708225412 0 -0.0099363696694218934 -0.036628636931427455 0 -0.010201438405805304 -0.036368364768968368 0 -0.0096965595013223192 -0.036277600470212855 0 -0.0099363696694218934 -0.036628636931427455 0 -0.0096965595013223192 -0.036277600470212855 0 -0.0087586873878556983 -0.036247836306389676 0 -0.0099363696694218934 -0.036628636931427455 0 -0.0091838846753841807 -0.036440310522965723 0 -0.0089727507656928909 -0.035482043940596779 0 -0.0096762310907129671 -0.036514457539224131 0 -0.0088328475649953903 -0.035830831082669323 0 -0.00955257200218604 -0.03693072760370153 0 -0.0099363696694218934 -0.036628636931427455 0 -0.0091838846753841807 -0.036440310522965723 0 -0.0096965595013223192 -0.036277600470212855 0 -0.0098416427613268482 -0.035780697789587076 0 -0.0087586873878556983 -0.036247836306389676 0 -0.0088544129104802579 -0.034999671862522209 0 -0.0098416427613268482 -0.035780697789587076 0 -0.010530398624937813 -0.034999921518515401 0 -0.0088544129104802579 -0.034999671862522209 0 -0.0098416427613268482 -0.035780697789587076 0 -0.0087586873878556983 -0.036247836306389676 0 -0.0098416427613268482 -0.035780697789587076 0 -0.010530398624937813 -0.034999921518515401 0 -0.011167508359126343 -0.036295021266369874 0 -0.010201438405805304 -0.036368364768968368 0 -0.0096965595013223192 -0.036277600470212855 0 -0.0098416427613268482 -0.035780697789587076 0 -0.010144950095259257 -0.035875210507542013 0 -0.010839557224324135 -0.036096550708418051 0 -0.010201438405805304 -0.036368364768968368 0 -0.0098416427613268482 -0.035780697789587076 0 -0.010524333225861417 -0.035924692195812187 0 -0.010524333225861417 -0.035924692195812187 0 -0.010879442166687174 -0.036388406581063744 0 -0.010539970045296086 -0.036342422858050852 0 -0.010201438405805304 -0.036368364768968368 0 -0.010524333225861417 -0.035924692195812187 0 -0.010539970045296086 -0.036342422858050852 0 -0.010524333225861417 -0.035924692195812187 0 -0.011151722151033515 -0.036104379626721694 0 -0.010879442166687174 -0.036388406581063744 0 -0.010839557224324135 -0.036096550708418051 0 -0.011844084792452613 -0.036393372078531577 0 -0.010530398624937813 -0.034999921518515401 0 -0.011167508359126343 -0.036295021266369874 0 -0.012206880517284658 -0.034999988000501997 0 -0.011167508359126343 -0.036295021266369874 0 -0.012206880517284658 -0.034999988000501997 0 -0.012444187637867817 -0.036716164580943567 0 -0.012206846802582452 -0.035000888063797392 0 -0.011844084792452613 -0.036393372078531577 0 -0.012206986351914551 -0.035000062482850813 0 -0.012498699628143843 -0.036746152202039695 0 -0.013394522012755863 -0.035990697744135561 0 -0.011844084792452613 -0.036393372078531577 0 -0.012674860025555085 -0.03666410623813797 0 -0.011269941851732804 -0.036220940635597082 0 -0.011316249087051507 -0.036544985222850955 0 -0.011640658857277395 -0.036342379551780504 0 -0.011228458759944333 -0.036555505132515535 0 -0.010879442166687174 -0.036388406581063744 0 -0.010994969525751812 -0.036732697263607721 0 -0.011844084792452613 -0.036393372078531577 0 -0.011483466160202738 -0.036523362996629165 0 -0.011151722151033515 -0.036104379626721694 0 -0.011228458759944333 -0.036555505132515535 0 -0.010879442166687174 -0.036388406581063744 0 -0.010879442166687174 -0.036388406581063744 0 -0.010539970045296086 -0.036342422858050852 0 -0.01055913815579319 -0.036686462708225412 0 -0.010201438405805304 -0.036368364768968368 0 -0.010539970045296086 -0.036342422858050852 0 -0.01055913815579319 -0.036686462708225412 0 -0.010879442166687174 -0.036388406581063744 0 -0.01055913815579319 -0.036686462708225412 0 -0.010994969525751812 -0.036732697263607721 0 -0.01055913815579319 -0.036686462708225412 0 -0.010994969525751812 -0.036732697263607721 0 -0.010961700877151386 -0.036962800443182633 0 -0.010891683757372124 -0.037146205938082204 0 -0.01055913815579319 -0.036686462708225412 0 -0.010961700877151386 -0.036962800443182633 0 -0.010529894020498637 -0.036139502821249933 0 -0.010514936088107343 -0.03656979317872322 0 -0.01004701595950871 -0.035755661845215295 0 -0.010381757020791405 -0.036289613078579398 0 -0.01055913815579319 -0.036686462708225412 0 -0.011180086542146426 -0.037071223137359874 0 -0.010961700877151386 -0.036962800443182633 0 -0.011351351744656865 -0.036878302183187502 0 -0.011392096181350803 -0.037125896405271343 0 -0.011351351744656865 -0.036878302183187502 0 -0.011565780322404576 -0.036987994451262884 0 -0.011316249087051507 -0.036544985222850955 0 -0.011351351744656865 -0.036878302183187502 0 -0.011616870470181402 -0.03666600085508831 0 -0.011483466160202738 -0.036523362996629165 0 -0.011436242400328126 -0.036744532121726625 0 -0.011228458759944333 -0.036555505132515535 0 -0.010994969525751812 -0.036732697263607721 0 -0.011351351744656865 -0.036878302183187502 0 -0.010994969525751812 -0.036732697263607721 0 -0.010961700877151386 -0.036962800443182633 0 -0.011351351744656865 -0.036878302183187502 0 -0.011351351744656865 -0.036878302183187502 0 -0.011565780322404576 -0.036987994451262884 0 -0.011616870470181402 -0.03666600085508831 0 -0.011565780322404576 -0.036987994451262884 0 -0.011788828625419778 -0.036919670502027227 0 -0.011616870470181402 -0.03666600085508831 0 -0.011788828625419778 -0.036919670502027227 0 -0.012006881077009106 -0.036465586300829418 0 -0.011616870470181402 -0.03666600085508831 0 -0.011866175555972852 -0.038107456299155879 0 -0.01233947393215149 -0.036451176760136844 0 -0.013093561518977247 -0.037500005559358889 0 -0.011938804819802241 -0.037733118570666496 0 -0.011866175555972852 -0.038107456299155879 0 -0.012341827616319493 -0.038527565445864241 0 -0.011866175555972852 -0.038107456299155879 0 -0.012341827616319493 -0.038527565445864241 0 -0.013093561518977247 -0.037500005559358889 0 -0.01198608004610436 -0.037480226912380704 0 -0.013538368476900042 -0.036781475465021307 0 -0.013538368476900042 -0.036781475465021307 0 -0.012674860025555085 -0.03666410623813797 0 -0.012006881077009106 -0.036465586300829418 0 -0.011616870470181402 -0.03666600085508831 0 -0.011640658857277395 -0.036342379551780504 0 -0.011316249087051507 -0.036544985222850955 0 -0.011616870470181402 -0.03666600085508831 0 -0.011640658857277395 -0.036342379551780504 0 -0.012498699628143843 -0.036746152202039695 0 -0.013665525554245134 -0.037122219089869242 0 -0.013394522012755863 -0.035990697744135561 0 -0.013665525554245134 -0.037122219089869242 0 -0.013394522012755863 -0.035990697744135561 0 -0.014284210205096419 -0.036371088664417711 0 -0.014127482471443143 -0.034999819010976957 0 -0.013394522012755863 -0.035990697744135561 0 -0.014284210205096419 -0.036371088664417711 0 -0.012206986351914551 -0.035000062482850813 0 -0.014127482471443143 -0.034999819010976957 0 -0.013394522012755863 -0.035990697744135561 0 -0.014127482471443143 -0.034999819010976957 0 -0.015402758946069533 -0.036259531702568182 0 -0.015983645613219726 -0.034925909397521909 0 -0.014127482471443143 -0.034999819010976957 0 -0.014284210205096419 -0.036371088664417711 0 -0.015402758946069533 -0.036259531702568182 0 -0.013538368476900042 -0.036781475465021307 0 -0.015015740089914574 -0.036008152611564245 0 -0.014836347181949738 -0.037503265551124904 0 -0.014284210205096419 -0.036371088664417711 0 -0.015402758946069533 -0.036259531702568182 0 -0.014836347181949738 -0.037503265551124904 0 -0.013665525554245134 -0.037122219089869242 0 -0.014284210205096419 -0.036371088664417711 0 -0.014663374332832966 -0.036884646405270165 0 -0.015082550818725766 -0.036027595610513843 0 -0.015158519976017417 -0.03667872583426271 0 -0.015082550818725766 -0.036027595610513843 0 -0.01600047280091681 -0.035604692130559994 0 -0.016115336987670582 -0.036505566185269185 0 -0.015082550818725766 -0.036027595610513843 0 -0.016115336987670582 -0.036505566185269185 0 -0.015158519976017417 -0.03667872583426271 0 -0.015082550818725766 -0.036027595610513843 0 -0.01600047280091681 -0.035604692130559994 0 -0.015982935081796372 -0.034925613951271944 0 -0.015015740089914574 -0.036008152611564245 0 -0.015599779122746219 -0.035251797937131873 0 -0.01600047280091681 -0.035604692130559994 0 -0.015982935081796372 -0.034925613951271944 0 -0.016772788490145497 -0.035638373347779619 0 -0.017968530515001781 -0.03499964271782894 0 -0.015982935081796372 -0.034925613951271944 0 -0.016772788490145497 -0.035638373347779619 0 -0.01600047280091681 -0.035604692130559994 0 -0.016772788490145497 -0.035638373347779619 0 -0.016115336987670582 -0.036505566185269185 0 -0.017871709442760633 -0.036224572550127898 0 -0.016772788490145497 -0.035638373347779619 0 -0.016115336987670582 -0.036505566185269185 0 -0.017467095060171998 -0.037546077412193672 0 -0.016115336987670582 -0.036505566185269185 0 -0.016298457763757063 -0.037995837859586899 0 -0.016115336987670582 -0.036505566185269185 0 -0.015045790407995606 -0.037174753044841059 0 -0.016298457763757063 -0.037995837859586899 0 -0.014663374332832966 -0.036884646405270165 0 -0.015158519976017417 -0.03667872583426271 0 -0.015045790407995606 -0.037174753044841059 0 -0.013538368476900042 -0.036781475465021307 0 -0.014624776066597246 -0.037080129776388179 0 -0.016115336987670582 -0.036505566185269185 0 -0.015158519976017417 -0.03667872583426271 0 -0.015045790407995606 -0.037174753044841059 0 -0.01233947393215149 -0.036451176760136844 0 -0.013093561518977247 -0.037500005559358889 0 -0.015045790407995606 -0.037174753044841059 0 -0.013093561518977247 -0.037500005559358889 0 -0.015045790407995606 -0.037174753044841059 0 -0.015378765466108472 -0.039301618591315632 0 -0.011968979025353996 -0.038461837669058307 0 -0.011060101627279382 -0.038037191862079822 0 -0.012341827616319493 -0.038527565445864241 0 -0.013093561518977247 -0.037500005559358889 0 -0.015378765466108472 -0.039301618591315632 0 -0.015045790407995606 -0.037174753044841059 0 -0.016298457763757063 -0.037995837859586899 0 -0.015378765466108472 -0.039301618591315632 0 -0.017362266160575023 -0.039547095241960345 0 -0.016298457763757063 -0.037995837859586899 0 -0.015378765466108472 -0.039301618591315632 0 -0.0024923679094609142 -0.028506434330306779 0 -0.0023045651936909068 -0.028475092405118897 0 -0.0023885649534186792 -0.028644060514866655 0 -0.0024923679094609142 -0.028506434330306779 0 -0.0023045651936909068 -0.028475092405118897 0 -0.0024265465369817637 -0.028316144697619349 0 -0.0024923679094609142 -0.028506434330306779 0 -0.0027006680856572658 -0.028427861309298887 0 -0.0025813581358713638 -0.028327445940056182 0 -0.0023045651936909068 -0.028475092405118897 0 -0.0022512780200545138 -0.028642378910721984 0 -0.0021843817061385179 -0.028529071495155735 0 -0.0023045651936909068 -0.028475092405118897 0 -0.0022512780200545138 -0.028642378910721984 0 -0.0023885649534186792 -0.028644060514866655 0 -0.0022512780200545138 -0.028642378910721984 0 -0.0023885649534186792 -0.028644060514866655 0 -0.002331420089209878 -0.028815405836911813 0 -0.0022512780200545138 -0.028642378910721984 0 -0.002331420089209878 -0.028815405836911813 0 -0.0022612182457662426 -0.028856360530697327 0 -0.0024923679094609142 -0.028506434330306779 0 -0.0023885649534186792 -0.028644060514866655 0 -0.0025335239017087638 -0.028717944382760523 0 -0.0023885649534186792 -0.028644060514866655 0 -0.0025335239017087638 -0.028717944382760523 0 -0.002331420089209878 -0.028815405836911813 0 0.0011487345744429086 -0.028832157547566691 0 0.00083746600700156744 -0.028983168817436268 0 0.0047235300269203567 -0.029257778197503911 0 0.0047107532555022771 -0.029535831840681277 0 0.0043517858208547491 -0.028983725409344532 0 -0.0020703233978902366 -0.028578385557795353 0 -0.0021505789854417466 -0.028279919047154992 0 -0.0022051787868319437 -0.028746788561329704 0 -0.0023899901451018423 -0.028191628769635789 0 -0.0021505789854417466 -0.028279919047154992 0 -0.0022051787868319437 -0.028746788561329704 0 0.004648428890633838 -0.029020584791600475 0 0.0047235300269203567 -0.029257778197503911 0 0.0043517858208547491 -0.028983725409344532 0 0.00079800957375007861 -0.034589049679873085 0 0.0033779112855416202 -0.033014714584212658 0 0.00017589614013720047 -0.031884688468496999 0 0.00048395068918434748 -0.031152409324434173 0 0.0019678249026380467 -0.033162655849781682 0 0.004648428890633838 -0.029020584791600475 0 0.0047235300269203567 -0.029257778197503911 0 0.004996895738757349 -0.029296919979718398 0 0.0022310556324862795 -0.030720929758810411 0 0.0033779112855416202 -0.033014714584212658 0 0.0047235300269203567 -0.029257778197503911 0 0.0048661589222389187 -0.029441257627210324 0 0.004996895738757349 -0.029296919979718398 0 0.0047235300269203567 -0.029257778197503911 0 0.0048661589222389187 -0.029441257627210324 0 0.0047107532555022771 -0.029535831840681277 0 0.0048661589222389187 -0.029441257627210324 0 0.0047107532555022771 -0.029535831840681277 0 0.0048878451582868888 -0.02959176264074383 0 0.0048661589222389187 -0.029441257627210324 0 0.0048878451582868888 -0.02959176264074383 0 0.0049914898989940251 -0.029543886007375501 0 -0.0022612241065907402 -0.028593636895153093 0 -0.0020585077346894892 -0.028064726382486443 0 -0.0024923679094609142 -0.028506434330306779 0 -0.0025335239017087638 -0.028717944382760523 0 -0.0027006680856572658 -0.028427861309298887 0 -0.0020703233978902366 -0.028578385557795353 0 -0.0021505789854417466 -0.028279919047154992 0 -0.0020788827387951902 -0.028081784918245631 0 -0.0023899901451018423 -0.028191628769635789 0 -0.0021505789854417466 -0.028279919047154992 0 -0.0019373013981276183 -0.027950736018972192 0 -0.0020741104087756475 -0.028121444942027052 0 -0.0020585077346894892 -0.028064726382486443 0 -0.0020585077346894892 -0.028064726382486443 0 -0.0022411422090625136 -0.027598572446331765 0 -0.0014987284985209669 -0.028171123556737555 0 -0.001271456567404151 -0.027131047504069472 0 -0.0019023731726742139 -0.026721605692668033 0 -0.0027006680856572658 -0.028427861309298887 0 -0.0026933688838321227 -0.028164224605410765 0 -0.0025813581358713638 -0.028327445940056182 0 -0.0019373013981276183 -0.027950736018972192 0 -0.0023686346964161098 -0.027366490914812889 0 -0.0020565228965370272 -0.026724520105578044 0 -0.0020585077346894892 -0.028064726382486443 0 -0.002044995006564982 -0.026675652225896542 0 -0.0023899901451018423 -0.028191628769635789 0 -0.0019373013981276183 -0.027950736018972192 0 -0.0023686346964161098 -0.027366490914812889 0 0.0047107532555022771 -0.029535831840681277 0 0.0048878451582868888 -0.02959176264074383 0 0.0050687000466404526 -0.029802036661564512 0 -0.0023899901451018423 -0.028191628769635789 0 -0.0023686346964161098 -0.027366490914812889 0 -0.0029936577209755521 -0.026929163749605439 0 0.0011487345744429086 -0.028832157547566691 0 0.0011847454211071891 -0.028127078640267665 0 0.0048878451582868888 -0.02959176264074383 0 0.0050687000466404526 -0.029802036661564512 0 0.0049840165615415979 -0.029654300479208404 0 -0.0023686346964161098 -0.027366490914812889 0 -0.002544897581600437 -0.026820745630417191 0 -0.0029936577209755521 -0.026929163749605439 0 -0.0023686346964161098 -0.027366490914812889 0 -0.002544897581600437 -0.026820745630417191 0 -0.0020565228965370272 -0.026724520105578044 0 -0.002544897581600437 -0.026820745630417191 0 -0.0025041368360409618 -0.026534524727151839 0 -0.0020565228965370272 -0.026724520105578044 0 -0.0025453397378175833 -0.026092570413602828 0 -0.0025041368360409618 -0.026534524727151839 0 -0.0020565228965370272 -0.026724520105578044 0 -0.0028685714380234555 -0.026211815749049062 0 -0.002544897581600437 -0.026820745630417191 0 -0.0029936577209755521 -0.026929163749605439 0 -0.0028685714380234555 -0.026211815749049062 0 -0.002544897581600437 -0.026820745630417191 0 -0.0025041368360409618 -0.026534524727151839 0 -0.0028685714380234555 -0.026211815749049062 0 -0.0025453397378175833 -0.026092570413602828 0 -0.0025041368360409618 -0.026534524727151839 0 -0.0010503258923792484 -0.026088619887908771 0 -0.001271456567404151 -0.027131047504069472 0 -0.0015470978354495131 -0.026534438642164825 0 -0.0027264580922845365 -0.025781276114264538 0 -0.0022411422090625136 -0.027598572446331765 0 -0.001271456567404151 -0.027131047504069472 0 -0.0019023731726742139 -0.026721605692668033 0 -0.0015470978354495131 -0.026534438642164825 0 -0.0014875040063686868 -0.026160568481213078 0 -0.0019023731726742139 -0.026721605692668033 0 -0.0015470978354495131 -0.026534438642164825 0 -0.00099627332130981577 -0.026066513488841529 0 -0.0014875040063686868 -0.026160568481213078 0 -0.0015470978354495131 -0.026534438642164825 0 -0.0027264580922845365 -0.025781276114264538 0 -0.0021637073201210169 -0.025764350649565303 0 -0.0025428409704315639 -0.028079035591332194 0 -0.0024265465369817637 -0.028316144697619349 0 -0.002363914980529255 -0.028027477622250184 0 -0.0024730013322452836 -0.027894453371522084 0 -0.0026691653991326911 -0.027879233943896957 0 -0.0025428409704315639 -0.028079035591332194 0 -0.0026691653991326911 -0.027879233943896957 0 -0.0026933688838321227 -0.028164224605410765 0 -0.0025428409704315639 -0.028079035591332194 0 -0.0024730013322452836 -0.027894453371522084 0 -0.0025428409704315639 -0.028079035591332194 0 -0.002363914980529255 -0.028027477622250184 0 -0.0025428409704315639 -0.028079035591332194 0 -0.0024265465369817637 -0.028316144697619349 0 -0.0025813581358713638 -0.028327445940056182 0 -0.0026933688838321227 -0.028164224605410765 0 -0.0025428409704315639 -0.028079035591332194 0 -0.0025813581358713638 -0.028327445940056182 0 -0.0024923679094609142 -0.028506434330306779 0 -0.0024265465369817637 -0.028316144697619349 0 -0.0025813581358713638 -0.028327445940056182 0 -0.0024265465369817637 -0.028316144697619349 0 -0.0022558947789130201 -0.028295203672469803 0 -0.002363914980529255 -0.028027477622250184 0 -0.0023045651936909068 -0.028475092405118897 0 -0.0022558947789130201 -0.028295203672469803 0 -0.0021959113309970545 -0.028425062663785493 0 -0.0023045651936909068 -0.028475092405118897 0 -0.0024265465369817637 -0.028316144697619349 0 -0.0022558947789130201 -0.028295203672469803 0 -0.0023026256086189846 -0.027803869654287869 0 -0.002363914980529255 -0.028027477622250184 0 -0.0021658291052800891 -0.027963238246070256 0 -0.002363914980529255 -0.028027477622250184 0 -0.0021658291052800891 -0.027963238246070256 0 -0.0020753830180101412 -0.028134064621270331 0 -0.006353103248740207 -0.022233217330296855 0 -0.0038622375075398146 -0.027272985429926812 0 -0.0022558947789130201 -0.028295203672469803 0 -0.002363914980529255 -0.028027477622250184 0 -0.0020939065734354961 -0.028271220065068652 0 -0.0019564326557557866 -0.028238690854779494 0 -0.0038622375075398146 -0.027272985429926812 0 -0.002018880832072782 -0.027795359151910049 0 -0.0021658291052800891 -0.027963238246070256 0 -0.0020753830180101412 -0.028134064621270331 0 -0.0076927898323545857 -0.024728310627977774 0 -0.0078428172838772084 -0.025752232729496078 0 -0.00683232579324973 -0.025648895791677968 0 -0.006353103248740207 -0.022233217330296855 0 -0.009149985171456116 -0.020214349540831674 0 -0.0094908952382913563 -0.0155771933954202 0 -0.0097241237380289031 -0.015515311096297864 0 -0.0095451379145785921 -0.015828655234587284 0 -0.0078428172838772084 -0.025752232729496078 0 -0.00683232579324973 -0.025648895791677968 0 -0.0068381236309199211 -0.025856308059893324 0 -0.0038622375075398146 -0.027272985429926812 0 -0.004633995812944507 -0.027778402527863455 0 -0.0078428172838772084 -0.025752232729496078 0 -0.0068381236309199211 -0.025856308059893324 0 -0.007012037990182093 -0.026195135146325904 0 -0.0020887835158542854 -0.028424946845544211 0 -0.0021246033160505621 -0.028344047989782621 0 -0.0020408263383494994 -0.028419860640103455 0 -0.0020887835158542854 -0.028424946845544211 0 -0.0021219906937602739 -0.02836696936642006 0 -0.0021334216556486547 -0.028452356224419169 0 -0.0021219906937602739 -0.02836696936642006 0 -0.0021959113309970545 -0.028425062663785493 0 -0.0021334216556486547 -0.028452356224419169 0 -0.0022558947789130201 -0.028295203672469803 0 -0.0021219906937602739 -0.02836696936642006 0 -0.0021959113309970545 -0.028425062663785493 0 -0.0022558947789130201 -0.028295203672469803 0 -0.0021219906937602739 -0.02836696936642006 0 -0.0020939065734354961 -0.028271220065068652 0 -0.0020887835158542854 -0.028424946845544211 0 -0.0021219906937602739 -0.02836696936642006 0 -0.0021246033160505621 -0.028344047989782621 0 -0.0037322716811364017 -0.027535872939999737 0 -0.0038622375075398146 -0.027272985429926812 0 -0.0093151867047437126 -0.015555355171536007 0 -0.0091641765343926443 -0.015738456139939384 0 -0.0093132317455926969 -0.015853352629718979 0 -0.0094908952382913563 -0.0155771933954202 0 -0.0093151867047437126 -0.015555355171536007 0 -0.0093132317455926969 -0.015853352629718979 0 -0.0094908952382913563 -0.0155771933954202 0 -0.0093132317455926969 -0.015853352629718979 0 -0.0095451379145785921 -0.015828655234587284 0 -0.0068381236309199211 -0.025856308059893324 0 -0.007012037990182093 -0.026195135146325904 0 -0.0061095006182446251 -0.026692807762320522 0 -0.00683232579324973 -0.025648895791677968 0 -0.0068381236309199211 -0.025856308059893324 0 -0.0061008977918443228 -0.026519222754347552 0 -0.0074791145045028668 -0.026326210052868417 0 -0.0072920556131582191 -0.029740449349163041 0 -0.0091144373523863349 -0.01596910614623797 0 -0.0093132317455926969 -0.015853352629718979 0 -0.009284811918926647 -0.016225033953935576 0 -0.009149985171456116 -0.020214349540831674 0 -0.0090425328655770517 -0.028700601713177145 0 -0.0093132317455926969 -0.015853352629718979 0 -0.0095451379145785921 -0.015828655234587284 0 -0.009284811918926647 -0.016225033953935576 0 -0.0068381236309199211 -0.025856308059893324 0 -0.0061008977918443228 -0.026519222754347552 0 -0.0062780790381123689 -0.026577612781331729 0 -0.0098914665614144633 -0.031395651800928362 0 -0.0092950894186035748 -0.031988557231972782 0 -0.0090726534361324166 -0.031714402557921066 0 -0.010171379513084325 -0.032467962102125741 0 -0.0090425328655770517 -0.028700601713177145 0 -0.010171379513084325 -0.032467962102125741 0 -0.0082993484798769643 -0.030969974926740772 0 -0.0061008977918443228 -0.026519222754347552 0 -0.0062780790381123689 -0.026577612781331729 0 -0.0062115453110913885 -0.026655495768713247 0 -0.0090425328655770517 -0.028700601713177145 0 -0.0082993484798769643 -0.030969974926740772 0 -0.0072920556131582191 -0.029740449349163041 0 -0.0082993484798769643 -0.030969974926740772 0 -0.001600709588524361 -0.028566614218861353 0 -0.0015200378341219485 -0.028634475947244366 0 -0.001903317521911181 -0.028618687978442782 0 -0.004633995812944507 -0.027778402527863455 0 -0.0072920556131582191 -0.029740449349163041 0 -0.0015200378341219485 -0.028634475947244366 0 -0.001903317521911181 -0.028618687978442782 0 -0.0019232458702587237 -0.029407574687213209 0 -0.0020408263383494994 -0.028419860640103455 0 -0.001600709588524361 -0.028566614218861353 0 -0.001903317521911181 -0.028618687978442782 0 -0.001903317521911181 -0.028618687978442782 0 -0.0020398687744601182 -0.028547325182349662 0 -0.0020575526546958126 -0.028672827705193686 0 -0.0020408263383494994 -0.028419860640103455 0 -0.001903317521911181 -0.028618687978442782 0 -0.0020398687744601182 -0.028547325182349662 0 -0.0019232458702587237 -0.029407574687213209 0 -0.0028651002307606296 -0.029404031219512974 0 -0.0026208017467731068 -0.030364448624586867 0 -0.001903317521911181 -0.028618687978442782 0 -0.0019232458702587237 -0.029407574687213209 0 -0.0028651002307606296 -0.029404031219512974 0 -0.0020270161980591537 -0.028718887924461232 0 -0.0023800178419889793 -0.029089258073181079 0 -0.0087447815445202866 -0.038481384410465419 0 -0.008131545590517486 -0.037763843858353859 0 -0.0088358170208064895 -0.037718915758992777 0 -0.0082993484798769643 -0.030969974926740772 0 -0.0056964219757822763 -0.033085101911949973 0 -0.009584906025278157 -0.037621764715113845 0 -0.0087447815445202866 -0.038481384410465419 0 -0.0088358170208064895 -0.037718915758992777 0 -0.008131545590517486 -0.037763843858353859 0 -0.0088358170208064895 -0.037718915758992777 0 -0.0085682535223122729 -0.037322276266648913 0 -0.0088358170208064895 -0.037718915758992777 0 -0.0090828470097373253 -0.03729160540128397 0 -0.0085682535223122729 -0.037322276266648913 0 -0.0021843817061385179 -0.028529071495155735 0 -0.002103428767573929 -0.028546556799383487 0 -0.0021504769729930764 -0.0286393819458872 0 -0.0022512780200545138 -0.028642378910721984 0 -0.0021843817061385179 -0.028529071495155735 0 -0.0021504769729930764 -0.0286393819458872 0 -0.0023045651936909068 -0.028475092405118897 0 -0.0021959113309970545 -0.028425062663785493 0 -0.0021843817061385179 -0.028529071495155735 0 -0.0021959113309970545 -0.028425062663785493 0 -0.0021843817061385179 -0.028529071495155735 0 -0.0021334216556486547 -0.028452356224419169 0 -0.0021843817061385179 -0.028529071495155735 0 -0.0021334216556486547 -0.028452356224419169 0 -0.002103428767573929 -0.028546556799383487 0 -0.0020398687744601182 -0.028547325182349662 0 -0.002103428767573929 -0.028546556799383487 0 -0.0020575526546958126 -0.028672827705193686 0 -0.0020887835158542854 -0.028424946845544211 0 -0.0020398687744601182 -0.028547325182349662 0 -0.002103428767573929 -0.028546556799383487 0 -0.0020887835158542854 -0.028424946845544211 0 -0.0021334216556486547 -0.028452356224419169 0 -0.002103428767573929 -0.028546556799383487 0 -0.0020887835158542854 -0.028424946845544211 0 -0.0020408263383494994 -0.028419860640103455 0 -0.0020398687744601182 -0.028547325182349662 0 -0.002103428767573929 -0.028546556799383487 0 -0.0020575526546958126 -0.028672827705193686 0 -0.0021504769729930764 -0.0286393819458872 0 -0.0025963574761017874 -0.028697145905038191 0 -0.0028837324575643258 -0.030126214128633862 0 -0.0020575526546958126 -0.028672827705193686 0 -0.0021504769729930764 -0.0286393819458872 0 -0.0021750975381742842 -0.028785936959797819 0 -0.0022512780200545138 -0.028642378910721984 0 -0.0021504769729930764 -0.0286393819458872 0 -0.0021750975381742842 -0.028785936959797819 0 -0.0028837324575643258 -0.030126214128633862 0 -0.0024952823872076472 -0.030982341565969729 0 -0.0038975312516887012 -0.030350045012691985 0 -0.0026208017467731068 -0.030364448624586867 0 -0.0033841875042804849 -0.031330870380676369 0 -0.0023800178419889793 -0.029089258073181079 0 -0.0028837324575643258 -0.030126214128633862 0 -0.0028651002307606296 -0.029404031219512974 0 -0.0038975312516887012 -0.030350045012691985 0 -0.0026208017467731068 -0.030364448624586867 0 -0.0074868398725890994 -0.037015290804982434 0 -0.0074650790807351654 -0.036029998391748398 0 -0.0068456410827060932 -0.036240045452135085 0 -0.0051127271721616852 -0.033678895018425532 0 -0.0042902559544990889 -0.033746348056592539 0 -0.0074650790807351654 -0.036029998391748398 0 -0.0068456410827060932 -0.036240045452135085 0 -0.0072484576168005089 -0.035497633422797825 0 -0.003107130660757513 -0.032480868935675193 0 -0.0030079897147199429 -0.032679700282952792 0 -0.003270688898531114 -0.03264241272213067 0 -0.0030079897147199429 -0.032679700282952792 0 -0.0031311452693052887 -0.032835258291415363 0 -0.003270688898531114 -0.03264241272213067 0 -0.0042902559544990889 -0.033746348056592539 0 -0.0040641141429973758 -0.034111853510128853 0 -0.0028837324575643258 -0.030126214128633862 0 -0.0042902559544990889 -0.033746348056592539 0 -0.008869650426691144 -0.0368553423628687 0 -0.0090828470097373253 -0.03729160540128397 0 -0.0085682535223122729 -0.037322276266648913 0 -0.008869650426691144 -0.0368553423628687 0 -0.0085682535223122729 -0.037322276266648913 0 -0.0081399248051443017 -0.036876143790419952 0 -0.0056964219757822763 -0.033085101911949973 0 -0.0051127271721616852 -0.033678895018425532 0 -0.008131545590517486 -0.037763843858353859 0 -0.0074868398725890994 -0.037015290804982434 0 -0.0081399248051443017 -0.036876143790419952 0 -0.008131545590517486 -0.037763843858353859 0 -0.0085682535223122729 -0.037322276266648913 0 -0.0081399248051443017 -0.036876143790419952 0 -0.0074868398725890994 -0.037015290804982434 0 -0.0081399248051443017 -0.036876143790419952 0 -0.0079928523459166546 -0.036274020417655352 0 -0.0074868398725890994 -0.037015290804982434 0 -0.0074650790807351654 -0.036029998391748398 0 -0.0079928523459166546 -0.036274020417655352 0 -0.0074650790807351654 -0.036029998391748398 0 -0.0079928523459166546 -0.036274020417655352 0 -0.0078139128259149138 -0.035798012674404973 0 -0.0079928523459166546 -0.036274020417655352 0 -0.0085774105192932461 -0.036254566687292454 0 -0.0082043622861293162 -0.035639920027958308 0 -0.0081399248051443017 -0.036876143790419952 0 -0.0079928523459166546 -0.036274020417655352 0 -0.0085774105192932461 -0.036254566687292454 0 -0.0091838846753841807 -0.036440310522965723 0 -0.0085774105192932461 -0.036254566687292454 0 -0.0089727507656928909 -0.035482043940596779 0 -0.008869650426691144 -0.0368553423628687 0 -0.0081399248051443017 -0.036876143790419952 0 -0.0085774105192932461 -0.036254566687292454 0 -0.0091838846753841807 -0.036440310522965723 0 -0.008869650426691144 -0.0368553423628687 0 -0.0085774105192932461 -0.036254566687292454 0 -0.0089727507656928909 -0.035482043940596779 0 -0.0082043622861293162 -0.035639920027958308 0 -0.0079389032609749957 -0.035015970882143671 0 -0.0085774105192932461 -0.036254566687292454 0 -0.0089727507656928909 -0.035482043940596779 0 -0.0082043622861293162 -0.035639920027958308 0 -0.0082043622861293162 -0.035639920027958308 0 -0.0078764346156688664 -0.035480346926233461 0 -0.0079389032609749957 -0.035015970882143671 0 -0.0079928523459166546 -0.036274020417655352 0 -0.0082043622861293162 -0.035639920027958308 0 -0.0078139128259149138 -0.035798012674404973 0 -0.0074650790807351654 -0.036029998391748398 0 -0.0078139128259149138 -0.035798012674404973 0 -0.0075487208841158483 -0.035465874013610094 0 -0.0082043622861293162 -0.035639920027958308 0 -0.0078139128259149138 -0.035798012674404973 0 -0.0078764346156688664 -0.035480346926233461 0 -0.0078139128259149138 -0.035798012674404973 0 -0.0078764346156688664 -0.035480346926233461 0 -0.0075487208841158483 -0.035465874013610094 0 -0.0078764346156688664 -0.035480346926233461 0 -0.0079389032609749957 -0.035015970882143671 0 -0.0075487208841158483 -0.035465874013610094 0 -0.0079389032609749957 -0.035015970882143671 0 -0.0075487208841158483 -0.035465874013610094 0 -0.0072439072247273244 -0.035499628913200715 0 -0.0089727507656928909 -0.035482043940596779 0 -0.0079389032609749957 -0.035015970882143671 0 -0.0079895058827141839 -0.034420874484364504 0 -0.0079389032609749957 -0.035015970882143671 0 -0.0078172304573141671 -0.034431047848748619 0 -0.0072439072247273244 -0.035499628913200715 0 -0.0079389032609749957 -0.035015970882143671 0 -0.0078172304573141671 -0.034431047848748619 0 -0.0079895058827141839 -0.034420874484364504 0 -0.0069638946666147521 -0.03499972518958458 0 -0.0069307673598026287 -0.035060979088149945 0 -0.0071452315985405107 -0.034903530742644906 0 -0.0069235456895185166 -0.034777787090962055 0 -0.0073001991867738007 -0.034840143704570566 0 -0.0069628407096601758 -0.034998416514681011 0 -0.0069235456895185166 -0.034777787090962055 0 -0.0088544129104802579 -0.034999671862522209 0 -0.0087586873878556983 -0.036247836306389676 0 -0.0071455811614137173 -0.034903609621272987 0 -0.0088328475649953903 -0.035830831082669323 0 -0.0073001991867738007 -0.034840143704570566 0 -0.0044535214940316604 -0.034975640124364049 0 -0.0053201446489906179 -0.034880371380826072 0 -0.0047976693663460083 -0.034519294987529724 0 -0.0040641141429973758 -0.034111853510128853 0 -0.0057503785704312964 -0.034606847182581349 0 -0.0042739528697001063 -0.034753722397180047 0 -0.0047976693663460083 -0.034519294987529724 0 -0.004247229459314163 -0.034373122539386625 0 -0.0042739528697001063 -0.034753722397180047 0 -0.0044535214940316604 -0.034975640124364049 0 -0.0047976693663460083 -0.034519294987529724 0 -0.0041844002286769268 -0.034294533871921613 0 -0.0040641141429973758 -0.034111853510128853 0 -0.0042902559544990889 -0.033746348056592539 0 -0.0057503785704312964 -0.034606847182581349 0 -0.0047270324305428045 -0.034425429567795172 0 -0.0045584940330167202 -0.03421856338166878 0 -0.0048593526619381024 -0.03418558033118884 0 -0.0074650790807351654 -0.036029998391748398 0 -0.0075487208841158483 -0.035465874013610094 0 -0.0072484576168005089 -0.035497633422797825 0 -0.006231239658553038 -0.034645329042934256 0 -0.0057503785704312964 -0.034606847182581349 0 -0.0058579048956571749 -0.033891793841838221 0 -0.0047890320032695326 -0.033948846927823115 0 -0.0047976693663460083 -0.034519294987529724 0 -0.0069637488921183112 -0.034999997422515104 0 -0.0069045017563555428 -0.035110000536087267 0 -0.0054621249109102106 -0.034999997946173395 0 -0.0069235456895185166 -0.034777787090962055 0 -0.0049941743488287694 -0.034665073922847525 0 -0.0069045017563555428 -0.035110000536087267 0 -0.0054621249109102106 -0.034999997946173395 0 -0.0053018612581575862 -0.035200456592943345 0 -0.0058579048956571749 -0.033891793841838221 0 -0.0053201446489906179 -0.034880371380826072 0 -0.0047976693663460083 -0.034519294987529724 0 -0.0069235456895185166 -0.034777787090962055 0 -0.0057503785704312964 -0.034606847182581349 0 -0.0054621249109102106 -0.034999997946173395 0 -0.0053018612581575862 -0.035200456592943345 0 -0.0039605090200874118 -0.03499999622862366 0 -0.0049941743488287694 -0.034665073922847525 0 -0.0038771864639623043 -0.034914429080874339 0 -0.0047890320032695326 -0.033948846927823115 0 -0.004247229459314163 -0.034373122539386625 0 -0.0037248624485333149 -0.034009505996760614 0 -0.0047890320032695326 -0.033948846927823115 0 -0.0047976693663460083 -0.034519294987529724 0 -0.004247229459314163 -0.034373122539386625 0 -0.0053018612581575862 -0.035200456592943345 0 -0.0039605090200874118 -0.03499999622862366 0 -0.0036996498056022196 -0.035290729531788148 0 -0.0037248624485333149 -0.034009505996760614 0 -0.0029648856480098025 -0.034853453424845825 0 -0.0036539805183689292 -0.034633585948675681 0 -0.0039601667011403266 -0.034999756776751899 0 -0.0038771864639623043 -0.034914429080874339 0 -0.0039603995989448727 -0.035000025073730977 0 -0.0037492950812272616 -0.034999966728328398 0 -0.0037107132730367812 -0.035223332497458931 0 -0.004247229459314163 -0.034373122539386625 0 -0.0037248624485333149 -0.034009505996760614 0 -0.0036539805183689292 -0.034633585948675681 0 -0.0037492950812272616 -0.034999966728328398 0 -0.0037107132730367812 -0.035223332497458931 0 -0.0023548728120679216 -0.035736976566966047 0 -0.0037107132730367812 -0.035223332497458931 0 -0.0028388089303177872 -0.036182997293834118 0 -0.0023548728120679216 -0.035736976566966047 0 -0.0037485674272040056 -0.035000262877229203 0 -0.002062799957353016 -0.035530962702719937 0 -0.0037491874700349812 -0.035000003878459522 0 -0.0019058885338341823 -0.035971766565407771 0 -0.0017612828459268163 -0.0349999836573072 0 -0.0038771864639623043 -0.034914429080874339 0 -0.0025667778316683524 -0.034770647751354695 0 -0.0025667778316683524 -0.034770647751354695 0 -0.002062799957353016 -0.035530962702719937 0 -0.0029648856480098025 -0.034853453424845825 0 -0.0032406158324778181 -0.035107921608785862 0 -0.0036539805183689292 -0.034633585948675681 0 -0.0025667778316683524 -0.034770647751354695 0 -0.0025885261065536009 -0.033501049159040022 0 -0.0024417483799417956 -0.03383712065346358 0 -0.0026754359876355271 -0.034052239113864805 0 -0.0021987939895350009 -0.034108264898700551 0 -0.0023310646040409161 -0.028809099993816759 0 -0.0022008100296828925 -0.028950511333518794 0 -0.001729039653792058 -0.028630454060221425 0 -0.0025885261065536009 -0.033501049159040022 0 -0.0019680325985005813 -0.034542324420889947 0 -0.0025667778316683524 -0.034770647751354695 0 -0.0019680325985005813 -0.034542324420889947 0 -0.0023931974830664606 -0.035496778337222666 0 -0.0019487990995052649 -0.035993610031851676 0 -0.00183972571623879 -0.035500043644199418 0 -0.0042739528697001063 -0.034753722397180047 0 -0.0044509337550864706 -0.034971935005593091 0 -0.0032406158324778181 -0.035107921608785862 0 -0.0042739528697001063 -0.034753722397180047 0 -0.0032406158324778181 -0.035107921608785862 0 -0.0036539805183689292 -0.034633585948675681 0 -0.0040641141429973758 -0.034111853510128853 0 -0.0025885261065536009 -0.033501049159040022 0 -0.0042739528697001063 -0.034753722397180047 0 -0.004247229459314163 -0.034373122539386625 0 -0.0036539805183689292 -0.034633585948675681 0 -0.0031311452693052887 -0.032835258291415363 0 -0.0034314650758305327 -0.032800059119426149 0 -0.003270688898531114 -0.03264241272213067 0 -0.0022761188447445275 -0.028936226921913107 0 -0.002279946588026134 -0.028933075756021838 0 -0.0022612182457662426 -0.028856360530697327 0 -0.0023310646040409161 -0.028809099993816759 0 -0.0022761188447445275 -0.028936226921913107 0 -0.002279946588026134 -0.028933075756021838 0 -0.0025885261065536009 -0.033501049159040022 0 -0.0024952823872076472 -0.030982341565969729 0 -0.001109908192837492 -0.028723974281922322 0 0.000503069651306573 -0.029140206624531741 0 -0.0022008100296828925 -0.028950511333518794 0 -0.0022727052248373522 -0.028908926952687049 0 -0.0022690033315036916 -0.0288684822357336 0 -0.0022008100296828925 -0.028950511333518794 0 -0.0015626489441723564 -0.030631384822624876 0 -0.001596848263438842 -0.029323097841388639 0 -0.0023310646040409161 -0.028809099993816759 0 -0.0022008100296828925 -0.028950511333518794 0 -0.002279946588026134 -0.028933075756021838 0 -0.0022008100296828925 -0.028950511333518794 0 -0.001596848263438842 -0.029323097841388639 0 -0.001729039653792058 -0.028630454060221425 0 -0.0022008100296828925 -0.028950511333518794 0 -0.002279946588026134 -0.028933075756021838 0 -0.0022727052248373522 -0.028908926952687049 0 -0.0022612241065907402 -0.028593636895153093 0 -0.0022660273499934382 -0.028792410588894774 0 -0.002279946588026134 -0.028933075756021838 0 -0.0022727052248373522 -0.028908926952687049 0 -0.002331420089209878 -0.028815405836911813 0 -0.0025335239017087638 -0.028717944382760523 0 -0.0022727052248373522 -0.028908926952687049 0 -0.002331420089209878 -0.028815405836911813 0 -0.002279946588026134 -0.028933075756021838 0 -0.002331420089209878 -0.028815405836911813 0 -0.0022612182457662426 -0.028856360530697327 0 -0.0022512780200545138 -0.028642378910721984 0 -0.0021450311345049509 -0.028862513054503578 0 -0.0022612182457662426 -0.028856360530697327 0 -0.0021450311345049509 -0.028862513054503578 0 -0.0022761188447445275 -0.028936226921913107 0 -0.0022612182457662426 -0.028856360530697327 0 0.00045827619798888421 -0.038368249580956172 0 0.0010271495859749534 -0.037727463120614063 0 0.001434621016592448 -0.038201923476397177 0 0.00045827619798888421 -0.038368249580956172 0 -3.0330829333465491e-05 -0.037641868529527604 0 0.00047424994968385087 -0.037689005238814348 0 0.00045827619798888421 -0.038368249580956172 0 0.00047424994968385087 -0.037689005238814348 0 0.0010271495859749534 -0.037727463120614063 0 0.00017589614013720047 -0.031884688468496999 0 0.00048395068918434748 -0.031152409324434173 0 -0.0015626489441723564 -0.030631384822624876 0 -0.0020703233978902366 -0.028578385557795353 0 -0.0022727052248373522 -0.028908926952687049 0 -0.0022051787868319437 -0.028746788561329704 0 0.00048395068918434748 -0.031152409324434173 0 -0.0015626489441723564 -0.030631384822624876 0 -0.00095007111142538555 -0.029253506281765609 0 0.0022310556324862795 -0.030720929758810411 0 0.000503069651306573 -0.029140206624531741 0 0.004648428890633838 -0.029020584791600475 0 0.0043517858208547491 -0.028983725409344532 0 0.0042237941815038557 -0.028746562727572214 0 0.00083746600700156744 -0.028983168817436268 0 0.000503069651306573 -0.029140206624531741 0 -0.0022727052248373522 -0.028908926952687049 0 -0.0022051787868319437 -0.028746788561329704 0 -0.0022690033315036916 -0.0288684822357336 0 0.00079800957375007861 -0.034589049679873085 0 -0.00083890934478053473 -0.034665451684646048 0 -0.00032533548774023058 -0.037321585567841493 0 0.0004398142620953346 -0.03700995894099824 0 -0.00074280856438598128 -0.036847328981228271 0 0.00045827619798888421 -0.038368249580956172 0 -3.0330829333465491e-05 -0.037641868529527604 0 -0.00032852501525607936 -0.037326947324470998 0 -0.00025855927109413168 -0.035575272625451397 0 -0.00083890934478053473 -0.034665451684646048 0 -0.0015626489441723564 -0.030631384822624876 0 -0.001596848263438842 -0.029323097841388639 0 -0.00095007111142538555 -0.029253506281765609 0 -0.00083890934478053473 -0.034665451684646048 0 -0.0019680325985005813 -0.034542324420889947 0 -0.001596848263438842 -0.029323097841388639 0 -0.00095007111142538555 -0.029253506281765609 0 -0.001729039653792058 -0.028630454060221425 0 -3.0330829333465491e-05 -0.037641868529527604 0 -0.00032533548774023058 -0.037321585567841493 0 0.0004398142620953346 -0.03700995894099824 0 -3.0330829333465491e-05 -0.037641868529527604 0 0.0004398142620953346 -0.03700995894099824 0 0.00047424994968385087 -0.037689005238814348 0 0.0004398142620953346 -0.03700995894099824 0 0.00047424994968385087 -0.037689005238814348 0 0.0010271495859749534 -0.037727463120614063 0 -0.00049120270389142284 -0.036165918450736904 0 -0.00038494466532386834 -0.035610222775422765 0 0.00097203097294214355 -0.036338905971128356 0 -0.00049120270389142284 -0.036165918450736904 0 -0.00038494466532386834 -0.035610222775422765 0 -0.0012791458090264025 -0.0356203455347004 0 -0.00057227730699951484 -0.036652418700171656 0 -0.00071774325116847487 -0.035735574394344563 0 0.00016958236833568191 -0.036300226446950037 0 -0.00038494466532386834 -0.035610222775422765 0 -0.0012791458090264025 -0.0356203455347004 0 -0.0017368815380263915 -0.034889243011316344 0 -0.00049091969708593881 -0.036152850805101798 0 -0.002062799957353016 -0.035530962702719937 0 -0.00049120270389142284 -0.036165918450736904 0 -0.0019487990995052649 -0.035993610031851676 0 -0.0012791458090264025 -0.0356203455347004 0 -0.00057227730699951484 -0.036652418700171656 0 -0.0019042638331291126 -0.035971215045501874 0 -0.0016506021566689709 -0.035736694094651938 0 5.8381072255550524e-05 -0.036273010146002309 0 -0.0019680325985005813 -0.034542324420889947 0 -0.0019487990995052649 -0.035993610031851676 0 -0.0012791458090264025 -0.0356203455347004 0 -0.00183972571623879 -0.035500043644199418 0 -0.0012791458090264025 -0.0356203455347004 0 -0.00183972571623879 -0.035500043644199418 0 -0.0017368815380263915 -0.034889243011316344 0 -0.0023931974830664606 -0.035496778337222666 0 -0.00183972571623879 -0.035500043644199418 0 -0.0017368815380263915 -0.034889243011316344 0 -0.0019058885338341823 -0.035971766565407771 0 -0.0016506021566689709 -0.035736694094651938 0 -0.0017612828459268163 -0.0349999836573072 0 -0.002062799957353016 -0.035530962702719937 0 -0.0020383656744841763 -0.035542722337747877 0 -0.0016506021566689709 -0.035736694094651938 0 -0.0017612828459268163 -0.0349999836573072 0 -0.00071774325116847487 -0.035735574394344563 0 -0.00071774325116847487 -0.035735574394344563 0 0.0002266659273772665 -0.034999954931527161 0 0.00016958236833568191 -0.036300226446950037 0 -0.0017612828459268163 -0.0349999836573072 0 -0.00071774325116847487 -0.035735574394344563 0 0.0002266659273772665 -0.034999954931527161 0 -0.00057227730699951484 -0.036652418700171656 0 -0.0016506021566689709 -0.035736694094651938 0 -0.00071774325116847487 -0.035735574394344563 0 0.0002266659273772665 -0.034999954931527161 0 0.0010694251615698143 -0.035938890636508465 0 0.00016958236833568191 -0.036300226446950037 0 0.0010694251615698143 -0.035938890636508465 0 0.0018848752985083774 -0.036637939289134044 0 0.0022146393717371411 -0.034999947138662398 0 0.0002266659273772665 -0.034999954931527161 0 0.0010694251615698143 -0.035938890636508465 0 0.0022146393717371411 -0.034999947138662398 0 0.0010694251615698143 -0.035938890636508465 0 0.0018848752985083774 -0.036637939289134044 0 0.0010254296031771001 -0.036749886087938138 0 0.0018848752985083774 -0.036637939289134044 0 0.0013644710412659619 -0.037038592684650637 0 0.0010254296031771001 -0.036749886087938138 0 -0.00057227730699951484 -0.036652418700171656 0 0.00016958236833568191 -0.036300226446950037 0 0.00079892909412652979 -0.037317053604531754 0 0.0010254296031771001 -0.036749886087938138 0 0.00016958236833568191 -0.036300226446950037 0 0.00079892909412652979 -0.037317053604531754 0 0.0013644710412659619 -0.037038592684650637 0 0.0010254296031771001 -0.036749886087938138 0 0.00079892909412652979 -0.037317053604531754 0 -0.00049091969708593881 -0.036152850805101798 0 0.001009454863706576 -0.036848326732685663 0 0.0010694251615698143 -0.035938890636508465 0 0.0010254296031771001 -0.036749886087938138 0 0.00016958236833568191 -0.036300226446950037 0 0.0042023890733657058 -0.034999994163330946 0 0.0031504508558396691 -0.036458852936198077 0 0.0044520997264560639 -0.036302771026393954 0 0.0018848752985083774 -0.036637939289134044 0 0.0022146393717371411 -0.034999947138662398 0 0.0031504508558396691 -0.036458852936198077 0 0.0042023890733657058 -0.034999994163330946 0 0.0022146393717371411 -0.034999947138662398 0 0.0031504508558396691 -0.036458852936198077 0 0.0018848752985083774 -0.036637939289134044 0 0.0031504508558396691 -0.036458852936198077 0 0.0027324950623045575 -0.037335126976973741 0 0.0031504508558396691 -0.036458852936198077 0 0.0035802055762277417 -0.037527364946085599 0 0.0044520997264560639 -0.036302771026393954 0 0.0035802055762277417 -0.037527364946085599 0 0.0044639593070995897 -0.037550305708635302 0 0.0044520997264560639 -0.036302771026393954 0 0.0035802055762277417 -0.037527364946085599 0 0.003445359138954383 -0.038477354167309297 0 0.0044639593070995897 -0.037550305708635302 0 0.0031504508558396691 -0.036458852936198077 0 0.0035802055762277417 -0.037527364946085599 0 0.0027324950623045575 -0.037335126976973741 0 0.0035802055762277417 -0.037527364946085599 0 0.0027324950623045575 -0.037335126976973741 0 0.0030085344933640408 -0.038097509217536782 0 0.0027324950623045575 -0.037335126976973741 0 0.0030085344933640408 -0.038097509217536782 0 0.0018847672433841916 -0.037769410254615839 0 0.0026435585502980522 -0.037910199087596935 0 0.0020924458387760591 -0.037597410157789002 0 0.0035802055762277417 -0.037527364946085599 0 0.0030085344933640408 -0.038097509217536782 0 0.003445359138954383 -0.038477354167309297 0 0.0030085344933640408 -0.038097509217536782 0 0.0029102038828413808 -0.038592489025359993 0 0.0022800143612366091 -0.038298768004735702 0 0.0030085344933640408 -0.038097509217536782 0 0.0029102038828413808 -0.038592489025359993 0 0.003445359138954383 -0.038477354167309297 0 0.0029102038828413808 -0.038592489025359993 0 0.003445359138954383 -0.038477354167309297 0 0.0034723925108638368 -0.0390520740910964 0 0.003445359138954383 -0.038477354167309297 0 0.0045806728400558461 -0.038452320087884607 0 0.0047495756101878376 -0.037326668245739311 0 0.003445359138954383 -0.038477354167309297 0 0.0045806728400558461 -0.038452320087884607 0 0.0042580712882234134 -0.039085852514682454 0 0.0036660947017027401 -0.038302628591227433 0 0.0045932420751576136 -0.037465185287927472 0 0.0004398142620953346 -0.03700995894099824 0 0.0010271495859749534 -0.037727463120614063 0 0.0015696433159664903 -0.037181849840964967 0 5.8381072255550524e-05 -0.036273010146002309 0 0.001009454863706576 -0.036848326732685663 0 0.0017776240203861062 -0.037738825760916882 0 0.0010271495859749534 -0.037727463120614063 0 0.0015696433159664903 -0.037181849840964967 0 0.0013644710412659619 -0.037038592684650637 0 0.00079892909412652979 -0.037317053604531754 0 0.0018847672433841916 -0.037769410254615839 0 0.001009454863706576 -0.036848326732685663 0 0.0020924458387760591 -0.037597410157789002 0 0.0018848752985083774 -0.036637939289134044 0 0.0013644710412659619 -0.037038592684650637 0 0.0018847672433841916 -0.037769410254615839 0 0.0018848752985083774 -0.036637939289134044 0 0.0027324950623045575 -0.037335126976973741 0 0.0018847672433841916 -0.037769410254615839 0 0.0017776240203861062 -0.037738825760916882 0 0.0015696433159664903 -0.037181849840964967 0 0.0023277492301480465 -0.037643887874447696 0 0.0017776240203861062 -0.037738825760916882 0 0.0023277492301480465 -0.037643887874447696 0 0.0022800143612366091 -0.038298768004735702 0 0.0030085344933640408 -0.038097509217536782 0 0.0023277492301480465 -0.037643887874447696 0 0.0022800143612366091 -0.038298768004735702 0 0.0029102038828413808 -0.038592489025359993 0 0.0022800143612366091 -0.038298768004735702 0 0.0024090949608968864 -0.038841560045238005 0 0.0022800143612366091 -0.038298768004735702 0 0.0015702053941888646 -0.038817153204091272 0 0.0024090949608968864 -0.038841560045238005 0 0.00045827619798888421 -0.038368249580956172 0 0.001434621016592448 -0.038201923476397177 0 0.0015702053941888646 -0.038817153204091272 0 0.0022800143612366091 -0.038298768004735702 0 0.001434621016592448 -0.038201923476397177 0 0.0015702053941888646 -0.038817153204091272 0 0.0017776240203861062 -0.037738825760916882 0 0.0022800143612366091 -0.038298768004735702 0 0.001434621016592448 -0.038201923476397177 0 0.0017776240203861062 -0.037738825760916882 0 0.0010271495859749534 -0.037727463120614063 0 0.001434621016592448 -0.038201923476397177 0 0.00045827619798888421 -0.038368249580956172 0 0.0015702053941888646 -0.038817153204091272 0 0.0012091911651586546 -0.039343607183216479 0 0.0012091911651586546 -0.039343607183216479 0 0.0019055773476500493 -0.039796593612495504 0 0.0020440361430605087 -0.039209765565456946 0 0.0015702053941888646 -0.038817153204091272 0 0.0012091911651586546 -0.039343607183216479 0 0.0020440361430605087 -0.039209765565456946 0 0.0048661589222389187 -0.029441257627210324 0 0.004996895738757349 -0.029296919979718398 0 0.0049914898989940251 -0.029543886007375501 0 0.0057245059028787704 -0.030669556906741547 0 0.0054464116732307541 -0.030205928293336255 0 0.0054193069699349445 -0.03040446646844153 0 0.004996895738757349 -0.029296919979718398 0 0.0051526050015018917 -0.029592277614220307 0 0.0049914898989940251 -0.029543886007375501 0 0.0033779112855416202 -0.033014714584212658 0 0.0047120151558946626 -0.030196199077676476 0 0.0033779112855416202 -0.033014714584212658 0 0.0035466670854567245 -0.035239340688359863 0 0.0051526050015018917 -0.029592277614220307 0 0.0049914898989940251 -0.029543886007375501 0 0.0050709897248085254 -0.029658283300435514 0 0.0048878451582868888 -0.02959176264074383 0 0.0049914898989940251 -0.029543886007375501 0 0.0049840165615415979 -0.029654300479208404 0 0.0025259737525950231 -0.040228267214272723 0 0.0019055773476500493 -0.039796593612495504 0 0.0020440361430605087 -0.039209765565456946 0 0.0031206031123889024 -0.037410961577715653 0 0.0027617979499705457 -0.039682203267835774 0 0.00268552144485405 -0.040477715850643206 0 0.0027185981484459279 -0.039723415542263642 0 0.0020440361430605087 -0.039209765565456946 0 0.0054464116732307541 -0.030205928293336255 0 0.0051466201572010596 -0.030144457287730402 0 0.0054193069699349445 -0.03040446646844153 0 0.0031206031123889024 -0.037410961577715653 0 0.0035466670854567245 -0.035239340688359863 0 0.0027185981484459279 -0.039723415542263642 0 0.0026243623731617908 -0.039241450775815874 0 0.0020440361430605087 -0.039209765565456946 0 0.0015702053941888646 -0.038817153204091272 0 0.0020440361430605087 -0.039209765565456946 0 0.0024090949608968864 -0.038841560045238005 0 0.0026243623731617908 -0.039241450775815874 0 0.0020440361430605087 -0.039209765565456946 0 0.0024090949608968864 -0.038841560045238005 0 0.0026243623731617908 -0.039241450775815874 0 0.0024090949608968864 -0.038841560045238005 0 0.0028637299319431305 -0.039017986259763826 0 0.0029102038828413808 -0.038592489025359993 0 0.0028637299319431305 -0.039017986259763826 0 0.0034723925108638368 -0.0390520740910964 0 0.0028637299319431305 -0.039017986259763826 0 0.0034723925108638368 -0.0390520740910964 0 0.0030886118540046502 -0.039427748206782368 0 0.0029102038828413808 -0.038592489025359993 0 0.0024090949608968864 -0.038841560045238005 0 0.0028637299319431305 -0.039017986259763826 0 0.0034723925108638368 -0.0390520740910964 0 0.0030886118540046502 -0.039427748206782368 0 0.0036213734829285463 -0.039714527459270683 0 0.0026243623731617908 -0.039241450775815874 0 0.0028637299319431305 -0.039017986259763826 0 0.0030886118540046502 -0.039427748206782368 0 0.0027185981484459279 -0.039723415542263642 0 0.0026243623731617908 -0.039241450775815874 0 0.0030886118540046502 -0.039427748206782368 0 0.0034723925108638368 -0.0390520740910964 0 0.0042580712882234134 -0.039085852514682454 0 0.0039328964094293402 -0.039419251373820158 0 0.003445359138954383 -0.038477354167309297 0 0.0034723925108638368 -0.0390520740910964 0 0.0042580712882234134 -0.039085852514682454 0 0.0034723925108638368 -0.0390520740910964 0 0.0039328964094293402 -0.039419251373820158 0 0.0036213734829285463 -0.039714527459270683 0 0.0042580712882234134 -0.039085852514682454 0 0.0043727728372791536 -0.039813418916462742 0 0.0051184110022716375 -0.039113323680164812 0 0.0042580712882234134 -0.039085852514682454 0 0.0039328964094293402 -0.039419251373820158 0 0.0043727728372791536 -0.039813418916462742 0 0.0043727728372791536 -0.039813418916462742 0 0.0037843977881839852 -0.040385134646765249 0 0.0045372249423195959 -0.040859681182831523 0 0.0039328964094293402 -0.039419251373820158 0 0.0043727728372791536 -0.039813418916462742 0 0.0036213734829285463 -0.039714527459270683 0 0.0043727728372791536 -0.039813418916462742 0 0.0037843977881839852 -0.040385134646765249 0 0.0036213734829285463 -0.039714527459270683 0 0.0027185981484459279 -0.039723415542263642 0 0.0030886118540046502 -0.039427748206782368 0 0.0031592433659069618 -0.040160684137942479 0 0.0030886118540046502 -0.039427748206782368 0 0.0036213734829285463 -0.039714527459270683 0 0.0031592433659069618 -0.040160684137942479 0 0.0037843977881839852 -0.040385134646765249 0 0.0031592433659069618 -0.040160684137942479 0 0.0033908947709761781 -0.040525625762684522 0 0.0037843977881839852 -0.040385134646765249 0 0.0036213734829285463 -0.039714527459270683 0 0.0031592433659069618 -0.040160684137942479 0 0.0031592433659069618 -0.040160684137942479 0 0.0030192697486766066 -0.040690516177203893 0 0.0033908947709761781 -0.040525625762684522 0 0.00268552144485405 -0.040477715850643206 0 0.0031592433659069618 -0.040160684137942479 0 0.0030192697486766066 -0.040690516177203893 0 0.00268552144485405 -0.040477715850643206 0 0.0027185981484459279 -0.039723415542263642 0 0.0031592433659069618 -0.040160684137942479 0 0.0031206031123889024 -0.037410961577715653 0 0.0034267476869658158 -0.037976194923502099 0 0.0031206031123889024 -0.037410961577715653 0 0.0044828666455743226 -0.035571275605562419 0 0.0051466201572010596 -0.030144457287730402 0 0.0051091017473861283 -0.029803774070809985 0 0.0051953405674518968 -0.029817038315164027 0 0.0027074765345089552 -0.040473879919294492 0 0.0030192697486766066 -0.040690516177203893 0 0.0032371590785411552 -0.041468352320522255 0 0.0030192697486766066 -0.040690516177203893 0 0.0033908947709761781 -0.040525625762684522 0 0.0036120123580092142 -0.040971621876335899 0 0.0037843977881839852 -0.040385134646765249 0 0.0033908947709761781 -0.040525625762684522 0 0.0036120123580092142 -0.040971621876335899 0 0.0030192697486766066 -0.040690516177203893 0 0.0036120123580092142 -0.040971621876335899 0 0.0032371590785411552 -0.041468352320522255 0 0.0037843977881839852 -0.040385134646765249 0 0.0036120123580092142 -0.040971621876335899 0 0.0045372249423195959 -0.040859681182831523 0 0.0036120123580092142 -0.040971621876335899 0 0.0045372249423195959 -0.040859681182831523 0 0.0040889356090463213 -0.041684575031027148 0 0.0045372249423195959 -0.040859681182831523 0 0.0040889356090463213 -0.041684575031027148 0 0.0048731071627715452 -0.041665255789640331 0 0.0040889356090463213 -0.041684575031027148 0 0.0037525128929625663 -0.042459048566089203 0 0.0044111396762628562 -0.042492237000611464 0 0.0040889356090463213 -0.041684575031027148 0 0.0048731071627715452 -0.041665255789640331 0 0.0044111396762628562 -0.042492237000611464 0 0.0051091017473861283 -0.029803774070809985 0 0.0051485240085364908 -0.029799327468508715 0 0.0051648053181578158 -0.029804615636929401 0 0.0044828666455743226 -0.035571275605562419 0 0.0062769172642993401 -0.032433355904094609 0 0.0040889356090463213 -0.041684575031027148 0 0.0032371590785411552 -0.041468352320522255 0 0.0037525128929625663 -0.042459048566089203 0 0.0051091017473861283 -0.029803774070809985 0 0.0051449677960334287 -0.029792374438788613 0 0.0051953405674518968 -0.029817038315164027 0 0.0051091017473861283 -0.029803774070809985 0 0.0051449677960334287 -0.029792374438788613 0 0.0051485240085364908 -0.029799327468508715 0 0.0036120123580092142 -0.040971621876335899 0 0.0040889356090463213 -0.041684575031027148 0 0.0032371590785411552 -0.041468352320522255 0 0.0051485240085364908 -0.029799327468508715 0 0.0051595031318845234 -0.029801442704425501 0 0.0051648053181578158 -0.029804615636929401 0 0.0051449677960334287 -0.029792374438788613 0 0.0051595031318845234 -0.029801442704425501 0 0.0051573716396562308 -0.029787795265221011 0 0.0051449677960334287 -0.029792374438788613 0 0.0051485240085364908 -0.029799327468508715 0 0.0051595031318845234 -0.029801442704425501 0 0.0051595031318845234 -0.029801442704425501 0 0.0051573716396562308 -0.029787795265221011 0 0.0051445166896678836 -0.029780524680710973 0 0.0051445166896678836 -0.029780524680710973 0 0.0050710106347922144 -0.029707620077018243 0 0.0051662265555105598 -0.029817949819912343 0 0.0051595031318845234 -0.029801442704425501 0 0.0051445166896678836 -0.029780524680710973 0 0.0051662265555105598 -0.029817949819912343 0 0.0051573716396562308 -0.029787795265221011 0 0.0051551426036928645 -0.029785393614242907 0 0.0051445166896678836 -0.029780524680710973 0 0.0051573716396562308 -0.029787795265221011 0 0.0051551426036928645 -0.029785393614242907 0 0.0051953405674518968 -0.029817038315164027 0 0.0051449677960334287 -0.029792374438788613 0 0.0051573716396562308 -0.029787795265221011 0 0.0051953405674518968 -0.029817038315164027 0 0.0051359668921059079 -0.029766805648783437 0 0.0051551426036928645 -0.029785393614242907 0 0.0051953405674518968 -0.029817038315164027 0 0.0051551426036928645 -0.029785393614242907 0 0.005120237247398113 -0.029765952895651454 0 0.0051445166896678836 -0.029780524680710973 0 0.0051359668921059079 -0.029766805648783437 0 0.0051551426036928645 -0.029785393614242907 0 0.005120237247398113 -0.029765952895651454 0 0.005120237247398113 -0.029765952895651454 0 0.0051445166896678836 -0.029780524680710973 0 0.0050710106347922144 -0.029707620077018243 0 0.0050710106347922144 -0.029707620077018243 0 0.0050687000466404526 -0.029802036661564512 0 0.0051025630207662551 -0.029427531716727962 0 0.0050710106347922144 -0.029707620077018243 0 0.0050687000466404526 -0.029802036661564512 0 0.0050750125288801179 -0.029768485836501858 0 0.0050687000466404526 -0.029802036661564512 0 0.0050750125288801179 -0.029768485836501858 0 0.0050561879203554856 -0.029728820905570021 0 0.0050710106347922144 -0.029707620077018243 0 0.0050750125288801179 -0.029768485836501858 0 0.0050960912456882506 -0.029761143257738928 0 0.005120237247398113 -0.029765952895651454 0 0.0050710106347922144 -0.029707620077018243 0 0.0050960912456882506 -0.029761143257738928 0 0.0050750125288801179 -0.029768485836501858 0 0.0050960912456882506 -0.029761143257738928 0 0.0050956355975945809 -0.029737655730068351 0 0.0051359668921059079 -0.029766805648783437 0 0.005120237247398113 -0.029765952895651454 0 0.0050960912456882506 -0.029761143257738928 0 0.0051359668921059079 -0.029766805648783437 0 0.0050956355975945809 -0.029737655730068351 0 0.0051325164713315911 -0.029718126797894567 0 0.0051359668921059079 -0.029766805648783437 0 0.0050960912456882506 -0.029761143257738928 0 0.0050956355975945809 -0.029737655730068351 0 0.0050956355975945809 -0.029737655730068351 0 0.0050561879203554856 -0.029728820905570021 0 0.0050709897248085254 -0.029658283300435514 0 0.0050956355975945809 -0.029737655730068351 0 0.0050709897248085254 -0.029658283300435514 0 0.0051325164713315911 -0.029718126797894567 0 0.0050687000466404526 -0.029802036661564512 0 0.0050561879203554856 -0.029728820905570021 0 0.0049840165615415979 -0.029654300479208404 0 0.0050750125288801179 -0.029768485836501858 0 0.0050956355975945809 -0.029737655730068351 0 0.0050561879203554856 -0.029728820905570021 0 0.0049914898989940251 -0.029543886007375501 0 0.0049840165615415979 -0.029654300479208404 0 0.0050709897248085254 -0.029658283300435514 0 0.0050561879203554856 -0.029728820905570021 0 0.0049840165615415979 -0.029654300479208404 0 0.0050709897248085254 -0.029658283300435514 0 0.0051526050015018917 -0.029592277614220307 0 0.0050709897248085254 -0.029658283300435514 0 0.0051325164713315911 -0.029718126797894567 0 0.0047120151558946626 -0.030196199077676476 0 0.0050404072406896282 -0.029963297516800862 0 0.0054464116732307541 -0.030205928293336255 0 0.0051466201572010596 -0.030144457287730402 0 0.0051953405674518968 -0.029817038315164027 0 0.0051526050015018917 -0.029592277614220307 0 0.0051953405674518968 -0.029817038315164027 0 0.0051325164713315911 -0.029718126797894567 0 0.0051359668921059079 -0.029766805648783437 0 0.0051953405674518968 -0.029817038315164027 0 0.0051325164713315911 -0.029718126797894567 0 0.017494444463177571 -0.030313439665829455 0 0.017249500250860611 -0.030294819634191696 0 0.017469897466919949 -0.030174683513727991 0 0.017494444463177571 -0.030313439665829455 0 0.017326984342001913 -0.030596094817913526 0 0.017249500250860611 -0.030294819634191696 0 0.016591959851938592 -0.029485190965127084 0 0.017907262738438207 -0.029096107400776009 0 0.017625232838398397 -0.029090460388063601 0 0.017496724639010596 -0.029164528357520404 0 0.017534580512496623 -0.029032570880077435 0 0.01781448563526335 -0.029444248617597649 0 0.018097333516145578 -0.029044773491607855 0 0.017496724639010596 -0.029164528357520404 0 0.017531936918634417 -0.029783492859539341 0 0.016591959851938592 -0.029485190965127084 0 0.017326984342001913 -0.030596094817913526 0 0.017249500250860611 -0.030294819634191696 0 0.017025616486851119 -0.030671358929072405 0 0.0054303100668618388 -0.041112057956422969 0 0.0064164996143565188 -0.04078854042420562 0 0.0058284949363922112 -0.042227246476441022 0 0.016591959851938592 -0.029485190965127084 0 0.010353766153466767 -0.03372176305792586 0 0.011605620813232607 -0.035785389830493418 0 0.010353766153466767 -0.03372176305792586 0 0.0048731071627715452 -0.041665255789640331 0 0.0044111396762628562 -0.042492237000611464 0 0.0058284949363922112 -0.042227246476441022 0 0.0048731071627715452 -0.041665255789640331 0 0.0054303100668618388 -0.041112057956422969 0 0.0058284949363922112 -0.042227246476441022 0 0.0045372249423195959 -0.040859681182831523 0 0.0054303100668618388 -0.041112057956422969 0 0.0053598073359607951 -0.040124821483327862 0 0.0045372249423195959 -0.040859681182831523 0 0.0048731071627715452 -0.041665255789640331 0 0.0054303100668618388 -0.041112057956422969 0 0.0054303100668618388 -0.041112057956422969 0 0.0064164996143565188 -0.04078854042420562 0 0.0053598073359607951 -0.040124821483327862 0 0.0064164996143565188 -0.04078854042420562 0 0.0053598073359607951 -0.040124821483327862 0 0.0060479090460893135 -0.039211334337718722 0 0.0043727728372791536 -0.039813418916462742 0 0.0053598073359607951 -0.040124821483327862 0 0.0051184110022716375 -0.039113323680164812 0 0.0043727728372791536 -0.039813418916462742 0 0.0045372249423195959 -0.040859681182831523 0 0.0053598073359607951 -0.040124821483327862 0 0.0051184110022716375 -0.039113323680164812 0 0.0060479090460893135 -0.039211334337718722 0 0.0052964943296377551 -0.038196888139559126 0 0.0053598073359607951 -0.040124821483327862 0 0.0051184110022716375 -0.039113323680164812 0 0.0060479090460893135 -0.039211334337718722 0 0.0045806728400558461 -0.038452320087884607 0 0.0042580712882234134 -0.039085852514682454 0 0.0051184110022716375 -0.039113323680164812 0 0.0060479090460893135 -0.039211334337718722 0 0.0070694203738954371 -0.039328145200744652 0 0.0068101610518318794 -0.038425190992923117 0 0.017249500250860611 -0.030294819634191696 0 0.017506805474112135 -0.030210968380232354 0 0.017469897466919949 -0.030174683513727991 0 0.011605620813232607 -0.035785389830493418 0 0.012267629199285545 -0.034702590530666891 0 0.0064164996143565188 -0.04078854042420562 0 0.0060479090460893135 -0.039211334337718722 0 0.0070694203738954371 -0.039328145200744652 0 0.017494444463177571 -0.030313439665829455 0 0.017469897466919949 -0.030174683513727991 0 0.017455699297005103 -0.030020860049431487 0 0.017531936918634417 -0.029783492859539341 0 0.017463235000483052 -0.030008705715213801 0 0.017469897466919949 -0.030174683513727991 0 0.01746529619520475 -0.030208952459368291 0 0.017455699297005103 -0.030020860049431487 0 0.017506805474112135 -0.030210968380232354 0 0.017469897466919949 -0.030174683513727991 0 0.01746529619520475 -0.030208952459368291 0 0.017506805474112135 -0.030210968380232354 0 0.01746529619520475 -0.030208952459368291 0 0.017447119770217387 -0.030386378326525437 0 0.01746529619520475 -0.030208952459368291 0 0.017447119770217387 -0.030386378326525437 0 0.017336771751690013 -0.030337046107997444 0 0.017447119770217387 -0.030386378326525437 0 0.017552566294791436 -0.030635304763761789 0 0.017295903197496659 -0.030583366984553238 0 0.017506805474112135 -0.030210968380232354 0 0.017447119770217387 -0.030386378326525437 0 0.017552566294791436 -0.030635304763761789 0 0.011631316945324694 -0.034630130817934666 0 0.012074711049755169 -0.034387840935994368 0 0.0070694203738954371 -0.039328145200744652 0 0.0076065367615950688 -0.037931051012260172 0 0.0068101610518318794 -0.038425190992923117 0 0.0070694203738954371 -0.039328145200744652 0 0.0076065367615950688 -0.037931051012260172 0 0.0077831550887752015 -0.037855881020842405 0 0.012267629199285545 -0.034702590530666891 0 0.012074711049755169 -0.034387840935994368 0 0.0068101610518318794 -0.038425190992923117 0 0.0067330165816226924 -0.037996270364509234 0 0.0071691873722685125 -0.037881811576471115 0 0.0068101610518318794 -0.038425190992923117 0 0.0067330165816226924 -0.037996270364509234 0 0.0062421923897755579 -0.038190532561592348 0 0.0076065367615950688 -0.037931051012260172 0 0.0068101610518318794 -0.038425190992923117 0 0.0071691873722685125 -0.037881811576471115 0 0.0076065367615950688 -0.037931051012260172 0 0.0071691873722685125 -0.037881811576471115 0 0.0076119788502378204 -0.037699632112628008 0 0.0071691873722685125 -0.037881811576471115 0 0.0073213112014925939 -0.037430016824847451 0 0.0076119788502378204 -0.037699632112628008 0 0.0071691873722685125 -0.037881811576471115 0 0.0073213112014925939 -0.037430016824847451 0 0.0069505682521009606 -0.037583334971356422 0 0.0073213112014925939 -0.037430016824847451 0 0.0078281323747332512 -0.037288243036750365 0 0.0076119788502378204 -0.037699632112628008 0 0.0069505682521009606 -0.037583334971356422 0 0.006883483330404735 -0.037024953962400617 0 0.0064697961788915499 -0.037687595539962968 0 0.0067330165816226924 -0.037996270364509234 0 0.0069505682521009606 -0.037583334971356422 0 0.0064697961788915499 -0.037687595539962968 0 0.0067330165816226924 -0.037996270364509234 0 0.0071691873722685125 -0.037881811576471115 0 0.0069505682521009606 -0.037583334971356422 0 0.0073213112014925939 -0.037430016824847451 0 0.0069505682521009606 -0.037583334971356422 0 0.006883483330404735 -0.037024953962400617 0 0.0073213112014925939 -0.037430016824847451 0 0.006883483330404735 -0.037024953962400617 0 0.0074994831270686632 -0.037069098258891153 0 0.0073213112014925939 -0.037430016824847451 0 0.0074994831270686632 -0.037069098258891153 0 0.0078281323747332512 -0.037288243036750365 0 0.012074711049755169 -0.034387840935994368 0 0.013348550058662889 -0.034087304197265654 0 0.0078281323747332512 -0.037288243036750365 0 0.0079116557775784097 -0.037717603464040926 0 0.0083863827819342721 -0.036935839984732349 0 0.0074994831270686632 -0.037069098258891153 0 0.0078281323747332512 -0.037288243036750365 0 0.0079359736757750755 -0.036864618710791441 0 0.0078281323747332512 -0.037288243036750365 0 0.0083863827819342721 -0.036935839984732349 0 0.0079359736757750755 -0.036864618710791441 0 0.0079116557775784097 -0.037717603464040926 0 0.0078314895055517746 -0.037911570945167387 0 0.0094312349931508742 -0.037326671789704648 0 0.0079116557775784097 -0.037717603464040926 0 0.0083863827819342721 -0.036935839984732349 0 0.0094312349931508742 -0.037326671789704648 0 0.0076065367615950688 -0.037931051012260172 0 0.0076119788502378204 -0.037699632112628008 0 0.0078113123076220189 -0.037876069680508669 0 0.0079116557775784097 -0.037717603464040926 0 0.0076119788502378204 -0.037699632112628008 0 0.0078113123076220189 -0.037876069680508669 0 0.011849379928023667 -0.034787098306769217 0 0.012074711049755169 -0.034387840935994368 0 0.0078281323747332512 -0.037288243036750365 0 0.0079116557775784097 -0.037717603464040926 0 0.0076119788502378204 -0.037699632112628008 0 0.0045806728400558461 -0.038452320087884607 0 0.0052964943296377551 -0.038196888139559126 0 0.0047495756101878376 -0.037326668245739311 0 0.0045806728400558461 -0.038452320087884607 0 0.0051184110022716375 -0.039113323680164812 0 0.0052964943296377551 -0.038196888139559126 0 0.0060479090460893135 -0.039211334337718722 0 0.0068101610518318794 -0.038425190992923117 0 0.0062421923897755579 -0.038190532561592348 0 0.0060479090460893135 -0.039211334337718722 0 0.0052964943296377551 -0.038196888139559126 0 0.0062421923897755579 -0.038190532561592348 0 0.0052964943296377551 -0.038196888139559126 0 0.0062421923897755579 -0.038190532561592348 0 0.0059066232080218521 -0.037399542577930121 0 0.0067330165816226924 -0.037996270364509234 0 0.0062421923897755579 -0.038190532561592348 0 0.0064697961788915499 -0.037687595539962968 0 0.0062421923897755579 -0.038190532561592348 0 0.0064697961788915499 -0.037687595539962968 0 0.0059066232080218521 -0.037399542577930121 0 0.006883483330404735 -0.037024953962400617 0 0.0064697961788915499 -0.037687595539962968 0 0.0059066232080218521 -0.037399542577930121 0 0.0059066232080218521 -0.037399542577930121 0 0.0047495756101878376 -0.037326668245739311 0 0.0059644305069351559 -0.036274396083380386 0 0.0052964943296377551 -0.038196888139559126 0 0.0059066232080218521 -0.037399542577930121 0 0.0047495756101878376 -0.037326668245739311 0 0.0044639593070995897 -0.037550305708635302 0 0.0044520997264560639 -0.036302771026393954 0 0.0057972261530013919 -0.036411291884772864 0 0.0045932420751576136 -0.037465185287927472 0 0.0059060804324289782 -0.036301219261482602 0 0.006883483330404735 -0.037024953962400617 0 0.0059066232080218521 -0.037399542577930121 0 0.0059644305069351559 -0.036274396083380386 0 0.0044520997264560639 -0.036302771026393954 0 0.0057972261530013919 -0.036411291884772864 0 0.0061902595085279949 -0.034999970756903982 0 0.0059060804324289782 -0.036301219261482602 0 0.0069146595660322507 -0.035379442428352004 0 0.0057972261530013919 -0.036411291884772864 0 0.0061902595085279949 -0.034999970756903982 0 0.007158848566729833 -0.03517486402856241 0 0.0042023890733657058 -0.034999994163330946 0 0.0044520997264560639 -0.036302771026393954 0 0.0061902595085279949 -0.034999970756903982 0 0.0081428734208242662 -0.036378775514329775 0 0.0078149276868145195 -0.035740233988229612 0 0.0090863297008137167 -0.036014976959815273 0 0.0081428734208242662 -0.036378775514329775 0 0.0075480500575202522 -0.036561289391223696 0 0.0078149276868145195 -0.035740233988229612 0 0.0081428734208242662 -0.036378775514329775 0 0.0083863827819342721 -0.036935839984732349 0 0.0090863297008137167 -0.036014976959815273 0 0.0081428734208242662 -0.036378775514329775 0 0.0079359736757750755 -0.036864618710791441 0 0.0075480500575202522 -0.036561289391223696 0 0.0074994831270686632 -0.037069098258891153 0 0.0079359736757750755 -0.036864618710791441 0 0.0075480500575202522 -0.036561289391223696 0 0.0081428734208242662 -0.036378775514329775 0 0.0083863827819342721 -0.036935839984732349 0 0.0079359736757750755 -0.036864618710791441 0 0.006883483330404735 -0.037024953962400617 0 0.0075480500575202522 -0.036561289391223696 0 0.0070644006253302218 -0.036147368402504876 0 0.006883483330404735 -0.037024953962400617 0 0.0059644305069351559 -0.036274396083380386 0 0.0070644006253302218 -0.036147368402504876 0 0.006883483330404735 -0.037024953962400617 0 0.0074994831270686632 -0.037069098258891153 0 0.0075480500575202522 -0.036561289391223696 0 0.0075480500575202522 -0.036561289391223696 0 0.0070644006253302218 -0.036147368402504876 0 0.0078149276868145195 -0.035740233988229612 0 0.0070644006253302218 -0.036147368402504876 0 0.007158848566729833 -0.03517486402856241 0 0.0078149276868145195 -0.035740233988229612 0 0.0059644305069351559 -0.036274396083380386 0 0.0070644006253302218 -0.036147368402504876 0 0.007158848566729833 -0.03517486402856241 0 0.0061902595085279949 -0.034999970756903982 0 0.007158848566729833 -0.03517486402856241 0 0.008178174552430759 -0.034999923330369567 0 0.007158848566729833 -0.03517486402856241 0 0.008178174552430759 -0.034999923330369567 0 0.0078149276868145195 -0.035740233988229612 0 0.008178174552430759 -0.034999923330369567 0 0.0078149276868145195 -0.035740233988229612 0 0.0090863297008137167 -0.036014976959815273 0 0.008178174552430759 -0.034999923330369567 0 0.0090863297008137167 -0.036014976959815273 0 0.010166009376810149 -0.034999916048328375 0 0.0083863827819342721 -0.036935839984732349 0 0.0090863297008137167 -0.036014976959815273 0 0.0094312349931508742 -0.037326671789704648 0 0.0090863297008137167 -0.036014976959815273 0 0.011019456507832433 -0.036673502038855291 0 0.0094312349931508742 -0.037326671789704648 0 0.013835146915814334 -0.034115711347131469 0 0.013348550058662889 -0.034087304197265654 0 0.0090863297008137167 -0.036014976959815273 0 0.010166009376810149 -0.034999916048328375 0 0.011019456507832433 -0.036673502038855291 0 0.010166009376810149 -0.034999916048328375 0 0.012153908824723773 -0.035000000617417808 0 0.011019456507832433 -0.036673502038855291 0 0.01215258823201338 -0.035002521846083615 0 0.013835146915814334 -0.034115711347131469 0 0.012154112416857888 -0.035000053781577667 0 0.012224667512825922 -0.035486504083662156 0 0.011319756495634575 -0.036474753524981744 0 0.01425268827909402 -0.034654948249582457 0 0.014526697510621165 -0.03515937389073142 0 0.01280124782561896 -0.035408974066642798 0 0.012154112416857888 -0.035000053781577667 0 0.013495060952264902 -0.034999937511281942 0 0.01280124782561896 -0.035408974066642798 0 0.012360291449530632 -0.036087429106994473 0 0.013586679223201014 -0.035563788251112276 0 0.01280124782561896 -0.035408974066642798 0 0.012154112416857888 -0.035000053781577667 0 0.012224667512825922 -0.035486504083662156 0 0.01395242216005705 -0.035010598076443127 0 0.01425268827909402 -0.034654948249582457 0 0.01280124782561896 -0.035408974066642798 0 0.012224667512825922 -0.035486504083662156 0 0.012360291449530632 -0.036087429106994473 0 0.016120496081163515 -0.035096153946790574 0 0.016137142855656952 -0.034508582844198853 0 0.015821966523610675 -0.034887865353051453 0 0.01425268827909402 -0.034654948249582457 0 0.015855759704503578 -0.032823921092873617 0 0.012224667512825922 -0.035486504083662156 0 0.012344076158296425 -0.03597215206562749 0 0.011319756495634575 -0.036474753524981744 0 0.01425268827909402 -0.034654948249582457 0 0.013835146915814334 -0.034115711347131469 0 0.015948634219657622 -0.032138780976718864 0 0.016588300408321034 -0.031831736841669823 0 0.016390500950456889 -0.031215943804145274 0 0.015948634219657622 -0.032138780976718864 0 0.016390500950456889 -0.031215943804145274 0 0.015756825443756187 -0.031179249251613982 0 0.015756825443756187 -0.031179249251613982 0 0.016057584854566039 -0.030639601333817143 0 0.015569309703681585 -0.030262028303155251 0 0.015855759704503578 -0.032823921092873617 0 0.016584162498879992 -0.031456083953715019 0 0.016390500950456889 -0.031215943804145274 0 0.015756825443756187 -0.031179249251613982 0 0.016057584854566039 -0.030639601333817143 0 0.016390500950456889 -0.031215943804145274 0 0.016057584854566039 -0.030639601333817143 0 0.016553048357263837 -0.030598281458701273 0 0.016553048357263837 -0.030598281458701273 0 0.016999818217887947 -0.030545455420769196 0 0.017030715568194049 -0.031076261614945418 0 0.016390500950456889 -0.031215943804145274 0 0.016553048357263837 -0.030598281458701273 0 0.017030715568194049 -0.031076261614945418 0 0.017077908174665521 -0.030508576720794125 0 0.017183777990253689 -0.030517912696578192 0 0.017447119770217387 -0.030386378326525437 0 0.017295903197496659 -0.030583366984553238 0 0.017336771751690013 -0.030337046107997444 0 0.016999818217887947 -0.030545455420769196 0 0.017030715568194049 -0.031076261614945418 0 0.017336771751690013 -0.030337046107997444 0 0.017295903197496659 -0.030583366984553238 0 0.016946355828151311 -0.030675566921800124 0 0.017336771751690013 -0.030337046107997444 0 0.017552566294791436 -0.030635304763761789 0 0.017295903197496659 -0.030583366984553238 0 0.017169496676161029 -0.030929230292592622 0 0.017295903197496659 -0.030583366984553238 0 0.017169496676161029 -0.030929230292592622 0 0.016946355828151311 -0.030675566921800124 0 0.016588300408321034 -0.031831736841669823 0 0.016390500950456889 -0.031215943804145274 0 0.017030715568194049 -0.031076261614945418 0 0.016557739502645968 -0.031256000599788301 0 0.017169496676161029 -0.030929230292592622 0 0.016946355828151311 -0.030675566921800124 0 0.013835146915814334 -0.034115711347131469 0 0.017077908174665521 -0.030508576720794125 0 0.015606422395428381 -0.035126045999406379 0 0.015606353722115109 -0.035121453873122328 0 0.015521110715549673 -0.034959022782193087 0 0.015545644895529828 -0.035079562092163889 0 0.015606353722115109 -0.035121453873122328 0 0.01569694465289298 -0.035187262534780488 0 0.015545644895529828 -0.035079562092163889 0 0.015606422395428381 -0.035126045999406379 0 0.015606353722115109 -0.035121453873122328 0 0.015962832123632587 -0.035329750964916785 0 0.016780890015396472 -0.03534889350932361 0 0.016665820835141169 -0.034999407640107519 0 0.015759741848523173 -0.035336600097853686 0 0.01781650885588313 -0.035755401942735757 0 0.015606422395428381 -0.035126045999406379 0 0.015759741848523173 -0.035336600097853686 0 0.015521110715549673 -0.034959022782193087 0 0.016665820835141169 -0.034999407640107519 0 0.015759741848523173 -0.035336600097853686 0 0.014838716365163443 -0.035000423195462184 0 0.015759741848523173 -0.035336600097853686 0 0.015515002202505075 -0.035143315531107507 0 0.015265075903158743 -0.035166297629992328 0 0.015606422395428381 -0.035126045999406379 0 0.015759741848523173 -0.035336600097853686 0 0.015515002202505075 -0.035143315531107507 0 0.015545644895529828 -0.035079562092163889 0 0.015606422395428381 -0.035126045999406379 0 0.015515002202505075 -0.035143315531107507 0 0.015545644895529828 -0.035079562092163889 0 0.015515002202505075 -0.035143315531107507 0 0.015443518651968377 -0.034967247801894891 0 0.015515002202505075 -0.035143315531107507 0 0.015499528382181282 -0.034973793036366982 0 0.015443518651968377 -0.034967247801894891 0 0.015499528382181282 -0.034973793036366982 0 0.015265075903158743 -0.035166297629992328 0 0.0156285843586247 -0.035221547554845196 0 0.015515002202505075 -0.035143315531107507 0 0.015499528382181282 -0.034973793036366982 0 0.015265075903158743 -0.035166297629992328 0 0.015759741848523173 -0.035336600097853686 0 0.014838716365163443 -0.035000423195462184 0 0.015265075903158743 -0.035166297629992328 0 0.014838716365163443 -0.035000423195462184 0 0.015265075903158743 -0.035166297629992328 0 0.0156285843586247 -0.035221547554845196 0 0.014836267041941376 -0.035000108444277561 0 0.014526697510621165 -0.03515937389073142 0 0.014836293049099707 -0.035000027815551234 0 0.013495060952264902 -0.034999937511281942 0 0.013586679223201014 -0.035563788251112276 0 0.01280124782561896 -0.035408974066642798 0 0.013495060952264902 -0.034999937511281942 0 0.013586679223201014 -0.035563788251112276 0 0.016120496081163515 -0.035096153946790574 0 0.0156285843586247 -0.035221547554845196 0 0.015821966523610675 -0.034887865353051453 0 0.015499528382181282 -0.034973793036366982 0 0.0156285843586247 -0.035221547554845196 0 0.015821966523610675 -0.034887865353051453 0 0.015499528382181282 -0.034973793036366982 0 0.015821966523610675 -0.034887865353051453 0 0.015737156074038038 -0.034589116785996667 0 0.016137142855656952 -0.034508582844198853 0 0.015821966523610675 -0.034887865353051453 0 0.015737156074038038 -0.034589116785996667 0 0.016137142855656952 -0.034508582844198853 0 0.015770539287606463 -0.033955788782102064 0 0.016095737401048665 -0.033839464621828061 0 0.016137142855656952 -0.034508582844198853 0 0.015737156074038038 -0.034589116785996667 0 0.015770539287606463 -0.033955788782102064 0 0.015473979792155366 -0.033468254834267235 0 0.015995060526295363 -0.033022566188088145 0 0.01561380632985325 -0.034336261259563572 0 0.01536665679444218 -0.033695611799957163 0 0.015770539287606463 -0.033955788782102064 0 0.01561380632985325 -0.034336261259563572 0 0.015737156074038038 -0.034589116785996667 0 0.015770539287606463 -0.033955788782102064 0 0.01561380632985325 -0.034336261259563572 0 0.015520528237236089 -0.034779755904881783 0 0.015322798010726378 -0.03482993912669706 0 0.01561380632985325 -0.034336261259563572 0 0.015737156074038038 -0.034589116785996667 0 0.015520528237236089 -0.034779755904881783 0 0.015499528382181282 -0.034973793036366982 0 0.015737156074038038 -0.034589116785996667 0 0.015520528237236089 -0.034779755904881783 0 0.015499528382181282 -0.034973793036366982 0 0.015520528237236089 -0.034779755904881783 0 0.015443518651968377 -0.034967247801894891 0 0.015545644895529828 -0.035079562092163889 0 0.015443518651968377 -0.034967247801894891 0 0.01556453961411923 -0.035053817200162117 0 0.015443518651968377 -0.034967247801894891 0 0.015322798010726378 -0.03482993912669706 0 0.01556453961411923 -0.035053817200162117 0 0.015520528237236089 -0.034779755904881783 0 0.015443518651968377 -0.034967247801894891 0 0.015322798010726378 -0.03482993912669706 0 0.01561380632985325 -0.034336261259563572 0 0.015322798010726378 -0.03482993912669706 0 0.01536665679444218 -0.033695611799957163 0 0.01536665679444218 -0.033695611799957163 0 0.013951166245986831 -0.033341936337950656 0 0.014766891425228277 -0.032605751190721149 0 0.015247227217100817 -0.034712782478855432 0 0.014867568612169167 -0.034270575539131105 0 0.015322798010726378 -0.03482993912669706 0 0.01536665679444218 -0.033695611799957163 0 0.013951166245986831 -0.033341936337950656 0 0.015623264581135934 -0.035276010162112938 0 0.015683409916174208 -0.035203750360188017 0 0.015733784656392698 -0.035245104218676909 0 0.015623264581135934 -0.035276010162112938 0 0.015683409916174208 -0.035203750360188017 0 0.01556453961411923 -0.035053817200162117 0 0.015322798010726378 -0.03482993912669706 0 0.015623264581135934 -0.035276010162112938 0 0.01556453961411923 -0.035053817200162117 0 0.015683409916174208 -0.035203750360188017 0 0.01556453961411923 -0.035053817200162117 0 0.015750953246067442 -0.035211677388967945 0 0.01556453961411923 -0.035053817200162117 0 0.01569694465289298 -0.035187262534780488 0 0.015750953246067442 -0.035211677388967945 0 0.015545644895529828 -0.035079562092163889 0 0.01556453961411923 -0.035053817200162117 0 0.01569694465289298 -0.035187262534780488 0 0.014210004166146581 -0.031544653374245273 0 0.014221732086950312 -0.030100287856117677 0 0.013215722885250934 -0.030382754752561657 0 0.014210004166146581 -0.031544653374245273 0 0.015183455984943322 -0.030463304678476581 0 0.014221732086950312 -0.030100287856117677 0 0.013951166245986831 -0.033341936337950656 0 0.014210004166146581 -0.031544653374245273 0 0.012938832080445743 -0.031835368836572613 0 0.013951166245986831 -0.033341936337950656 0 0.014210004166146581 -0.031544653374245273 0 0.014766891425228277 -0.032605751190721149 0 0.014210004166146581 -0.031544653374245273 0 0.014766891425228277 -0.032605751190721149 0 0.015570571816852063 -0.031910339591899296 0 0.01536665679444218 -0.033695611799957163 0 0.014766891425228277 -0.032605751190721149 0 0.015570571816852063 -0.031910339591899296 0 0.014210004166146581 -0.031544653374245273 0 0.015570571816852063 -0.031910339591899296 0 0.015183455984943322 -0.030463304678476581 0 0.015570571816852063 -0.031910339591899296 0 0.016324681902217936 -0.030586063184485417 0 0.015183455984943322 -0.030463304678476581 0 0.015570571816852063 -0.031910339591899296 0 0.016324681902217936 -0.030586063184485417 0 0.016893755556574724 -0.031704559704045281 0 0.01536665679444218 -0.033695611799957163 0 0.015570571816852063 -0.031910339591899296 0 0.016677759724457251 -0.032866866402320359 0 0.015570571816852063 -0.031910339591899296 0 0.016677759724457251 -0.032866866402320359 0 0.016893755556574724 -0.031704559704045281 0 0.016677759724457251 -0.032866866402320359 0 0.01791283435759394 -0.032272611927269497 0 0.016893755556574724 -0.031704559704045281 0 0.015995060526295363 -0.033022566188088145 0 0.016584162498879992 -0.031456083953715019 0 0.016584162498879992 -0.031456083953715019 0 0.016942803214706082 -0.030195805168612623 0 0.01791283435759394 -0.032272611927269497 0 0.016893755556574724 -0.031704559704045281 0 0.017466942475698018 -0.030763924542658173 0 0.016324681902217936 -0.030586063184485417 0 0.016893755556574724 -0.031704559704045281 0 0.017466942475698018 -0.030763924542658173 0 0.016324681902217936 -0.030586063184485417 0 0.017466942475698018 -0.030763924542658173 0 0.016788433414103594 -0.029319956257397192 0 0.016942803214706082 -0.030195805168612623 0 0.016868274241319432 -0.02959865621884944 0 0.016841708754715648 -0.029516473391441905 0 0.016788433414103594 -0.029319956257397192 0 0.017008986465764979 -0.029365665434380159 0 0.015943195200199267 -0.029492864706746589 0 0.015021841326592775 -0.029039737436408846 0 0.016293617106033473 -0.028128202418548531 0 0.016788433414103594 -0.029319956257397192 0 0.015943195200199267 -0.029492864706746589 0 0.016293617106033473 -0.028128202418548531 0 0.016324681902217936 -0.030586063184485417 0 0.015943195200199267 -0.029492864706746589 0 0.015183455984943322 -0.030463304678476581 0 0.016324681902217936 -0.030586063184485417 0 0.016788433414103594 -0.029319956257397192 0 0.015943195200199267 -0.029492864706746589 0 0.015183455984943322 -0.030463304678476581 0 0.015021841326592775 -0.029039737436408846 0 0.014221732086950312 -0.030100287856117677 0 0.015943195200199267 -0.029492864706746589 0 0.015183455984943322 -0.030463304678476581 0 0.015021841326592775 -0.029039737436408846 0 0.014218185309091759 -0.028436089576981398 0 0.013686743921845103 -0.029169448754831406 0 0.013602373659854191 -0.027654715071283757 0 0.015021841326592775 -0.029039737436408846 0 0.014218185309091759 -0.028436089576981398 0 0.013686743921845103 -0.029169448754831406 0 0.015021841326592775 -0.029039737436408846 0 0.013686743921845103 -0.029169448754831406 0 0.014221732086950312 -0.030100287856117677 0 0.013686743921845103 -0.029169448754831406 0 0.014221732086950312 -0.030100287856117677 0 0.013215722885250934 -0.030382754752561657 0 0.017251624266378374 -0.029665702331996061 0 0.017033956737122456 -0.030202691103901627 0 0.016380303676448358 -0.029949412801405933 0 0.017163806285096821 -0.029698398479582656 0 0.016841765865592381 -0.029926708125339894 0 0.017251624266378374 -0.029665702331996061 0 0.017121243769548974 -0.029610891206969754 0 0.017173192577973076 -0.029441835253991706 0 0.017251624266378374 -0.029665702331996061 0 0.017455699297005103 -0.030020860049431487 0 0.017444105707693548 -0.02948766788379319 0 0.017251624266378374 -0.029665702331996061 0 0.017455699297005103 -0.030020860049431487 0 0.017033956737122456 -0.030202691103901627 0 0.017455699297005103 -0.030020860049431487 0 0.017336771751690013 -0.030337046107997444 0 0.017033956737122456 -0.030202691103901627 0 0.01746529619520475 -0.030208952459368291 0 0.017455699297005103 -0.030020860049431487 0 0.017336771751690013 -0.030337046107997444 0 0.016999818217887947 -0.030545455420769196 0 0.017336771751690013 -0.030337046107997444 0 0.017033956737122456 -0.030202691103901627 0 0.016553048357263837 -0.030598281458701273 0 0.016999818217887947 -0.030545455420769196 0 0.017033956737122456 -0.030202691103901627 0 0.016553048357263837 -0.030598281458701273 0 0.017033956737122456 -0.030202691103901627 0 0.016380303676448358 -0.029949412801405933 0 0.016057584854566039 -0.030639601333817143 0 0.016553048357263837 -0.030598281458701273 0 0.016380303676448358 -0.029949412801405933 0 0.016584162498879992 -0.031456083953715019 0 0.016841765865592381 -0.029926708125339894 0 0.016057584854566039 -0.030639601333817143 0 0.015569309703681585 -0.030262028303155251 0 0.016380303676448358 -0.029949412801405933 0 0.016841708754715648 -0.029516473391441905 0 0.017121243769548974 -0.029610891206969754 0 0.017008986465764979 -0.029365665434380159 0 0.016882466834859895 -0.029713040249359137 0 0.016841708754715648 -0.029516473391441905 0 0.017121243769548974 -0.029610891206969754 0 0.017173192577973076 -0.029441835253991706 0 0.017008986465764979 -0.029365665434380159 0 0.017193102548177477 -0.029177027361833759 0 0.017121243769548974 -0.029610891206969754 0 0.017173192577973076 -0.029441835253991706 0 0.017008986465764979 -0.029365665434380159 0 0.017008986465764979 -0.029365665434380159 0 0.017193102548177477 -0.029177027361833759 0 0.017075213532901434 -0.028708725555780856 0 0.016788433414103594 -0.029319956257397192 0 0.017008986465764979 -0.029365665434380159 0 0.017075213532901434 -0.028708725555780856 0 0.017302841041560209 -0.029327485308105548 0 0.017496724639010596 -0.029164528357520404 0 0.017297797861332231 -0.028949461767261812 0 0.017193102548177477 -0.029177027361833759 0 0.017302841041560209 -0.029327485308105548 0 0.017297797861332231 -0.028949461767261812 0 0.017173192577973076 -0.029441835253991706 0 0.017193102548177477 -0.029177027361833759 0 0.017302841041560209 -0.029327485308105548 0 0.017251624266378374 -0.029665702331996061 0 0.017173192577973076 -0.029441835253991706 0 0.017302841041560209 -0.029327485308105548 0 0.017302841041560209 -0.029327485308105548 0 0.017444105707693548 -0.02948766788379319 0 0.017496724639010596 -0.029164528357520404 0 0.01781448563526335 -0.029444248617597649 0 0.017455699297005103 -0.030020860049431487 0 0.017444105707693548 -0.02948766788379319 0 0.01781448563526335 -0.029444248617597649 0 0.017444105707693548 -0.02948766788379319 0 0.017496724639010596 -0.029164528357520404 0 0.017251624266378374 -0.029665702331996061 0 0.017302841041560209 -0.029327485308105548 0 0.017444105707693548 -0.02948766788379319 0 0.017496724639010596 -0.029164528357520404 0 0.017297797861332231 -0.028949461767261812 0 0.017534580512496623 -0.029032570880077435 0 0.015530039758725484 -0.027273299914799744 0 0.015472128768214475 -0.027257331903700319 0 0.013174716879323404 -0.025504822087198717 0 0.013893102469945424 -0.025587502292394915 0 0.013130073815976974 -0.025277251729155157 0 0.013255151570294662 -0.025574445664335751 0 0.013480952195098102 -0.025749226391556166 0 0.013174716879323404 -0.025504822087198717 0 0.013680549500396587 -0.025872778698803715 0 0.013742141408498488 -0.026476112228783492 0 0.013174716879323404 -0.025504822087198717 0 0.013088915816913483 -0.025053799658833167 0 0.013168322693024341 -0.025209497248116722 0 0.013174716879323404 -0.025504822087198717 0 0.013680549500396587 -0.025872778698803715 0 0.013893102469945424 -0.025587502292394915 0 0.013680549500396587 -0.025872778698803715 0 0.013893102469945424 -0.025587502292394915 0 0.01431155189050448 -0.026332549869783985 0 0.017193102548177477 -0.029177027361833759 0 0.017297797861332231 -0.028949461767261812 0 0.017075213532901434 -0.028708725555780856 0 0.015530039758725484 -0.027273299914799744 0 0.015724084736591159 -0.027367693082286884 0 0.014584443554148091 -0.026068431838539928 0 0.01431155189050448 -0.026332549869783985 0 0.01478573946355702 -0.026501939888887622 0 0.013893102469945424 -0.025587502292394915 0 0.014584443554148091 -0.026068431838539928 0 0.01431155189050448 -0.026332549869783985 0 0.01431155189050448 -0.026332549869783985 0 0.0142064101702956 -0.026917074550867809 0 0.013742141408498488 -0.026476112228783492 0 0.01431155189050448 -0.026332549869783985 0 0.01478573946355702 -0.026501939888887622 0 0.014694715012119703 -0.026695608341179827 0 0.013918390635846418 -0.025662067284159432 0 0.014380280504904516 -0.026182998420007229 0 0.01431155189050448 -0.026332549869783985 0 0.0142064101702956 -0.026917074550867809 0 0.014694715012119703 -0.026695608341179827 0 0.014175663596720364 -0.025664934875966331 0 0.01428973893050472 -0.025679568031553034 0 0.01411461254711158 -0.025753265724536817 0 0.014175663596720364 -0.025664934875966331 0 0.01411461254711158 -0.025753265724536817 0 0.014089481896998424 -0.025646015763495195 0 0.013918390635846418 -0.025662067284159432 0 0.013857206881228372 -0.025642779205969687 0 0.013173972105712901 -0.024968414579899876 0 0.013088915816913483 -0.025053799658833167 0 0.013212421008834085 -0.024954312773884432 0 0.013281294476195851 -0.024919448987402906 0 0.013088915816913483 -0.025053799658833167 0 0.013212421008834085 -0.024954312773884432 0 0.013287758338578457 -0.024915909241592128 0 0.013281294476195851 -0.024919448987402906 0 0.013088915816913483 -0.025053799658833167 0 0.013918390635846418 -0.025662067284159432 0 0.013480952195098102 -0.025749226391556166 0 0.013173972105712901 -0.024968414579899876 0 0.013154833947383229 -0.025076603245797129 0 0.013088915816913483 -0.025053799658833167 0 0.013173972105712901 -0.024968414579899876 0 0.013154833947383229 -0.025076603245797129 0 0.013137056116911015 -0.025050358186509913 0 0.013154833947383229 -0.025076603245797129 0 0.013088915816913483 -0.025053799658833167 0 0.013168322693024341 -0.025209497248116722 0 0.013680549500396587 -0.025872778698803715 0 0.01431155189050448 -0.026332549869783985 0 0.013742141408498488 -0.026476112228783492 0 0.014418043171729959 -0.027532332341309779 0 0.014133501046944734 -0.026558450880960274 0 0.013602373659854191 -0.027654715071283757 0 0.014133501046944734 -0.026558450880960274 0 0.013602373659854191 -0.027654715071283757 0 0.013382139350113917 -0.026614332256958775 0 0.014218185309091759 -0.028436089576981398 0 0.014418043171729959 -0.027532332341309779 0 0.013602373659854191 -0.027654715071283757 0 0.015021841326592775 -0.029039737436408846 0 0.014218185309091759 -0.028436089576981398 0 0.014418043171729959 -0.027532332341309779 0 0.015021841326592775 -0.029039737436408846 0 0.014418043171729959 -0.027532332341309779 0 0.016293617106033473 -0.028128202418548531 0 0.014498345434384345 -0.027463065450627502 0 0.015352267169786186 -0.027418317446116895 0 0.014418043171729959 -0.027532332341309779 0 0.014691684460857692 -0.026809016607142747 0 0.014133501046944734 -0.026558450880960274 0 0.014418043171729959 -0.027532332341309779 0 0.014691684460857692 -0.026809016607142747 0 0.014825779976154767 -0.026670345791178607 0 0.014691684460857692 -0.026809016607142747 0 0.014825779976154767 -0.026670345791178607 0 0.01478573946355702 -0.026501939888887622 0 0.015724084736591159 -0.027367693082286884 0 0.015352267169786186 -0.027418317446116895 0 0.016788433414103594 -0.029319956257397192 0 0.017075213532901434 -0.028708725555780856 0 0.016293617106033473 -0.028128202418548531 0 0.014584443554148091 -0.026068431838539928 0 0.014825779976154767 -0.026670345791178607 0 0.01478573946355702 -0.026501939888887622 0 0.014380280504904516 -0.026182998420007229 0 0.014390119107370657 -0.026304954280368213 0 0.01478573946355702 -0.026501939888887622 0 0.014694715012119703 -0.026695608341179827 0 0.014800930290073379 -0.026529433742462569 0 0.01411461254711158 -0.025753265724536817 0 0.014171394393875644 -0.025982352223662148 0 0.014086747384804426 -0.025688134839594708 0 0.01411461254711158 -0.025753265724536817 0 0.014086747384804426 -0.025688134839594708 0 0.014089481896998424 -0.025646015763495195 0 0.014171394393875644 -0.025982352223662148 0 0.014089809198264925 -0.02586858968972711 0 0.014086747384804426 -0.025688134839594708 0 0.014691684460857692 -0.026809016607142747 0 0.01478573946355702 -0.026501939888887622 0 0.014800930290073379 -0.026529433742462569 0 0.014691684460857692 -0.026809016607142747 0 0.014800930290073379 -0.026529433742462569 0 0.014133501046944734 -0.026558450880960274 0 0.014390119107370657 -0.026304954280368213 0 0.01412432623647782 -0.026485031167486926 0 0.014171394393875644 -0.025982352223662148 0 0.014089809198264925 -0.02586858968972711 0 0.014133501046944734 -0.026558450880960274 0 0.014089809198264925 -0.02586858968972711 0 0.013753519995285811 -0.025970963603382836 0 0.014133501046944734 -0.026558450880960274 0 0.014089809198264925 -0.02586858968972711 0 0.013753519995285811 -0.025970963603382836 0 0.013916541880529223 -0.025695153982932196 0 0.013753519995285811 -0.025970963603382836 0 0.014133501046944734 -0.026558450880960274 0 0.013382139350113917 -0.026614332256958775 0 0.013854349738441062 -0.025484769108235765 0 0.013916541880529223 -0.025695153982932196 0 0.013580023107148067 -0.025625250156412437 0 0.013753519995285811 -0.025970963603382836 0 0.013916541880529223 -0.025695153982932196 0 0.013580023107148067 -0.025625250156412437 0 0.013854349738441062 -0.025484769108235765 0 0.013916541880529223 -0.025695153982932196 0 0.014108777953174839 -0.025635681740689427 0 0.014089809198264925 -0.02586858968972711 0 0.013916541880529223 -0.025695153982932196 0 0.014108777953174839 -0.025635681740689427 0 0.013757360073097191 -0.025384542848586364 0 0.013910765757515634 -0.025440209686545784 0 0.013719638020654465 -0.02526970543256106 0 0.013698343461708576 -0.025255688893650013 0 0.013736463722650138 -0.025210504993175387 0 0.013698343461708576 -0.025255688893650013 0 0.013789021837953391 -0.025239281190026063 0 0.013758750875129219 -0.025188562939872702 0 0.014089809198264925 -0.02586858968972711 0 0.014108777953174839 -0.025635681740689427 0 0.014086747384804426 -0.025688134839594708 0 0.013910765757515634 -0.025440209686545784 0 0.013987839141145635 -0.025468962793927932 0 0.014108777953174839 -0.025635681740689427 0 0.014086747384804426 -0.025688134839594708 0 0.013962450675454393 -0.025475974835807279 0 0.014086747384804426 -0.025688134839594708 0 0.014089481896998424 -0.025646015763495195 0 0.013962450675454393 -0.025475974835807279 0 0.013789021837953391 -0.025239281190026063 0 0.013962450675454393 -0.025475974835807279 0 0.013865335783775173 -0.025204623853697147 0 0.013698343461708576 -0.025255688893650013 0 0.013789021837953391 -0.025239281190026063 0 0.013962450675454393 -0.025475974835807279 0 0.013789021837953391 -0.025239281190026063 0 0.013764161919352074 -0.025185326267911194 0 0.013865335783775173 -0.025204623853697147 0 0.013764161919352074 -0.025185326267911194 0 0.013758750875129219 -0.025188562939872702 0 0.013660277541436717 -0.025184625802020209 0 0.013789021837953391 -0.025239281190026063 0 0.013764161919352074 -0.025185326267911194 0 0.013758750875129219 -0.025188562939872702 0 0.013758750875129219 -0.025188562939872702 0 0.013762541096869549 -0.025200961955558591 0 0.013660277541436717 -0.025184625802020209 0 0.013762541096869549 -0.025200961955558591 0 0.013660277541436717 -0.025184625802020209 0 0.013629855920639209 -0.025308117691145802 0 0.013758750875129219 -0.025188562939872702 0 0.013762541096869549 -0.025200961955558591 0 0.013736463722650138 -0.025210504993175387 0 0.013698343461708576 -0.025255688893650013 0 0.013758750875129219 -0.025188562939872702 0 0.013736463722650138 -0.025210504993175387 0 0.013719638020654465 -0.02526970543256106 0 0.013736463722650138 -0.025210504993175387 0 0.013722278775356629 -0.02520548583867413 0 0.013736463722650138 -0.025210504993175387 0 0.013743378532159064 -0.025167312533201914 0 0.013722278775356629 -0.02520548583867413 0 0.013762541096869549 -0.025200961955558591 0 0.013736463722650138 -0.025210504993175387 0 0.013743378532159064 -0.025167312533201914 0 0.013743378532159064 -0.025167312533201914 0 0.013715770789508499 -0.025169715230155081 0 0.013722278775356629 -0.02520548583867413 0 0.013715770789508499 -0.025169715230155081 0 0.013722278775356629 -0.02520548583867413 0 0.013680856947504316 -0.025212222256367153 0 0.013719638020654465 -0.02526970543256106 0 0.013722278775356629 -0.02520548583867413 0 0.013680856947504316 -0.025212222256367153 0 0.013365260876977394 -0.025017588200920191 0 0.013475908432334715 -0.025102629898723708 0 0.013291187369331527 -0.025057362119454561 0 0.0132492375846821 -0.024964685547641832 0 0.013365260876977394 -0.025017588200920191 0 0.013291187369331527 -0.025057362119454561 0 0.013176385560947081 -0.024949680639757377 0 0.0132492375846821 -0.024964685547641832 0 0.013291187369331527 -0.025057362119454561 0 0.013176385560947081 -0.024949680639757377 0 0.013291187369331527 -0.025057362119454561 0 0.013105885345268221 -0.024988677069115416 0 0.013173972105712901 -0.024968414579899876 0 0.013176385560947081 -0.024949680639757377 0 0.0132492375846821 -0.024964685547641832 0 0.013173972105712901 -0.024968414579899876 0 0.013212421008834085 -0.024954312773884432 0 0.0132492375846821 -0.024964685547641832 0 0.013281294476195851 -0.024919448987402906 0 0.013212421008834085 -0.024954312773884432 0 0.0132492375846821 -0.024964685547641832 0 0.013337176857681071 -0.024883751597786385 0 0.013281294476195851 -0.024919448987402906 0 0.013390372699830773 -0.024944002627172203 0 0.0132492375846821 -0.024964685547641832 0 0.013390372699830773 -0.024944002627172203 0 0.013365260876977394 -0.025017588200920191 0 0.013281294476195851 -0.024919448987402906 0 0.0132492375846821 -0.024964685547641832 0 0.013390372699830773 -0.024944002627172203 0 0.013918390635846418 -0.025662067284159432 0 0.013828223557492353 -0.025295523393128808 0 0.014175663596720364 -0.025664934875966331 0 0.01428973893050472 -0.025679568031553034 0 0.014218464985373734 -0.025542374079117657 0 0.013337176857681071 -0.024883751597786385 0 0.013390372699830773 -0.024944002627172203 0 0.013553514579462618 -0.024925935811471969 0 0.013390372699830773 -0.024944002627172203 0 0.013553514579462618 -0.024925935811471969 0 0.01346294967873991 -0.025015843673231973 0 0.013390372699830773 -0.024944002627172203 0 0.013365260876977394 -0.025017588200920191 0 0.01346294967873991 -0.025015843673231973 0 0.014175663596720364 -0.025664934875966331 0 0.014089481896998424 -0.025646015763495195 0 0.014218464985373734 -0.025542374079117657 0 0.014218464985373734 -0.025542374079117657 0 0.013962450675454393 -0.025475974835807279 0 0.013865335783775173 -0.025204623853697147 0 0.014089481896998424 -0.025646015763495195 0 0.014218464985373734 -0.025542374079117657 0 0.013962450675454393 -0.025475974835807279 0 0.013828223557492353 -0.025295523393128808 0 0.013847727356087126 -0.025253856377009606 0 0.013553514579462618 -0.024925935811471969 0 0.013865335783775173 -0.025204623853697147 0 0.013596239244373805 -0.02510863722545743 0 0.013865335783775173 -0.025204623853697147 0 0.013596239244373805 -0.02510863722545743 0 0.013654779759927458 -0.02517353040590176 0 0.013596239244373805 -0.02510863722545743 0 0.013475908432334715 -0.025102629898723708 0 0.013654779759927458 -0.02517353040590176 0 0.013764161919352074 -0.025185326267911194 0 0.013865335783775173 -0.025204623853697147 0 0.013654779759927458 -0.02517353040590176 0 0.013365260876977394 -0.025017588200920191 0 0.01346294967873991 -0.025015843673231973 0 0.013475908432334715 -0.025102629898723708 0 0.013553514579462618 -0.024925935811471969 0 0.013596239244373805 -0.02510863722545743 0 0.01346294967873991 -0.025015843673231973 0 0.013596239244373805 -0.02510863722545743 0 0.01346294967873991 -0.025015843673231973 0 0.013475908432334715 -0.025102629898723708 0 0.013475908432334715 -0.025102629898723708 0 0.013463805024039604 -0.025153817738811951 0 0.013654779759927458 -0.02517353040590176 0 0.013475908432334715 -0.025102629898723708 0 0.013463805024039604 -0.025153817738811951 0 0.013291187369331527 -0.025057362119454561 0 0.013463805024039604 -0.025153817738811951 0 0.013654779759927458 -0.02517353040590176 0 0.013660277541436717 -0.025184625802020209 0 0.013764161919352074 -0.025185326267911194 0 0.013654779759927458 -0.02517353040590176 0 0.013660277541436717 -0.025184625802020209 0 0.013463805024039604 -0.025153817738811951 0 0.013660277541436717 -0.025184625802020209 0 0.013407488976036922 -0.02520985054168318 0 0.013463805024039604 -0.025153817738811951 0 0.013317463268462835 -0.025160721687260815 0 0.013407488976036922 -0.02520985054168318 0 0.013463805024039604 -0.025153817738811951 0 0.013317463268462835 -0.025160721687260815 0 0.013291187369331527 -0.025057362119454561 0 0.013317463268462835 -0.025160721687260815 0 0.013291187369331527 -0.025057362119454561 0 0.013167025689888938 -0.025131277871534866 0 0.013291187369331527 -0.025057362119454561 0 0.013167025689888938 -0.025131277871534866 0 0.013105885345268221 -0.024988677069115416 0 0.013317463268462835 -0.025160721687260815 0 0.013167025689888938 -0.025131277871534866 0 0.013270349804903358 -0.025199101697112515 0 0.013167025689888938 -0.025131277871534866 0 0.013041019171200766 -0.025160351126885364 0 0.012961165119419764 -0.025084863442984599 0 0.013041019171200766 -0.025160351126885364 0 0.012961165119419764 -0.025084863442984599 0 0.012927666132139446 -0.02520479445836233 0 0.012961165119419764 -0.025084863442984599 0 0.012942914026381125 -0.024910005040191724 0 0.012713463834036001 -0.025027405814925394 0 0.012961165119419764 -0.025084863442984599 0 0.013105885345268221 -0.024988677069115416 0 0.012942914026381125 -0.024910005040191724 0 0.013167025689888938 -0.025131277871534866 0 0.012961165119419764 -0.025084863442984599 0 0.013105885345268221 -0.024988677069115416 0 0.013176385560947081 -0.024949680639757377 0 0.013105885345268221 -0.024988677069115416 0 0.013046015991774403 -0.024815686521496145 0 0.013105885345268221 -0.024988677069115416 0 0.012942914026381125 -0.024910005040191724 0 0.013046015991774403 -0.024815686521496145 0 0.012942914026381125 -0.024910005040191724 0 0.013046015991774403 -0.024815686521496145 0 0.012712540158187536 -0.024701797836143572 0 0.013042384532195236 -0.0249260928773558 0 0.012828568242683427 -0.024857603702491401 0 0.013173972105712901 -0.024968414579899876 0 0.013176385560947081 -0.024949680639757377 0 0.013046015991774403 -0.024815686521496145 0 0.013129312151852854 -0.024952335046834601 0 0.013042384532195236 -0.0249260928773558 0 0.012912118349518893 -0.024934364664582476 0 0.012939015490481709 -0.024976148084085662 0 0.012864812361693997 -0.024936583353798409 0 0.012912118349518893 -0.024934364664582476 0 0.012939015490481709 -0.024976148084085662 0 0.012960888013104866 -0.025008860783839813 0 0.013099219552089869 -0.025067728011321035 0 0.012960888013104866 -0.025008860783839813 0 0.012994119151475457 -0.025009519251147128 0 0.012939015490481709 -0.024976148084085662 0 0.012960888013104866 -0.025008860783839813 0 0.012994119151475457 -0.025009519251147128 0 0.012942914026381125 -0.024910005040191724 0 0.012712540158187536 -0.024701797836143572 0 0.012713463834036001 -0.025027405814925394 0 0.012712540158187536 -0.024701797836143572 0 0.012131143345661977 -0.024839588263459399 0 0.011960420940948839 -0.024762112232885249 0 0.012828568242683427 -0.024857603702491401 0 0.01233932735118356 -0.02484755878369789 0 0.012912118349518893 -0.024934364664582476 0 0.012960888013104866 -0.025008860783839813 0 0.012913609424266653 -0.024904920300827138 0 0.012712540158187536 -0.024701797836143572 0 0.012713463834036001 -0.025027405814925394 0 0.012131143345661977 -0.024839588263459399 0 0.012713463834036001 -0.025027405814925394 0 0.012538523048751141 -0.025166731704061727 0 0.012131143345661977 -0.024839588263459399 0 0.012159710989601575 -0.025154071829813236 0 0.012135085857220496 -0.024893420968357907 0 0.012961165119419764 -0.025084863442984599 0 0.012762994520663269 -0.025193462540562171 0 0.012927666132139446 -0.02520479445836233 0 0.012961165119419764 -0.025084863442984599 0 0.012713463834036001 -0.025027405814925394 0 0.012762994520663269 -0.025193462540562171 0 0.012159710989601575 -0.025154071829813236 0 0.012082501295405747 -0.026265882416429524 0 0.012762994520663269 -0.025193462540562171 0 0.012538523048751141 -0.025166731704061727 0 0.01276501667596483 -0.025242472485157128 0 0.012713463834036001 -0.025027405814925394 0 0.012762994520663269 -0.025193462540562171 0 0.012538523048751141 -0.025166731704061727 0 0.011349822217412991 -0.0256937359562916 0 0.011742702240199217 -0.025259353176967324 0 0.011758763672918584 -0.025656579642713607 0 0.011935628743251958 -0.025474701438861595 0 0.011742702240199217 -0.025259353176967324 0 0.011758763672918584 -0.025656579642713607 0 0.011349822217412991 -0.0256937359562916 0 0.011262315272275314 -0.025363957919053551 0 0.011742702240199217 -0.025259353176967324 0 0.011262315272275314 -0.025363957919053551 0 0.011742702240199217 -0.025259353176967324 0 0.011062095840424131 -0.024997635738711475 0 0.011742702240199217 -0.025259353176967324 0 0.011062095840424131 -0.024997635738711475 0 0.011960420940948839 -0.024762112232885249 0 0.011935628743251958 -0.025474701438861595 0 0.011742702240199217 -0.025259353176967324 0 0.012131143345661977 -0.024839588263459399 0 -0.0024320013682074563 -0.0099015192250931951 0 -0.0023537215826605938 -0.0096394418310896037 0 -0.0020596083283492359 -0.0098855691430676587 0 -0.0023537215826605938 -0.0096394418310896037 0 -0.0020596083283492359 -0.0098855691430676587 0 -0.0019027973973070197 -0.0094746329771261181 0 -0.00089396723841418907 -0.0096882407232575605 0 -0.0020596083283492359 -0.0098855691430676587 0 -0.0019027973973070197 -0.0094746329771261181 0 0.011349822217412991 -0.0256937359562916 0 0.011262315272275314 -0.025363957919053551 0 0.010429072045168162 -0.025423120234342574 0 0.0052526405202786902 -0.017750227732279109 0 0.0042644309800812866 -0.017404933088579568 0 0.010429072045168162 -0.025423120234342574 0 0.010225027909633309 -0.024505971910630111 0 0.011062095840424131 -0.024997635738711475 0 0.011262315272275314 -0.025363957919053551 0 0.010429072045168162 -0.025423120234342574 0 0.011062095840424131 -0.024997635738711475 0 -0.0023537215826605938 -0.0096394418310896037 0 -0.0023738930827010359 -0.0094473662962687201 0 -0.0019027973973070197 -0.0094746329771261181 0 0.008722354242636501 -0.024309388710932293 0 0.010429072045168162 -0.025423120234342574 0 0.010225027909633309 -0.024505971910630111 0 0.008722354242636501 -0.024309388710932293 0 0.010225027909633309 -0.024505971910630111 0 0.0099642126509381455 -0.023686659207192699 0 0.0031739895367160638 -0.016833662978934617 0 0.0042644309800812866 -0.017404933088579568 0 0.010225027909633309 -0.024505971910630111 0 0.010838890694177785 -0.023994349051589221 0 0.0099642126509381455 -0.023686659207192699 0 0.010225027909633309 -0.024505971910630111 0 0.011062095840424131 -0.024997635738711475 0 0.010838890694177785 -0.023994349051589221 0 0.011062095840424131 -0.024997635738711475 0 0.010838890694177785 -0.023994349051589221 0 0.011498374909694921 -0.02429728267955146 0 0.010838890694177785 -0.023994349051589221 0 0.010543658250800539 -0.022900795046789983 0 0.011809774710365515 -0.023310803459652422 0 0.010543658250800539 -0.022900795046789983 0 0.011809774710365515 -0.023310803459652422 0 0.011256330043140724 -0.022144125106683961 0 0.010838890694177785 -0.023994349051589221 0 0.010543658250800539 -0.022900795046789983 0 0.0099642126509381455 -0.023686659207192699 0 0.010543658250800539 -0.022900795046789983 0 0.0091918207138366372 -0.022763973275569595 0 0.0099642126509381455 -0.023686659207192699 0 0.008722354242636501 -0.024309388710932293 0 0.0091918207138366372 -0.022763973275569595 0 0.0099642126509381455 -0.023686659207192699 0 0.011742702240199217 -0.025259353176967324 0 0.012131143345661977 -0.024839588263459399 0 0.011960420940948839 -0.024762112232885249 0 0.012913609424266653 -0.024904920300827138 0 0.012352999177219414 -0.024719826377758668 0 0.012658167362102032 -0.024768932306698244 0 0.012913609424266653 -0.024904920300827138 0 0.012658167362102032 -0.024768932306698244 0 0.012827582837920258 -0.024850704004879043 0 0.012912118349518893 -0.024934364664582476 0 0.012913609424266653 -0.024904920300827138 0 0.012827582837920258 -0.024850704004879043 0 0.011062095840424131 -0.024997635738711475 0 0.012913609424266653 -0.024904920300827138 0 0.012352999177219414 -0.024719826377758668 0 0.011378889622531908 -0.025012310231199548 0 0.01233932735118356 -0.02484755878369789 0 0.011062095840424131 -0.024997635738711475 0 0.011498374909694921 -0.02429728267955146 0 0.012352999177219414 -0.024719826377758668 0 0.011498374909694921 -0.02429728267955146 0 0.012352999177219414 -0.024719826377758668 0 0.011809774710365515 -0.023310803459652422 0 0.012352999177219414 -0.024719826377758668 0 0.012777381247733028 -0.024842083096229803 0 0.012658167362102032 -0.024768932306698244 0 0.012000399083091362 -0.024685169920809803 0 0.011518520921783702 -0.024452268012654741 0 0.010838890694177785 -0.023994349051589221 0 0.011498374909694921 -0.02429728267955146 0 0.011809774710365515 -0.023310803459652422 0 0.012777381247733028 -0.024842083096229803 0 0.012775519323715153 -0.024860071244271316 0 0.012808773598866719 -0.024913423315796657 0 0.012912118349518893 -0.024934364664582476 0 0.012775519323715153 -0.024860071244271316 0 0.012864812361693997 -0.024936583353798409 0 0.012777381247733028 -0.024842083096229803 0 0.012775519323715153 -0.024860071244271316 0 0.012658167362102032 -0.024768932306698244 0 0.012775519323715153 -0.024860071244271316 0 0.012658167362102032 -0.024768932306698244 0 0.012827582837920258 -0.024850704004879043 0 0.012912118349518893 -0.024934364664582476 0 0.012775519323715153 -0.024860071244271316 0 0.012827582837920258 -0.024850704004879043 0 0.012843106413039953 -0.024943333362193128 0 0.012808773598866719 -0.024913423315796657 0 0.012826933243421809 -0.024952329887921284 0 0.012864812361693997 -0.024936583353798409 0 0.012843106413039953 -0.024943333362193128 0 0.012808773598866719 -0.024913423315796657 0 0.012775519323715153 -0.024860071244271316 0 0.012864812361693997 -0.024936583353798409 0 0.012808773598866719 -0.024913423315796657 0 0.012864812361693997 -0.024936583353798409 0 0.012882289055247508 -0.024963337521185687 0 0.012843106413039953 -0.024943333362193128 0 0.012808773598866719 -0.024913423315796657 0 0.012829108276813961 -0.024915055472882162 0 0.012826933243421809 -0.024952329887921284 0 0.012777381247733028 -0.024842083096229803 0 0.012808773598866719 -0.024913423315796657 0 0.012829108276813961 -0.024915055472882162 0 0.011518520921783702 -0.024452268012654741 0 0.0094137468365053933 -0.024221981636014439 0 0.0094137468365053933 -0.024221981636014439 0 0.0086728425379067383 -0.026878345799178423 0 0.0046518136908322667 -0.028788197410367349 0 0.0050843585928106692 -0.028921564736121907 0 0.0047847770290290028 -0.029104332602194419 0 0.0049241666887087946 -0.0284820957873799 0 0.0046518136908322667 -0.028788197410367349 0 0.0050843585928106692 -0.028921564736121907 0 0.0046518136908322667 -0.028788197410367349 0 0.0046074360491693547 -0.029056513771771285 0 0.0047847770290290028 -0.029104332602194419 0 0.0046518136908322667 -0.028788197410367349 0 0.0044090929212734688 -0.029074026728646146 0 0.0046074360491693547 -0.029056513771771285 0 0.0086728425379067383 -0.026878345799178423 0 0.0093472642757886897 -0.027850940566925757 0 0.012826933243421809 -0.024952329887921284 0 0.012859961321801538 -0.024956577967447272 0 0.012864686844367743 -0.024936921652745383 0 0.012885250892991203 -0.024950960374416617 0 0.012859961321801538 -0.024956577967447272 0 0.012910014857730639 -0.024975914874199909 0 0.012885250892991203 -0.024950960374416617 0 0.012859961321801538 -0.024956577967447272 0 0.012864686844367743 -0.024936921652745383 0 0.012882289055247508 -0.024963337521185687 0 0.012859961321801538 -0.024956577967447272 0 0.012910014857730639 -0.024975914874199909 0 0.012882289055247508 -0.024963337521185687 0 0.012843106413039953 -0.024943333362193128 0 0.012859961321801538 -0.024956577967447272 0 0.012843106413039953 -0.024943333362193128 0 0.012826933243421809 -0.024952329887921284 0 0.012859961321801538 -0.024956577967447272 0 0.010543658250800539 -0.022900795046789983 0 0.0091918207138366372 -0.022763973275569595 0 0.0098578045363047952 -0.021641267862980196 0 0.0083471212196311335 -0.021448605375730834 0 0.0091918207138366372 -0.022763973275569595 0 0.0098578045363047952 -0.021641267862980196 0 0.010543658250800539 -0.022900795046789983 0 0.011263136736660182 -0.022108605108840159 0 0.0098578045363047952 -0.021641267862980196 0 0.010574320330455998 -0.022935716411037949 0 0.0094137468365053933 -0.024221981636014439 0 0.0094137468365053933 -0.024221981636014439 0 0.0074645478730443783 -0.024836290298734343 0 0.011263136736660182 -0.022108605108840159 0 0.0098578045363047952 -0.021641267862980196 0 0.010481110064853302 -0.020513541548413613 0 0.0098578045363047952 -0.021641267862980196 0 0.010481110064853302 -0.020513541548413613 0 0.0092008664809977089 -0.02049608709232895 0 0.0083471212196311335 -0.021448605375730834 0 0.0098578045363047952 -0.021641267862980196 0 0.0092008664809977089 -0.02049608709232895 0 0.010481110064853302 -0.020513541548413613 0 0.0092008664809977089 -0.02049608709232895 0 0.0096991328798063572 -0.018945567963931573 0 0.0076116536401742907 -0.019948067263101357 0 0.0092008664809977089 -0.02049608709232895 0 0.0096991328798063572 -0.018945567963931573 0 0.0074645478730443783 -0.024836290298734343 0 0.0043983562901387264 -0.026404637002278106 0 0.0050843585928106692 -0.028921564736121907 0 0.0049516505466911361 -0.029270003456928144 0 0.0047847770290290028 -0.029104332602194419 0 0.0050843585928106692 -0.028921564736121907 0 0.0049516505466911361 -0.029270003456928144 0 0.0052061128315711606 -0.02934561206013862 0 0.0049516505466911361 -0.029270003456928144 0 0.0049102295386444774 -0.029358208689655142 0 0.0048158232647097102 -0.029305936000226941 0 0.0050710106347922144 -0.029707620077018243 0 0.0051883434172612496 -0.029856797813067805 0 0.0051662265555105598 -0.029817949819912343 0 0.0050710106347922144 -0.029707620077018243 0 0.004921422181040914 -0.029456495105868914 0 0.0050290888071528612 -0.029445173715088639 0 0.0051628560985864692 -0.029703426986370757 0 0.0049226212668877032 -0.029393124760050422 0 0.0049545440162082448 -0.029387602003812848 0 0.004921422181040914 -0.029456495105868914 0 0.0050290888071528612 -0.029445173715088639 0 0.0049516505466911361 -0.029270003456928144 0 0.0049102295386444774 -0.029358208689655142 0 0.0049545440162082448 -0.029387602003812848 0 0.0049516505466911361 -0.029270003456928144 0 0.0049545440162082448 -0.029387602003812848 0 0.0050290888071528612 -0.029445173715088639 0 0.0049102295386444774 -0.029358208689655142 0 0.0049545440162082448 -0.029387602003812848 0 0.004921422181040914 -0.029456495105868914 0 0.0049516505466911361 -0.029270003456928144 0 0.0050290888071528612 -0.029445173715088639 0 0.0052061128315711606 -0.02934561206013862 0 0.0042777508911696878 -0.027017228837473466 0 0.0043983562901387264 -0.026404637002278106 0 0.0050710106347922144 -0.029707620077018243 0 0.0050290888071528612 -0.029445173715088639 0 0.0051025630207662551 -0.029427531716727962 0 0.0011847454211071891 -0.028127078640267665 0 0.0043983562901387264 -0.026404637002278106 0 -0.0028685714380234555 -0.026211815749049062 0 -0.0029936577209755521 -0.026929163749605439 0 -0.0037384968583318088 -0.025363990830400078 0 -0.0028685714380234555 -0.026211815749049062 0 -0.0029472401195868338 -0.025497909977852368 0 -0.0037384968583318088 -0.025363990830400078 0 0.0044687775682499455 -0.02920694743762069 0 0.0046074360491693547 -0.029056513771771285 0 0.0046802304810495401 -0.029233677386435043 0 0.0080778746229018018 -0.030696073041207059 0 0.0082929065498673488 -0.030805208811121716 0 0.0082776735405881881 -0.030450689863239021 0 0.0077296154360707043 -0.028711059322409575 0 0.0097323453300245475 -0.028251158002242944 0 0.0086136001278962968 -0.028750542204551227 0 0.0085750222644707802 -0.028662874704104196 0 0.008534231653017749 -0.028707326438800567 0 0.0077296154360707043 -0.028711059322409575 0 0.0093472642757886897 -0.027850940566925757 0 0.01284908869573884 -0.024896848863925267 0 0.012876546370469425 -0.0248655830683359 0 0.012913302682510435 -0.024921710135780255 0 0.0093472642757886897 -0.027850940566925757 0 0.0097323453300245475 -0.028251158002242944 0 0.009721579569223154 -0.027107686655410062 0 0.0093472642757886897 -0.027850940566925757 0 0.012885250892991203 -0.024950960374416617 0 0.01284908869573884 -0.024896848863925267 0 0.012913302682510435 -0.024921710135780255 0 0.0044687775682499455 -0.02920694743762069 0 0.0044090929212734688 -0.029074026728646146 0 0.0046074360491693547 -0.029056513771771285 0 0.0046074360491693547 -0.029056513771771285 0 0.0047847770290290028 -0.029104332602194419 0 0.0046802304810495401 -0.029233677386435043 0 0.004921422181040914 -0.029456495105868914 0 0.0044687775682499455 -0.02920694743762069 0 0.0046802304810495401 -0.029233677386435043 0 0.0049516505466911361 -0.029270003456928144 0 0.0047847770290290028 -0.029104332602194419 0 0.0048158232647097102 -0.029305936000226941 0 0.0047847770290290028 -0.029104332602194419 0 0.0046802304810495401 -0.029233677386435043 0 0.0048158232647097102 -0.029305936000226941 0 0.0051883434172612496 -0.029856797813067805 0 0.0056018924036150622 -0.030065244131733677 0 0.00537792354532644 -0.029868095579674618 0 0.0050813418233485504 -0.030877352425092229 0 0.0062769172642993401 -0.032433355904094609 0 0.0049226212668877032 -0.029393124760050422 0 0.0077296154360707043 -0.028711059322409575 0 0.0051662265555105598 -0.029817949819912343 0 0.00537792354532644 -0.029868095579674618 0 0.0054591077478945487 -0.029814327067735156 0 0.0051595031318845234 -0.029801442704425501 0 0.0051662265555105598 -0.029817949819912343 0 0.0051648053181578158 -0.029804615636929401 0 0.0049102295386444774 -0.029358208689655142 0 0.004921422181040914 -0.029456495105868914 0 0.0048158232647097102 -0.029305936000226941 0 0.004921422181040914 -0.029456495105868914 0 0.0046802304810495401 -0.029233677386435043 0 0.0048158232647097102 -0.029305936000226941 0 0.0051883434172612496 -0.029856797813067805 0 0.0051662265555105598 -0.029817949819912343 0 0.00537792354532644 -0.029868095579674618 0 0.00537792354532644 -0.029868095579674618 0 0.0054591077478945487 -0.029814327067735156 0 0.0054777147537651014 -0.029852174730160063 0 0.0061916578358912804 -0.031480115338846808 0 0.0064639197963744207 -0.031631413772751756 0 0.0062769172642993401 -0.032433355904094609 0 0.0064294229068174386 -0.033081069932538863 0 0.0064639197963744207 -0.031631413772751756 0 0.0064294229068174386 -0.033081069932538863 0 0.0059719695187774174 -0.032698502942586111 0 0.0060354812492921664 -0.03283249492046441 0 0.0066073982086547918 -0.032725401659332666 0 0.0062769172642993401 -0.032433355904094609 0 0.0064639197963744207 -0.031631413772751756 0 0.0077296154360707043 -0.028711059322409575 0 0.0064639197963744207 -0.031631413772751756 0 0.0080778746229018018 -0.030696073041207059 0 0.007862044416099518 -0.030259410971586253 0 0.0082776735405881881 -0.030450689863239021 0 0.0056018924036150622 -0.030065244131733677 0 0.00537792354532644 -0.029868095579674618 0 0.0054925761064053575 -0.029846022908298953 0 0.007862044416099518 -0.030259410971586253 0 0.0082776735405881881 -0.030450689863239021 0 0.0082144944038186323 -0.030192350815624769 0 0.0097323453300245475 -0.028251158002242944 0 0.01024900041100504 -0.030399955014905961 0 0.0082776735405881881 -0.030450689863239021 0 0.0082144944038186323 -0.030192350815624769 0 0.0088524530680995535 -0.030218713492127885 0 0.0065614282810560736 -0.032512898730484685 0 0.010380487324436766 -0.032663450547302617 0 0.010669334368771368 -0.032353980044550278 0 0.010519218583042691 -0.029395604373018313 0 0.010845103687036523 -0.027859624905565573 0 0.01027685152127914 -0.029386427870984878 0 0.0065614282810560736 -0.032512898730484685 0 0.010669334368771368 -0.032353980044550278 0 0.011577461456065634 -0.031561824254440693 0 0.0082929065498673488 -0.030805208811121716 0 0.0082776735405881881 -0.030450689863239021 0 0.0088524530680995535 -0.030218713492127885 0 0.0064294229068174386 -0.033081069932538863 0 0.010353766153466767 -0.03372176305792586 0 0.0064294229068174386 -0.033081069932538863 0 0.01024900041100504 -0.030399955014905961 0 0.01024900041100504 -0.030399955014905961 0 0.01022496303581906 -0.030451734092528819 0 0.013173781000863744 -0.025077572787434867 0 0.013016597332273439 -0.025136907048803878 0 0.012971392794572476 -0.025793894724814376 0 0.011613256449196335 -0.026419913927635822 0 0.011405170376270783 -0.02996062615765829 0 0.01157748638491435 -0.028244257433725824 0 0.010519218583042691 -0.029395604373018313 0 0.010845103687036523 -0.027859624905565573 0 0.013073633618319589 -0.025047996790484875 0 0.013016597332273439 -0.025136907048803878 0 0.013030999649732557 -0.025071253042166664 0 0.013073633618319589 -0.025047996790484875 0 0.013173781000863744 -0.025077572787434867 0 0.013016597332273439 -0.025136907048803878 0 0.011689493491295957 -0.0264089380834975 0 0.011613256449196335 -0.026419913927635822 0 0.012876546370469425 -0.0248655830683359 0 0.012991433519550124 -0.024916137763546429 0 0.012913302682510435 -0.024921710135780255 0 0.0097323453300245475 -0.028251158002242944 0 0.011613256449196335 -0.026419913927635822 0 0.013625496599302751 -0.025325806707735238 0 0.014306244857502282 -0.028193031687540417 0 0.013016597332273439 -0.025136907048803878 0 0.013096591720745834 -0.025222162665671163 0 0.013078857771962165 -0.025178499786214108 0 0.013043187666645809 -0.025122863065731187 0 0.013016597332273439 -0.025136907048803878 0 0.013078857771962165 -0.025178499786214108 0 0.013043187666645809 -0.025122863065731187 0 0.013078857771962165 -0.025178499786214108 0 0.013071932623834638 -0.025142255581167231 0 0.013043187666645809 -0.025122863065731187 0 0.013016597332273439 -0.025136907048803878 0 0.013030999649732557 -0.025071253042166664 0 0.015346272312478211 -0.029506645409372041 0 0.011471350434229699 -0.03024250820335353 0 0.013865208436073456 -0.031506580609528163 0 0.013016597332273439 -0.025136907048803878 0 0.012971392794572476 -0.025793894724814376 0 0.012563640617972585 -0.025786477169897508 0 0.010381921924787225 -0.032660883353361828 0 0.010669334368771368 -0.032353980044550278 0 0.01115024285451917 -0.032693324579255854 0 0.01024900041100504 -0.030399955014905961 0 0.011405170376270783 -0.02996062615765829 0 0.011405170376270783 -0.02996062615765829 0 0.010353766153466767 -0.03372176305792586 0 0.010669334368771368 -0.032353980044550278 0 0.01115024285451917 -0.032693324579255854 0 0.011577461456065634 -0.031561824254440693 0 0.011035668113598001 -0.031395635952806013 0 0.011471350434229699 -0.03024250820335353 0 0.013865208436073456 -0.031506580609528163 0 0.011405170376270783 -0.02996062615765829 0 0.014306244857502282 -0.028193031687540417 0 0.014306244857502282 -0.028193031687540417 0 0.015472128768214475 -0.027257331903700319 0 0.016591959851938592 -0.029485190965127084 0 0.014306244857502282 -0.028193031687540417 0 0.013096591720745834 -0.025222162665671163 0 0.013108816298586415 -0.025262625817544026 0 0.013078857771962165 -0.025178499786214108 0 0.013096591720745834 -0.025222162665671163 0 0.013108816298586415 -0.025262625817544026 0 0.013130073815976974 -0.025277251729155157 0 0.017625232838398397 -0.029090460388063601 0 0.017645619215231827 -0.029048072332241295 0 0.017534580512496623 -0.029032570880077435 0 0.013108816298586415 -0.025262625817544026 0 0.013130073815976974 -0.025277251729155157 0 0.013130716197708859 -0.025344763837442327 0 0.013174716879323404 -0.025504822087198717 0 0.013130073815976974 -0.025277251729155157 0 0.013130716197708859 -0.025344763837442327 0 0.013174716879323404 -0.025504822087198717 0 0.013130716197708859 -0.025344763837442327 0 0.013151387277502605 -0.025284843218149472 0 0.013108816298586415 -0.025262625817544026 0 0.013130716197708859 -0.025344763837442327 0 0.013151387277502605 -0.025284843218149472 0 0.013151387277502605 -0.025284843218149472 0 0.013109605940228634 -0.025186907404011274 0 0.013137375597016953 -0.025133942437533884 0 0.013174716879323404 -0.025504822087198717 0 0.013151387277502605 -0.025284843218149472 0 0.013168322693024341 -0.025209497248116722 0 0.013108816298586415 -0.025262625817544026 0 0.013078857771962165 -0.025178499786214108 0 0.013109605940228634 -0.025186907404011274 0 0.013108816298586415 -0.025262625817544026 0 0.013151387277502605 -0.025284843218149472 0 0.013109605940228634 -0.025186907404011274 0 0.013078857771962165 -0.025178499786214108 0 0.013109605940228634 -0.025186907404011274 0 0.013071932623834638 -0.025142255581167231 0 0.013109605940228634 -0.025186907404011274 0 0.013071932623834638 -0.025142255581167231 0 0.013080722931535413 -0.025099476320135348 0 0.013109605940228634 -0.025186907404011274 0 0.013080722931535413 -0.025099476320135348 0 0.013137375597016953 -0.025133942437533884 0 0.013080722931535413 -0.025099476320135348 0 0.013137375597016953 -0.025133942437533884 0 0.013101708550604394 -0.025062915719087728 0 0.013151387277502605 -0.025284843218149472 0 0.013168322693024341 -0.025209497248116722 0 0.013137375597016953 -0.025133942437533884 0 0.013154833947383229 -0.025076603245797129 0 0.013137375597016953 -0.025133942437533884 0 0.013137056116911015 -0.025050358186509913 0 0.013154833947383229 -0.025076603245797129 0 0.013168322693024341 -0.025209497248116722 0 0.013137375597016953 -0.025133942437533884 0 0.013173972105712901 -0.024968414579899876 0 0.013099219552089869 -0.025067728011321035 0 0.013137056116911015 -0.025050358186509913 0 0.013099219552089869 -0.025067728011321035 0 0.013137056116911015 -0.025050358186509913 0 0.013101708550604394 -0.025062915719087728 0 0.013137375597016953 -0.025133942437533884 0 0.013137056116911015 -0.025050358186509913 0 0.013101708550604394 -0.025062915719087728 0 0.013099219552089869 -0.025067728011321035 0 0.013101708550604394 -0.025062915719087728 0 0.013039821816633237 -0.025037476341933804 0 0.013099219552089869 -0.025067728011321035 0 0.013039821816633237 -0.025037476341933804 0 0.012994119151475457 -0.025009519251147128 0 0.013080722931535413 -0.025099476320135348 0 0.013101708550604394 -0.025062915719087728 0 0.013039821816633237 -0.025037476341933804 0 0.013039821816633237 -0.025037476341933804 0 0.013006528779902942 -0.025016725479088418 0 0.012994119151475457 -0.025009519251147128 0 0.013006528779902942 -0.025016725479088418 0 0.012994119151475457 -0.025009519251147128 0 0.012951501742415109 -0.024984035485453686 0 0.012939015490481709 -0.024976148084085662 0 0.012994119151475457 -0.025009519251147128 0 0.012951501742415109 -0.024984035485453686 0 0.012939015490481709 -0.024976148084085662 0 0.012864812361693997 -0.024936583353798409 0 0.012951501742415109 -0.024984035485453686 0 0.012864812361693997 -0.024936583353798409 0 0.012951501742415109 -0.024984035485453686 0 0.012947181470832661 -0.024989435241504897 0 0.012864812361693997 -0.024936583353798409 0 0.012882289055247508 -0.024963337521185687 0 0.012947181470832661 -0.024989435241504897 0 0.013006528779902942 -0.025016725479088418 0 0.012951501742415109 -0.024984035485453686 0 0.012947181470832661 -0.024989435241504897 0 0.012947181470832661 -0.024989435241504897 0 0.01297425248418262 -0.024993191748869856 0 0.013019201324007315 -0.025025318731963765 0 0.013006528779902942 -0.025016725479088418 0 0.012947181470832661 -0.024989435241504897 0 0.013019201324007315 -0.025025318731963765 0 0.012910014857730639 -0.024975914874199909 0 0.012947181470832661 -0.024989435241504897 0 0.01297425248418262 -0.024993191748869856 0 0.012882289055247508 -0.024963337521185687 0 0.012910014857730639 -0.024975914874199909 0 0.012947181470832661 -0.024989435241504897 0 0.012885250892991203 -0.024950960374416617 0 0.012910014857730639 -0.024975914874199909 0 0.01297425248418262 -0.024993191748869856 0 0.012885250892991203 -0.024950960374416617 0 0.012913302682510435 -0.024921710135780255 0 0.01297425248418262 -0.024993191748869856 0 0.012991433519550124 -0.024916137763546429 0 0.012913302682510435 -0.024921710135780255 0 0.01297425248418262 -0.024993191748869856 0 0.013073633618319589 -0.025047996790484875 0 0.01297425248418262 -0.024993191748869856 0 0.013019201324007315 -0.025025318731963765 0 0.013073633618319589 -0.025047996790484875 0 0.013056875239809532 -0.025037785508483835 0 0.01297425248418262 -0.024993191748869856 0 0.011613256449196335 -0.026419913927635822 0 0.012028179628294415 -0.025664516514899999 0 0.013073633618319589 -0.025047996790484875 0 0.013019201324007315 -0.025025318731963765 0 0.013030999649732557 -0.025071253042166664 0 0.013019201324007315 -0.025025318731963765 0 0.013030999649732557 -0.025071253042166664 0 0.013039366022054749 -0.025070338514220681 0 0.013043187666645809 -0.025122863065731187 0 0.013030999649732557 -0.025071253042166664 0 0.013039366022054749 -0.025070338514220681 0 0.013043187666645809 -0.025122863065731187 0 0.013071932623834638 -0.025142255581167231 0 0.013039366022054749 -0.025070338514220681 0 0.013071932623834638 -0.025142255581167231 0 0.013080722931535413 -0.025099476320135348 0 0.013039366022054749 -0.025070338514220681 0 0.013080722931535413 -0.025099476320135348 0 0.013039821816633237 -0.025037476341933804 0 0.013039366022054749 -0.025070338514220681 0 0.013039821816633237 -0.025037476341933804 0 0.013006528779902942 -0.025016725479088418 0 0.013039366022054749 -0.025070338514220681 0 0.013006528779902942 -0.025016725479088418 0 0.013019201324007315 -0.025025318731963765 0 0.013039366022054749 -0.025070338514220681 0 0.036126921569200707 -0.027310779526892814 0 0.034998573225212229 -0.029523439315409839 0 0.034999568336897151 -0.02548183729057971 0 0.036126921569200707 -0.027310779526892814 0 0.037480410218435123 -0.025903362091788496 0 0.036402877729742204 -0.025863366739190215 0 0.037501446782109392 -0.027328691644628984 0 0.037455372690631324 -0.026158336947273785 0 0.036126921569200707 -0.027310779526892814 0 0.037560955253168958 -0.027896464763462213 0 0.037480410218435123 -0.025903362091788496 0 0.037934158488732578 -0.026317955834958218 0 0.037573893844484889 -0.026803245852879094 0 0.037480410218435123 -0.025903362091788496 0 0.037934158488732578 -0.026317955834958218 0 0.037573893844484889 -0.026803245852879094 0 0.038136558112501197 -0.027037410019952787 0 0.036126921569200707 -0.027310779526892814 0 0.037560955253168958 -0.027896464763462213 0 0.03612388366005833 -0.029355432411852202 0 0.037560955253168958 -0.027896464763462213 0 0.037434369897868976 -0.029864668581626775 0 0.03612388366005833 -0.029355432411852202 0 0.037668023169526221 -0.02756198388416773 0 0.03802522560287596 -0.027609664734700813 0 0.038136558112501197 -0.027037410019952787 0 0.037501446782109392 -0.027328691644628984 0 0.037160031128451496 -0.028423754071406484 0 0.037573893844484889 -0.026803245852879094 0 0.037668023169526221 -0.02756198388416773 0 0.038136558112501197 -0.027037410019952787 0 0.037434369897868976 -0.029864668581626775 0 0.036253874916502615 -0.031033037063631048 0 0.037466381592011481 -0.032474982245054088 0 0.037160031128451496 -0.028423754071406484 0 0.034392604022710847 -0.033412548403365855 0 0.037668023169526221 -0.02756198388416773 0 0.037914759750738443 -0.027818833950247271 0 0.037818904877240336 -0.028044089426469371 0 0.037668023169526221 -0.02756198388416773 0 0.037914759750738443 -0.027818833950247271 0 0.03802522560287596 -0.027609664734700813 0 0.037434369897868976 -0.029864668581626775 0 0.036253874916502615 -0.031033037063631048 0 0.03612388366005833 -0.029355432411852202 0 0.03612388366005833 -0.029355432411852202 0 0.034998573225212229 -0.029523439315409839 0 0.035389372055413253 -0.031359272705617697 0 0.036253874916502615 -0.031033037063631048 0 0.03612388366005833 -0.029355432411852202 0 0.035389372055413253 -0.031359272705617697 0 0.036126921569200707 -0.027310779526892814 0 0.03612388366005833 -0.029355432411852202 0 0.034998573225212229 -0.029523439315409839 0 0.034998573225212229 -0.029523439315409839 0 0.035389372055413253 -0.031359272705617697 0 0.034483925558203787 -0.03416595147852549 0 0.034998573225212229 -0.029523439315409839 0 0.034996264639010774 -0.034999219807042348 0 0.034483925558203787 -0.03416595147852549 0 0.035389372055413253 -0.031359272705617697 0 0.034483925558203787 -0.03416595147852549 0 0.035505998786485922 -0.032553904302184203 0 0.034996264639010774 -0.034999219807042348 0 0.034483925558203787 -0.03416595147852549 0 0.03086456782882336 -0.034996649581627223 0 0.034483925558203787 -0.03416595147852549 0 0.03358398591650099 -0.034047855187433002 0 0.034612005831371355 -0.033489132194436534 0 0.034483925558203787 -0.03416595147852549 0 0.03086456782882336 -0.034996649581627223 0 0.03358398591650099 -0.034047855187433002 0 0.0308538740438517 -0.034999993343978492 0 0.031028600202740612 -0.036703442590548807 0 0.029957237037304265 -0.036223170007186008 0 0.030855000442629562 -0.034999380305958588 0 0.032323276655236724 -0.035335363499544088 0 0.03358398591650099 -0.034047855187433002 0 0.034612005831371355 -0.033489132194436534 0 0.035107428497934287 -0.033085904862955692 0 0.032323276655236724 -0.035335363499544088 0 0.034392604022710847 -0.033412548403365855 0 0.031028600202740612 -0.036703442590548807 0 0.031236343887128058 -0.038332724117354368 0 0.03049313691890651 -0.037444086732212459 0 0.031236343887128058 -0.038332724117354368 0 0.030483661318810414 -0.038337875034786632 0 0.03049313691890651 -0.037444086732212459 0 0.034483925558203787 -0.03416595147852549 0 0.034612005831371355 -0.033489132194436534 0 0.035505998786485922 -0.032553904302184203 0 0.034612005831371355 -0.033489132194436534 0 0.035505998786485922 -0.032553904302184203 0 0.035107428497934287 -0.033085904862955692 0 0.035511927320507272 -0.033104014763635656 0 0.034392604022710847 -0.033412548403365855 0 0.036253874916502615 -0.031033037063631048 0 0.035505998786485922 -0.032553904302184203 0 0.037466381592011481 -0.032474982245054088 0 0.036253874916502615 -0.031033037063631048 0 0.035389372055413253 -0.031359272705617697 0 0.035505998786485922 -0.032553904302184203 0 0.037818904877240336 -0.028044089426469371 0 0.038012446725176625 -0.027936671624962921 0 0.038073877306049955 -0.028027098592084104 0 0.034392604022710847 -0.033412548403365855 0 0.033322902138956334 -0.034100359085168862 0 0.037914759750738443 -0.027818833950247271 0 0.037818904877240336 -0.028044089426469371 0 0.038012446725176625 -0.027936671624962921 0 0.037802495452612411 -0.027950888597797555 0 0.038152753379207913 -0.02790912326652091 0 0.037154656952173036 -0.027699589180200344 0 0.033322902138956334 -0.034100359085168862 0 0.033047603353153827 -0.033250564674160502 0 0.037980032891989667 -0.027891251435822231 0 0.037802495452612411 -0.027950888597797555 0 0.038152753379207913 -0.02790912326652091 0 0.037914759750738443 -0.027818833950247271 0 0.038012446725176625 -0.027936671624962921 0 0.037980032891989667 -0.027891251435822231 0 0.038012446725176625 -0.027936671624962921 0 0.037980032891989667 -0.027891251435822231 0 0.038152753379207913 -0.02790912326652091 0 0.033402354250567805 -0.033550978312630146 0 0.033322902138956334 -0.034100359085168862 0 0.037802495452612411 -0.027950888597797555 0 0.037154656952173036 -0.027699589180200344 0 0.037247531505159304 -0.029531144320044202 0 0.028956759672289705 -0.038375983925758195 0 0.029477884916346841 -0.03723953321338052 0 0.028052681367346753 -0.037367434003544302 0 0.033322902138956334 -0.034100359085168862 0 0.03026017068890936 -0.036805574171117697 0 0.030403642126731655 -0.038361479060345698 0 0.028956759672289705 -0.038375983925758195 0 0.029477884916346841 -0.03723953321338052 0 0.030483661318810414 -0.038337875034786632 0 0.02957908197384557 -0.037266399877447037 0 0.03049313691890651 -0.037444086732212459 0 0.031028600202740612 -0.036703442590548807 0 0.03049313691890651 -0.037444086732212459 0 0.029957237037304265 -0.036223170007186008 0 0.02957908197384557 -0.037266399877447037 0 0.03049313691890651 -0.037444086732212459 0 0.029957237037304265 -0.036223170007186008 0 0.029477884916346841 -0.03723953321338052 0 0.028554986286904019 -0.03612011739040509 0 0.028052681367346753 -0.037367434003544302 0 0.03026017068890936 -0.036805574171117697 0 0.028698464751626646 -0.036036463844111015 0 0.02957908197384557 -0.037266399877447037 0 0.029957237037304265 -0.036223170007186008 0 0.028625718724264223 -0.036158494596795467 0 0.028625718724264223 -0.036158494596795467 0 0.029253068647259808 -0.034999969915073752 0 0.027652058797855671 -0.034999998409662815 0 0.029957237037304265 -0.036223170007186008 0 0.028625718724264223 -0.036158494596795467 0 0.029253068647259808 -0.034999969915073752 0 0.0308538740438517 -0.034999993343978492 0 0.029957237037304265 -0.036223170007186008 0 0.029253068647259808 -0.034999969915073752 0 0.026375614135536511 -0.035763808286472965 0 0.027651967118829782 -0.034999969029843196 0 0.027038774166442296 -0.036438224929227422 0 0.026375614135536511 -0.035763808286472965 0 0.027651967118829782 -0.034999969029843196 0 0.025821247763655384 -0.034999920221732032 0 0.028554986286904019 -0.03612011739040509 0 0.027651967118829782 -0.034999969029843196 0 0.027038774166442296 -0.036438224929227422 0 0.028698464751626646 -0.036036463844111015 0 0.027652539171299204 -0.035000459533486621 0 0.028554986286904019 -0.03612011739040509 0 0.027038774166442296 -0.036438224929227422 0 0.028052681367346753 -0.037367434003544302 0 0.026375614135536511 -0.035763808286472965 0 0.027038774166442296 -0.036438224929227422 0 0.025507934200969189 -0.03615554327383691 0 0.027038774166442296 -0.036438224929227422 0 0.026838894168273536 -0.037609225749775071 0 0.028052681367346753 -0.037367434003544302 0 0.027038774166442296 -0.036438224929227422 0 0.026838894168273536 -0.037609225749775071 0 0.025803289227343019 -0.037275873095872832 0 0.028956759672289705 -0.038375983925758195 0 0.028052681367346753 -0.037367434003544302 0 0.027510001684034991 -0.038383254633766441 0 0.026838894168273536 -0.037609225749775071 0 0.028052681367346753 -0.037367434003544302 0 0.027510001684034991 -0.038383254633766441 0 0.037154656952173036 -0.027699589180200344 0 0.035300283142366926 -0.027688008709503203 0 0.036185191260284834 -0.028598173560351162 0 0.033047603353153827 -0.033250564674160502 0 0.031414211442751194 -0.033125226237268081 0 0.035300283142366926 -0.027688008709503203 0 0.035236204193777189 -0.02838573182655324 0 0.036185191260284834 -0.028598173560351162 0 0.035300283142366926 -0.027688008709503203 0 0.035236204193777189 -0.02838573182655324 0 0.034136412305863492 -0.02780856031033423 0 0.031414211442751194 -0.033125226237268081 0 0.03024667523291763 -0.033301271976819674 0 0.035300283142366926 -0.027688008709503203 0 0.034136412305863492 -0.02780856031033423 0 0.033809977538111512 -0.027783078152215236 0 0.035236204193777189 -0.02838573182655324 0 0.034136412305863492 -0.02780856031033423 0 0.035393364417101635 -0.029450912892304785 0 0.026838894168273536 -0.037609225749775071 0 0.027510001684034991 -0.038383254633766441 0 0.026073595361145691 -0.038380642673507909 0 0.034136412305863492 -0.02780856031033423 0 0.034015753316080935 -0.028109263083459828 0 0.033956854459034874 -0.028116861158138846 0 0.034150302790516875 -0.027878920219883176 0 0.034975318321719365 -0.028894569126481331 0 0.034015753316080935 -0.028109263083459828 0 0.033958671948707282 -0.027976301339594438 0 0.034012693195909362 -0.027822990255943428 0 0.033367468710095362 -0.028284841755222299 0 0.033851907002238453 -0.028095620431106264 0 0.034015753316080935 -0.028109263083459828 0 0.033958671948707282 -0.027976301339594438 0 0.033956854459034874 -0.028116861158138846 0 0.034072513476088362 -0.028958305468185435 0 0.034012693195909362 -0.027822990255943428 0 0.034252023614290167 -0.027814501213271944 0 0.033958671948707282 -0.027976301339594438 0 0.03383530117325672 -0.027892011559371363 0 0.03392019514395072 -0.027863006744388477 0 0.033958671948707282 -0.027976301339594438 0 0.034012693195909362 -0.027822990255943428 0 0.03392019514395072 -0.027863006744388477 0 0.03383530117325672 -0.027892011559371363 0 0.033956854459034874 -0.028116861158138846 0 0.03351382939351702 -0.027805330146999648 0 0.034975318321719365 -0.028894569126481331 0 0.035392328018864716 -0.026057785573672193 0 0.033958671948707282 -0.027976301339594438 0 0.03383530117325672 -0.027892011559371363 0 0.033956854459034874 -0.028116861158138846 0 0.035393364417101635 -0.029450912892304785 0 0.036185191260284834 -0.028598173560351162 0 0.037247531505159304 -0.029531144320044202 0 0.035236204193777189 -0.02838573182655324 0 0.035393364417101635 -0.029450912892304785 0 0.036185191260284834 -0.028598173560351162 0 0.037154656952173036 -0.027699589180200344 0 0.036185191260284834 -0.028598173560351162 0 0.037247531505159304 -0.029531144320044202 0 0.037762558404272187 -0.027987311391604534 0 0.037299204194331283 -0.028480111348703617 0 0.037980032891989667 -0.027891251435822231 0 0.037802495452612411 -0.027950888597797555 0 0.03845986120532343 -0.02760654599847424 0 0.037980032891989667 -0.027891251435822231 0 0.03845986120532343 -0.02760654599847424 0 0.03802522560287596 -0.027609664734700813 0 0.037914759750738443 -0.027818833950247271 0 0.037980032891989667 -0.027891251435822231 0 0.03802522560287596 -0.027609664734700813 0 0.03845986120532343 -0.02760654599847424 0 0.03802522560287596 -0.027609664734700813 0 0.038136558112501197 -0.027037410019952787 0 0.035393364417101635 -0.029450912892304785 0 0.037247531505159304 -0.029531144320044202 0 0.03663110605295658 -0.031110390555348113 0 0.03845986120532343 -0.02760654599847424 0 0.038826714244415507 -0.026962452559968219 0 0.038136558112501197 -0.027037410019952787 0 0.037299204194331283 -0.028480111348703617 0 0.035392328018864716 -0.026057785573672193 0 0.035392328018864716 -0.026057785573672193 0 0.035727520720270828 -0.021929476936618505 0 0.038826714244415507 -0.026962452559968219 0 0.038136558112501197 -0.027037410019952787 0 0.038498670578786268 -0.026177079772970489 0 0.037934158488732578 -0.026317955834958218 0 0.038136558112501197 -0.027037410019952787 0 0.038498670578786268 -0.026177079772970489 0 0.033021474596598231 -0.017456614294239826 0 0.03364289866836051 -0.018209647833782188 0 0.032652645908928274 -0.018272833046605829 0 0.033609906629839023 -0.027202086087201257 0 0.033799902812975707 -0.027509895544251237 0 0.034042360944745706 -0.027177172262720244 0 0.03351382939351702 -0.027805330146999648 0 0.033609906629839023 -0.027202086087201257 0 0.033799902812975707 -0.027509895544251237 0 0.035392328018864716 -0.026057785573672193 0 0.033322463224094684 -0.022385163923015122 0 0.034042360944745706 -0.027177172262720244 0 0.033981522033128327 -0.027616546241614179 0 0.034252023614290167 -0.027814501213271944 0 0.033799902812975707 -0.027509895544251237 0 0.034042360944745706 -0.027177172262720244 0 0.033981522033128327 -0.027616546241614179 0 0.02926363991460524 -0.029307490082596144 0 0.029091442302828046 -0.030226219335710739 0 0.023557208097335715 -0.030845238612517943 0 0.02392020273312627 -0.032644177357724902 0 0.024284904832622588 -0.031865107754153743 0 0.033981522033128327 -0.027616546241614179 0 0.034012693195909362 -0.027822990255943428 0 0.033862455270257809 -0.027744930081294618 0 0.033799902812975707 -0.027509895544251237 0 0.033981522033128327 -0.027616546241614179 0 0.033862455270257809 -0.027744930081294618 0 0.033981522033128327 -0.027616546241614179 0 0.034012693195909362 -0.027822990255943428 0 0.034252023614290167 -0.027814501213271944 0 0.034012693195909362 -0.027822990255943428 0 0.03392019514395072 -0.027863006744388477 0 0.033862455270257809 -0.027744930081294618 0 0.03383530117325672 -0.027892011559371363 0 0.03392019514395072 -0.027863006744388477 0 0.033862455270257809 -0.027744930081294618 0 0.03351382939351702 -0.027805330146999648 0 0.033799902812975707 -0.027509895544251237 0 0.033862455270257809 -0.027744930081294618 0 0.03383530117325672 -0.027892011559371363 0 0.03351382939351702 -0.027805330146999648 0 0.033862455270257809 -0.027744930081294618 0 0.02522806112060327 -0.032106089872335555 0 0.025776569741722911 -0.032691285495232668 0 0.026235207706349063 -0.03303347985475584 0 0.025539752344104116 -0.031841418636196349 0 0.026315614977286288 -0.031920034671778993 0 0.026603756683754445 -0.032735069031703021 0 0.025045062939077652 -0.03248218858452219 0 0.022978657746301145 -0.034032286365772164 0 0.02522806112060327 -0.032106089872335555 0 0.025064830969654419 -0.032584881350449985 0 0.024674793324550345 -0.032115687430434213 0 0.02522806112060327 -0.032106089872335555 0 0.025776569741722911 -0.032691285495232668 0 0.025064830969654419 -0.032584881350449985 0 0.025539752344104116 -0.031841418636196349 0 0.026315614977286288 -0.031920034671778993 0 0.02602115994443148 -0.031328373421845392 0 0.025776569741722911 -0.032691285495232668 0 0.025255444049456236 -0.032989612499340501 0 0.025574088619992316 -0.033258919813529547 0 0.025776569741722911 -0.032691285495232668 0 0.025986848584173966 -0.033197724644572782 0 0.025574088619992316 -0.033258919813529547 0 0.025776569741722911 -0.032691285495232668 0 0.025255444049456236 -0.032989612499340501 0 0.025064830969654419 -0.032584881350449985 0 0.025255444049456236 -0.032989612499340501 0 0.025064830969654419 -0.032584881350449985 0 0.02484503225403752 -0.033007600594527266 0 0.02484503225403752 -0.033007600594527266 0 0.02445884755757936 -0.032997396994069061 0 0.024619077155503006 -0.032613953646445447 0 0.02445884755757936 -0.032997396994069061 0 0.024619077155503006 -0.032613953646445447 0 0.024368364491977976 -0.032421901648522822 0 0.025064830969654419 -0.032584881350449985 0 0.02484503225403752 -0.033007600594527266 0 0.024619077155503006 -0.032613953646445447 0 0.02445884755757936 -0.032997396994069061 0 0.02392020273312627 -0.032644177357724902 0 0.024368364491977976 -0.032421901648522822 0 0.02392020273312627 -0.032644177357724902 0 0.024368364491977976 -0.032421901648522822 0 0.024284904832622588 -0.031865107754153743 0 0.024368364491977976 -0.032421901648522822 0 0.024674793324550345 -0.032115687430434213 0 0.024284904832622588 -0.031865107754153743 0 0.025064830969654419 -0.032584881350449985 0 0.024619077155503006 -0.032613953646445447 0 0.024674793324550345 -0.032115687430434213 0 0.024619077155503006 -0.032613953646445447 0 0.024368364491977976 -0.032421901648522822 0 0.024674793324550345 -0.032115687430434213 0 0.02522806112060327 -0.032106089872335555 0 0.024674793324550345 -0.032115687430434213 0 0.024357732616772661 -0.031016803035093687 0 0.024357732616772661 -0.031016803035093687 0 0.025550508561518935 -0.03083791428823263 0 0.024890726045922525 -0.030263144860657072 0 0.025539752344104116 -0.031841418636196349 0 0.024357732616772661 -0.031016803035093687 0 0.025550508561518935 -0.03083791428823263 0 0.025045062939077652 -0.03248218858452219 0 0.024413190689671609 -0.031421572703683912 0 0.024674793324550345 -0.032115687430434213 0 0.024284904832622588 -0.031865107754153743 0 0.024357732616772661 -0.031016803035093687 0 0.023557208097335715 -0.030845238612517943 0 0.024284904832622588 -0.031865107754153743 0 0.024357732616772661 -0.031016803035093687 0 0.025550508561518935 -0.03083791428823263 0 0.02602115994443148 -0.031328373421845392 0 0.026659242089170324 -0.030855275479179396 0 0.025539752344104116 -0.031841418636196349 0 0.025550508561518935 -0.03083791428823263 0 0.02602115994443148 -0.031328373421845392 0 0.010542353717107742 -0.029442638102090097 0 0.011340674756225718 -0.029435002977489497 0 0.011579886686489587 -0.030638928206266861 0 0.026315614977286288 -0.031920034671778993 0 0.02602115994443148 -0.031328373421845392 0 0.026659242089170324 -0.030855275479179396 0 0.013448514294661519 -0.031532653031205865 0 0.012891414302702615 -0.029947563731253297 0 0.011340674756225718 -0.029435002977489497 0 0.011579886686489587 -0.030638928206266861 0 0.012214777903835119 -0.029119540045237792 0 0.012641287080793635 -0.030259457705956127 0 0.011626106582216748 -0.03078894146819253 0 0.012214777903835119 -0.029119540045237792 0 0.012641287080793635 -0.030259457705956127 0 0.012214777903835119 -0.029119540045237792 0 0.01287113057985928 -0.029076320850372095 0 0.011626106582216748 -0.03078894146819253 0 0.012309488965016975 -0.031964401996380863 0 0.010968552740923615 -0.032477426319532279 0 0.012641287080793635 -0.030259457705956127 0 0.013066599080863987 -0.031432333179268898 0 0.011626106582216748 -0.03078894146819253 0 0.013066599080863987 -0.031432333179268898 0 0.011626106582216748 -0.03078894146819253 0 0.012309488965016975 -0.031964401996380863 0 0.013066599080863987 -0.031432333179268898 0 0.012309488965016975 -0.031964401996380863 0 0.013086556282445328 -0.032377236167646851 0 0.018731033290467946 -0.029939037059039914 0 0.020848811134831596 -0.033772671695466799 0 0.013448514294661519 -0.031532653031205865 0 0.019339681093554464 -0.034230008609846166 0 0.011579886686489587 -0.030638928206266861 0 0.010784184171653406 -0.032132517620379664 0 0.010953601040674742 -0.032269394154576553 0 0.010542353717107742 -0.029442638102090097 0 0.011579886686489587 -0.030638928206266861 0 0.010784184171653406 -0.032132517620379664 0 0.026315614977286288 -0.031920034671778993 0 0.026659242089170324 -0.030855275479179396 0 0.026756573214606366 -0.03286757445163406 0 0.026315614977286288 -0.031920034671778993 0 0.026603756683754445 -0.032735069031703021 0 0.026756573214606366 -0.03286757445163406 0 0.023996358040267906 -0.034161051726252022 0 0.022978657746301145 -0.034032286365772164 0 0.025776569741722911 -0.032691285495232668 0 0.026310150384502205 -0.033034362262454993 0 0.025986848584173966 -0.033197724644572782 0 0.025986848584173966 -0.033197724644572782 0 0.026158094152388293 -0.033437159731534473 0 0.026293659087504175 -0.033262018540777628 0 0.026310150384502205 -0.033034362262454993 0 0.025986848584173966 -0.033197724644572782 0 0.026293659087504175 -0.033262018540777628 0 0.025986848584173966 -0.033197724644572782 0 0.026158094152388293 -0.033437159731534473 0 0.025822426740904215 -0.033622760891710811 0 0.026158094152388293 -0.033437159731534473 0 0.026532465953736172 -0.033544842869269162 0 0.026137616044223537 -0.033674834913262772 0 0.026158094152388293 -0.033437159731534473 0 0.026137616044223537 -0.033674834913262772 0 0.025822426740904215 -0.033622760891710811 0 0.026158094152388293 -0.033437159731534473 0 0.026532465953736172 -0.033544842869269162 0 0.026293659087504175 -0.033262018540777628 0 0.021105736474721033 -0.035570564035397989 0 0.020848811134831596 -0.033772671695466799 0 0.026532465953736172 -0.033544842869269162 0 0.026293659087504175 -0.033262018540777628 0 0.026487105520748615 -0.033172622166358391 0 0.021778561972111778 -0.034990715132599208 0 0.021660576062364406 -0.033302448082303947 0 0.022277502165529685 -0.033808426734450371 0 0.020848811134831596 -0.033772671695466799 0 0.019339681093554464 -0.034230008609846166 0 0.026310150384502205 -0.033034362262454993 0 0.026293659087504175 -0.033262018540777628 0 0.026487105520748615 -0.033172622166358391 0 0.022978657746301145 -0.034032286365772164 0 0.020848811134831596 -0.033772671695466799 0 0.021105736474721033 -0.035570564035397989 0 0.019339681093554464 -0.034230008609846166 0 0.019339681093554464 -0.034230008609846166 0 0.020859457868717096 -0.038260642448785812 0 0.023496733701559271 -0.042684117716184758 0 0.023191038134269797 -0.041745190223666483 0 0.022375699819409876 -0.041802892371134187 0 0.023617218403444426 -0.042402525703986539 0 0.023496733701559271 -0.042684117716184758 0 0.023191038134269797 -0.041745190223666483 0 0.026532465953736172 -0.033544842869269162 0 0.025993166212588518 -0.034118814889893684 0 0.026137616044223537 -0.033674834913262772 0 0.025993166212588518 -0.034118814889893684 0 0.026137616044223537 -0.033674834913262772 0 0.025822426740904215 -0.033622760891710811 0 0.010968552740923615 -0.032477426319532279 0 0.012648068487679437 -0.033389395339654238 0 0.012827316309158673 -0.033625698301000942 0 0.010968552740923615 -0.032477426319532279 0 0.01244546380062523 -0.032661749635536308 0 0.012648068487679437 -0.033389395339654238 0 0.019339681093554464 -0.034230008609846166 0 0.015532018661176575 -0.034540889908749345 0 0.018524686232782358 -0.035784152044146922 0 0.018460881786110567 -0.035808691142507038 0 0.018436195490483052 -0.035819718391657547 0 0.01244546380062523 -0.032661749635536308 0 0.013086556282445328 -0.032377236167646851 0 0.013210752035255163 -0.033148016997698683 0 0.012309488965016975 -0.031964401996380863 0 0.01244546380062523 -0.032661749635536308 0 0.013086556282445328 -0.032377236167646851 0 0.012309488965016975 -0.031964401996380863 0 0.010968552740923615 -0.032477426319532279 0 0.01244546380062523 -0.032661749635536308 0 0.01244546380062523 -0.032661749635536308 0 0.012648068487679437 -0.033389395339654238 0 0.013210752035255163 -0.033148016997698683 0 0.015361904377394802 -0.034378168525346871 0 0.015532018661176575 -0.034540889908749345 0 0.012648068487679437 -0.033389395339654238 0 0.012833595619668101 -0.033625083197917197 0 0.013210752035255163 -0.033148016997698683 0 0.022375699819409876 -0.041802892371134187 0 0.022286805600311318 -0.040298798789701842 0 0.021156940869078718 -0.040898676326487887 0 0.022375699819409876 -0.041802892371134187 0 0.022855706461219535 -0.04102234712191246 0 0.022286805600311318 -0.040298798789701842 0 0.018460881786110567 -0.035808691142507038 0 0.018436195490483052 -0.035819718391657547 0 0.018398119167596361 -0.035829719959229817 0 0.020859457868717096 -0.038260642448785812 0 0.017984943606656478 -0.036868704799794379 0 0.023191038134269797 -0.041745190223666483 0 0.022375699819409876 -0.041802892371134187 0 0.022855706461219535 -0.04102234712191246 0 0.022855706461219535 -0.04102234712191246 0 0.02356090345918746 -0.040390522286716989 0 0.022286805600311318 -0.040298798789701842 0 0.022286805600311318 -0.040298798789701842 0 0.021545171010233032 -0.04010748144949812 0 0.021156940869078718 -0.040898676326487887 0 0.021105736474721033 -0.035570564035397989 0 0.023440769413311104 -0.03923839133902151 0 0.023191038134269797 -0.041745190223666483 0 0.022855706461219535 -0.04102234712191246 0 0.02356090345918746 -0.040390522286716989 0 0.026532465953736172 -0.033544842869269162 0 0.025993166212588518 -0.034118814889893684 0 0.025755847818151191 -0.035248686209979743 0 0.023617218403444426 -0.042402525703986539 0 0.023191038134269797 -0.041745190223666483 0 0.02356090345918746 -0.040390522286716989 0 0.021105736474721033 -0.035570564035397989 0 0.024451835837703578 -0.035829510820916934 0 0.023931030473252863 -0.037850016766755139 0 0.023905524458629507 -0.037163175629233033 0 0.024219303470107627 -0.037261418765684604 0 0.025755847818151191 -0.035248686209979743 0 0.025212620651205917 -0.034917343987461547 0 0.025510635931291135 -0.03457211336612856 0 0.025755847818151191 -0.035248686209979743 0 0.024810498661262347 -0.0352926566265193 0 0.024741735818135994 -0.035720404253531492 0 0.024810498661262347 -0.0352926566265193 0 0.025212620651205917 -0.034917343987461547 0 0.024807445858235175 -0.034694184117525256 0 0.025755847818151191 -0.035248686209979743 0 0.024810498661262347 -0.0352926566265193 0 0.025212620651205917 -0.034917343987461547 0 0.025212620651205917 -0.034917343987461547 0 0.025097485585619059 -0.034485983208053905 0 0.025510635931291135 -0.03457211336612856 0 0.025212620651205917 -0.034917343987461547 0 0.024807445858235175 -0.034694184117525256 0 0.025097485585619059 -0.034485983208053905 0 0.024807445858235175 -0.034694184117525256 0 0.025097485585619059 -0.034485983208053905 0 0.024718146929585308 -0.034256986749330469 0 0.025993166212588518 -0.034118814889893684 0 0.025755847818151191 -0.035248686209979743 0 0.025510635931291135 -0.03457211336612856 0 0.025097485585619059 -0.034485983208053905 0 0.025510635931291135 -0.03457211336612856 0 0.025513333051635903 -0.034104218662931479 0 0.025993166212588518 -0.034118814889893684 0 0.025510635931291135 -0.03457211336612856 0 0.025513333051635903 -0.034104218662931479 0 0.025993166212588518 -0.034118814889893684 0 0.025513333051635903 -0.034104218662931479 0 0.025822426740904215 -0.033622760891710811 0 0.025513333051635903 -0.034104218662931479 0 0.025822426740904215 -0.033622760891710811 0 0.025459077414969868 -0.033651673587334618 0 0.025097485585619059 -0.034485983208053905 0 0.025513333051635903 -0.034104218662931479 0 0.025003457175279943 -0.033920393958015022 0 0.025097485585619059 -0.034485983208053905 0 0.025003457175279943 -0.033920393958015022 0 0.024718146929585308 -0.034256986749330469 0 0.025513333051635903 -0.034104218662931479 0 0.025003457175279943 -0.033920393958015022 0 0.025459077414969868 -0.033651673587334618 0 0.025003457175279943 -0.033920393958015022 0 0.025145848103107882 -0.033437731833156646 0 0.025459077414969868 -0.033651673587334618 0 0.025145848103107882 -0.033437731833156646 0 0.025574088619992316 -0.033258919813529547 0 0.025459077414969868 -0.033651673587334618 0 0.025003457175279943 -0.033920393958015022 0 0.025145848103107882 -0.033437731833156646 0 0.024708869521980443 -0.033450501922776321 0 0.02484503225403752 -0.033007600594527266 0 0.025145848103107882 -0.033437731833156646 0 0.024708869521980443 -0.033450501922776321 0 0.025255444049456236 -0.032989612499340501 0 0.02484503225403752 -0.033007600594527266 0 0.025145848103107882 -0.033437731833156646 0 0.025255444049456236 -0.032989612499340501 0 0.025145848103107882 -0.033437731833156646 0 0.025574088619992316 -0.033258919813529547 0 0.025986848584173966 -0.033197724644572782 0 0.025574088619992316 -0.033258919813529547 0 0.025822426740904215 -0.033622760891710811 0 0.025574088619992316 -0.033258919813529547 0 0.025822426740904215 -0.033622760891710811 0 0.025459077414969868 -0.033651673587334618 0 0.034072513476088362 -0.028958305468185435 0 0.034252023614290167 -0.027814501213271944 0 0.034524730711947706 -0.028958012446736608 0 0.029091442302828046 -0.030226219335710739 0 0.029254760386396336 -0.031787133211145006 0 0.02392020273312627 -0.032644177357724902 0 0.024502822456072073 -0.033630029490154006 0 0.024254553099930035 -0.034473969767954651 0 0.02445884755757936 -0.032997396994069061 0 0.02392020273312627 -0.032644177357724902 0 0.024502822456072073 -0.033630029490154006 0 0.02445884755757936 -0.032997396994069061 0 0.024708869521980443 -0.033450501922776321 0 0.024502822456072073 -0.033630029490154006 0 0.02484503225403752 -0.033007600594527266 0 0.02445884755757936 -0.032997396994069061 0 0.024708869521980443 -0.033450501922776321 0 0.025003457175279943 -0.033920393958015022 0 0.024502822456072073 -0.033630029490154006 0 0.024718146929585308 -0.034256986749330469 0 0.024502822456072073 -0.033630029490154006 0 0.024254553099930035 -0.034473969767954651 0 0.024718146929585308 -0.034256986749330469 0 0.025003457175279943 -0.033920393958015022 0 0.024708869521980443 -0.033450501922776321 0 0.024502822456072073 -0.033630029490154006 0 0.033367468710095362 -0.028284841755222299 0 0.03024667523291763 -0.033301271976819674 0 0.034072513476088362 -0.028958305468185435 0 0.034524730711947706 -0.028958012446736608 0 0.034258926110521566 -0.030165104671024252 0 0.029254760386396336 -0.031787133211145006 0 0.028421609185959578 -0.03366008236969012 0 0.024810498661262347 -0.0352926566265193 0 0.024254553099930035 -0.034473969767954651 0 0.024741735818135994 -0.035720404253531492 0 0.024810498661262347 -0.0352926566265193 0 0.024807445858235175 -0.034694184117525256 0 0.024254553099930035 -0.034473969767954651 0 0.024807445858235175 -0.034694184117525256 0 0.024254553099930035 -0.034473969767954651 0 0.024718146929585308 -0.034256986749330469 0 0.034524730711947706 -0.028958012446736608 0 0.034258926110521566 -0.030165104671024252 0 0.03486525437809844 -0.030172872179740236 0 0.034136412305863492 -0.02780856031033423 0 0.034015753316080935 -0.028109263083459828 0 0.033809977538111512 -0.027783078152215236 0 0.024254553099930035 -0.034473969767954651 0 0.024741735818135994 -0.035720404253531492 0 0.024574091103735003 -0.036291896308650984 0 0.03024667523291763 -0.033301271976819674 0 0.028421609185959578 -0.03366008236969012 0 0.025931441083974903 -0.038149680971164703 0 0.025204262544365499 -0.03815466791015866 0 0.025562305465266666 -0.03772580241234099 0 0.024219303470107627 -0.037261418765684604 0 0.024567558303917561 -0.036496859474255204 0 0.024127534060029539 -0.036788943034041698 0 0.024451835837703578 -0.035829510820916934 0 0.024582152145590348 -0.036355823389660889 0 0.025755847818151191 -0.035248686209979743 0 0.024684256455175177 -0.036283269118333933 0 0.024567558303917561 -0.036496859474255204 0 0.025755847818151191 -0.035248686209979743 0 0.024741735818135994 -0.035720404253531492 0 0.024684256455175177 -0.036283269118333933 0 0.024741735818135994 -0.035720404253531492 0 0.024684256455175177 -0.036283269118333933 0 0.024574091103735003 -0.036291896308650984 0 0.028272460123150957 -0.033688294362388009 0 0.028421609185959578 -0.03366008236969012 0 0.024684256455175177 -0.036283269118333933 0 0.024664938318573002 -0.036451064807593282 0 0.024567558303917561 -0.036496859474255204 0 0.024664938318573002 -0.036451064807593282 0 0.024567558303917561 -0.036496859474255204 0 0.024362007392774467 -0.036326992807580637 0 0.028421609185959578 -0.03366008236969012 0 0.025173228207327158 -0.036533874524298036 0 0.025204262544365499 -0.03815466791015866 0 0.025562305465266666 -0.03772580241234099 0 0.024693295405317915 -0.036835844080703666 0 0.02422662776165049 -0.036506382328372951 0 0.024567558303917561 -0.036496859474255204 0 0.024362007392774467 -0.036326992807580637 0 0.02422662776165049 -0.036506382328372951 0 0.024567558303917561 -0.036496859474255204 0 0.024127534060029539 -0.036788943034041698 0 0.025711975668699934 -0.037184552000323674 0 0.025562305465266666 -0.03772580241234099 0 0.024693295405317915 -0.036835844080703666 0 0.026838894168273536 -0.037609225749775071 0 0.026073595361145691 -0.038380642673507909 0 0.025803289227343019 -0.037275873095872832 0 0.03024667523291763 -0.033301271976819674 0 0.027218890253126318 -0.036897758574374724 0 0.025931441083974903 -0.038149680971164703 0 0.025711975668699934 -0.037184552000323674 0 0.025562305465266666 -0.03772580241234099 0 0.027038774166442296 -0.036438224929227422 0 0.025803289227343019 -0.037275873095872832 0 0.025507934200969189 -0.03615554327383691 0 0.025711975668699934 -0.037184552000323674 0 0.025507934200969189 -0.03615554327383691 0 0.024693295405317915 -0.036835844080703666 0 0.027218890253126318 -0.036897758574374724 0 0.026331758771250272 -0.036346129710076121 0 0.025173228207327158 -0.036533874524298036 0 0.024309705171198018 -0.035481334407179863 0 0.024693295405317915 -0.036835844080703666 0 0.024775408307381806 -0.035960436279142194 0 0.024060493707543148 -0.035328950313347755 0 0.025507934200969189 -0.03615554327383691 0 0.024693295405317915 -0.036835844080703666 0 0.024775408307381806 -0.035960436279142194 0 0.025507934200969189 -0.03615554327383691 0 0.024823964216225985 -0.035515932507151633 0 0.024775408307381806 -0.035960436279142194 0 0.024823964216225985 -0.035515932507151633 0 0.025821247763655384 -0.034999920221732032 0 0.023990497162146095 -0.035000061800231283 0 0.024823964216225985 -0.035515932507151633 0 0.024775408307381806 -0.035960436279142194 0 0.024060493707543148 -0.035328950313347755 0 0.024823964216225985 -0.035515932507151633 0 0.024060493707543148 -0.035328950313347755 0 0.023990497162146095 -0.035000061800231283 0 0.026375614135536511 -0.035763808286472965 0 0.025507934200969189 -0.03615554327383691 0 0.025821247763655384 -0.034999920221732032 0 0.025507934200969189 -0.03615554327383691 0 0.024823964216225985 -0.035515932507151633 0 0.025821247763655384 -0.034999920221732032 0 0.022312216676594589 -0.035857384848750118 0 0.022159414412269575 -0.034999615756982329 0 0.023379973104136368 -0.03589346381362063 0 0.022312216676594589 -0.035857384848750118 0 0.022159414412269575 -0.034999615756982329 0 0.021440813134753833 -0.035750641403222573 0 0.022159414412269575 -0.034999615756982329 0 0.023990497162146095 -0.035000061800231283 0 0.023379973104136368 -0.03589346381362063 0 0.024060493707543148 -0.035328950313347755 0 0.023990497162146095 -0.035000061800231283 0 0.023379973104136368 -0.03589346381362063 0 0.023470434698784223 -0.036154637880707906 0 0.023572083702172026 -0.037234629120495716 0 0.024362007392774467 -0.036326992807580637 0 0.024060493707543148 -0.035328950313347755 0 0.023379973104136368 -0.03589346381362063 0 0.024362007392774467 -0.036326992807580637 0 0.023379973104136368 -0.03589346381362063 0 0.023824561623215744 -0.036511736068463023 0 0.023379973104136368 -0.03589346381362063 0 0.022276629114922845 -0.037044054728268223 0 0.023515688859277788 -0.038152057907601289 0 0.022312216676594589 -0.035857384848750118 0 0.023379973104136368 -0.03589346381362063 0 0.022276629114922845 -0.037044054728268223 0 0.022312216676594589 -0.035857384848750118 0 0.022276629114922845 -0.037044054728268223 0 0.021440813134753833 -0.035750641403222573 0 0.022276629114922845 -0.037044054728268223 0 0.021657996347013122 -0.037988695934563013 0 0.023515688859277788 -0.038152057907601289 0 0.021657996347013122 -0.037988695934563013 0 0.023515688859277788 -0.038152057907601289 0 0.021829740066687212 -0.03908895798284362 0 0.02422662776165049 -0.036506382328372951 0 0.024362007392774467 -0.036326992807580637 0 0.023824561623215744 -0.036511736068463023 0 0.02422662776165049 -0.036506382328372951 0 0.023824561623215744 -0.036511736068463023 0 0.024127534060029539 -0.036788943034041698 0 0.023440769413311104 -0.03923839133902151 0 0.023572083702172026 -0.037234629120495716 0 0.023905524458629507 -0.037163175629233033 0 0.023824561623215744 -0.036511736068463023 0 0.024127534060029539 -0.036788943034041698 0 0.02356090345918746 -0.040390522286716989 0 0.023515688859277788 -0.038152057907601289 0 0.022286805600311318 -0.040298798789701842 0 0.023905524458629507 -0.037163175629233033 0 0.024219303470107627 -0.037261418765684604 0 0.024127534060029539 -0.036788943034041698 0 0.023515688859277788 -0.038152057907601289 0 0.021829740066687212 -0.03908895798284362 0 0.022286805600311318 -0.040298798789701842 0 0.021829740066687212 -0.03908895798284362 0 0.022286805600311318 -0.040298798789701842 0 0.021545171010233032 -0.04010748144949812 0 0.016095622783744257 -0.0352836068802257 0 0.017984943606656478 -0.036868704799794379 0 0.018145251750275961 -0.037490312104171017 0 0.017984943606656478 -0.036868704799794379 0 0.020943131610649961 -0.039810398458973689 0 0.019863680828492453 -0.039466001674219854 0 0.021156940869078718 -0.040898676326487887 0 0.021545171010233032 -0.04010748144949812 0 0.020943131610649961 -0.039810398458973689 0 0.021156940869078718 -0.040898676326487887 0 0.016322404852484713 -0.035446005952459184 0 0.016293674965814402 -0.035467758828000233 0 0.016307579999672285 -0.035432426318600239 0 0.021829740066687212 -0.03908895798284362 0 0.021545171010233032 -0.04010748144949812 0 0.020943131610649961 -0.039810398458973689 0 0.020943131610649961 -0.039810398458973689 0 0.020451304937832426 -0.039249773972389677 0 0.020785781422560309 -0.038735574695628779 0 0.020943131610649961 -0.039810398458973689 0 0.020451304937832426 -0.039249773972389677 0 0.019863680828492453 -0.039466001674219854 0 0.020215625285251018 -0.038976277985169255 0 0.020451304937832426 -0.039249773972389677 0 0.019863680828492453 -0.039466001674219854 0 0.020215625285251018 -0.038976277985169255 0 0.020451304937832426 -0.039249773972389677 0 0.020785781422560309 -0.038735574695628779 0 0.021829740066687212 -0.03908895798284362 0 0.020943131610649961 -0.039810398458973689 0 0.020785781422560309 -0.038735574695628779 0 0.016206763351283696 -0.035349310476928082 0 0.015493117167985628 -0.034920411816159798 0 0.016322404852484713 -0.035446005952459184 0 0.016441288012972594 -0.035397261524085732 0 0.016295687177022632 -0.035395409644614365 0 0.016441288012972594 -0.035397261524085732 0 0.015734868732910579 -0.034562609513906224 0 0.014761400216778103 -0.034737545839433816 0 0.016293674965814402 -0.035467758828000233 0 0.016358733176203375 -0.035486800822416301 0 0.016406570440793244 -0.035555564967416416 0 0.016322404852484713 -0.035446005952459184 0 0.016293674965814402 -0.035467758828000233 0 0.016358733176203375 -0.035486800822416301 0 0.016322404852484713 -0.035446005952459184 0 0.016358733176203375 -0.035486800822416301 0 0.016441288012972594 -0.035397261524085732 0 0.016358733176203375 -0.035486800822416301 0 0.016406570440793244 -0.035555564967416416 0 0.016441288012972594 -0.035397261524085732 0 0.016293674965814402 -0.035467758828000233 0 0.016406570440793244 -0.035555564967416416 0 0.016515462608421176 -0.035696205198584109 0 0.019863680828492453 -0.039466001674219854 0 0.019684182819807178 -0.038331883357152832 0 0.018222174184949161 -0.037785614561211454 0 0.018145251750275961 -0.037490312104171017 0 0.017361457760368692 -0.036594528709597174 0 0.020215625285251018 -0.038976277985169255 0 0.019863680828492453 -0.039466001674219854 0 0.019684182819807178 -0.038331883357152832 0 0.019684182819807178 -0.038331883357152832 0 0.01958339916798503 -0.037407838770876119 0 0.018222174184949161 -0.037785614561211454 0 0.021657996347013122 -0.037988695934563013 0 0.021829740066687212 -0.03908895798284362 0 0.020785781422560309 -0.038735574695628779 0 0.020215625285251018 -0.038976277985169255 0 0.019684182819807178 -0.038331883357152832 0 0.020785781422560309 -0.038735574695628779 0 0.019684182819807178 -0.038331883357152832 0 0.020785781422560309 -0.038735574695628779 0 0.020702346948877792 -0.037624741783776942 0 0.019684182819807178 -0.038331883357152832 0 0.01958339916798503 -0.037407838770876119 0 0.020702346948877792 -0.037624741783776942 0 0.022276629114922845 -0.037044054728268223 0 0.021657996347013122 -0.037988695934563013 0 0.020702346948877792 -0.037624741783776942 0 0.021657996347013122 -0.037988695934563013 0 0.020785781422560309 -0.038735574695628779 0 0.020702346948877792 -0.037624741783776942 0 0.020684923926857647 -0.036696726505635061 0 0.019287138283231621 -0.036401564355707884 0 0.021440813134753833 -0.035750641403222573 0 0.022276629114922845 -0.037044054728268223 0 0.020702346948877792 -0.037624741783776942 0 0.020684923926857647 -0.036696726505635061 0 0.022276629114922845 -0.037044054728268223 0 0.020684923926857647 -0.036696726505635061 0 0.021440813134753833 -0.035750641403222573 0 0.01958339916798503 -0.037407838770876119 0 0.020702346948877792 -0.037624741783776942 0 0.020684923926857647 -0.036696726505635061 0 0.01958339916798503 -0.037407838770876119 0 0.018222174184949161 -0.037785614561211454 0 0.019287138283231621 -0.036401564355707884 0 0.019287138283231621 -0.036401564355707884 0 0.017774449455153433 -0.034909645266857699 0 0.021440813134753833 -0.035750641403222573 0 0.01958339916798503 -0.037407838770876119 0 0.020684923926857647 -0.036696726505635061 0 0.019287138283231621 -0.036401564355707884 0 0.018222174184949161 -0.037785614561211454 0 0.017953425445547073 -0.036125241540102465 0 0.019287138283231621 -0.036401564355707884 0 0.017953425445547073 -0.036125241540102465 0 0.019287138283231621 -0.036401564355707884 0 0.017774449455153433 -0.034909645266857699 0 0.02032865898909372 -0.034999972212006715 0 0.019725390616777198 -0.035822658695373599 0 0.021440813134753833 -0.035750641403222573 0 0.018818221726748827 -0.035437682198910636 0 0.020876959018717244 -0.035631067806851109 0 0.022159414412269575 -0.034999615756982329 0 0.02032865898909372 -0.034999972212006715 0 0.021440813134753833 -0.035750641403222573 0 0.016665820835141169 -0.034999407640107519 0 0.018498301003373987 -0.035000130316240149 0 0.01781650885588313 -0.035755401942735757 0 0.017774449455153433 -0.034909645266857699 0 0.015521110715549673 -0.034959022782193087 0 0.016397059012818131 -0.035308211354777949 0 0.019725390616777198 -0.035822658695373599 0 0.018498301003373987 -0.035000130316240149 0 0.01781650885588313 -0.035755401942735757 0 0.018818221726748827 -0.035437682198910636 0 0.016780890015396472 -0.03534889350932361 0 0.02032865898909372 -0.034999972212006715 0 0.019725390616777198 -0.035822658695373599 0 0.018498301003373987 -0.035000130316240149 0 0.017361457760368692 -0.036594528709597174 0 0.016770227095163539 -0.035771389786727052 0 0.018222174184949161 -0.037785614561211454 0 0.017953425445547073 -0.036125241540102465 0 0.016596323020621053 -0.035423860770086718 0 0.016288706067615191 -0.035295994907241869 0 0.016207131589188181 -0.035376141248541007 0 0.017774449455153433 -0.034909645266857699 0 0.016397059012818131 -0.035308211354777949 0 0.016596323020621053 -0.035423860770086718 0 0.016397059012818131 -0.035308211354777949 0 0.016596323020621053 -0.035423860770086718 0 0.01656026203301322 -0.035566486059237505 0 0.016515462608421176 -0.035696205198584109 0 0.016596323020621053 -0.035423860770086718 0 0.01656026203301322 -0.035566486059237505 0 0.016397059012818131 -0.035308211354777949 0 0.015869681428802903 -0.035276226478611589 0 0.015782360377441993 -0.03525467437441647 0 0.016397059012818131 -0.035308211354777949 0 0.01656026203301322 -0.035566486059237505 0 0.016589533604595925 -0.035783633205326307 0 0.017953425445547073 -0.036125241540102465 0 0.017774449455153433 -0.034909645266857699 0 0.016596323020621053 -0.035423860770086718 0 0.015521110715549673 -0.034959022782193087 0 0.016397059012818131 -0.035308211354777949 0 0.015779035197538215 -0.035222705961482817 0 0.016397059012818131 -0.035308211354777949 0 0.015869681428802903 -0.035276226478611589 0 0.015779035197538215 -0.035222705961482817 0 0.015606353722115109 -0.035121453873122328 0 0.015521110715549673 -0.034959022782193087 0 0.015779035197538215 -0.035222705961482817 0 0.015606353722115109 -0.035121453873122328 0 0.015779035197538215 -0.035222705961482817 0 0.01569694465289298 -0.035187262534780488 0 0.015869681428802903 -0.035276226478611589 0 0.015779035197538215 -0.035222705961482817 0 0.01569694465289298 -0.035187262534780488 0 0.015869681428802903 -0.035276226478611589 0 0.01569694465289298 -0.035187262534780488 0 0.015750953246067442 -0.035211677388967945 0 0.015869681428802903 -0.035276226478611589 0 0.015750953246067442 -0.035211677388967945 0 0.015782360377441993 -0.03525467437441647 0 0.015750953246067442 -0.035211677388967945 0 0.015782360377441993 -0.03525467437441647 0 0.015733784656392698 -0.035245104218676909 0 0.016406570440793244 -0.035555564967416416 0 0.016515462608421176 -0.035696205198584109 0 0.016589533604595925 -0.035783633205326307 0 0.016406570440793244 -0.035555564967416416 0 0.016589533604595925 -0.035783633205326307 0 0.016441288012972594 -0.035397261524085732 0 0.016515462608421176 -0.035696205198584109 0 0.01656026203301322 -0.035566486059237505 0 0.016589533604595925 -0.035783633205326307 0 0.016207131589188181 -0.035376141248541007 0 0.016004432296698266 -0.035163317695398162 0 0.015782360377441993 -0.03525467437441647 0 0.015733784656392698 -0.035245104218676909 0 0.015733053170136565 -0.035257744502846751 0 0.016589533604595925 -0.035783633205326307 0 0.016441288012972594 -0.035397261524085732 0 0.016663258011912919 -0.034743127067381231 0 0.016441288012972594 -0.035397261524085732 0 0.016663258011912919 -0.034743127067381231 0 0.015734868732910579 -0.034562609513906224 0 0.015683409916174208 -0.035203750360188017 0 0.015750953246067442 -0.035211677388967945 0 0.015733784656392698 -0.035245104218676909 0 0.015623264581135934 -0.035276010162112938 0 0.015733784656392698 -0.035245104218676909 0 0.015727903063077531 -0.0352647543936664 0 0.014867568612169167 -0.034270575539131105 0 0.014466453974992577 -0.033524905770300296 0 0.015733784656392698 -0.035245104218676909 0 0.015727903063077531 -0.0352647543936664 0 0.015733053170136565 -0.035257744502846751 0 0.012938832080445743 -0.031835368836572613 0 0.012083325671130046 -0.030537998067000267 0 0.013215722885250934 -0.030382754752561657 0 0.014210004166146581 -0.031544653374245273 0 0.012938832080445743 -0.031835368836572613 0 0.013215722885250934 -0.030382754752561657 0 0.014120847241873732 -0.032078553774103902 0 0.016004432296698266 -0.035163317695398162 0 0.014466453974992577 -0.033524905770300296 0 0.014120847241873732 -0.032078553774103902 0 0.015727903063077531 -0.0352647543936664 0 0.015707307113191449 -0.035218643472229839 0 0.015733053170136565 -0.035257744502846751 0 0.016531376682403072 -0.032517819538603207 0 0.016663258011912919 -0.034743127067381231 0 0.015761332100801016 -0.03373807393523999 0 0.016663258011912919 -0.034743127067381231 0 0.015734868732910579 -0.034562609513906224 0 0.015761332100801016 -0.03373807393523999 0 0.015734868732910579 -0.034562609513906224 0 0.014761400216778103 -0.034737545839433816 0 0.015008225184210527 -0.033933212936858533 0 0.015734868732910579 -0.034562609513906224 0 0.015008225184210527 -0.033933212936858533 0 0.015761332100801016 -0.03373807393523999 0 0.015532018661176575 -0.034540889908749345 0 0.015493117167985628 -0.034920411816159798 0 0.012833595619668101 -0.033625083197917197 0 0.014761400216778103 -0.034737545839433816 0 0.014121264561935182 -0.033683136422275793 0 0.016322404852484713 -0.035446005952459184 0 0.016295687177022632 -0.035395409644614365 0 0.01623581432893122 -0.035378441967127798 0 0.016199654499393673 -0.035322487558147486 0 0.016295687177022632 -0.035395409644614365 0 0.01623581432893122 -0.035378441967127798 0 0.014761400216778103 -0.034737545839433816 0 0.015008225184210527 -0.033933212936858533 0 0.014121264561935182 -0.033683136422275793 0 0.015532018661176575 -0.034540889908749345 0 0.017984943606656478 -0.036868704799794379 0 0.014121264561935182 -0.033683136422275793 0 0.013210752035255163 -0.033148016997698683 0 0.013990633868951203 -0.032367471964513166 0 0.012833595619668101 -0.033625083197917197 0 0.014121264561935182 -0.033683136422275793 0 0.013210752035255163 -0.033148016997698683 0 0.014121264561935182 -0.033683136422275793 0 0.013990633868951203 -0.032367471964513166 0 0.01511724270759879 -0.032787544464132713 0 0.013086556282445328 -0.032377236167646851 0 0.013210752035255163 -0.033148016997698683 0 0.013990633868951203 -0.032367471964513166 0 0.016531376682403072 -0.032517819538603207 0 0.015761332100801016 -0.03373807393523999 0 0.01511724270759879 -0.032787544464132713 0 0.015008225184210527 -0.033933212936858533 0 0.015761332100801016 -0.03373807393523999 0 0.01511724270759879 -0.032787544464132713 0 0.015008225184210527 -0.033933212936858533 0 0.014121264561935182 -0.033683136422275793 0 0.01511724270759879 -0.032787544464132713 0 0.012290643602853188 -0.029909263635638082 0 0.011685321118730165 -0.02913523815045458 0 0.01222477540396953 -0.029342857683269857 0 0.014120847241873732 -0.032078553774103902 0 0.013161757739095238 -0.030015149335685391 0 0.013990633868951203 -0.032367471964513166 0 0.01511724270759879 -0.032787544464132713 0 0.014787274897862862 -0.030823124092985696 0 0.016531376682403072 -0.032517819538603207 0 0.01511724270759879 -0.032787544464132713 0 0.014787274897862862 -0.030823124092985696 0 0.012641287080793635 -0.030259457705956127 0 0.013066599080863987 -0.031432333179268898 0 0.014787274897862862 -0.030823124092985696 0 0.013066599080863987 -0.031432333179268898 0 0.013990633868951203 -0.032367471964513166 0 0.014787274897862862 -0.030823124092985696 0 0.013066599080863987 -0.031432333179268898 0 0.013086556282445328 -0.032377236167646851 0 0.013990633868951203 -0.032367471964513166 0 0.011685321118730165 -0.02913523815045458 0 0.011604262751104343 -0.028461461068801288 0 0.01116615285400659 -0.028167344501360204 0 0.012641287080793635 -0.030259457705956127 0 0.014787274897862862 -0.030823124092985696 0 0.01287113057985928 -0.029076320850372095 0 0.013161757739095238 -0.030015149335685391 0 0.012013862614836465 -0.028695183821404086 0 0.011685321118730165 -0.02913523815045458 0 0.011604262751104343 -0.028461461068801288 0 0.012203432020777534 -0.028555880859484597 0 0.011685321118730165 -0.02913523815045458 0 0.012203432020777534 -0.028555880859484597 0 0.01222477540396953 -0.029342857683269857 0 0.012203432020777534 -0.028555880859484597 0 0.012860124733852819 -0.028446351498876279 0 0.01222477540396953 -0.029342857683269857 0 0.012860124733852819 -0.028446351498876279 0 0.012909648101648311 -0.029454190941503453 0 0.01222477540396953 -0.029342857683269857 0 0.013686743921845103 -0.029169448754831406 0 0.012860124733852819 -0.028446351498876279 0 0.012909648101648311 -0.029454190941503453 0 0.013686743921845103 -0.029169448754831406 0 0.012860124733852819 -0.028446351498876279 0 0.013602373659854191 -0.027654715071283757 0 0.012083325671130046 -0.030537998067000267 0 0.013215722885250934 -0.030382754752561657 0 0.012909648101648311 -0.029454190941503453 0 0.013686743921845103 -0.029169448754831406 0 0.013215722885250934 -0.030382754752561657 0 0.012909648101648311 -0.029454190941503453 0 0.012083325671130046 -0.030537998067000267 0 0.012909648101648311 -0.029454190941503453 0 0.01222477540396953 -0.029342857683269857 0 0.014120847241873732 -0.032078553774103902 0 0.013112104888026149 -0.029710326667919465 0 0.012627715146893559 -0.027436393854659926 0 0.013602373659854191 -0.027654715071283757 0 0.013382139350113917 -0.026614332256958775 0 0.012860124733852819 -0.028446351498876279 0 0.012627715146893559 -0.027436393854659926 0 0.013602373659854191 -0.027654715071283757 0 0.012203432020777534 -0.028555880859484597 0 0.012860124733852819 -0.028446351498876279 0 0.012627715146893559 -0.027436393854659926 0 0.011604262751104343 -0.028461461068801288 0 0.012203432020777534 -0.028555880859484597 0 0.011869061913826147 -0.02802126521825455 0 0.012203432020777534 -0.028555880859484597 0 0.012627715146893559 -0.027436393854659926 0 0.011869061913826147 -0.02802126521825455 0 0.011604262751104343 -0.028461461068801288 0 0.011463306305316643 -0.028038309905512548 0 0.01116615285400659 -0.028167344501360204 0 0.011463306305316643 -0.028038309905512548 0 0.011210464532633182 -0.027797821680203897 0 0.01116615285400659 -0.028167344501360204 0 0.011604262751104343 -0.028461461068801288 0 0.011869061913826147 -0.02802126521825455 0 0.011463306305316643 -0.028038309905512548 0 0.011869061913826147 -0.02802126521825455 0 0.011463306305316643 -0.028038309905512548 0 0.011505033499889699 -0.027665300608278987 0 0.011869061913826147 -0.02802126521825455 0 0.011505033499889699 -0.027665300608278987 0 0.01191550605210741 -0.027369591545412519 0 0.011463306305316643 -0.028038309905512548 0 0.011505033499889699 -0.027665300608278987 0 0.011210464532633182 -0.027797821680203897 0 0.011505033499889699 -0.027665300608278987 0 0.01191550605210741 -0.027369591545412519 0 0.01145961317675518 -0.027049682783980872 0 0.011505033499889699 -0.027665300608278987 0 0.01145961317675518 -0.027049682783980872 0 0.011179900935133531 -0.027512022216049481 0 0.011505033499889699 -0.027665300608278987 0 0.011179900935133531 -0.027512022216049481 0 0.011210464532633182 -0.027797821680203897 0 0.012627715146893559 -0.027436393854659926 0 0.011869061913826147 -0.02802126521825455 0 0.01191550605210741 -0.027369591545412519 0 0.012627715146893559 -0.027436393854659926 0 0.01191550605210741 -0.027369591545412519 0 0.012164866801061868 -0.026686288866582721 0 0.01191550605210741 -0.027369591545412519 0 0.012164866801061868 -0.026686288866582721 0 0.01145961317675518 -0.027049682783980872 0 0.012164866801061868 -0.026686288866582721 0 0.012474608919329812 -0.025957999200998637 0 0.012842835507287279 -0.026483377884334559 0 0.011503276967829941 -0.026836063114834916 0 0.011641593021284289 -0.026045209520234255 0 0.01145961317675518 -0.027049682783980872 0 0.011579827179988312 -0.026210889162804809 0 0.011084720903304231 -0.026776289742214476 0 0.012164866801061868 -0.026686288866582721 0 0.01145961317675518 -0.027049682783980872 0 0.011389465846790207 -0.025812706496694014 0 0.012164866801061868 -0.026686288866582721 0 0.011389465846790207 -0.025812706496694014 0 0.012474608919329812 -0.025957999200998637 0 0.011389465846790207 -0.025812706496694014 0 0.012474608919329812 -0.025957999200998637 0 0.012291840615947883 -0.025259068668891719 0 0.012474608919329812 -0.025957999200998637 0 0.013285679989618191 -0.025869175559994049 0 0.012842835507287279 -0.026483377884334559 0 0.012474608919329812 -0.025957999200998637 0 0.013285679989618191 -0.025869175559994049 0 0.012291840615947883 -0.025259068668891719 0 0.012627715146893559 -0.027436393854659926 0 0.012164866801061868 -0.026686288866582721 0 0.012842835507287279 -0.026483377884334559 0 0.012627715146893559 -0.027436393854659926 0 0.012842835507287279 -0.026483377884334559 0 0.013382139350113917 -0.026614332256958775 0 0.013285679989618191 -0.025869175559994049 0 0.012842835507287279 -0.026483377884334559 0 0.013382139350113917 -0.026614332256958775 0 0.013753519995285811 -0.025970963603382836 0 0.013285679989618191 -0.025869175559994049 0 0.013382139350113917 -0.026614332256958775 0 0.013753519995285811 -0.025970963603382836 0 0.013285679989618191 -0.025869175559994049 0 0.013580023107148067 -0.025625250156412437 0 0.013285679989618191 -0.025869175559994049 0 0.013580023107148067 -0.025625250156412437 0 0.013418481431700113 -0.025528074868482822 0 0.013285679989618191 -0.025869175559994049 0 0.013418481431700113 -0.025528074868482822 0 0.013361024143742099 -0.025502943805421188 0 0.013270225870793089 -0.025760088655310306 0 0.012855687666035896 -0.025331429461748448 0 0.013418481431700113 -0.025528074868482822 0 0.013417776849239548 -0.02541718023443186 0 0.013361024143742099 -0.025502943805421188 0 0.013418481431700113 -0.025528074868482822 0 0.013417776849239548 -0.02541718023443186 0 0.013494946265748799 -0.025294891735342061 0 0.013580023107148067 -0.025625250156412437 0 0.013418481431700113 -0.025528074868482822 0 0.013494946265748799 -0.025294891735342061 0 0.013580023107148067 -0.025625250156412437 0 0.013570282401404607 -0.025267837850408432 0 0.013580059867806389 -0.025350241006438276 0 0.013570282401404607 -0.025267837850408432 0 0.013580059867806389 -0.025350241006438276 0 0.013638303591883503 -0.025259480314859587 0 0.013417776849239548 -0.02541718023443186 0 0.013494946265748799 -0.025294891735342061 0 0.01344664333606033 -0.025319414987644298 0 0.013602775255064439 -0.025555927357360286 0 0.013541981649493997 -0.02530936849529055 0 0.013854349738441062 -0.025484769108235765 0 0.013580023107148067 -0.025625250156412437 0 0.013580059867806389 -0.025350241006438276 0 0.013719638020654465 -0.02526970543256106 0 0.013580059867806389 -0.025350241006438276 0 0.013638303591883503 -0.025259480314859587 0 0.013757360073097191 -0.025384542848586364 0 0.013599528914868439 -0.025353593153189573 0 0.013719638020654465 -0.02526970543256106 0 0.013680856947504316 -0.025212222256367153 0 0.013638303591883503 -0.025259480314859587 0 0.013680856947504316 -0.025212222256367153 0 0.013638303591883503 -0.025259480314859587 0 0.013631364435811703 -0.025198456901283004 0 0.013541981649493997 -0.02530936849529055 0 0.013555539205042938 -0.025160543561187521 0 0.013570282401404607 -0.025267837850408432 0 0.013631364435811703 -0.025198456901283004 0 0.013615686046054514 -0.025169727211120447 0 0.013570282401404607 -0.025267837850408432 0 0.013638303591883503 -0.025259480314859587 0 0.013631364435811703 -0.025198456901283004 0 0.013494946265748799 -0.025294891735342061 0 0.013467777369203097 -0.025241307329679427 0 0.01344664333606033 -0.025319414987644298 0 0.013631364435811703 -0.025198456901283004 0 0.013679136045684335 -0.025156724458049614 0 0.013615686046054514 -0.025169727211120447 0 0.013680856947504316 -0.025212222256367153 0 0.013631364435811703 -0.025198456901283004 0 0.013679136045684335 -0.025156724458049614 0 0.013715770789508499 -0.025169715230155081 0 0.013680856947504316 -0.025212222256367153 0 0.013679136045684335 -0.025156724458049614 0 0.01354075694877935 -0.025133307426871167 0 0.013480808208254839 -0.025173130619800449 0 0.013495351326906161 -0.025127015631244778 0 0.01354075694877935 -0.025133307426871167 0 0.013495351326906161 -0.025127015631244778 0 0.013578581016127106 -0.025122065486683939 0 0.013495351326906161 -0.025127015631244778 0 0.013578581016127106 -0.025122065486683939 0 0.013576898838225208 -0.025103644350163379 0 0.01354075694877935 -0.025133307426871167 0 0.013578581016127106 -0.025122065486683939 0 0.013615971039704806 -0.02512277120293022 0 0.01354075694877935 -0.025133307426871167 0 0.013511094168357657 -0.025146601907607292 0 0.013480808208254839 -0.025173130619800449 0 0.013480808208254839 -0.025173130619800449 0 0.013449388326569204 -0.025237085566616538 0 0.013451274007802048 -0.025205491170458717 0 0.013494946265748799 -0.025294891735342061 0 0.013511094168357657 -0.025146601907607292 0 0.013467777369203097 -0.025241307329679427 0 0.013480808208254839 -0.025173130619800449 0 0.013467777369203097 -0.025241307329679427 0 0.013449388326569204 -0.025237085566616538 0 0.013511094168357657 -0.025146601907607292 0 0.013480808208254839 -0.025173130619800449 0 0.013467777369203097 -0.025241307329679427 0 0.013467777369203097 -0.025241307329679427 0 0.01344664333606033 -0.025319414987644298 0 0.013427920972289616 -0.025303764646557977 0 0.013467777369203097 -0.025241307329679427 0 0.013449388326569204 -0.025237085566616538 0 0.013427920972289616 -0.025303764646557977 0 0.013449388326569204 -0.025237085566616538 0 0.013418526842982982 -0.025275895578012967 0 0.013427920972289616 -0.025303764646557977 0 0.013418526842982982 -0.025275895578012967 0 0.013417172799664756 -0.025242823939284058 0 0.013394713560045428 -0.025286531189956309 0 0.013417172799664756 -0.025242823939284058 0 0.013398684999767983 -0.025224120314461189 0 0.013394713560045428 -0.025286531189956309 0 0.013417172799664756 -0.025242823939284058 0 0.013451274007802048 -0.025205491170458717 0 0.013430049986839488 -0.025199363455043297 0 0.013418526842982982 -0.025275895578012967 0 0.013417172799664756 -0.025242823939284058 0 0.013451274007802048 -0.025205491170458717 0 0.013449388326569204 -0.025237085566616538 0 0.013418526842982982 -0.025275895578012967 0 0.013451274007802048 -0.025205491170458717 0 0.013480808208254839 -0.025173130619800449 0 0.013451274007802048 -0.025205491170458717 0 0.013495351326906161 -0.025127015631244778 0 0.013495351326906161 -0.025127015631244778 0 0.013506210893323708 -0.025022265771987486 0 0.013591935503195308 -0.025056176211238592 0 0.013495351326906161 -0.025127015631244778 0 0.013430049986839488 -0.025199363455043297 0 0.013402380589665145 -0.025217667090323921 0 0.013665465445264879 -0.025114760924844142 0 0.013695774886093871 -0.025081276308892304 0 0.013451274007802048 -0.025205491170458717 0 0.013495351326906161 -0.025127015631244778 0 0.013430049986839488 -0.025199363455043297 0 0.013695774886093871 -0.025081276308892304 0 0.015170860176584878 -0.024245982782203752 0 0.013417172799664756 -0.025242823939284058 0 0.013430049986839488 -0.025199363455043297 0 0.013398684999767983 -0.025224120314461189 0 0.013687668933606286 -0.025089336088759882 0 0.013695774886093871 -0.025081276308892304 0 0.013695774886093871 -0.025081276308892304 0 0.013088559464751194 -0.024766867509273694 0 0.013658833753796631 -0.024650293647727594 0 0.013659939115204326 -0.024846085340530951 0 0.013562592121372636 -0.024777365295230148 0 0.013385535024724393 -0.025350884782260413 0 0.013349759810693545 -0.025337587672447769 0 0.013361024143742099 -0.025502943805421188 0 0.013398684999767983 -0.025224120314461189 0 0.013394713560045428 -0.025286531189956309 0 0.013349759810693545 -0.025337587672447769 0 0.013088559464751194 -0.024766867509273694 0 0.015170860176584878 -0.024245982782203752 0 0.013394713560045428 -0.025286531189956309 0 0.013385535024724393 -0.025350884782260413 0 0.013349759810693545 -0.025337587672447769 0 0.013418526842982982 -0.025275895578012967 0 0.013394713560045428 -0.025286531189956309 0 0.013385535024724393 -0.025350884782260413 0 0.01344664333606033 -0.025319414987644298 0 0.013427920972289616 -0.025303764646557977 0 0.013406702474914097 -0.025381077488007896 0 0.013418526842982982 -0.025275895578012967 0 0.013385535024724393 -0.025350884782260413 0 0.013427920972289616 -0.025303764646557977 0 0.013385535024724393 -0.025350884782260413 0 0.013427920972289616 -0.025303764646557977 0 0.013406702474914097 -0.025381077488007896 0 0.013385535024724393 -0.025350884782260413 0 0.013406702474914097 -0.025381077488007896 0 0.013361024143742099 -0.025502943805421188 0 0.013417776849239548 -0.02541718023443186 0 0.013406702474914097 -0.025381077488007896 0 0.013361024143742099 -0.025502943805421188 0 0.013417776849239548 -0.02541718023443186 0 0.01344664333606033 -0.025319414987644298 0 0.013406702474914097 -0.025381077488007896 0 0.011579827179988312 -0.026210889162804809 0 0.011631838595333557 -0.025312634025185805 0 0.011271934545537583 -0.025825102172065375 0 0.011641593021284289 -0.026045209520234255 0 0.013088559464751194 -0.024766867509273694 0 0.013088559464751194 -0.024766867509273694 0 0.012855687666035896 -0.025331429461748448 0 0.011389465846790207 -0.025812706496694014 0 0.011388477166126631 -0.024638950231026614 0 0.012291840615947883 -0.025259068668891719 0 0.019655643672466354 -0.024494774997247004 0 0.01709284853929334 -0.023477416087268648 0 0.011271934545537583 -0.025825102172065375 0 0.010852880175969208 -0.025817184829001295 0 0.011026724683555427 -0.026238476382861576 0 0.011271934545537583 -0.025825102172065375 0 0.010852880175969208 -0.025817184829001295 0 0.011336998197028585 -0.025421451993748359 0 0.027801876928334825 -0.022609043106547433 0 0.027393243500352979 -0.022492228379661933 0 0.02740078818995367 -0.0231497230679149 0 0.027801876928334825 -0.022609043106547433 0 0.027651670150468474 -0.022167045537389671 0 0.027393243500352979 -0.022492228379661933 0 0.027801876928334825 -0.022609043106547433 0 0.027651670150468474 -0.022167045537389671 0 0.027875586474891207 -0.022105718933574124 0 0.027651670150468474 -0.022167045537389671 0 0.02747466960013999 -0.021921799983854025 0 0.027393243500352979 -0.022492228379661933 0 0.027875586474891207 -0.022105718933574124 0 0.027705755718332427 -0.021901912316770602 0 0.027987799152429799 -0.021836324012044325 0 0.027651670150468474 -0.022167045537389671 0 0.027875586474891207 -0.022105718933574124 0 0.027705755718332427 -0.021901912316770602 0 0.027651670150468474 -0.022167045537389671 0 0.027705755718332427 -0.021901912316770602 0 0.02747466960013999 -0.021921799983854025 0 0.027801876928334825 -0.022609043106547433 0 0.027875586474891207 -0.022105718933574124 0 0.028129900309145594 -0.02213252331118817 0 0.010852880175969208 -0.025817184829001295 0 0.01126393156776761 -0.025272346812825617 0 0.011336998197028585 -0.025421451993748359 0 0.011261117165913465 -0.025269540065506847 0 0.011336998197028585 -0.025421451993748359 0 0.011372962173474766 -0.025123830255695985 0 0.011631838595333557 -0.025312634025185805 0 0.011271934545537583 -0.025825102172065375 0 0.011336998197028585 -0.025421451993748359 0 0.011631838595333557 -0.025312634025185805 0 0.011336998197028585 -0.025421451993748359 0 0.011372962173474766 -0.025123830255695985 0 0.01709284853929334 -0.023477416087268648 0 0.016672283841380489 -0.023442328438534558 0 0.027875586474891207 -0.022105718933574124 0 0.028129900309145594 -0.02213252331118817 0 0.027987799152429799 -0.021836324012044325 0 0.01709284853929334 -0.023477416087268648 0 0.020571959065764318 -0.023745542241679692 0 0.015170860176584878 -0.024245982782203752 0 0.020571959065764318 -0.023745542241679692 0 0.018469517893567457 -0.023567626647992588 0 0.01846948781513412 -0.023567651406897649 0 0.018477654680807039 -0.023567070000721224 0 0.01709284853929334 -0.023477416087268648 0 0.015170860176584878 -0.024245982782203752 0 0.013506210893323708 -0.025022265771987486 0 0.013593061624962245 -0.024931276483110613 0 0.013598489035990721 -0.025006710235873728 0 0.013593061624962245 -0.024931276483110613 0 0.013598489035990721 -0.025006710235873728 0 0.01366928031377111 -0.024993343930580648 0 0.013506210893323708 -0.025022265771987486 0 0.013598489035990721 -0.025006710235873728 0 0.013591935503195308 -0.025056176211238592 0 0.013647465505149753 -0.025056263318121049 0 0.01366928031377111 -0.024993343930580648 0 0.013726453310047322 -0.025120287896495199 0 0.013495351326906161 -0.025127015631244778 0 0.013591935503195308 -0.025056176211238592 0 0.013576898838225208 -0.025103644350163379 0 0.013598489035990721 -0.025006710235873728 0 0.013591935503195308 -0.025056176211238592 0 0.013647465505149753 -0.025056263318121049 0 0.013591935503195308 -0.025056176211238592 0 0.013576898838225208 -0.025103644350163379 0 0.013634481396425363 -0.025095678905275375 0 0.013591935503195308 -0.025056176211238592 0 0.013647465505149753 -0.025056263318121049 0 0.013634481396425363 -0.025095678905275375 0 0.013598489035990721 -0.025006710235873728 0 0.013647465505149753 -0.025056263318121049 0 0.01366928031377111 -0.024993343930580648 0 0.020571959065764318 -0.023745542241679692 0 0.020640995456568344 -0.023232585796739747 0 0.020571959065764318 -0.023745542241679692 0 0.026378365343649013 -0.023791746795163472 0 0.027705755718332427 -0.021901912316770602 0 0.027987799152429799 -0.021836324012044325 0 0.027526706876635398 -0.021492925604157182 0 0.027467897388546509 -0.021514414754301672 0 0.027526706876635398 -0.021492925604157182 0 0.027496862950303697 -0.02144912370654475 0 0.027705755718332427 -0.021901912316770602 0 0.027526706876635398 -0.021492925604157182 0 0.02747466960013999 -0.021921799983854025 0 0.027496862950303697 -0.02144912370654475 0 0.027460981650391972 -0.021424164949011174 0 0.027447787225795581 -0.021476090492662678 0 0.027496862950303697 -0.02144912370654475 0 0.027460981650391972 -0.021424164949011174 0 0.027457985635336361 -0.021421592213887453 0 0.027526706876635398 -0.021492925604157182 0 0.027496862950303697 -0.02144912370654475 0 0.027457985635336361 -0.021421592213887453 0 0.013726453310047322 -0.025120287896495199 0 0.013668514002214676 -0.025110431188006065 0 0.013747419012453776 -0.025068571404391317 0 0.013668514002214676 -0.025110431188006065 0 0.013578581016127106 -0.025122065486683939 0 0.013615971039704806 -0.02512277120293022 0 0.013668514002214676 -0.025110431188006065 0 0.013578581016127106 -0.025122065486683939 0 0.013634481396425363 -0.025095678905275375 0 0.013578581016127106 -0.025122065486683939 0 0.013576898838225208 -0.025103644350163379 0 0.013634481396425363 -0.025095678905275375 0 0.013647465505149753 -0.025056263318121049 0 0.013726453310047322 -0.025120287896495199 0 0.013634481396425363 -0.025095678905275375 0 0.013726453310047322 -0.025120287896495199 0 0.013668514002214676 -0.025110431188006065 0 0.013634481396425363 -0.025095678905275375 0 0.027689920191627762 -0.021354891431163599 0 0.02752976260012047 -0.021426249011940485 0 0.02734237542083668 -0.021354006412790019 0 0.027689920191627762 -0.021354891431163599 0 0.027723986001333759 -0.021426941030615765 0 0.02752976260012047 -0.021426249011940485 0 0.027723986001333759 -0.021426941030615765 0 0.02752976260012047 -0.021426249011940485 0 0.027582527257868326 -0.021472628908099662 0 0.02752976260012047 -0.021426249011940485 0 0.027460981650391972 -0.021424164949011174 0 0.027582527257868326 -0.021472628908099662 0 0.027460981650391972 -0.021424164949011174 0 0.027457985635336361 -0.021421592213887453 0 0.02734237542083668 -0.021354006412790019 0 0.02752976260012047 -0.021426249011940485 0 0.027460981650391972 -0.021424164949011174 0 0.02734237542083668 -0.021354006412790019 0 0.02734237542083668 -0.021354006412790019 0 0.027309630505573338 -0.021681000950955546 0 0.026081335956403551 -0.022290408647065794 0 0.027457985635336361 -0.021421592213887453 0 0.02734237542083668 -0.021354006412790019 0 0.027309630505573338 -0.021681000950955546 0 0.027526706876635398 -0.021492925604157182 0 0.027457985635336361 -0.021421592213887453 0 0.027309630505573338 -0.021681000950955546 0 0.027526706876635398 -0.021492925604157182 0 0.027309630505573338 -0.021681000950955546 0 0.02747466960013999 -0.021921799983854025 0 0.027114432780296571 -0.021538690560792578 0 0.02686334481476078 -0.021850716840043225 0 0.02734237542083668 -0.021354006412790019 0 0.027680994540082833 -0.021251761675905662 0 0.027814690168907485 -0.021250549230871156 0 0.027689920191627762 -0.021354891431163599 0 0.02734237542083668 -0.021354006412790019 0 0.027814690168907485 -0.021250549230871156 0 0.027680994540082833 -0.021251761675905662 0 0.027913181588569771 -0.021168267473685873 0 0.027814690168907485 -0.021250549230871156 0 0.026081335956403551 -0.022290408647065794 0 0.027033099164572527 -0.022430906948021068 0 0.02636929809159089 -0.023540386728589047 0 0.027680994540082833 -0.021251761675905662 0 0.02812802441637104 -0.020928705618823634 0 0.027913181588569771 -0.021168267473685873 0 0.0271169681782336 -0.022281141217923468 0 0.026613559723821189 -0.023020966948595869 0 0.02747466960013999 -0.021921799983854025 0 0.027033099164572527 -0.022430906948021068 0 0.027763060895395136 -0.023417082715847519 0 0.027309630505573338 -0.021681000950955546 0 0.02747466960013999 -0.021921799983854025 0 0.027033099164572527 -0.022430906948021068 0 0.027309630505573338 -0.021681000950955546 0 0.026081335956403551 -0.022290408647065794 0 0.027033099164572527 -0.022430906948021068 0 0.027763060895395136 -0.023417082715847519 0 0.026922084660337089 -0.02440192463474597 0 0.02636929809159089 -0.023540386728589047 0 0.027033099164572527 -0.022430906948021068 0 0.027763060895395136 -0.023417082715847519 0 0.02636929809159089 -0.023540386728589047 0 0.026613559723821189 -0.023020966948595869 0 0.023530185905245776 -0.025955188449856861 0 0.027763060895395136 -0.023417082715847519 0 0.026922084660337089 -0.02440192463474597 0 0.027983468035510575 -0.025358950551438036 0 0.026922084660337089 -0.02440192463474597 0 0.02636929809159089 -0.023540386728589047 0 0.025911183544197275 -0.024555044547212801 0 0.026081335956403551 -0.022290408647065794 0 0.02636929809159089 -0.023540386728589047 0 0.024853550714425576 -0.024171373964314024 0 0.02686334481476078 -0.021850716840043225 0 0.026619585282989536 -0.022174520060885126 0 0.027680994540082833 -0.021251761675905662 0 0.028121728521687803 -0.02014923811139669 0 0.02812802441637104 -0.020928705618823634 0 0.02636929809159089 -0.023540386728589047 0 0.024853550714425576 -0.024171373964314024 0 0.025911183544197275 -0.024555044547212801 0 0.024853550714425576 -0.024171373964314024 0 0.025911183544197275 -0.024555044547212801 0 0.025214599667505246 -0.02541677263564213 0 0.025911183544197275 -0.024555044547212801 0 0.026279947717119886 -0.025486419635125768 0 0.025214599667505246 -0.02541677263564213 0 0.026279947717119886 -0.025486419635125768 0 0.025214599667505246 -0.02541677263564213 0 0.025252412360957308 -0.026442500756633278 0 0.025214599667505246 -0.02541677263564213 0 0.025252412360957308 -0.026442500756633278 0 0.023730560852580861 -0.026458446661339407 0 0.026279947717119886 -0.025486419635125768 0 0.025252412360957308 -0.026442500756633278 0 0.026467238627416116 -0.027373934449892001 0 0.025252412360957308 -0.026442500756633278 0 0.024717738672197447 -0.027724869010886378 0 0.023730560852580861 -0.026458446661339407 0 0.025252412360957308 -0.026442500756633278 0 0.024717738672197447 -0.027724869010886378 0 0.026467238627416116 -0.027373934449892001 0 0.025668112660843522 -0.027393820449051171 0 0.023530185905245776 -0.025955188449856861 0 0.0254631252178915 -0.028240137461406009 0 0.026336266634673648 -0.02705384733444554 0 0.026497030668398952 -0.028871998706611595 0 0.026279947717119886 -0.025486419635125768 0 0.026467238627416116 -0.027373934449892001 0 0.027983468035510575 -0.025358950551438036 0 0.026922084660337089 -0.02440192463474597 0 0.026279947717119886 -0.025486419635125768 0 0.027983468035510575 -0.025358950551438036 0 0.026922084660337089 -0.02440192463474597 0 0.025911183544197275 -0.024555044547212801 0 0.026279947717119886 -0.025486419635125768 0 0.019655643672466354 -0.024494774997247004 0 0.023530185905245776 -0.025955188449856861 0 0.010852880175969208 -0.025817184829001295 0 0.010470676271683979 -0.026335096823985292 0 0.011026724683555427 -0.026238476382861576 0 0.010470676271683979 -0.026335096823985292 0 0.011026724683555427 -0.026238476382861576 0 0.011084720903304231 -0.026776289742214476 0 0.011579827179988312 -0.026210889162804809 0 0.011271934545537583 -0.025825102172065375 0 0.011026724683555427 -0.026238476382861576 0 0.011579827179988312 -0.026210889162804809 0 0.011026724683555427 -0.026238476382861576 0 0.011084720903304231 -0.026776289742214476 0 0.010470676271683979 -0.026335096823985292 0 0.010810299524409287 -0.027062991279261379 0 0.010412956037159934 -0.027239342787017281 0 0.010470676271683979 -0.026335096823985292 0 0.011084720903304231 -0.026776289742214476 0 0.010810299524409287 -0.027062991279261379 0 0.023530185905245776 -0.025955188449856861 0 0.018820891390012053 -0.028175805755431747 0 0.010412956037159934 -0.027239342787017281 0 0.010883741999118235 -0.027631089168105732 0 0.011048296444242975 -0.028565108721630171 0 0.010810299524409287 -0.027062991279261379 0 0.010412956037159934 -0.027239342787017281 0 0.010883741999118235 -0.027631089168105732 0 0.011084720903304231 -0.026776289742214476 0 0.010810299524409287 -0.027062991279261379 0 0.011179900935133531 -0.027512022216049481 0 0.01145961317675518 -0.027049682783980872 0 0.011084720903304231 -0.026776289742214476 0 0.011179900935133531 -0.027512022216049481 0 0.010883741999118235 -0.027631089168105732 0 0.011179900935133531 -0.027512022216049481 0 0.011210464532633182 -0.027797821680203897 0 0.010810299524409287 -0.027062991279261379 0 0.010883741999118235 -0.027631089168105732 0 0.011179900935133531 -0.027512022216049481 0 0.010883741999118235 -0.027631089168105732 0 0.011210464532633182 -0.027797821680203897 0 0.01116615285400659 -0.028167344501360204 0 0.011125346393138962 -0.027842691633940712 0 0.012013862614836465 -0.028695183821404086 0 0.010883741999118235 -0.027631089168105732 0 0.012214777903835119 -0.029119540045237792 0 0.01287113057985928 -0.029076320850372095 0 0.011340674756225718 -0.029435002977489497 0 0.012214777903835119 -0.029119540045237792 0 0.011048296444242975 -0.028565108721630171 0 0.010542353717107742 -0.029442638102090097 0 0.010412956037159934 -0.027239342787017281 0 0.011048296444242975 -0.028565108721630171 0 0.010883741999118235 -0.027631089168105732 0 0.012214777903835119 -0.029119540045237792 0 0.011048296444242975 -0.028565108721630171 0 0.018731033290467946 -0.029939037059039914 0 0.018820891390012053 -0.028175805755431747 0 0.010542353717107742 -0.029442638102090097 0 0.011340674756225718 -0.029435002977489497 0 0.011048296444242975 -0.028565108721630171 0 0.026659242089170324 -0.030855275479179396 0 0.026497030668398952 -0.028871998706611595 0 0.025684560977281268 -0.029886689387917189 0 0.025550508561518935 -0.03083791428823263 0 0.026659242089170324 -0.030855275479179396 0 0.025684560977281268 -0.029886689387917189 0 0.025550508561518935 -0.03083791428823263 0 0.025684560977281268 -0.029886689387917189 0 0.024890726045922525 -0.030263144860657072 0 0.025684560977281268 -0.029886689387917189 0 0.024890726045922525 -0.030263144860657072 0 0.0246120456906373 -0.029351919330080994 0 0.024357732616772661 -0.031016803035093687 0 0.024890726045922525 -0.030263144860657072 0 0.024107598044874622 -0.030082057137127343 0 0.024890726045922525 -0.030263144860657072 0 0.0246120456906373 -0.029351919330080994 0 0.024107598044874622 -0.030082057137127343 0 0.025684560977281268 -0.029886689387917189 0 0.0246120456906373 -0.029351919330080994 0 0.025552855003283411 -0.029086004696924586 0 0.024717738672197447 -0.027724869010886378 0 0.026467238627416116 -0.027373934449892001 0 0.0246120456906373 -0.029351919330080994 0 0.0254631252178915 -0.028240137461406009 0 0.0246120456906373 -0.029351919330080994 0 0.025552855003283411 -0.029086004696924586 0 0.025668112660843522 -0.027393820449051171 0 0.024832733365622663 -0.028953039432763211 0 0.0254631252178915 -0.028240137461406009 0 0.026497030668398952 -0.028871998706611595 0 0.025552855003283411 -0.029086004696924586 0 0.026497030668398952 -0.028871998706611595 0 0.025684560977281268 -0.029886689387917189 0 0.025552855003283411 -0.029086004696924586 0 0.032202141651452555 -0.019204882764371808 0 0.0329680793358487 -0.018903802777964628 0 0.032860638227357165 -0.019608061516294344 0 0.024717738672197447 -0.027724869010886378 0 0.0246120456906373 -0.029351919330080994 0 0.02285631902510054 -0.028759907555022189 0 0.02926363991460524 -0.029307490082596144 0 0.03022370266028836 -0.022747938393907159 0 0.023557208097335715 -0.030845238612517943 0 0.02285631902510054 -0.028759907555022189 0 0.024107598044874622 -0.030082057137127343 0 0.0246120456906373 -0.029351919330080994 0 0.02285631902510054 -0.028759907555022189 0 0.024107598044874622 -0.030082057137127343 0 0.023557208097335715 -0.030845238612517943 0 0.024357732616772661 -0.031016803035093687 0 0.024107598044874622 -0.030082057137127343 0 0.033322463224094684 -0.022385163923015122 0 0.03022370266028836 -0.022747938393907159 0 0.033609906629839023 -0.027202086087201257 0 0.034042360944745706 -0.027177172262720244 0 0.033809116571378792 -0.026493249728208927 0 0.032652645908928274 -0.018272833046605829 0 0.032202141651452555 -0.019204882764371808 0 0.0329680793358487 -0.018903802777964628 0 0.03364289866836051 -0.018209647833782188 0 0.032652645908928274 -0.018272833046605829 0 0.0329680793358487 -0.018903802777964628 0 0.03364289866836051 -0.018209647833782188 0 0.0329680793358487 -0.018903802777964628 0 0.033650964488596335 -0.01888101668749903 0 0.03364289866836051 -0.018209647833782188 0 0.033650964488596335 -0.01888101668749903 0 0.034471562521408997 -0.019054535861142998 0 0.035727520720270828 -0.021929476936618505 0 0.03632487833188805 -0.022070663319310301 0 0.033478117752478928 -0.019419860125559928 0 0.034221942509800179 -0.020057558969199561 0 0.034471562521408997 -0.019054535861142998 0 0.033650964488596335 -0.01888101668749903 0 0.033478117752478928 -0.019419860125559928 0 0.034471562521408997 -0.019054535861142998 0 0.0329680793358487 -0.018903802777964628 0 0.033478117752478928 -0.019419860125559928 0 0.032860638227357165 -0.019608061516294344 0 0.0329680793358487 -0.018903802777964628 0 0.033650964488596335 -0.01888101668749903 0 0.033478117752478928 -0.019419860125559928 0 0.032860638227357165 -0.019608061516294344 0 0.033246227160154657 -0.0202102270906898 0 0.032440555089469678 -0.020341775471642516 0 0.033478117752478928 -0.019419860125559928 0 0.032860638227357165 -0.019608061516294344 0 0.033246227160154657 -0.0202102270906898 0 0.033478117752478928 -0.019419860125559928 0 0.033246227160154657 -0.0202102270906898 0 0.034221942509800179 -0.020057558969199561 0 0.033246227160154657 -0.0202102270906898 0 0.034221942509800179 -0.020057558969199561 0 0.03397553706497311 -0.021034036149676024 0 0.033246227160154657 -0.0202102270906898 0 0.032978061107559603 -0.020843270889714056 0 0.032440555089469678 -0.020341775471642516 0 0.033246227160154657 -0.0202102270906898 0 0.032978061107559603 -0.020843270889714056 0 0.03397553706497311 -0.021034036149676024 0 0.03112607183695924 -0.018219438135321505 0 0.030222307343956391 -0.019748891367878153 0 0.030940595372183664 -0.020495382629688433 0 0.03112607183695924 -0.018219438135321505 0 0.02945213635414182 -0.019137249406265891 0 0.030222307343956391 -0.019748891367878153 0 0.030048870133538082 -0.015228406097040627 0 0.03112607183695924 -0.018219438135321505 0 0.029149915091545457 -0.017544104252085163 0 0.032202141651452555 -0.019204882764371808 0 0.032860638227357165 -0.019608061516294344 0 0.032440555089469678 -0.020341775471642516 0 0.03022370266028836 -0.022747938393907159 0 0.031430131079039018 -0.018764952471724303 0 0.03022370266028836 -0.022747938393907159 0 0.026984705006469097 -0.022300883929348182 0 0.024717738672197447 -0.027724869010886378 0 0.02285631902510054 -0.028759907555022189 0 0.023730560852580861 -0.026458446661339407 0 0.024853550714425576 -0.024171373964314024 0 0.025214599667505246 -0.02541677263564213 0 0.023730560852580861 -0.026458446661339407 0 0.026619585282989536 -0.022174520060885126 0 0.026984705006469097 -0.022300883929348182 0 0.03112607183695924 -0.018219438135321505 0 0.029149915091545457 -0.017544104252085163 0 0.02945213635414182 -0.019137249406265891 0 0.028121728521687803 -0.02014923811139669 0 0.029149915091545457 -0.017544104252085163 0 0.02945213635414182 -0.019137249406265891 0 0.028121728521687803 -0.02014923811139669 0 0.02945213635414182 -0.019137249406265891 0 0.029543623147004948 -0.020427971423179321 0 0.028121728521687803 -0.02014923811139669 0 0.029543623147004948 -0.020427971423179321 0 0.02812802441637104 -0.020928705618823634 0 0.029543623147004948 -0.020427971423179321 0 0.02812802441637104 -0.020928705618823634 0 0.031816782375995951 -0.022265802203274586 0 0.02945213635414182 -0.019137249406265891 0 0.029543623147004948 -0.020427971423179321 0 0.030222307343956391 -0.019748891367878153 0 0.03112607183695924 -0.018219438135321505 0 0.030940595372183664 -0.020495382629688433 0 0.032430375245562706 -0.021685613130588168 0 0.031430131079039018 -0.018764952471724303 0 0.032420388753982267 -0.021540626231891302 0 0.029543623147004948 -0.020427971423179321 0 0.030940595372183664 -0.020495382629688433 0 0.031816782375995951 -0.022265802203274586 0 0.029543623147004948 -0.020427971423179321 0 0.030222307343956391 -0.019748891367878153 0 0.030940595372183664 -0.020495382629688433 0 0.030940595372183664 -0.020495382629688433 0 0.031816782375995951 -0.022265802203274586 0 0.032430375245562706 -0.021685613130588168 0 0.028093578736706412 -0.0211132508968103 0 0.028068133292230665 -0.021099391585318494 0 0.028070754792508298 -0.021175089842706361 0 0.027997563416392559 -0.021160029326358833 0 0.028068133292230665 -0.021099391585318494 0 0.028070754792508298 -0.021175089842706361 0 0.028093578736706412 -0.0211132508968103 0 0.028070754792508298 -0.021175089842706361 0 0.028162422424552004 -0.021171068045970305 0 0.028432542185556416 -0.021114140571823009 0 0.029911237955833343 -0.021581130138507116 0 0.02812802441637104 -0.020928705618823634 0 0.028093578736706412 -0.0211132508968103 0 0.028068133292230665 -0.021099391585318494 0 0.02812802441637104 -0.020928705618823634 0 0.027997563416392559 -0.021160029326358833 0 0.027913181588569771 -0.021168267473685873 0 0.02812802441637104 -0.020928705618823634 0 0.027997563416392559 -0.021160029326358833 0 0.028068133292230665 -0.021099391585318494 0 0.027997563416392559 -0.021160029326358833 0 0.027913181588569771 -0.021168267473685873 0 0.027814690168907485 -0.021250549230871156 0 0.027997563416392559 -0.021160029326358833 0 0.027814690168907485 -0.021250549230871156 0 0.02790468267130081 -0.021294782622864057 0 0.027997563416392559 -0.021160029326358833 0 0.02790468267130081 -0.021294782622864057 0 0.028070754792508298 -0.021175089842706361 0 0.027689920191627762 -0.021354891431163599 0 0.027814690168907485 -0.021250549230871156 0 0.02790468267130081 -0.021294782622864057 0 0.028070754792508298 -0.021175089842706361 0 0.02802794273221243 -0.021300794794497844 0 0.028134070359215193 -0.021249266307540902 0 0.02790468267130081 -0.021294782622864057 0 0.028070754792508298 -0.021175089842706361 0 0.02802794273221243 -0.021300794794497844 0 0.02802794273221243 -0.021300794794497844 0 0.0279259844067168 -0.021394789427357799 0 0.02809880536830079 -0.02137734126619029 0 0.02802794273221243 -0.021300794794497844 0 0.028134070359215193 -0.021249266307540902 0 0.02809880536830079 -0.02137734126619029 0 0.027723986001333759 -0.021426941030615765 0 0.02790468267130081 -0.021294782622864057 0 0.0279259844067168 -0.021394789427357799 0 0.02790468267130081 -0.021294782622864057 0 0.02802794273221243 -0.021300794794497844 0 0.0279259844067168 -0.021394789427357799 0 0.027689920191627762 -0.021354891431163599 0 0.027723986001333759 -0.021426941030615765 0 0.02790468267130081 -0.021294782622864057 0 0.028230076358408185 -0.021307794909981446 0 0.028372479539808197 -0.021260653816912067 0 0.028317947257010544 -0.021396074678888415 0 0.028230076358408185 -0.021307794909981446 0 0.028236984117689184 -0.021214467225119812 0 0.028372479539808197 -0.021260653816912067 0 0.028230076358408185 -0.021307794909981446 0 0.028134070359215193 -0.021249266307540902 0 0.02809880536830079 -0.02137734126619029 0 0.028230076358408185 -0.021307794909981446 0 0.028134070359215193 -0.021249266307540902 0 0.028236984117689184 -0.021214467225119812 0 0.028162422424552004 -0.021171068045970305 0 0.028236984117689184 -0.021214467225119812 0 0.028307228563638997 -0.021121715098567764 0 0.028134070359215193 -0.021249266307540902 0 0.028162422424552004 -0.021171068045970305 0 0.028236984117689184 -0.021214467225119812 0 0.028070754792508298 -0.021175089842706361 0 0.028134070359215193 -0.021249266307540902 0 0.028162422424552004 -0.021171068045970305 0 0.028236984117689184 -0.021214467225119812 0 0.028307228563638997 -0.021121715098567764 0 0.028372479539808197 -0.021260653816912067 0 0.033937017723536862 -0.022528540336957888 0 0.033610005609627291 -0.021631864821401184 0 0.034602129946610716 -0.022176986450028913 0 0.029911237955833343 -0.021581130138507116 0 0.030850709029836727 -0.021631040525457456 0 0.028093578736706412 -0.0211132508968103 0 0.028162422424552004 -0.021171068045970305 0 0.028307228563638997 -0.021121715098567764 0 0.033937017723536862 -0.022528540336957888 0 0.032430375245562706 -0.021685613130588168 0 0.033610005609627291 -0.021631864821401184 0 0.031816782375995951 -0.022265802203274586 0 0.033937017723536862 -0.022528540336957888 0 0.032430375245562706 -0.021685613130588168 0 0.032978061107559603 -0.020843270889714056 0 0.032440555089469678 -0.020341775471642516 0 0.032430375245562706 -0.021685613130588168 0 0.032978061107559603 -0.020843270889714056 0 0.032430375245562706 -0.021685613130588168 0 0.033610005609627291 -0.021631864821401184 0 0.032978061107559603 -0.020843270889714056 0 0.033610005609627291 -0.021631864821401184 0 0.03397553706497311 -0.021034036149676024 0 0.033610005609627291 -0.021631864821401184 0 0.03397553706497311 -0.021034036149676024 0 0.034602129946610716 -0.022176986450028913 0 0.03397553706497311 -0.021034036149676024 0 0.035304641798421146 -0.021451534551917791 0 0.035055949243104172 -0.020793287193910107 0 0.034253960641636008 -0.021091464028394187 0 0.035085264134366814 -0.021391965257513908 0 0.03397553706497311 -0.021034036149676024 0 0.035034779826324393 -0.021610483890076051 0 0.034602129946610716 -0.022176986450028913 0 0.035304641798421146 -0.021451534551917791 0 0.036105073192239719 -0.021045502475525554 0 0.036201377282541698 -0.021432584160853994 0 0.035304641798421146 -0.021451534551917791 0 0.036201377282541698 -0.021432584160853994 0 0.035055949243104172 -0.020793287193910107 0 0.035252976517650227 -0.022346809612134384 0 0.035595770263753282 -0.022465141411009443 0 0.035901137125393515 -0.022097480974789169 0 0.035085264134366814 -0.021391965257513908 0 0.035936277234797795 -0.021461556280983871 0 0.035034779826324393 -0.021610483890076051 0 0.035252976517650227 -0.022346809612134384 0 0.035901137125393515 -0.022097480974789169 0 0.035252976517650227 -0.022346809612134384 0 0.035595770263753282 -0.022465141411009443 0 0.035297667909175053 -0.022658892394924714 0 0.033937017723536862 -0.022528540336957888 0 0.034602129946610716 -0.022176986450028913 0 0.035298686906902875 -0.022744521366941918 0 0.035034779826324393 -0.021610483890076051 0 0.035252976517650227 -0.022346809612134384 0 0.034602129946610716 -0.022176986450028913 0 0.035252976517650227 -0.022346809612134384 0 0.034602129946610716 -0.022176986450028913 0 0.035298686906902875 -0.022744521366941918 0 0.030850709029836727 -0.021631040525457456 0 0.034377334568467699 -0.02060970517959574 0 0.028307228563638997 -0.021121715098567764 0 0.028522551697617759 -0.021161936998323371 0 0.028372479539808197 -0.021260653816912067 0 0.034578657868165594 -0.021525610987859656 0 0.034377334568467699 -0.02060970517959574 0 0.035595770263753282 -0.022465141411009443 0 0.035297667909175053 -0.022658892394924714 0 0.035911343815485726 -0.022588743657981643 0 0.034377334568467699 -0.02060970517959574 0 0.033270671738079148 -0.019470940087383107 0 0.037841337342366423 -0.019370291034058202 0 0.037700287246748038 -0.017752204655204856 0 0.03699571843577118 -0.018610397634238305 0 0.037700287246748038 -0.017752204655204856 0 0.036699793393885433 -0.017726075717431445 0 0.03699571843577118 -0.018610397634238305 0 0.028516772661793664 -0.021313971179174687 0 0.028372479539808197 -0.021260653816912067 0 0.028434808560087441 -0.021387047162399305 0 0.028522551697617759 -0.021161936998323371 0 0.028516772661793664 -0.021313971179174687 0 0.028372479539808197 -0.021260653816912067 0 0.035618094035861574 -0.018316016095201292 0 0.034999988314398607 -0.017778471991933699 0 0.035494240099512728 -0.018976802236624291 0 0.035618094035861574 -0.018316016095201292 0 0.035895748538623214 -0.017834078090409371 0 0.036081198509946531 -0.018676023235430744 0 0.035618094035861574 -0.018316016095201292 0 0.034999988314398607 -0.017778471991933699 0 0.035895748538623214 -0.017834078090409371 0 0.036733041170704805 -0.018254570559759223 0 0.03632579028994188 -0.019369351802889324 0 0.036699793393885433 -0.017726075717431445 0 0.036053334152453174 -0.018680475228958167 0 0.03699571843577118 -0.018610397634238305 0 0.035895748538623214 -0.017834078090409371 0 0.036699793393885433 -0.017726075717431445 0 0.036081198509946531 -0.018676023235430744 0 0.037841337342366423 -0.019370291034058202 0 0.03699571843577118 -0.018610397634238305 0 0.035934692843127752 -0.018857029297900021 0 0.034377334568467699 -0.02060970517959574 0 0.036167852242312164 -0.019843307282402446 0 0.035297667909175053 -0.022658892394924714 0 0.035911343815485726 -0.022588743657981643 0 0.036394317284885666 -0.022917071227519476 0 0.036053334152453174 -0.018680475228958167 0 0.03699571843577118 -0.018610397634238305 0 0.035934692843127752 -0.018857029297900021 0 0.035595770263753282 -0.022465141411009443 0 0.035911343815485726 -0.022588743657981643 0 0.035944535183906064 -0.02240873352960732 0 0.035911343815485726 -0.022588743657981643 0 0.03627070984220189 -0.022522017184146148 0 0.035944535183906064 -0.02240873352960732 0 0.035911343815485726 -0.022588743657981643 0 0.03627070984220189 -0.022522017184146148 0 0.036394317284885666 -0.022917071227519476 0 0.036167852242312164 -0.019843307282402446 0 0.035561353423859764 -0.020472353166964833 0 0.03596328698577142 -0.018857327962242355 0 0.035494240099512728 -0.018976802236624291 0 0.035445660311099532 -0.019640560184493831 0 0.03627070984220189 -0.022522017184146148 0 0.036394317284885666 -0.022917071227519476 0 0.036675358271626685 -0.022490661624734957 0 0.034999988314398607 -0.017778471991933699 0 0.035494240099512728 -0.018976802236624291 0 0.034999989832474099 -0.019419688813587226 0 0.036081198509946531 -0.018676023235430744 0 0.03596328698577142 -0.018857327962242355 0 0.035494240099512728 -0.018976802236624291 0 0.035618094035861574 -0.018316016095201292 0 0.036081198509946531 -0.018676023235430744 0 0.035494240099512728 -0.018976802236624291 0 0.03632579028994188 -0.019369351802889324 0 0.036167852242312164 -0.019843307282402446 0 0.035494240099512728 -0.018976802236624291 0 0.035445660311099532 -0.019640560184493831 0 0.034999989832474099 -0.019419688813587226 0 0.035561353423859764 -0.020472353166964833 0 0.035000286788718686 -0.019421904814958632 0 0.035449820306038014 -0.019645857633054972 0 0.034999998994035109 -0.019419718265821503 0 0.034999999948773355 -0.020313078440404534 0 0.035263413771488422 -0.02007872903249993 0 0.034999716447744855 -0.020314428809679735 0 0.036105073192239719 -0.021045502475525554 0 0.035561353423859764 -0.020472353166964833 0 0.035000875458210151 -0.020313326187960872 0 0.034999716447744855 -0.020314428809679735 0 0.036105073192239719 -0.021045502475525554 0 0.036201377282541698 -0.021432584160853994 0 0.035561353423859764 -0.020472353166964833 0 0.035936277234797795 -0.021461556280983871 0 0.03627070984220189 -0.022522017184146148 0 0.036675358271626685 -0.022490661624734957 0 0.035901137125393515 -0.022097480974789169 0 0.035595770263753282 -0.022465141411009443 0 0.035944535183906064 -0.02240873352960732 0 0.035901137125393515 -0.022097480974789169 0 0.03627070984220189 -0.022522017184146148 0 0.035944535183906064 -0.02240873352960732 0 0.035901137125393515 -0.022097480974789169 0 0.034999716447744855 -0.020314428809679735 0 0.036201377282541698 -0.021432584160853994 0 0.034999568336897151 -0.02548183729057971 0 0.036201377282541698 -0.021432584160853994 0 0.037356247962856561 -0.023261779522092838 0 0.034999568336897151 -0.02548183729057971 0 0.036218205385745855 -0.02145887113787635 0 0.036337558055794625 -0.021701476299087148 0 0.036201377282541698 -0.021432584160853994 0 0.035055949243104172 -0.020793287193910107 0 0.035462563643262106 -0.020138980562938939 0 0.034221942509800179 -0.020057558969199561 0 0.03397553706497311 -0.021034036149676024 0 0.035055949243104172 -0.020793287193910107 0 0.034221942509800179 -0.020057558969199561 0 0.035055949243104172 -0.020793287193910107 0 0.035462563643262106 -0.020138980562938939 0 0.036337558055794625 -0.021701476299087148 0 0.03632487833188805 -0.022070663319310301 0 0.034221942509800179 -0.020057558969199561 0 0.035462563643262106 -0.020138980562938939 0 0.034471562521408997 -0.019054535861142998 0 0.037356247962856561 -0.023261779522092838 0 0.037030467340806471 -0.024822699082827183 0 0.038180217171605912 -0.025033864313710096 0 0.037934158488732578 -0.026317955834958218 0 0.038180217171605912 -0.025033864313710096 0 0.037480410218435123 -0.025903362091788496 0 0.037934158488732578 -0.026317955834958218 0 0.038498670578786268 -0.026177079772970489 0 0.038180217171605912 -0.025033864313710096 0 0.037030467340806471 -0.024822699082827183 0 0.038180217171605912 -0.025033864313710096 0 0.037480410218435123 -0.025903362091788496 0 0.037030467340806471 -0.024822699082827183 0 0.037480410218435123 -0.025903362091788496 0 0.036402877729742204 -0.025863366739190215 0 0.037356247962856561 -0.023261779522092838 0 0.037030467340806471 -0.024822699082827183 0 0.034999568336897151 -0.02548183729057971 0 0.036126921569200707 -0.027310779526892814 0 0.036402877729742204 -0.025863366739190215 0 0.034999568336897151 -0.02548183729057971 0 0.037030467340806471 -0.024822699082827183 0 0.036402877729742204 -0.025863366739190215 0 0.034999568336897151 -0.02548183729057971 0 0.037056483936804524 -0.0095293932573057398 0 0.036751454008444685 -0.010368291166184483 0 0.037139809412821745 -0.010965017104496993 0 0.03672043971301097 -0.010083292571780176 0 0.036467445806934173 -0.011098972776541772 0 0.036567515319254805 -0.0099345789782294795 0 0.036236700426891894 -0.010325863212293836 0 0.036238198468147929 -0.0094861645779163069 0 0.036236700426891894 -0.010325863212293836 0 0.035590172451818468 -0.0099164023577674437 0 0.036238198468147929 -0.0094861645779163069 0 0.036567515319254805 -0.0099345789782294795 0 0.037056483936804524 -0.0095293932573057398 0 0.036751454008444685 -0.010368291166184483 0 0.036567515319254805 -0.0099345789782294795 0 0.037056483936804524 -0.0095293932573057398 0 0.036238198468147929 -0.0094861645779163069 0 0.036751454008444685 -0.010368291166184483 0 0.036521074538495596 -0.010882361769006286 0 0.037139809412821745 -0.010965017104496993 0 0.036751454008444685 -0.010368291166184483 0 0.036236700426891894 -0.010325863212293836 0 0.036521074538495596 -0.010882361769006286 0 0.036567515319254805 -0.0099345789782294795 0 0.036751454008444685 -0.010368291166184483 0 0.036236700426891894 -0.010325863212293836 0 0.036236700426891894 -0.010325863212293836 0 0.036099716773912563 -0.010818085959757135 0 0.036521074538495596 -0.010882361769006286 0 0.036236700426891894 -0.010325863212293836 0 0.036099716773912563 -0.010818085959757135 0 0.035821508389464699 -0.010483164123625658 0 0.036099716773912563 -0.010818085959757135 0 0.035821508389464699 -0.010483164123625658 0 0.035450621578093797 -0.010835933223283311 0 0.036236700426891894 -0.010325863212293836 0 0.035821508389464699 -0.010483164123625658 0 0.035590172451818468 -0.0099164023577674437 0 0.035821508389464699 -0.010483164123625658 0 0.035450621578093797 -0.010835933223283311 0 0.035590172451818468 -0.0099164023577674437 0 0.034999876147593041 -0.010817628449539252 0 0.035590172451818468 -0.0099164023577674437 0 0.034999593009315183 -0.0087792736676251589 0 0.034999876147593041 -0.010817628449539252 0 0.035450621578093797 -0.010835933223283311 0 0.035590172451818468 -0.0099164023577674437 0 0.035590172451818468 -0.0099164023577674437 0 0.034999593009315183 -0.0087792736676251589 0 0.0357685002372643 -0.0088060470597251354 0 0.035590172451818468 -0.0099164023577674437 0 0.0357685002372643 -0.0088060470597251354 0 0.036238198468147929 -0.0094861645779163069 0 0.0357685002372643 -0.0088060470597251354 0 0.036437332071498317 -0.008441192080446764 0 0.035851769253828797 -0.0073214949951276725 0 0.036437332071498317 -0.008441192080446764 0 0.037709535867444417 -0.0095190782738842471 0 0.036946931217646778 -0.0066728363186063337 0 0.0357685002372643 -0.0088060470597251354 0 0.036238198468147929 -0.0094861645779163069 0 0.036437332071498317 -0.008441192080446764 0 0.037056483936804524 -0.0095293932573057398 0 0.036238198468147929 -0.0094861645779163069 0 0.036437332071498317 -0.008441192080446764 0 0.037056483936804524 -0.0095293932573057398 0 0.036437332071498317 -0.008441192080446764 0 0.037709535867444417 -0.0095190782738842471 0 0.03661208681933955 -0.0057498024726817957 0 0.037223293125456192 -0.0044290497929844021 0 0.036946931217646778 -0.0066728363186063337 0 0.037088642948900054 -0.0070291873385408092 0 0.037084033830627257 -0.0067128511721962431 0 0.03661208681933955 -0.0057498024726817957 0 0.036684238301756371 -0.004804321612755633 0 0.036398568901470398 -0.0048289625879896613 0 0.036684238301756371 -0.004804321612755633 0 0.036398568901470398 -0.0048289625879896613 0 0.03657047626967825 -0.0042822788878295812 0 0.036684238301756371 -0.004804321612755633 0 0.037223293125456192 -0.0044290497929844021 0 0.03657047626967825 -0.0042822788878295812 0 0.03661208681933955 -0.0057498024726817957 0 0.036684238301756371 -0.004804321612755633 0 0.037223293125456192 -0.0044290497929844021 0 0.03661208681933955 -0.0057498024726817957 0 0.036398568901470398 -0.0048289625879896613 0 0.036189063976633302 -0.0050574990883404166 0 0.036398568901470398 -0.0048289625879896613 0 0.035993074042424404 -0.0042616655560331843 0 0.03627748106056379 -0.0043116648967811838 0 0.036398568901470398 -0.0048289625879896613 0 0.03627748106056379 -0.0043116648967811838 0 0.03657047626967825 -0.0042822788878295812 0 0.035993074042424404 -0.0042616655560331843 0 0.035670045127981664 -0.0042152424136435475 0 0.036189063976633302 -0.0050574990883404166 0 0.036398568901470398 -0.0048289625879896613 0 0.035993074042424404 -0.0042616655560331843 0 0.036189063976633302 -0.0050574990883404166 0 0.035993074042424404 -0.0042616655560331843 0 0.036201988950880212 -0.0039057051122437306 0 0.035856825284715628 -0.0037527798659422631 0 0.036201988950880212 -0.0039057051122437306 0 0.03657047626967825 -0.0042822788878295812 0 0.036557341455519372 -0.0037568818585366026 0 0.035993074042424404 -0.0042616655560331843 0 0.03627748106056379 -0.0043116648967811838 0 0.036201988950880212 -0.0039057051122437306 0 0.03627748106056379 -0.0043116648967811838 0 0.036201988950880212 -0.0039057051122437306 0 0.03657047626967825 -0.0042822788878295812 0 0.036201988950880212 -0.0039057051122437306 0 0.036557341455519372 -0.0037568818585366026 0 0.03614444468830625 -0.0034604503317330125 0 0.035856825284715628 -0.0037527798659422631 0 0.03614444468830625 -0.0034604503317330125 0 0.035651875737140931 -0.0033381743629465705 0 0.036201988950880212 -0.0039057051122437306 0 0.035856825284715628 -0.0037527798659422631 0 0.03614444468830625 -0.0034604503317330125 0 0.037709535867444417 -0.0095190782738842471 0 0.037869466781894741 -0.01142237815287471 0 0.03720452201814043 -0.011123853979169337 0 0.037056483936804524 -0.0095293932573057398 0 0.037709535867444417 -0.0095190782738842471 0 0.03720452201814043 -0.011123853979169337 0 0.037088642948900054 -0.0070291873385408092 0 0.036169535268297345 -0.0072634320583125599 0 0.037223293125456192 -0.0044290497929844021 0 0.036557341455519372 -0.0037568818585366026 0 0.036858620628646067 -0.0033231800136660152 0 0.037223293125456192 -0.0044290497929844021 0 0.03657047626967825 -0.0042822788878295812 0 0.036557341455519372 -0.0037568818585366026 0 0.036858620628646067 -0.0033231800136660152 0 0.036192576227322672 -0.0029996500004401691 0 0.036628335475053501 -0.0025450833780769192 0 0.036169535268297345 -0.0072634320583125599 0 0.032447249200275335 -0.014518670504375952 0 0.037869466781894741 -0.01142237815287471 0 0.037326552255902937 -0.012594130502838783 0 0.03720452201814043 -0.011123853979169337 0 0.036557341455519372 -0.0037568818585366026 0 0.036858620628646067 -0.0033231800136660152 0 0.036434027469848473 -0.0033751094273247848 0 0.036858620628646067 -0.0033231800136660152 0 0.036434027469848473 -0.0033751094273247848 0 0.036192576227322672 -0.0029996500004401691 0 0.03614444468830625 -0.0034604503317330125 0 0.036192576227322672 -0.0029996500004401691 0 0.035651875737140931 -0.0033381743629465705 0 0.036557341455519372 -0.0037568818585366026 0 0.036434027469848473 -0.0033751094273247848 0 0.03614444468830625 -0.0034604503317330125 0 0.036434027469848473 -0.0033751094273247848 0 0.03614444468830625 -0.0034604503317330125 0 0.036192576227322672 -0.0029996500004401691 0 0.03201101376539741 -0.01570685652743262 0 0.032022412991100056 -0.012580991270297107 0 0.02862470404148364 -0.021707375429044041 0 0.028439897215186204 -0.021625849503454381 0 0.028358565436256856 -0.021746608138313531 0 0.036192576227322672 -0.0029996500004401691 0 0.0365443038164633 -0.0024872290938224156 0 0.03549424437199148 -0.0025490194883483852 0 0.037869466781894741 -0.01142237815287471 0 0.037326552255902937 -0.012594130502838783 0 0.038081745658290631 -0.013193286994569061 0 0.035044346894400384 -0.013636301340819321 0 0.032447249200275335 -0.014518670504375952 0 0.035044346894400384 -0.013636301340819321 0 0.033892305962501132 -0.015638791989610448 0 0.036192576227322672 -0.0029996500004401691 0 0.036628335475053501 -0.0025450833780769192 0 0.0365443038164633 -0.0024872290938224156 0 0.032447249200275335 -0.014518670504375952 0 0.03201101376539741 -0.01570685652743262 0 0.034389134827800788 -0.016583233419102054 0 0.034083963310007716 -0.014585317166644813 0 0.031831439959894417 -0.014621678396375001 0 0.032447249200275335 -0.014518670504375952 0 0.032138831859697799 -0.01586924673242638 0 0.032138831859697799 -0.01586924673242638 0 0.03201101376539741 -0.01570685652743262 0 0.034145125051118899 -0.015246977899975943 0 0.033372310574546246 -0.014663187270320479 0 0.034071873958112245 -0.014519763797533898 0 0.032138831859697799 -0.01586924673242638 0 0.033892305962501132 -0.015638791989610448 0 0.033372310574546246 -0.014663187270320479 0 0.033351705609326765 -0.014532140363833426 0 0.034071873958112245 -0.014519763797533898 0 0.037237328320828843 -0.012870420517095114 0 0.036123030738168443 -0.012871802989944047 0 0.036634897256690953 -0.013687323942853807 0 0.033892305962501132 -0.015638791989610448 0 0.036068728315316892 -0.013582972772961074 0 0.037243137116288495 -0.012813858552529119 0 0.036122068634194829 -0.012827596066290798 0 0.036499669649090266 -0.012237513769435113 0 0.037190183906342739 -0.012221247615365811 0 0.037243137116288495 -0.012813858552529119 0 0.036499669649090266 -0.012237513769435113 0 0.035044346894400384 -0.013636301340819321 0 0.036467445806934173 -0.011098972776541772 0 0.035044346894400384 -0.013636301340819321 0 0.035811819635572818 -0.012166911098733579 0 0.037244285711370229 -0.012236386140389169 0 0.036297739999595971 -0.01149394595440425 0 0.037139809412821745 -0.010965017104496993 0 0.037190183906342739 -0.012221247615365811 0 0.036499669649090266 -0.012237513769435113 0 0.036346662507725523 -0.011544778031046872 0 0.036499669649090266 -0.012237513769435113 0 0.036346662507725523 -0.011544778031046872 0 0.035475953620430226 -0.011890069869082764 0 0.036099716773912563 -0.010818085959757135 0 0.036297739999595971 -0.01149394595440425 0 0.036521074538495596 -0.010882361769006286 0 0.036297739999595971 -0.01149394595440425 0 0.036521074538495596 -0.010882361769006286 0 0.037139809412821745 -0.010965017104496993 0 0.034999876147593041 -0.010817628449539252 0 0.035475953620430226 -0.011890069869082764 0 0.034999996134054814 -0.012854720196720314 0 0.034999876147593041 -0.010817628449539252 0 0.035450621578093797 -0.010835933223283311 0 0.035475953620430226 -0.011890069869082764 0 0.035450621578093797 -0.010835933223283311 0 0.036346662507725523 -0.011544778031046872 0 0.035475953620430226 -0.011890069869082764 0 0.035493701065363488 -0.011465851238302025 0 0.035811819635572818 -0.012166911098733579 0 0.036099716773912563 -0.010818085959757135 0 0.035450621578093797 -0.010835933223283311 0 0.036297739999595971 -0.01149394595440425 0 0.036068728315316892 -0.013582972772961074 0 0.035000677911121721 -0.01285544270299954 0 0.036122068634194829 -0.012827596066290798 0 0.035475953620430226 -0.011890069869082764 0 0.034999996134054814 -0.012854720196720314 0 0.036122068634194829 -0.012827596066290798 0 0.036499669649090266 -0.012237513769435113 0 0.035475953620430226 -0.011890069869082764 0 0.036123030738168443 -0.012871802989944047 0 0.034999990828929892 -0.012854825174439229 0 0.035901100577992784 -0.01390951360866657 0 0.034999990828929892 -0.012854825174439229 0 0.035901100577992784 -0.01390951360866657 0 0.034999983050939418 -0.014495999400485954 0 0.037237328320828843 -0.012870420517095114 0 0.036634897256690953 -0.013687323942853807 0 0.037401734850296332 -0.014487310814347228 0 0.036123030738168443 -0.012871802989944047 0 0.035901100577992784 -0.01390951360866657 0 0.036634897256690953 -0.013687323942853807 0 0.035901100577992784 -0.01390951360866657 0 0.036634897256690953 -0.013687323942853807 0 0.036573037166220686 -0.014492142473719787 0 0.036634897256690953 -0.013687323942853807 0 0.036573037166220686 -0.014492142473719787 0 0.037401734850296332 -0.014487310814347228 0 0.035901100577992784 -0.01390951360866657 0 0.036573037166220686 -0.014492142473719787 0 0.035925486779997358 -0.015119891052297134 0 0.036573037166220686 -0.014492142473719787 0 0.036857247853643131 -0.015315038374689879 0 0.037401734850296332 -0.014487310814347228 0 0.036573037166220686 -0.014492142473719787 0 0.036857247853643131 -0.015315038374689879 0 0.035925486779997358 -0.015119891052297134 0 0.034999983050939418 -0.014495999400485954 0 0.035925486779997358 -0.015119891052297134 0 0.03499998102589897 -0.016137248622334524 0 0.035901100577992784 -0.01390951360866657 0 0.034999983050939418 -0.014495999400485954 0 0.035925486779997358 -0.015119891052297134 0 0.035925486779997358 -0.015119891052297134 0 0.03499998102589897 -0.016137248622334524 0 0.036134164177058552 -0.016620613232821581 0 0.036857247853643131 -0.015315038374689879 0 0.036134164177058552 -0.016620613232821581 0 0.037556861862268566 -0.016122027630685872 0 0.036857247853643131 -0.015315038374689879 0 0.035925486779997358 -0.015119891052297134 0 0.036134164177058552 -0.016620613232821581 0 0.035895748538623214 -0.017834078090409371 0 0.036699793393885433 -0.017726075717431445 0 0.036134164177058552 -0.016620613232821581 0 0.036699793393885433 -0.017726075717431445 0 0.036134164177058552 -0.016620613232821581 0 0.037556861862268566 -0.016122027630685872 0 0.034999988314398607 -0.017778471991933699 0 0.03499998102589897 -0.016137248622334524 0 0.036134164177058552 -0.016620613232821581 0 0.034999988314398607 -0.017778471991933699 0 0.035895748538623214 -0.017834078090409371 0 0.036134164177058552 -0.016620613232821581 0 0.028372479539808197 -0.021260653816912067 0 0.028434808560087441 -0.021387047162399305 0 0.028317947257010544 -0.021396074678888415 0 0.028434808560087441 -0.021387047162399305 0 0.028393531854508217 -0.021469725537130301 0 0.028317947257010544 -0.021396074678888415 0 0.033270671738079148 -0.019470940087383107 0 0.033073889148848373 -0.018763241874780436 0 0.028516772661793664 -0.021313971179174687 0 0.028434808560087441 -0.021387047162399305 0 0.028507496476590826 -0.02144118342494903 0 0.037700287246748038 -0.017752204655204856 0 0.036699793393885433 -0.017726075717431445 0 0.037556861862268566 -0.016122027630685872 0 0.028434808560087441 -0.021387047162399305 0 0.028507496476590826 -0.02144118342494903 0 0.028393531854508217 -0.021469725537130301 0 0.028507496476590826 -0.02144118342494903 0 0.028393531854508217 -0.021469725537130301 0 0.028464851234411608 -0.021496093345285915 0 0.028393531854508217 -0.021469725537130301 0 0.02841023949102367 -0.021524095002640006 0 0.028464851234411608 -0.021496093345285915 0 0.02841023949102367 -0.021524095002640006 0 0.028464851234411608 -0.021496093345285915 0 0.028498161462328909 -0.021504553614645705 0 0.028507496476590826 -0.02144118342494903 0 0.028464851234411608 -0.021496093345285915 0 0.028466525888831466 -0.021504039038788177 0 0.036857247853643131 -0.015315038374689879 0 0.037556861862268566 -0.016122027630685872 0 0.037401734850296332 -0.014487310814347228 0 0.033073889148848373 -0.018763241874780436 0 0.033119742378842396 -0.018081699764898096 0 0.028464851234411608 -0.021496093345285915 0 0.028498161462328909 -0.021504553614645705 0 0.028466525888831466 -0.021504039038788177 0 0.028534896124000883 -0.021618614526340126 0 0.028523167170753691 -0.021620215747861587 0 0.028498161462328909 -0.021504553614645705 0 0.032138831859697799 -0.01586924673242638 0 0.030141430606492145 -0.021886709966820832 0 0.028450584881225576 -0.021261679371597439 0 0.028498161462328909 -0.021504553614645705 0 0.028466525888831466 -0.021504039038788177 0 0.028528315079699607 -0.021258164253185181 0 0.028450584881225576 -0.021261679371597439 0 0.028498161462328909 -0.021504553614645705 0 0.033892305962501132 -0.015638791989610448 0 0.033119742378842396 -0.018081699764898096 0 0.03201101376539741 -0.01570685652743262 0 0.02929679160390106 -0.020543014254392485 0 0.028523167170753691 -0.021620215747861587 0 0.028498161462328909 -0.021504553614645705 0 0.028400175665346049 -0.021579395107099147 0 0.02841023949102367 -0.021524095002640006 0 0.028498161462328909 -0.021504553614645705 0 0.028400175665346049 -0.021579395107099147 0 0.02929679160390106 -0.020543014254392485 0 0.028626946389766681 -0.021146415705981012 0 0.028439897215186204 -0.021625849503454381 0 0.028253188071304284 -0.021667734627507609 0 0.028358565436256856 -0.021746608138313531 0 0.028439897215186204 -0.021625849503454381 0 0.028253188071304284 -0.021667734627507609 0 0.028266988356316042 -0.021566155752524085 0 0.028253188071304284 -0.021667734627507609 0 0.028266988356316042 -0.021566155752524085 0 0.028098006157991892 -0.021631483116614024 0 0.028253188071304284 -0.021667734627507609 0 0.028098006157991892 -0.021631483116614024 0 0.02811596490083515 -0.021768170605885415 0 0.028266988356316042 -0.021566155752524085 0 0.02809508434050037 -0.021514088416184338 0 0.028098006157991892 -0.021631483116614024 0 0.02841023949102367 -0.021524095002640006 0 0.028400175665346049 -0.021579395107099147 0 0.028266988356316042 -0.021566155752524085 0 0.028393531854508217 -0.021469725537130301 0 0.02841023949102367 -0.021524095002640006 0 0.028266988356316042 -0.021566155752524085 0 0.028393531854508217 -0.021469725537130301 0 0.028266988356316042 -0.021566155752524085 0 0.028261971930138078 -0.021479519737193208 0 0.028393531854508217 -0.021469725537130301 0 0.028261971930138078 -0.021479519737193208 0 0.028317947257010544 -0.021396074678888415 0 0.028266988356316042 -0.021566155752524085 0 0.028261971930138078 -0.021479519737193208 0 0.02809508434050037 -0.021514088416184338 0 0.028261971930138078 -0.021479519737193208 0 0.02809508434050037 -0.021514088416184338 0 0.028195659990760742 -0.021423347078723315 0 0.028230076358408185 -0.021307794909981446 0 0.028195659990760742 -0.021423347078723315 0 0.02809880536830079 -0.02137734126619029 0 0.02809508434050037 -0.021514088416184338 0 0.028195659990760742 -0.021423347078723315 0 0.02809880536830079 -0.02137734126619029 0 0.028230076358408185 -0.021307794909981446 0 0.028195659990760742 -0.021423347078723315 0 0.028317947257010544 -0.021396074678888415 0 0.028261971930138078 -0.021479519737193208 0 0.028195659990760742 -0.021423347078723315 0 0.028317947257010544 -0.021396074678888415 0 0.027801292168551352 -0.021482727579367367 0 0.027972922094668711 -0.021460696928118944 0 0.027894049825571577 -0.021535676779490281 0 0.0279259844067168 -0.021394789427357799 0 0.027801292168551352 -0.021482727579367367 0 0.027972922094668711 -0.021460696928118944 0 0.027723986001333759 -0.021426941030615765 0 0.0279259844067168 -0.021394789427357799 0 0.027801292168551352 -0.021482727579367367 0 0.0279259844067168 -0.021394789427357799 0 0.02809880536830079 -0.02137734126619029 0 0.027972922094668711 -0.021460696928118944 0 0.02809508434050037 -0.021514088416184338 0 0.02809880536830079 -0.02137734126619029 0 0.027972922094668711 -0.021460696928118944 0 0.02809508434050037 -0.021514088416184338 0 0.027894049825571577 -0.021535676779490281 0 0.027932090182210583 -0.021604016820281933 0 0.02809508434050037 -0.021514088416184338 0 0.027972922094668711 -0.021460696928118944 0 0.027894049825571577 -0.021535676779490281 0 0.027894049825571577 -0.021535676779490281 0 0.027813496836440511 -0.02157494779414483 0 0.02771207339444326 -0.021551356636737466 0 0.027801292168551352 -0.021482727579367367 0 0.027894049825571577 -0.021535676779490281 0 0.02771207339444326 -0.021551356636737466 0 0.027894049825571577 -0.021535676779490281 0 0.027813496836440511 -0.02157494779414483 0 0.027932090182210583 -0.021604016820281933 0 0.027813496836440511 -0.02157494779414483 0 0.027932090182210583 -0.021604016820281933 0 0.027775979060711921 -0.021608326646054294 0 0.027932090182210583 -0.021604016820281933 0 0.027813862382787366 -0.021682988214319562 0 0.027775979060711921 -0.021608326646054294 0 0.02809508434050037 -0.021514088416184338 0 0.027932090182210583 -0.021604016820281933 0 0.028098006157991892 -0.021631483116614024 0 0.028098006157991892 -0.021631483116614024 0 0.027968197831798512 -0.021691502845153088 0 0.02811596490083515 -0.021768170605885415 0 0.027932090182210583 -0.021604016820281933 0 0.028098006157991892 -0.021631483116614024 0 0.027968197831798512 -0.021691502845153088 0 0.027932090182210583 -0.021604016820281933 0 0.027968197831798512 -0.021691502845153088 0 0.027813862382787366 -0.021682988214319562 0 0.027968197831798512 -0.021691502845153088 0 0.0278899781906615 -0.021777232127558738 0 0.027813862382787366 -0.021682988214319562 0 0.034536986730475172 -0.003090770638230377 0 0.034538399410479613 -0.003069473711912555 0 0.034627071484086037 -0.0030861756337166482 0 0.034538399410479613 -0.003069473711912555 0 0.034603775604101876 -0.0030409215269797834 0 0.034498817894164945 -0.0030934207159734701 0 0.034538399410479613 -0.003069473711912555 0 0.034603775604101876 -0.0030409215269797834 0 0.034627071484086037 -0.0030861756337166482 0 0.034538399410479613 -0.003069473711912555 0 0.034784158766725221 -0.003034743646477529 0 0.03461689493406718 -0.0031448404362284703 0 0.034538399410479613 -0.003069473711912555 0 0.034704877894219111 -0.0027942063402573649 0 0.034784158766725221 -0.003034743646477529 0 0.034538399410479613 -0.003069473711912555 0 0.034498817894164945 -0.0030934207159734701 0 0.03461689493406718 -0.0031448404362284703 0 0.034536986730475172 -0.003090770638230377 0 0.034538399410479613 -0.003069473711912555 0 0.034704877894219111 -0.0027942063402573649 0 0.03121781680228641 -0.012388865033054666 0 0.031461675966906036 -0.012330504044019207 0 0.027968197831798512 -0.021691502845153088 0 0.0278899781906615 -0.021777232127558738 0 0.02811596490083515 -0.021768170605885415 0 0.031461675966906036 -0.012330504044019207 0 0.032022412991100056 -0.012580991270297107 0 0.034704877894219111 -0.0027942063402573649 0 0.035252469627514341 -0.0029682982779567326 0 0.034784158766725221 -0.003034743646477529 0 0.028253188071304284 -0.021667734627507609 0 0.02811596490083515 -0.021768170605885415 0 0.028358565436256856 -0.021746608138313531 0 0.034704877894219111 -0.0027942063402573649 0 0.03549424437199148 -0.0025490194883483852 0 0.035252469627514341 -0.0029682982779567326 0 0.036192576227322672 -0.0029996500004401691 0 0.03549424437199148 -0.0025490194883483852 0 0.035252469627514341 -0.0029682982779567326 0 0.036192576227322672 -0.0029996500004401691 0 0.035252469627514341 -0.0029682982779567326 0 0.035651875737140931 -0.0033381743629465705 0 0.035252469627514341 -0.0029682982779567326 0 0.035651875737140931 -0.0033381743629465705 0 0.03503751415735825 -0.0032679942044216122 0 0.035252469627514341 -0.0029682982779567326 0 0.034784158766725221 -0.003034743646477529 0 0.03503751415735825 -0.0032679942044216122 0 0.034784158766725221 -0.003034743646477529 0 0.03503751415735825 -0.0032679942044216122 0 0.03461689493406718 -0.0031448404362284703 0 0.03503751415735825 -0.0032679942044216122 0 0.034766719178342571 -0.003294889446901721 0 0.03461689493406718 -0.0031448404362284703 0 0.03503751415735825 -0.0032679942044216122 0 0.035055319329549056 -0.0034919466959802549 0 0.035474334138816919 -0.0037278141477984639 0 0.03503751415735825 -0.0032679942044216122 0 0.035055319329549056 -0.0034919466959802549 0 0.034766719178342571 -0.003294889446901721 0 0.035055319329549056 -0.0034919466959802549 0 0.034766719178342571 -0.003294889446901721 0 0.034795467005433386 -0.0034440490431896075 0 0.035651875737140931 -0.0033381743629465705 0 0.03503751415735825 -0.0032679942044216122 0 0.035474334138816919 -0.0037278141477984639 0 0.035856825284715628 -0.0037527798659422631 0 0.035651875737140931 -0.0033381743629465705 0 0.035474334138816919 -0.0037278141477984639 0 0.035055319329549056 -0.0034919466959802549 0 0.035474334138816919 -0.0037278141477984639 0 0.035265961346087477 -0.0038705353168394033 0 0.035993074042424404 -0.0042616655560331843 0 0.035856825284715628 -0.0037527798659422631 0 0.035474334138816919 -0.0037278141477984639 0 0.035670045127981664 -0.0042152424136435475 0 0.035648119424585747 -0.0045021334598811663 0 0.036189063976633302 -0.0050574990883404166 0 0.035993074042424404 -0.0042616655560331843 0 0.035474334138816919 -0.0037278141477984639 0 0.035670045127981664 -0.0042152424136435475 0 0.035474334138816919 -0.0037278141477984639 0 0.035670045127981664 -0.0042152424136435475 0 0.035265961346087477 -0.0038705353168394033 0 0.035670045127981664 -0.0042152424136435475 0 0.035265961346087477 -0.0038705353168394033 0 0.035648119424585747 -0.0045021334598811663 0 0.034795467005433386 -0.0034440490431896075 0 0.035265961346087477 -0.0038705353168394033 0 0.034949438512808143 -0.0039027964954296999 0 0.035055319329549056 -0.0034919466959802549 0 0.034795467005433386 -0.0034440490431896075 0 0.035265961346087477 -0.0038705353168394033 0 0.035265961346087477 -0.0038705353168394033 0 0.034949438512808143 -0.0039027964954296999 0 0.035648119424585747 -0.0045021334598811663 0 0.034795467005433386 -0.0034440490431896075 0 0.034949438512808143 -0.0039027964954296999 0 0.034487946748534927 -0.0032214926850905002 0 0.034005349653246301 -0.0026869629296773353 0 0.034516812072767675 -0.0029615940614750305 0 0.034383564008813927 -0.0031250752669286985 0 0.034949438512808143 -0.0039027964954296999 0 0.034487946748534927 -0.0032214926850905002 0 0.034005349653246301 -0.0026869629296773353 0 0.034487946748534927 -0.0032214926850905002 0 0.034005349653246301 -0.0026869629296773353 0 0.034383564008813927 -0.0031250752669286985 0 0.034795467005433386 -0.0034440490431896075 0 0.034487946748534927 -0.0032214926850905002 0 0.034383564008813927 -0.0031250752669286985 0 0.034005349653246301 -0.0026869629296773353 0 0.034516812072767675 -0.0029615940614750305 0 0.034882478434792842 -0.0025093395350943692 0 0.034005349653246301 -0.0026869629296773353 0 0.034882478434792842 -0.0025093395350943692 0 0.034005564868310058 -0.0015661062174842668 0 0.034516812072767675 -0.0029615940614750305 0 0.034498817894164945 -0.0030934207159734701 0 0.034383564008813927 -0.0031250752669286985 0 0.034516812072767675 -0.0029615940614750305 0 0.034603775604101876 -0.0030409215269797834 0 0.034498817894164945 -0.0030934207159734701 0 0.034498817894164945 -0.0030934207159734701 0 0.03461689493406718 -0.0031448404362284703 0 0.034383564008813927 -0.0031250752669286985 0 0.034766719178342571 -0.003294889446901721 0 0.03461689493406718 -0.0031448404362284703 0 0.034383564008813927 -0.0031250752669286985 0 0.034766719178342571 -0.003294889446901721 0 0.034795467005433386 -0.0034440490431896075 0 0.034383564008813927 -0.0031250752669286985 0 0.034934373198263757 -0.0028684527195742275 0 0.034826965493679814 -0.0029843637863053228 0 0.034829622769758303 -0.0028467178253237572 0 0.034934373198263757 -0.0028684527195742275 0 0.034826965493679814 -0.0029843637863053228 0 0.034941355847544854 -0.0029753832155474855 0 0.034516812072767675 -0.0029615940614750305 0 0.034603775604101876 -0.0030409215269797834 0 0.034829622769758303 -0.0028467178253237572 0 0.034603775604101876 -0.0030409215269797834 0 0.034826965493679814 -0.0029843637863053228 0 0.034829622769758303 -0.0028467178253237572 0 0.034829622769758303 -0.0028467178253237572 0 0.034882478434792842 -0.0025093395350943692 0 0.034929147585731714 -0.0027335170810932684 0 0.033781750435124151 -0.001145392604893475 0 0.03346544405392253 -0.00099885756438238059 0 0.034516812072767675 -0.0029615940614750305 0 0.034829622769758303 -0.0028467178253237572 0 0.034882478434792842 -0.0025093395350943692 0 0.034934373198263757 -0.0028684527195742275 0 0.034829622769758303 -0.0028467178253237572 0 0.034929147585731714 -0.0027335170810932684 0 0.03346544405392253 -0.00099885756438238059 0 0.032025010305937199 -0.0011167608620037699 0 0.034934373198263757 -0.0028684527195742275 0 0.034929147585731714 -0.0027335170810932684 0 0.035067697643393708 -0.0027767386173640977 0 0.031915347236217577 0.0010078324353633855 0 0.030897557629371051 0.001222675664520223 0 0.031488038713408328 0.00046571258652944325 0 0.030971241269417756 0.00038117755454461619 0 0.030618767498178011 8.0010919874461584e-05 0 0.03105589251154495 -0.00018022106363496378 0 0.030971241269417756 0.00038117755454461619 0 0.03105589251154495 -0.00018022106363496378 0 0.031395836609594573 0.00066230237695996468 0 0.030971241269417756 0.00038117755454461619 0 0.030618767498178011 8.0010919874461584e-05 0 0.030841772438140978 0.00074120169372066352 0 0.032025010305937199 -0.0011167608620037699 0 0.031735665280111576 0.00016871297976510963 0 0.029774423854681868 -8.944406832754808e-05 0 0.03105589251154495 -0.00018022106363496378 0 0.030228323744550166 -0.00091600213422834726 0 0.032025010305937199 -0.0011167608620037699 0 0.031008320638323022 -0.00067442186054804615 0 0.030228323744550166 -0.00091600213422834726 0 0.030009668957278766 -0.0018949395121277155 0 0.032108765267813089 -0.0009103875439655328 0 0.029774423854681868 -8.944406832754808e-05 0 0.030228323744550166 -0.00091600213422834726 0 0.029730771150261875 -0.0021247708510782658 0 0.032025010305937199 -0.0011167608620037699 0 0.031973879738830681 -0.0015724728328707714 0 0.030228323744550166 -0.00091600213422834726 0 0.030009668957278766 -0.0018949395121277155 0 0.029730771150261875 -0.0021247708510782658 0 0.030009668957278766 -0.0018949395121277155 0 0.029520675285666188 -0.0019432049461597539 0 0.029121097438535731 -0.0022585305006120344 0 0.034934373198263757 -0.0028684527195742275 0 0.035067697643393708 -0.0027767386173640977 0 0.034998836743077001 -0.0029011356794135549 0 0.035067697643393708 -0.0027767386173640977 0 0.034998836743077001 -0.0029011356794135549 0 0.035047817975048148 -0.0029930702743091253 0 0.034998836743077001 -0.0029011356794135549 0 0.034941355847544854 -0.0029753832155474855 0 0.035047817975048148 -0.0029930702743091253 0 0.034934373198263757 -0.0028684527195742275 0 0.034998836743077001 -0.0029011356794135549 0 0.034941355847544854 -0.0029753832155474855 0 0.031973879738830681 -0.0015724728328707714 0 0.02831286730996186 -0.010311645564975838 0 0.034941355847544854 -0.0029753832155474855 0 0.035047817975048148 -0.0029930702743091253 0 0.034900748262818616 -0.0031059768173462656 0 0.035047817975048148 -0.0029930702743091253 0 0.034900748262818616 -0.0031059768173462656 0 0.034997049991768572 -0.0032623095112209641 0 0.029730771150261875 -0.0021247708510782658 0 0.029667373473692089 -0.0015847944365109169 0 0.030019767515505568 -0.0011760959316311514 0 0.029520675285666188 -0.0019432049461597539 0 0.029494242845332697 -0.0017510541253759734 0 0.029126834916808175 -0.0017969957808512951 0 0.030009668957278766 -0.0018949395121277155 0 0.029520675285666188 -0.0019432049461597539 0 0.029709051103870694 -0.0019354223305783618 0 0.029520675285666188 -0.0019432049461597539 0 0.029709051103870694 -0.0019354223305783618 0 0.029494242845332697 -0.0017510541253759734 0 0.029730771150261875 -0.0021247708510782658 0 0.029709051103870694 -0.0019354223305783618 0 0.029667373473692089 -0.0015847944365109169 0 0.030009668957278766 -0.0018949395121277155 0 0.029730771150261875 -0.0021247708510782658 0 0.029709051103870694 -0.0019354223305783618 0 0.029494242845332697 -0.0017510541253759734 0 0.029177827265041176 -0.0013611152362985436 0 0.029126834916808175 -0.0017969957808512951 0 0.029667373473692089 -0.0015847944365109169 0 0.029494242845332697 -0.0017510541253759734 0 0.029177827265041176 -0.0013611152362985436 0 0.029709051103870694 -0.0019354223305783618 0 0.029667373473692089 -0.0015847944365109169 0 0.029494242845332697 -0.0017510541253759734 0 0.024200839540012849 -0.011290655906521526 0 0.028706524692169461 -0.0054923782603189478 0 0.029667373473692089 -0.0015847944365109169 0 0.029504008570828712 -0.0011438978984186254 0 0.029177827265041176 -0.0013611152362985436 0 0.029667373473692089 -0.0015847944365109169 0 0.029504008570828712 -0.0011438978984186254 0 0.030019767515505568 -0.0011760959316311514 0 0.024200839540012849 -0.011290655906521526 0 0.019638470299997574 -0.022100474250749624 0 0.024200839540012849 -0.011290655906521526 0 0.02831286730996186 -0.010311645564975838 0 0.02646059363476613 -0.012578100908509839 0 0.023055552099520541 -0.01264132827128658 0 0.022743427820821203 -0.016354446025737508 0 0.02831286730996186 -0.010311645564975838 0 0.031521855587893416 -0.012223197706359852 0 0.02741036974193533 -0.021755408764923403 0 0.027667127801640504 -0.021774745677423345 0 0.027461048082166841 -0.021678618870827924 0 0.034900748262818616 -0.0031059768173462656 0 0.034997049991768572 -0.0032623095112209641 0 0.034748181000609481 -0.0032311665921869563 0 0.02831286730996186 -0.010311645564975838 0 0.019638470299997574 -0.022100474250749624 0 0.034826965493679814 -0.0029843637863053228 0 0.034900748262818616 -0.0031059768173462656 0 0.034748181000609481 -0.0032311665921869563 0 0.034826965493679814 -0.0029843637863053228 0 0.034941355847544854 -0.0029753832155474855 0 0.034900748262818616 -0.0031059768173462656 0 0.034603775604101876 -0.0030409215269797834 0 0.034826965493679814 -0.0029843637863053228 0 0.034627071484086037 -0.0030861756337166482 0 0.034826965493679814 -0.0029843637863053228 0 0.034748181000609481 -0.0032311665921869563 0 0.034627071484086037 -0.0030861756337166482 0 0.03121781680228641 -0.012388865033054666 0 0.031521855587893416 -0.012223197706359852 0 0.0278899781906615 -0.021777232127558738 0 0.027667127801640504 -0.021774745677423345 0 0.027813862382787366 -0.021682988214319562 0 0.034536986730475172 -0.003090770638230377 0 0.034748181000609481 -0.0032311665921869563 0 0.034627071484086037 -0.0030861756337166482 0 0.027667127801640504 -0.021774745677423345 0 0.027813862382787366 -0.021682988214319562 0 0.027682259953649233 -0.021647368906178851 0 0.027813862382787366 -0.021682988214319562 0 0.027682259953649233 -0.021647368906178851 0 0.027775979060711921 -0.021608326646054294 0 0.027667127801640504 -0.021774745677423345 0 0.027589574134306401 -0.021672156635059142 0 0.027461048082166841 -0.021678618870827924 0 0.027667127801640504 -0.021774745677423345 0 0.027589574134306401 -0.021672156635059142 0 0.027682259953649233 -0.021647368906178851 0 0.027589574134306401 -0.021672156635059142 0 0.027682259953649233 -0.021647368906178851 0 0.02754789590920741 -0.02159417701849407 0 0.02754789590920741 -0.02159417701849407 0 0.027704540644050719 -0.021577925529952854 0 0.027663309758816982 -0.021518401249805672 0 0.027682259953649233 -0.021647368906178851 0 0.02754789590920741 -0.02159417701849407 0 0.027704540644050719 -0.021577925529952854 0 0.025110667160453608 -0.022795771199630489 0 0.024596703898544379 -0.022916967728889188 0 0.013849816076074096 -0.02431895031220626 0 0.013624587703338688 -0.024600467795831377 0 0.013814078719137706 -0.024650821362793583 0 0.020941174360099023 -0.023211796650856476 0 0.024596703898544379 -0.022916967728889188 0 0.027682259953649233 -0.021647368906178851 0 0.027775979060711921 -0.021608326646054294 0 0.027704540644050719 -0.021577925529952854 0 0.027704540644050719 -0.021577925529952854 0 0.027734769048823951 -0.021566341030152307 0 0.027706375672435172 -0.021568292575273873 0 0.027775979060711921 -0.021608326646054294 0 0.027704540644050719 -0.021577925529952854 0 0.027734769048823951 -0.021566341030152307 0 0.027813496836440511 -0.02157494779414483 0 0.027775979060711921 -0.021608326646054294 0 0.027734769048823951 -0.021566341030152307 0 0.027813496836440511 -0.02157494779414483 0 0.02771207339444326 -0.021551356636737466 0 0.027734769048823951 -0.021566341030152307 0 0.02771207339444326 -0.021551356636737466 0 0.027545675266772256 -0.021705560368068734 0 0.027570908314722871 -0.02154215245848929 0 0.02771207339444326 -0.021551356636737466 0 0.027734769048823951 -0.021566341030152307 0 0.027706375672435172 -0.021568292575273873 0 0.027071675155455513 -0.02121582879001822 0 0.024596703898544379 -0.022916967728889188 0 0.013624587703338688 -0.024600467795831377 0 0.013814078719137706 -0.024650821362793583 0 0.013755969156221844 -0.024967211810694577 0 0.024596703898544379 -0.022916967728889188 0 0.021040144423944935 -0.022845069448507754 0 0.027545675266772256 -0.021705560368068734 0 0.027570908314722871 -0.02154215245848929 0 0.027447787225795581 -0.021476090492662678 0 0.027570908314722871 -0.02154215245848929 0 0.027447787225795581 -0.021476090492662678 0 0.027582527257868326 -0.021472628908099662 0 0.027460981650391972 -0.021424164949011174 0 0.027447787225795581 -0.021476090492662678 0 0.027582527257868326 -0.021472628908099662 0 0.027723986001333759 -0.021426941030615765 0 0.027801292168551352 -0.021482727579367367 0 0.027582527257868326 -0.021472628908099662 0 0.027801292168551352 -0.021482727579367367 0 0.02771207339444326 -0.021551356636737466 0 0.027582527257868326 -0.021472628908099662 0 0.02771207339444326 -0.021551356636737466 0 0.027570908314722871 -0.02154215245848929 0 0.027582527257868326 -0.021472628908099662 0 0.013655671030972516 -0.025111831116025191 0 0.013615971039704806 -0.02512277120293022 0 0.013606781133805045 -0.025112219521195599 0 0.013655671030972516 -0.025111831116025191 0 0.013615971039704806 -0.02512277120293022 0 0.013673334472392547 -0.025100870365033986 0 0.013668514002214676 -0.025110431188006065 0 0.013615971039704806 -0.02512277120293022 0 0.013673334472392547 -0.025100870365033986 0 0.01387063068916475 -0.024919081480907726 0 0.014235859987328493 -0.025309210496367817 0 0.013668514002214676 -0.025110431188006065 0 0.013673334472392547 -0.025100870365033986 0 0.013747419012453776 -0.025068571404391317 0 0.020640995456568344 -0.023232585796739747 0 0.021040144423944935 -0.022845069448507754 0 0.013655671030972516 -0.025111831116025191 0 0.013673334472392547 -0.025100870365033986 0 0.013747419012453776 -0.025068571404391317 0 0.013726453310047322 -0.025120287896495199 0 0.013755969156221844 -0.024967211810694577 0 0.013747419012453776 -0.025068571404391317 0 0.013655671030972516 -0.025111831116025191 0 0.013747419012453776 -0.025068571404391317 0 0.013654532755098127 -0.025119596630170462 0 0.013755969156221844 -0.024967211810694577 0 0.013747419012453776 -0.025068571404391317 0 0.014028166011720019 -0.024665437413573008 0 0.013814078719137706 -0.024650821362793583 0 0.013755969156221844 -0.024967211810694577 0 0.014028166011720019 -0.024665437413573008 0 0.013655671030972516 -0.025111831116025191 0 0.013642815809210906 -0.025106748333473979 0 0.013606781133805045 -0.025112219521195599 0 0.013655671030972516 -0.025111831116025191 0 0.013654532755098127 -0.025119596630170462 0 0.013642815809210906 -0.025106748333473979 0 0.013642815809210906 -0.025106748333473979 0 0.01365456949948125 -0.025089619660265117 0 0.013646428364604259 -0.025076416697904651 0 0.013654532755098127 -0.025119596630170462 0 0.013642815809210906 -0.025106748333473979 0 0.01365456949948125 -0.025089619660265117 0 0.013654532755098127 -0.025119596630170462 0 0.01365456949948125 -0.025089619660265117 0 0.013666557923521585 -0.025078060981249949 0 0.014235859987328493 -0.025309210496367817 0 0.019638470299997574 -0.022100474250749624 0 0.013849816076074096 -0.02431895031220626 0 0.014028166011720019 -0.024665437413573008 0 0.014188413684931279 -0.023996622041231101 0 0.013849816076074096 -0.02431895031220626 0 0.013814078719137706 -0.024650821362793583 0 0.014028166011720019 -0.024665437413573008 0 0.02754789590920741 -0.02159417701849407 0 0.027413775905946045 -0.021667441057322864 0 0.027461048082166841 -0.021678618870827924 0 0.020941174360099023 -0.023211796650856476 0 0.019638470299997574 -0.022100474250749624 0 0.027589574134306401 -0.021672156635059142 0 0.02754789590920741 -0.02159417701849407 0 0.027461048082166841 -0.021678618870827924 0 0.02741036974193533 -0.021755408764923403 0 0.027410144553619124 -0.021661832491382638 0 0.027461048082166841 -0.021678618870827924 0 0.019638470299997574 -0.022100474250749624 0 0.02107398321232317 -0.022359686328118685 0 0.016300113255458576 -0.025776791634776967 0 0.01688860798028357 -0.025199894953921668 0 0.015767253303783282 -0.024964434919098971 0 0.01365456949948125 -0.025089619660265117 0 0.013666557923521585 -0.025078060981249949 0 0.013646428364604259 -0.025076416697904651 0 0.019638470299997574 -0.022100474250749624 0 0.014505502080725485 -0.024466120669418917 0 0.013646428364604259 -0.025076416697904651 0 0.013657263773696748 -0.025031740142592337 0 0.013606781133805045 -0.025112219521195599 0 0.013642815809210906 -0.025106748333473979 0 0.013646428364604259 -0.025076416697904651 0 0.013606781133805045 -0.025112219521195599 0 0.015767253303783282 -0.024964434919098971 0 0.014721845393482126 -0.024831996335489569 0 0.01509046827490686 -0.025794660087268394 0 0.014721845393482126 -0.024831996335489569 0 0.014359901872153014 -0.025333649208011417 0 0.01509046827490686 -0.025794660087268394 0 0.014505502080725485 -0.024466120669418917 0 0.014283557908229496 -0.024911922999514717 0 0.013657263773696748 -0.025031740142592337 0 0.013606781133805045 -0.025112219521195599 0 0.013688676975646772 -0.025074221192014391 0 0.013606781133805045 -0.025112219521195599 0 0.013646235049653092 -0.025119950545936274 0 0.013688676975646772 -0.025074221192014391 0 0.013615686046054514 -0.025169727211120447 0 0.013606781133805045 -0.025112219521195599 0 0.013646235049653092 -0.025119950545936274 0 0.013555539205042938 -0.025160543561187521 0 0.01358099615838038 -0.025120776911769845 0 0.01354075694877935 -0.025133307426871167 0 0.013511094168357657 -0.025146601907607292 0 0.013606781133805045 -0.025112219521195599 0 0.01354075694877935 -0.025133307426871167 0 0.013615971039704806 -0.02512277120293022 0 0.013606781133805045 -0.025112219521195599 0 0.013679136045684335 -0.025156724458049614 0 0.013689170569095244 -0.025118366861911223 0 0.013735259012209001 -0.025109633848642253 0 0.013689170569095244 -0.025118366861911223 0 0.013755080399183195 -0.025067256143870273 0 0.013735259012209001 -0.025109633848642253 0 0.013715770789508499 -0.025169715230155081 0 0.013679136045684335 -0.025156724458049614 0 0.013735259012209001 -0.025109633848642253 0 0.013615686046054514 -0.025169727211120447 0 0.013646235049653092 -0.025119950545936274 0 0.013689170569095244 -0.025118366861911223 0 0.013679136045684335 -0.025156724458049614 0 0.013615686046054514 -0.025169727211120447 0 0.013689170569095244 -0.025118366861911223 0 0.013689170569095244 -0.025118366861911223 0 0.013688676975646772 -0.025074221192014391 0 0.013755080399183195 -0.025067256143870273 0 0.013646235049653092 -0.025119950545936274 0 0.013689170569095244 -0.025118366861911223 0 0.013688676975646772 -0.025074221192014391 0 0.013755080399183195 -0.025067256143870273 0 0.013751205594045784 -0.02504952549650152 0 0.013735259012209001 -0.025109633848642253 0 0.013688676975646772 -0.025074221192014391 0 0.013755080399183195 -0.025067256143870273 0 0.0138382968404727 -0.024976744906444578 0 0.013755080399183195 -0.025067256143870273 0 0.0138382968404727 -0.024976744906444578 0 0.013751205594045784 -0.02504952549650152 0 0.0138382968404727 -0.024976744906444578 0 0.013927813344061856 -0.025220574020716497 0 0.013707274863990397 -0.025057492075821784 0 0.0138382968404727 -0.024976744906444578 0 0.014111580200304862 -0.025153765213395213 0 0.013927813344061856 -0.025220574020716497 0 0.014283557908229496 -0.024911922999514717 0 0.013958263266567012 -0.02492958207490651 0 0.013657263773696748 -0.025031740142592337 0 0.013688676975646772 -0.025074221192014391 0 0.0138382968404727 -0.024976744906444578 0 0.014721845393482126 -0.024831996335489569 0 0.0138382968404727 -0.024976744906444578 0 0.014111580200304862 -0.025153765213395213 0 0.014721845393482126 -0.024831996335489569 0 0.014111580200304862 -0.025153765213395213 0 0.014359901872153014 -0.025333649208011417 0 0.014111580200304862 -0.025153765213395213 0 0.014359901872153014 -0.025333649208011417 0 0.0140856957942828 -0.025395871734035794 0 0.014359901872153014 -0.025333649208011417 0 0.0140856957942828 -0.025395871734035794 0 0.014100644087937745 -0.025732500977030233 0 0.013927813344061856 -0.025220574020716497 0 0.013971708294192331 -0.025620065482774956 0 0.013707274863990397 -0.025057492075821784 0 0.016725159646218478 -0.020824004629179469 0 0.014515986905591898 -0.02431323168042503 0 0.013927813344061856 -0.025220574020716497 0 0.0140856957942828 -0.025395871734035794 0 0.013971708294192331 -0.025620065482774956 0 0.016725159646218478 -0.020824004629179469 0 0.014170505554587468 -0.025311852417900512 0 0.014111580200304862 -0.025153765213395213 0 0.013927813344061856 -0.025220574020716497 0 0.0140856957942828 -0.025395871734035794 0 0.01851493187344749 -0.016400590380033074 0 0.019103873071605829 -0.013400787402456434 0 0.025809484562967003 -0.00078341067072619616 0 0.025528714966451239 -0.0014736465788052367 0 0.023871323691191926 -0.00084736262640627965 0 0.014219320731793149 -0.025142280883642065 0 0.014273379358702015 -0.025161205289956606 0 0.013960099999176558 -0.025214629883612914 0 0.0140856957942828 -0.025395871734035794 0 0.013971708294192331 -0.025620065482774956 0 0.014100644087937745 -0.025732500977030233 0 0.016725159646218478 -0.020824004629179469 0 0.01851493187344749 -0.016400590380033074 0 0.025809484562967003 -0.00078341067072619616 0 0.025528714966451239 -0.0014736465788052367 0 0.0261463180398749 -0.00098375319389423246 0 0.025528714966451239 -0.0014736465788052367 0 0.026199529402621269 -0.0020134353705757698 0 0.025022766477358179 -0.0027256023194954454 0 0.025528714966451239 -0.0014736465788052367 0 0.025022766477358179 -0.0027256023194954454 0 0.023871323691191926 -0.00084736262640627965 0 0.026199529402621269 -0.0020134353705757698 0 0.027192077390352717 -0.0020297577440283243 0 0.026570856696019954 -0.0027255120009770737 0 0.025528714966451239 -0.0014736465788052367 0 0.026199529402621269 -0.0020134353705757698 0 0.026130375729033224 -0.001496175662530602 0 0.026199529402621269 -0.0020134353705757698 0 0.026130375729033224 -0.001496175662530602 0 0.026630150729074171 -0.0015853571912909305 0 0.026199529402621269 -0.0020134353705757698 0 0.026630150729074171 -0.0015853571912909305 0 0.027192077390352717 -0.0020297577440283243 0 0.026630150729074171 -0.0015853571912909305 0 0.027304604366675027 -0.0014246955070311531 0 0.027192077390352717 -0.0020297577440283243 0 0.01851493187344749 -0.016400590380033074 0 0.02150600008697837 -0.013386465200516532 0 0.025814383847560799 -0.00078356551151613073 0 0.0261463180398749 -0.00098375319389423246 0 0.027865484846313595 -0.00077630339617454727 0 0.026630150729074171 -0.0015853571912909305 0 0.0261463180398749 -0.00098375319389423246 0 0.027304604366675027 -0.0014246955070311531 0 0.014359901872153014 -0.025333649208011417 0 0.014100644087937745 -0.025732500977030233 0 0.01509046827490686 -0.025794660087268394 0 0.025528714966451239 -0.0014736465788052367 0 0.026130375729033224 -0.001496175662530602 0 0.0261463180398749 -0.00098375319389423246 0 0.026130375729033224 -0.001496175662530602 0 0.026630150729074171 -0.0015853571912909305 0 0.0261463180398749 -0.00098375319389423246 0 0.01851493187344749 -0.016400590380033074 0 0.018715596254103725 -0.015257797027912265 0 0.0261463180398749 -0.00098375319389423246 0 0.027865484846313595 -0.00077630339617454727 0 0.027304604366675027 -0.0014246955070311531 0 0.027865484846313595 -0.00077630339617454727 0 0.028319639337568845 -0.0017759445856437447 0 0.027304604366675027 -0.0014246955070311531 0 0.024200839540012849 -0.011290655906521526 0 0.02150600008697837 -0.013386465200516532 0 0.0296917494639014 -0.00087767411722825125 0 0.027865484846313595 -0.00077630339617454727 0 0.029177827265041176 -0.0013611152362985436 0 0.027865484846313595 -0.00077630339617454727 0 0.029177827265041176 -0.0013611152362985436 0 0.028319639337568845 -0.0017759445856437447 0 0.016300113255458576 -0.025776791634776967 0 0.015767253303783282 -0.024964434919098971 0 0.01509046827490686 -0.025794660087268394 0 0.028319639337568845 -0.0017759445856437447 0 0.027709851110833562 -0.002616625988718872 0 0.029121097438535731 -0.0022585305006120344 0 0.029177827265041176 -0.0013611152362985436 0 0.028319639337568845 -0.0017759445856437447 0 0.029126834916808175 -0.0017969957808512951 0 0.028319639337568845 -0.0017759445856437447 0 0.029126834916808175 -0.0017969957808512951 0 0.029121097438535731 -0.0022585305006120344 0 0.029520675285666188 -0.0019432049461597539 0 0.029126834916808175 -0.0017969957808512951 0 0.029121097438535731 -0.0022585305006120344 0 0.028319639337568845 -0.0017759445856437447 0 0.027304604366675027 -0.0014246955070311531 0 0.027192077390352717 -0.0020297577440283243 0 0.028319639337568845 -0.0017759445856437447 0 0.027192077390352717 -0.0020297577440283243 0 0.027709851110833562 -0.002616625988718872 0 0.030111349996565128 -0.0019731978066988747 0 0.029918114824173961 -0.0019476580013350203 0 0.027192077390352717 -0.0020297577440283243 0 0.027709851110833562 -0.002616625988718872 0 0.026570856696019954 -0.0027255120009770737 0 0.027709851110833562 -0.002616625988718872 0 0.028379907498961233 -0.003080842230384418 0 0.026543587435815079 -0.0037125907673839168 0 0.027709851110833562 -0.002616625988718872 0 0.028379907498961233 -0.003080842230384418 0 0.029121097438535731 -0.0022585305006120344 0 0.029963434276420252 -0.0019750274752225417 0 0.030111349996565128 -0.0019731978066988747 0 0.03105589251154495 -0.00018022106363496378 0 0.030228323744550166 -0.00091600213422834726 0 0.032108765267813089 -0.0009103875439655328 0 0.030009668957278766 -0.0018949395121277155 0 0.028379907498961233 -0.003080842230384418 0 0.029121097438535731 -0.0022585305006120344 0 0.03105589251154495 -0.00018022106363496378 0 0.032228479214171164 0.00039009526249306816 0 0.031395836609594573 0.00066230237695996468 0 0.03105589251154495 -0.00018022106363496378 0 0.032108765267813089 -0.0009103875439655328 0 0.032228479214171164 0.00039009526249306816 0 0.032108765267813089 -0.0009103875439655328 0 0.032228479214171164 0.00039009526249306816 0 0.033387419716198637 -0.00026146299959816283 0 0.032228479214171164 0.00039009526249306816 0 0.033387419716198637 -0.00026146299959816283 0 0.033140400896696579 0.00086565822040904881 0 0.029918114824173961 -0.0019476580013350203 0 0.029545477169403384 -0.0016470210166663287 0 0.033387419716198637 -0.00026146299959816283 0 0.034189236604341339 0.0010386230598060969 0 0.034516144808041889 0.00029538900860761838 0 0.026543587435815079 -0.0037125907673839168 0 0.025022766477358179 -0.0027256023194954454 0 0.024697130055126644 -0.0042376692189103685 0 0.026199529402621269 -0.0020134353705757698 0 0.025022766477358179 -0.0027256023194954454 0 0.026570856696019954 -0.0027255120009770737 0 0.026543587435815079 -0.0037125907673839168 0 0.025022766477358179 -0.0027256023194954454 0 0.026570856696019954 -0.0027255120009770737 0 0.027709851110833562 -0.002616625988718872 0 0.026543587435815079 -0.0037125907673839168 0 0.026570856696019954 -0.0027255120009770737 0 0.03370233921793437 0.0015531258651691486 0 0.03308671598165018 0.0018653154603962777 0 0.033140400896696579 0.00086565822040904881 0 0.03370233921793437 0.0015531258651691486 0 0.03308671598165018 0.0018653154603962777 0 0.033730715304375027 0.0022800463675869704 0 0.03370233921793437 0.0015531258651691486 0 0.034249259726181168 0.001864631809944768 0 0.034189236604341339 0.0010386230598060969 0 0.03370233921793437 0.0015531258651691486 0 0.034249259726181168 0.001864631809944768 0 0.033730715304375027 0.0022800463675869704 0 0.034249259726181168 0.001864631809944768 0 0.034189236604341339 0.0010386230598060969 0 0.034745264213181054 0.0016424327660512017 0 0.033387419716198637 -0.00026146299959816283 0 0.034189236604341339 0.0010386230598060969 0 0.033140400896696579 0.00086565822040904881 0 0.03370233921793437 0.0015531258651691486 0 0.034189236604341339 0.0010386230598060969 0 0.033140400896696579 0.00086565822040904881 0 0.032228479214171164 0.00039009526249306816 0 0.031827313115078866 0.001102542186676269 0 0.032430628943489657 0.0013330653677923381 0 0.032228479214171164 0.00039009526249306816 0 0.033140400896696579 0.00086565822040904881 0 0.032430628943489657 0.0013330653677923381 0 0.032228479214171164 0.00039009526249306816 0 0.031395836609594573 0.00066230237695996468 0 0.031827313115078866 0.001102542186676269 0 0.031395836609594573 0.00066230237695996468 0 0.031827313115078866 0.001102542186676269 0 0.031299034278335011 0.0013465172662697629 0 0.031827313115078866 0.001102542186676269 0 0.031299034278335011 0.0013465172662697629 0 0.031856087015278534 0.0017719400218330619 0 0.031827313115078866 0.001102542186676269 0 0.031856087015278534 0.0017719400218330619 0 0.032430628943489657 0.0013330653677923381 0 0.031856087015278534 0.0017719400218330619 0 0.032417375548109979 0.0021875720905204566 0 0.031842665015411199 0.0025263935825343849 0 0.031299034278335011 0.0013465172662697629 0 0.031856087015278534 0.0017719400218330619 0 0.031278605114102798 0.0023171039023687145 0 0.03308671598165018 0.0018653154603962777 0 0.033140400896696579 0.00086565822040904881 0 0.032430628943489657 0.0013330653677923381 0 0.031856087015278534 0.0017719400218330619 0 0.032430628943489657 0.0013330653677923381 0 0.032417375548109979 0.0021875720905204566 0 0.03308671598165018 0.0018653154603962777 0 0.032430628943489657 0.0013330653677923381 0 0.032417375548109979 0.0021875720905204566 0 0.03308671598165018 0.0018653154603962777 0 0.032417375548109979 0.0021875720905204566 0 0.033015770562966069 0.002717945080188783 0 0.032417375548109979 0.0021875720905204566 0 0.033015770562966069 0.002717945080188783 0 0.032200271874035333 0.0031043875612783225 0 0.032417375548109979 0.0021875720905204566 0 0.032200271874035333 0.0031043875612783225 0 0.031842665015411199 0.0025263935825343849 0 0.033015770562966069 0.002717945080188783 0 0.032200271874035333 0.0031043875612783225 0 0.032434555380218846 0.003975734705313011 0 0.031278605114102798 0.0023171039023687145 0 0.031459444452757473 0.0033276768225568767 0 0.030721139455772827 0.0036851091399520974 0 0.031278605114102798 0.0023171039023687145 0 0.031842665015411199 0.0025263935825343849 0 0.031459444452757473 0.0033276768225568767 0 0.031856087015278534 0.0017719400218330619 0 0.031278605114102798 0.0023171039023687145 0 0.031842665015411199 0.0025263935825343849 0 0.032200271874035333 0.0031043875612783225 0 0.031842665015411199 0.0025263935825343849 0 0.031459444452757473 0.0033276768225568767 0 0.031638910723752793 0.0037347590139074275 0 0.031317693342979541 0.0021169292493098389 0 0.031459444452757473 0.0033276768225568767 0 0.031656693468945826 0.0044512033224556611 0 0.030721139455772827 0.0036851091399520974 0 0.031656693468945826 0.0044512033224556611 0 0.031462031318701969 0.005225572321785105 0 0.030721139455772827 0.0036851091399520974 0 0.032200271874035333 0.0031043875612783225 0 0.031459444452757473 0.0033276768225568767 0 0.031656693468945826 0.0044512033224556611 0 0.031554180017923747 0.0050532724736480593 0 0.031155236916405541 0.0057577394652167675 0 0.031413145604737402 0.0053228835438709054 0 0.032200271874035333 0.0031043875612783225 0 0.031656693468945826 0.0044512033224556611 0 0.032434555380218846 0.003975734705313011 0 0.031847123147177733 0.0048099301666020286 0 0.032100992464231065 0.0048216896108257482 0 0.031656693468945826 0.0044512033224556611 0 0.031554180017923747 0.0050532724736480593 0 0.031550006414552162 0.0050930260150195139 0 0.033015770562966069 0.002717945080188783 0 0.032434555380218846 0.003975734705313011 0 0.033820290488212654 0.0031238808369025762 0 0.032100992464231065 0.0048216896108257482 0 0.031501863040980273 0.0053296261164729455 0 0.032100992464231065 0.0048216896108257482 0 0.032834722315508109 0.0043422310127531989 0 0.03284500211450183 0.0051954054885626202 0 0.031997947915780818 0.0050660851994130248 0 0.03185929286879477 0.0054557856041517559 0 0.033015770562966069 0.002717945080188783 0 0.033820290488212654 0.0031238808369025762 0 0.033730715304375027 0.0022800463675869704 0 0.03308671598165018 0.0018653154603962777 0 0.033015770562966069 0.002717945080188783 0 0.033730715304375027 0.0022800463675869704 0 0.033820290488212654 0.0031238808369025762 0 0.034363737750971034 0.0025511881026608232 0 0.034977120798856752 0.0026238076544333245 0 0.032834722315508109 0.0043422310127531989 0 0.033144075209537771 0.0041820016532450122 0 0.034249259726181168 0.001864631809944768 0 0.034363737750971034 0.0025511881026608232 0 0.034685645671913221 0.0020995125110154123 0 0.034249259726181168 0.001864631809944768 0 0.033730715304375027 0.0022800463675869704 0 0.034363737750971034 0.0025511881026608232 0 0.033820290488212654 0.0031238808369025762 0 0.033730715304375027 0.0022800463675869704 0 0.034363737750971034 0.0025511881026608232 0 0.03185929286879477 0.0054557856041517559 0 0.031118936838946471 0.0049241506821517574 0 0.030829189021628022 0.005728005148868791 0 0.031997947915780818 0.0050660851994130248 0 0.03185929286879477 0.0054557856041517559 0 0.031118936838946471 0.0049241506821517574 0 0.031501863040980273 0.0053296261164729455 0 0.030825253256203038 0.0056159260611101129 0 0.031155236916405541 0.0057577394652167675 0 0.031016022671993874 0.0056262691662145271 0 0.03059193165411881 0.0062180650052310786 0 0.031016022671993874 0.0056262691662145271 0 0.03059193165411881 0.0062180650052310786 0 0.030448958416606425 0.0060690596840264639 0 0.031155236916405541 0.0057577394652167675 0 0.031016022671993874 0.0056262691662145271 0 0.031413145604737402 0.0053228835438709054 0 0.031016022671993874 0.0056262691662145271 0 0.031482276832387315 0.0049747161090808924 0 0.031413145604737402 0.0053228835438709054 0 0.031016022671993874 0.0056262691662145271 0 0.031056827273686242 0.0054746956019702826 0 0.031482276832387315 0.0049747161090808924 0 0.031016022671993874 0.0056262691662145271 0 0.030739187859482341 0.0057786843553342135 0 0.031056827273686242 0.0054746956019702826 0 0.031016022671993874 0.0056262691662145271 0 0.030739187859482341 0.0057786843553342135 0 0.030448958416606425 0.0060690596840264639 0 0.030739187859482341 0.0057786843553342135 0 0.031056827273686242 0.0054746956019702826 0 0.030850051598210335 0.0056938588027638697 0 0.031056827273686242 0.0054746956019702826 0 0.031101984334934808 0.0054414073085076861 0 0.030847820409003641 0.005784347862207764 0 0.031056827273686242 0.0054746956019702826 0 0.030850051598210335 0.0056938588027638697 0 0.030847820409003641 0.005784347862207764 0 0.030850051598210335 0.0056938588027638697 0 0.030864490658681059 0.0058998370738439637 0 0.030847820409003641 0.005784347862207764 0 0.030693762322922643 0.00556728199142282 0 0.031101984334934808 0.0054414073085076861 0 0.030677117604483828 0.0059879089493025776 0 0.031101984334934808 0.0054414073085076861 0 0.030677117604483828 0.0059879089493025776 0 0.030847820409003641 0.005784347862207764 0 0.031056827273686242 0.0054746956019702826 0 0.031101984334934808 0.0054414073085076861 0 0.031482276832387315 0.0049747161090808924 0 0.030693762322922643 0.00556728199142282 0 0.031101984334934808 0.0054414073085076861 0 0.031106198278433819 0.0044228508148328061 0 0.031101984334934808 0.0054414073085076861 0 0.031482276832387315 0.0049747161090808924 0 0.031106198278433819 0.0044228508148328061 0 0.031653840039572646 0.0044875131061307989 0 0.031638910723752793 0.0037347590139074275 0 0.031482276832387315 0.0049747161090808924 0 0.032079171194273094 0.0027154322943314943 0 0.031106198278433819 0.0044228508148328061 0 0.031482276832387315 0.0049747161090808924 0 0.031413145604737402 0.0053228835438709054 0 0.031462031318701969 0.005225572321785105 0 0.031413145604737402 0.0053228835438709054 0 0.031550006414552162 0.0050930260150195139 0 0.031462031318701969 0.005225572321785105 0 0.031554180017923747 0.0050532724736480593 0 0.031413145604737402 0.0053228835438709054 0 0.031550006414552162 0.0050930260150195139 0 0.031656693468945826 0.0044512033224556611 0 0.031550006414552162 0.0050930260150195139 0 0.031462031318701969 0.005225572321785105 0 0.031352478142532163 0.0019649732477635368 0 0.030064571145193009 0.0033448138217202989 0 0.031632935160420504 0.00012701726011771214 0 0.032079171194273094 0.0027154322943314943 0 0.031352478142532163 0.0019649732477635368 0 0.031106198278433819 0.0044228508148328061 0 0.033406187582172488 -0.00049334236084385222 0 0.032519649022831401 -0.00045092995134272615 0 0.031632935160420504 0.00012701726011771214 0 0.03187124255792894 0.0016932812399734997 0 0.031700225901762781 0.00066531917229250366 0 0.03187124255792894 0.0016932812399734997 0 0.032355188403107686 0.0034802752043213855 0 0.030064571145193009 0.0033448138217202989 0 0.031106198278433819 0.0044228508148328061 0 0.030055854838581069 0.0052293296826022313 0 0.031352478142532163 0.0019649732477635368 0 0.030064571145193009 0.0033448138217202989 0 0.031106198278433819 0.0044228508148328061 0 0.030693762322922643 0.00556728199142282 0 0.031106198278433819 0.0044228508148328061 0 0.030055854838581069 0.0052293296826022313 0 0.03485651429257107 0.0016828359654141925 0 0.033597065997629981 0.0036270510235057135 0 0.033007107150787272 0.00045984094879320599 0 0.033406187582172488 -0.00049334236084385222 0 0.03485651429257107 0.0016828359654141925 0 0.033007107150787272 0.00045984094879320599 0 0.03485651429257107 0.0016828359654141925 0 0.033597065997629981 0.0036270510235057135 0 0.03448957165684418 0.0052685622264016223 0 0.032355188403107686 0.0034802752043213855 0 0.032754980099288733 0.0062523221306234221 0 0.03485651429257107 0.0016828359654141925 0 0.03448957165684418 0.0052685622264016223 0 0.035104644005487351 0.005591172164092678 0 0.030055854838581069 0.0052293296826022313 0 0.030355626068142974 0.0056936571202503318 0 0.030163055506837722 0.0059961068335569719 0 0.030693762322922643 0.00556728199142282 0 0.030055854838581069 0.0052293296826022313 0 0.030355626068142974 0.0056936571202503318 0 0.030693762322922643 0.00556728199142282 0 0.030355626068142974 0.0056936571202503318 0 0.030487398221525755 0.0059070807901429739 0 0.031806546780439364 0.0032733410074942031 0 0.03271093364825519 0.001563416324692566 0 0.032591447863912854 0.0036059475850934463 0 0.031821961175949064 -5.8834160204543295e-05 0 0.029191895926847466 0.0033517181710919228 0 0.032591447863912854 0.0036059475850934463 0 0.031391706888772575 0.0049200017673288422 0 0.031986308218941231 0.0055253499594346642 0 0.032591447863912854 0.0036059475850934463 0 0.033597065997629981 0.0036270510235057135 0 0.032969004161383444 0.0051692336267674483 0 0.032591447863912854 0.0036059475850934463 0 0.033597065997629981 0.0036270510235057135 0 0.033007107150787272 0.00045984094879320599 0 0.033007107150787272 0.00045984094879320599 0 0.031821961175949064 -5.8834160204543295e-05 0 0.0324692114190272 -0.0005389560885363067 0 0.032591447863912854 0.0036059475850934463 0 0.033007107150787272 0.00045984094879320599 0 0.031821961175949064 -5.8834160204543295e-05 0 0.033007107150787272 0.00045984094879320599 0 0.0324692114190272 -0.0005389560885363067 0 0.032727892747082946 -0.00060211310269010982 0 0.033406187582172488 -0.00049334236084385222 0 0.033007107150787272 0.00045984094879320599 0 0.032727892747082946 -0.00060211310269010982 0 0.033406187582172488 -0.00049334236084385222 0 0.032727892747082946 -0.00060211310269010982 0 0.032519649022831401 -0.00045092995134272615 0 0.0324692114190272 -0.0005389560885363067 0 0.032727892747082946 -0.00060211310269010982 0 0.032847001269166815 -0.00074414424618724525 0 0.032727892747082946 -0.00060211310269010982 0 0.032792154111933071 -0.00063125651207815198 0 0.032847001269166815 -0.00074414424618724525 0 0.032792154111933071 -0.00063125651207815198 0 0.033011513523258207 -0.00058530743911696672 0 0.033104935396071199 -0.00074475516401229186 0 0.032792154111933071 -0.00063125651207815198 0 0.033104935396071199 -0.00074475516401229186 0 0.032847001269166815 -0.00074414424618724525 0 0.032792154111933071 -0.00063125651207815198 0 0.033011513523258207 -0.00058530743911696672 0 0.032521398808366936 -0.00039202484888012281 0 0.033011513523258207 -0.00058530743911696672 0 0.032521398808366936 -0.00039202484888012281 0 0.032665692288406253 -0.00029464830648107088 0 0.032521398808366936 -0.00039202484888012281 0 0.032519649022831401 -0.00045092995134272615 0 0.031984577054953063 -0.00010959065940631166 0 0.032521398808366936 -0.00039202484888012281 0 0.031984577054953063 -0.00010959065940631166 0 0.032069468432952851 -0.0001261447024797531 0 0.032792154111933071 -0.00063125651207815198 0 0.032521398808366936 -0.00039202484888012281 0 0.032519649022831401 -0.00045092995134272615 0 0.032727892747082946 -0.00060211310269010982 0 0.032792154111933071 -0.00063125651207815198 0 0.032519649022831401 -0.00045092995134272615 0 0.032519649022831401 -0.00045092995134272615 0 0.031632935160420504 0.00012701726011771214 0 0.031984577054953063 -0.00010959065940631166 0 0.031352478142532163 0.0019649732477635368 0 0.031632935160420504 0.00012701726011771214 0 0.031914997443796236 0.00039749344119679536 0 0.032079171194273094 0.0027154322943314943 0 0.031352478142532163 0.0019649732477635368 0 0.031914997443796236 0.00039749344119679536 0 0.031632935160420504 0.00012701726011771214 0 0.031914997443796236 0.00039749344119679536 0 0.031754021544330796 -0.00011223661186330509 0 0.031278605114102798 0.0023171039023687145 0 0.030721139455772827 0.0036851091399520974 0 0.030485419138426468 0.0017122952079505853 0 0.031317693342979541 0.0021169292493098389 0 0.031220072419640296 0.0010387321757539829 0 0.031632935160420504 0.00012701726011771214 0 0.031984577054953063 -0.00010959065940631166 0 0.031754021544330796 -0.00011223661186330509 0 0.031984577054953063 -0.00010959065940631166 0 0.031754021544330796 -0.00011223661186330509 0 0.032069468432952851 -0.0001261447024797531 0 0.031220072419640296 0.0010387321757539829 0 0.031379902628779183 0.00079574050488980636 0 0.030485419138426468 0.0017122952079505853 0 0.030896751327256191 0.00099478509542915848 0 0.031488038713408328 0.00046571258652944325 0 0.031754021544330796 -0.00011223661186330509 0 0.031488038713408328 0.00046571258652944325 0 0.032069468432952851 -0.0001261447024797531 0 0.031299034278335011 0.0013465172662697629 0 0.031278605114102798 0.0023171039023687145 0 0.030485419138426468 0.0017122952079505853 0 0.031299034278335011 0.0013465172662697629 0 0.030485419138426468 0.0017122952079505853 0 0.030896751327256191 0.00099478509542915848 0 0.031299034278335011 0.0013465172662697629 0 0.031079053266566813 0.00091653733979375708 0 0.030896751327256191 0.00099478509542915848 0 0.031395836609594573 0.00066230237695996468 0 0.031299034278335011 0.0013465172662697629 0 0.031079053266566813 0.00091653733979375708 0 0.031079053266566813 0.00091653733979375708 0 0.030896751327256191 0.00099478509542915848 0 0.030841772438140978 0.00074120169372066352 0 0.030971241269417756 0.00038117755454461619 0 0.031079053266566813 0.00091653733979375708 0 0.030841772438140978 0.00074120169372066352 0 0.030971241269417756 0.00038117755454461619 0 0.031395836609594573 0.00066230237695996468 0 0.031079053266566813 0.00091653733979375708 0 0.030896751327256191 0.00099478509542915848 0 0.030841772438140978 0.00074120169372066352 0 0.031488038713408328 0.00046571258652944325 0 0.030897557629371051 0.001222675664520223 0 0.030841772438140978 0.00074120169372066352 0 0.031488038713408328 0.00046571258652944325 0 0.033196196236390141 0.0002518597875728863 0 0.031915347236217577 0.0010078324353633855 0 0.032360597563890342 0.00019412793327028681 0 0.031488038713408328 0.00046571258652944325 0 0.032360597563890342 0.00019412793327028681 0 0.032069468432952851 -0.0001261447024797531 0 0.031915347236217577 0.0010078324353633855 0 0.031488038713408328 0.00046571258652944325 0 0.032360597563890342 0.00019412793327028681 0 0.033196196236390141 0.0002518597875728863 0 0.032360597563890342 0.00019412793327028681 0 0.033034382822877885 -0.00026661681395967306 0 0.033196196236390141 0.0002518597875728863 0 0.033034382822877885 -0.00026661681395967306 0 0.033597212540671981 -0.00066443853206706461 0 0.033034382822877885 -0.00026661681395967306 0 0.032665692288406253 -0.00029464830648107088 0 0.033306288286348948 -0.000544709011063842 0 0.032360597563890342 0.00019412793327028681 0 0.033034382822877885 -0.00026661681395967306 0 0.032665692288406253 -0.00029464830648107088 0 0.033011513523258207 -0.00058530743911696672 0 0.032665692288406253 -0.00029464830648107088 0 0.033306288286348948 -0.000544709011063842 0 0.032521398808366936 -0.00039202484888012281 0 0.032665692288406253 -0.00029464830648107088 0 0.032069468432952851 -0.0001261447024797531 0 0.032360597563890342 0.00019412793327028681 0 0.032665692288406253 -0.00029464830648107088 0 0.032069468432952851 -0.0001261447024797531 0 0.033675002453341568 -0.00066442068837596667 0 0.033546714027572269 -0.00058247511735798926 0 0.033789804586804854 -0.00075929976637993408 0 0.033675002453341568 -0.00066442068837596667 0 0.033306288286348948 -0.000544709011063842 0 0.033597212540671981 -0.00066443853206706461 0 0.033675002453341568 -0.00066442068837596667 0 0.033306288286348948 -0.000544709011063842 0 0.033449635876647031 -0.00074437229815636731 0 0.033034382822877885 -0.00026661681395967306 0 0.033306288286348948 -0.000544709011063842 0 0.033597212540671981 -0.00066443853206706461 0 0.033196196236390141 0.0002518597875728863 0 0.033597212540671981 -0.00066443853206706461 0 0.034005564868310058 -0.0015661062174842668 0 0.033675002453341568 -0.00066442068837596667 0 0.033597212540671981 -0.00066443853206706461 0 0.034005564868310058 -0.0015661062174842668 0 0.033781750435124151 -0.001145392604893475 0 0.03377355721836027 -0.001304688984429915 0 0.033675002453341568 -0.00066442068837596667 0 0.034005564868310058 -0.0015661062174842668 0 0.033546714027572269 -0.00058247511735798926 0 0.034250374586360439 -0.0028152051443608686 0 0.03460034808024906 -0.0028751026735914908 0 0.034005349653246301 -0.0026869629296773353 0 0.034005564868310058 -0.0015661062174842668 0 0.033546714027572269 -0.00058247511735798926 0 0.034949438512808143 -0.0039027964954296999 0 0.03524046195502422 -0.0051910630660505679 0 0.035648119424585747 -0.0045021334598811663 0 0.034949438512808143 -0.0039027964954296999 0 0.034005349653246301 -0.0026869629296773353 0 0.03524046195502422 -0.0051910630660505679 0 0.03524046195502422 -0.0051910630660505679 0 0.036183758565079688 -0.0052414337695066556 0 0.035648119424585747 -0.0045021334598811663 0 0.036183758565079688 -0.0052414337695066556 0 0.035648119424585747 -0.0045021334598811663 0 0.036189063976633302 -0.0050574990883404166 0 0.03460034808024906 -0.0028751026735914908 0 0.035560204037236816 -0.0030445415091857561 0 0.03524046195502422 -0.0051910630660505679 0 0.036183758565079688 -0.0052414337695066556 0 0.036718536395503321 -0.0052077526272347914 0 0.033546714027572269 -0.00058247511735798926 0 0.033789804586804854 -0.00075929976637993408 0 0.034831079328050622 -0.0008970679092004778 0 0.033789804586804854 -0.00075929976637993408 0 0.034831079328050622 -0.0008970679092004778 0 0.034043552216025501 -0.0012460877446581918 0 0.034831079328050622 -0.0008970679092004778 0 0.034942653187052163 -0.0019926263999765661 0 0.034043552216025501 -0.0012460877446581918 0 0.034942653187052163 -0.0019926263999765661 0 0.034043552216025501 -0.0012460877446581918 0 0.0342300702624872 -0.0014878058491926409 0 0.034043552216025501 -0.0012460877446581918 0 0.033468265272650899 -0.00098936042834509822 0 0.033449635876647031 -0.00074437229815636731 0 0.033789804586804854 -0.00075929976637993408 0 0.034043552216025501 -0.0012460877446581918 0 0.033449635876647031 -0.00074437229815636731 0 0.033675002453341568 -0.00066442068837596667 0 0.033789804586804854 -0.00075929976637993408 0 0.033449635876647031 -0.00074437229815636731 0 0.033011513523258207 -0.00058530743911696672 0 0.033306288286348948 -0.000544709011063842 0 0.033449635876647031 -0.00074437229815636731 0 0.033011513523258207 -0.00058530743911696672 0 0.033449635876647031 -0.00074437229815636731 0 0.033104935396071199 -0.00074475516401229186 0 0.033468265272650899 -0.00098936042834509822 0 0.033449635876647031 -0.00074437229815636731 0 0.033104935396071199 -0.00074475516401229186 0 0.033468265272650899 -0.00098936042834509822 0 0.033104935396071199 -0.00074475516401229186 0 0.032847001269166815 -0.00074414424618724525 0 0.0324692114190272 -0.0005389560885363067 0 0.032847001269166815 -0.00074414424618724525 0 0.033050291614910632 -0.00086655773081084641 0 0.033468265272650899 -0.00098936042834509822 0 0.032847001269166815 -0.00074414424618724525 0 0.033050291614910632 -0.00086655773081084641 0 0.033468265272650899 -0.00098936042834509822 0 0.033050291614910632 -0.00086655773081084641 0 0.0342300702624872 -0.0014878058491926409 0 0.033050291614910632 -0.00086655773081084641 0 0.033686064437869624 -0.0014000194626406905 0 0.0342300702624872 -0.0014878058491926409 0 0.031821961175949064 -5.8834160204543295e-05 0 0.0324692114190272 -0.0005389560885363067 0 0.033050291614910632 -0.00086655773081084641 0 0.031821961175949064 -5.8834160204543295e-05 0 0.033050291614910632 -0.00086655773081084641 0 0.033686064437869624 -0.0014000194626406905 0 0.031821961175949064 -5.8834160204543295e-05 0 0.033686064437869624 -0.0014000194626406905 0 0.032870516748249701 -0.0023336285838196913 0 0.033686064437869624 -0.0014000194626406905 0 0.032870516748249701 -0.0023336285838196913 0 0.034381514595762525 -0.0025180540639663314 0 0.03271093364825519 0.001563416324692566 0 0.035379719971423092 -0.00081517910211715053 0 0.032017239419321261 0.00029586999956537614 0 0.03271093364825519 0.001563416324692566 0 0.035399218479919441 -0.0024163175418786633 0 0.034381514595762525 -0.0025180540639663314 0 0.035087150856852219 -0.0019473157836251229 0 0.035725301782086848 -0.001035483072010471 0 0.035379719971423092 -0.00081517910211715053 0 0.033686064437869624 -0.0014000194626406905 0 0.034381514595762525 -0.0025180540639663314 0 0.035087150856852219 -0.0019473157836251229 0 0.035087150856852219 -0.0019473157836251229 0 0.0342300702624872 -0.0014878058491926409 0 0.035313029870265689 -0.0021154591145068013 0 0.033686064437869624 -0.0014000194626406905 0 0.035087150856852219 -0.0019473157836251229 0 0.0342300702624872 -0.0014878058491926409 0 0.034043552216025501 -0.0012460877446581918 0 0.033468265272650899 -0.00098936042834509822 0 0.0342300702624872 -0.0014878058491926409 0 0.034942653187052163 -0.0019926263999765661 0 0.0342300702624872 -0.0014878058491926409 0 0.035313029870265689 -0.0021154591145068013 0 0.034942653187052163 -0.0019926263999765661 0 0.035313029870265689 -0.0021154591145068013 0 0.036214977950143348 -0.003247705839969714 0 0.035830250768941051 -0.0022631635702822679 0 0.035864925211731583 -0.0031374337352855701 0 0.036214977950143348 -0.003247705839969714 0 0.035313029870265689 -0.0021154591145068013 0 0.035830250768941051 -0.0022631635702822679 0 0.036214977950143348 -0.003247705839969714 0 0.035830250768941051 -0.0022631635702822679 0 0.035920841160517122 -0.0020864091286880125 0 0.035864925211731583 -0.0031374337352855701 0 0.035087150856852219 -0.0019473157836251229 0 0.035313029870265689 -0.0021154591145068013 0 0.035830250768941051 -0.0022631635702822679 0 0.035399218479919441 -0.0024163175418786633 0 0.035087150856852219 -0.0019473157836251229 0 0.035864938094926503 -0.0019791506982945284 0 0.035087150856852219 -0.0019473157836251229 0 0.035830250768941051 -0.0022631635702822679 0 0.035864938094926503 -0.0019791506982945284 0 0.035830250768941051 -0.0022631635702822679 0 0.035864938094926503 -0.0019791506982945284 0 0.035920841160517122 -0.0020864091286880125 0 0.035864938094926503 -0.0019791506982945284 0 0.035969514309546258 -0.0015966256435707479 0 0.035920841160517122 -0.0020864091286880125 0 0.035864938094926503 -0.0019791506982945284 0 0.035992994883263615 -0.0018085363806376604 0 0.035969514309546258 -0.0015966256435707479 0 0.035399218479919441 -0.0024163175418786633 0 0.035864938094926503 -0.0019791506982945284 0 0.035992994883263615 -0.0018085363806376604 0 0.035725301782086848 -0.001035483072010471 0 0.035945008870601078 -0.00085622613983359454 0 0.034999711983252607 -0.00063333339724627594 0 0.035780389373218258 -0.00041935753472148435 0 0.035600677744958703 -0.0014354558358578488 0 0.035780389373218258 -0.00041935753472148435 0 0.035969514309546258 -0.0015966256435707479 0 0.035600677744958703 -0.0014354558358578488 0 0.035992994883263615 -0.0018085363806376604 0 0.035780389373218258 -0.00041935753472148435 0 0.035969514309546258 -0.0015966256435707479 0 0.035945008870601078 -0.00085622613983359454 0 0.035673197771582593 -0.00063902411334089426 0 0.036312812434550854 -3.0816609100991117e-06 0 0.035780389373218258 -0.00041935753472148435 0 0.03611097177122826 -4.742124352233111e-05 0 0.035969514309546258 -0.0015966256435707479 0 0.035920841160517122 -0.0020864091286880125 0 0.035600677744958703 -0.0014354558358578488 0 0.035920841160517122 -0.0020864091286880125 0 0.035600677744958703 -0.0014354558358578488 0 0.034999814245495114 -0.0026693121152264222 0 0.034999711983252607 -0.00063333339724627594 0 0.035600677744958703 -0.0014354558358578488 0 0.034999814245495114 -0.0026693121152264222 0 0.035920841160517122 -0.0020864091286880125 0 0.034999814245495114 -0.0026693121152264222 0 0.035864925211731583 -0.0031374337352855701 0 0.034999814245495114 -0.0026693121152264222 0 0.035864925211731583 -0.0031374337352855701 0 0.034999453527438593 -0.0047055792724407857 0 0.035864925211731583 -0.0031374337352855701 0 0.034999453527438593 -0.0047055792724407857 0 0.035736336524659414 -0.0044281004732007233 0 0.034999453527438593 -0.0047055792724407857 0 0.035736336524659414 -0.0044281004732007233 0 0.034999810620837533 -0.0067423217889975989 0 0.035736336524659414 -0.0044281004732007233 0 0.034999810620837533 -0.0067423217889975989 0 0.036077317804234087 -0.0055827774394242493 0 0.035864925211731583 -0.0031374337352855701 0 0.035736336524659414 -0.0044281004732007233 0 0.036214977950143348 -0.003247705839969714 0 0.036214977950143348 -0.003247705839969714 0 0.036555020698665709 -0.0058195383160464893 0 0.036077317804234087 -0.0055827774394242493 0 0.036718536395503321 -0.0052077526272347914 0 0.036214977950143348 -0.003247705839969714 0 0.036555020698665709 -0.0058195383160464893 0 0.034831079328050622 -0.0008970679092004778 0 0.034942653187052163 -0.0019926263999765661 0 0.036214977950143348 -0.003247705839969714 0 0.035560204037236816 -0.0030445415091857561 0 0.035985640488207869 -0.0031585339795755251 0 0.035736336524659414 -0.0044281004732007233 0 0.036214977950143348 -0.003247705839969714 0 0.036077317804234087 -0.0055827774394242493 0 0.036555020698665709 -0.0058195383160464893 0 0.036946931217646778 -0.0066728363186063337 0 0.036077317804234087 -0.0055827774394242493 0 0.036183758565079688 -0.0052414337695066556 0 0.036718536395503321 -0.0052077526272347914 0 0.036555020698665709 -0.0058195383160464893 0 0.03661208681933955 -0.0057498024726817957 0 0.036555020698665709 -0.0058195383160464893 0 0.036189063976633302 -0.0050574990883404166 0 0.036183758565079688 -0.0052414337695066556 0 0.036555020698665709 -0.0058195383160464893 0 0.036189063976633302 -0.0050574990883404166 0 0.03661208681933955 -0.0057498024726817957 0 0.036555020698665709 -0.0058195383160464893 0 0.036946931217646778 -0.0066728363186063337 0 0.036437332071498317 -0.008441192080446764 0 0.036946931217646778 -0.0066728363186063337 0 0.035851769253828797 -0.0073214949951276725 0 0.036946931217646778 -0.0066728363186063337 0 0.035851769253828797 -0.0073214949951276725 0 0.036077317804234087 -0.0055827774394242493 0 0.034999593009315183 -0.0087792736676251589 0 0.035851769253828797 -0.0073214949951276725 0 0.034999810620837533 -0.0067423217889975989 0 0.034999593009315183 -0.0087792736676251589 0 0.0357685002372643 -0.0088060470597251354 0 0.035851769253828797 -0.0073214949951276725 0 0.035851769253828797 -0.0073214949951276725 0 0.034999810620837533 -0.0067423217889975989 0 0.036077317804234087 -0.0055827774394242493 0 0.01638139076572254 0.0095170371245095822 0 0.016382843607606876 0.0095462814910092023 0 0.016386616591153126 0.009537966305319865 0 0.016382843607606876 0.0095462814910092023 0 0.016386616591153126 0.009537966305319865 0 0.016390135381395051 0.0095778725026531043 0 0.016386616591153126 0.009537966305319865 0 0.016390135381395051 0.0095778725026531043 0 0.016380828853743177 0.0095865017070558799 0 0.016386616591153126 0.009537966305319865 0 0.016399833768110939 0.0094994844827831354 0 0.01642482652527235 0.0095442595199115975 0 0.016399833768110939 0.0094994844827831354 0 0.01642482652527235 0.0095442595199115975 0 0.016428195231989285 0.0094749733287602337 0 0.016399833768110939 0.0094994844827831354 0 0.016399844757788579 0.0094573764408139461 0 0.016428195231989285 0.0094749733287602337 0 0.016387403302245335 0.0094941559456052805 0 0.016399833768110939 0.0094994844827831354 0 0.016399844757788579 0.0094573764408139461 0 0.01638139076572254 0.0095170371245095822 0 0.016387403302245335 0.0094941559456052805 0 0.016399833768110939 0.0094994844827831354 0 0.01638139076572254 0.0095170371245095822 0 0.016386616591153126 0.009537966305319865 0 0.016399833768110939 0.0094994844827831354 0 0.016399844757788579 0.0094573764408139461 0 0.016368263647978901 0.0095035248624772001 0 0.01640837417044605 0.0094165270107459814 0 0.0026304437258179172 -0.013870188427387352 0 0.0034811403981483526 -0.014174430531804998 0 0.0018354869453607579 -0.01410694920286131 0 0.0097270171901495932 -0.0025522266103198002 0 0.0089339505306784469 -0.00031024760605691254 0 0.016387403302245335 0.0094941559456052805 0 0.016399844757788579 0.0094573764408139461 0 0.016368263647978901 0.0095035248624772001 0 0.0026304437258179172 -0.013870188427387352 0 0.002162182226103536 -0.013676150142951963 0 0.0024651325216400537 -0.013502591239946573 0 0.0026304437258179172 -0.013870188427387352 0 0.0028557583717827187 -0.013427333229392263 0 0.0024651325216400537 -0.013502591239946573 0 0.0026304437258179172 -0.013870188427387352 0 0.0030791365449614788 -0.013915917502222038 0 0.0034811403981483526 -0.014174430531804998 0 0.0026304437258179172 -0.013870188427387352 0 0.0030791365449614788 -0.013915917502222038 0 0.0028557583717827187 -0.013427333229392263 0 0.0030791365449614788 -0.013915917502222038 0 0.003191663159680295 -0.013634258704448239 0 0.0028557583717827187 -0.013427333229392263 0 0.0030791365449614788 -0.013915917502222038 0 0.003191663159680295 -0.013634258704448239 0 0.0033216893935329901 -0.013896352610626344 0 0.0035348049539556722 -0.013862731072333156 0 0.0034811403981483526 -0.014174430531804998 0 0.0052424276379339097 -0.014147894599126637 0 0.003191663159680295 -0.013634258704448239 0 0.0035348049539556722 -0.013862731072333156 0 0.0033216893935329901 -0.013896352610626344 0 0.0030791365449614788 -0.013915917502222038 0 0.0033216893935329901 -0.013896352610626344 0 0.0034811403981483526 -0.014174430531804998 0 0.0035348049539556722 -0.013862731072333156 0 0.0033216893935329901 -0.013896352610626344 0 0.0034811403981483526 -0.014174430531804998 0 0.01638139076572254 0.0095170371245095822 0 0.016382843607606876 0.0095462814910092023 0 0.016368263647978901 0.0095035248624772001 0 0.01638139076572254 0.0095170371245095822 0 0.016387403302245335 0.0094941559456052805 0 0.016368263647978901 0.0095035248624772001 0 0.0097270171901495932 -0.0025522266103198002 0 0.012706317155631234 -0.0081236273444139171 0 0.016382843607606876 0.0095462814910092023 0 0.016368263647978901 0.0095035248624772001 0 0.016420761261696639 0.0096179279610117685 0 0.012706317155631234 -0.0081236273444139171 0 0.0098663506336981767 -0.018823481666703366 0 0.0035348049539556722 -0.013862731072333156 0 0.0052424276379339097 -0.014147894599126637 0 0.0041731867934779211 -0.013204530397933954 0 0.013071115214084718 -0.025313648879001113 0 0.01314675455229607 -0.025284851710189876 0 0.013227030210992018 -0.025316391387708977 0 0.012706317155631234 -0.0081236273444139171 0 0.015032595548812202 -0.012665427967633671 0 0.012706317155631234 -0.0081236273444139171 0 0.014748499395292573 0.0029641191660470453 0 0.016420761261696639 0.0096179279610117685 0 0.016417510413491793 0.0096225816385814289 0 0.01657876353451743 0.0097127939738089284 0 0.016420761261696639 0.0096179279610117685 0 0.016390135381395051 0.0095778725026531043 0 0.016417510413491793 0.0096225816385814289 0 0.016382843607606876 0.0095462814910092023 0 0.016420761261696639 0.0096179279610117685 0 0.016390135381395051 0.0095778725026531043 0 0.016390135381395051 0.0095778725026531043 0 0.016417510413491793 0.0096225816385814289 0 0.016380828853743177 0.0095865017070558799 0 0.016417510413491793 0.0096225816385814289 0 0.016367730654372685 0.0096084941819593664 0 0.016380828853743177 0.0095865017070558799 0 0.016417510413491793 0.0096225816385814289 0 0.016356103721001377 0.0095265620197560914 0 0.016609622467723094 0.0096081161386067006 0 0.016417510413491793 0.0096225816385814289 0 0.01657876353451743 0.0097127939738089284 0 0.016609622467723094 0.0096081161386067006 0 0.016356103721001377 0.0095265620197560914 0 0.016609622467723094 0.0096081161386067006 0 0.016825156682200547 0.0093103614652432273 0 0.016356103721001377 0.0095265620197560914 0 0.016367730654372685 0.0096084941819593664 0 0.016368415778271382 0.0097254387867332943 0 0.016417510413491793 0.0096225816385814289 0 0.016356103721001377 0.0095265620197560914 0 0.016367730654372685 0.0096084941819593664 0 0.016367730654372685 0.0096084941819593664 0 0.016420859186491308 0.0097170413037728619 0 0.016368415778271382 0.0097254387867332943 0 0.016367730654372685 0.0096084941819593664 0 0.016420859186491308 0.0097170413037728619 0 0.016380828853743177 0.0095865017070558799 0 0.016386616591153126 0.009537966305319865 0 0.016380828853743177 0.0095865017070558799 0 0.01642482652527235 0.0095442595199115975 0 0.016380828853743177 0.0095865017070558799 0 0.01642482652527235 0.0095442595199115975 0 0.016473056079521611 0.0096328075378873147 0 0.016420859186491308 0.0097170413037728619 0 0.016380828853743177 0.0095865017070558799 0 0.016473056079521611 0.0096328075378873147 0 0.016420859186491308 0.0097170413037728619 0 0.016473056079521611 0.0096328075378873147 0 0.016522989271719898 0.0097439375902591881 0 0.016473056079521611 0.0096328075378873147 0 0.016617324043474668 0.0096595817624696295 0 0.016522989271719898 0.0097439375902591881 0 0.016352703161588593 0.0095279927705856395 0 0.016522098033337471 0.0095029353383776702 0 0.016562778813352771 0.0098512638324240523 0 0.016352703161588593 0.0095279927705856395 0 0.016522098033337471 0.0095029353383776702 0 0.016380222137436232 0.0093166686393443571 0 0.016617324043474668 0.0096595817624696295 0 0.016508313503054456 0.0095436203615567664 0 0.016617458673742671 0.0094897955954654813 0 0.01606802442935296 0.0096018101469229709 0 0.013639963577075838 0.0077925954968894066 0 0.016473056079521611 0.0096328075378873147 0 0.016617324043474668 0.0096595817624696295 0 0.016508313503054456 0.0095436203615567664 0 0.01642482652527235 0.0095442595199115975 0 0.016473056079521611 0.0096328075378873147 0 0.016508313503054456 0.0095436203615567664 0 0.0039349011628537862 0.0048495771299092889 0 0.0035165762959546818 0.00389597160366798 0 0.017067431276242013 0.0097089744561800594 0 0.016522098033337471 0.0095029353383776702 0 0.016741308064115841 0.008470067059367559 0 0.017067431276242013 0.0097089744561800594 0 0.016522098033337471 0.0095029353383776702 0 0.016762023906452844 0.0098733724223358642 0 0.016522098033337471 0.0095029353383776702 0 0.016741308064115841 0.008470067059367559 0 0.015260734866153116 0.0078893758957800653 0 0.016511795997911197 0.0098903423755725608 0 0.013639963577075838 0.0077925954968894066 0 -0.0091000202794244683 0.00016937237816165159 0 -0.0098463751627329461 -0.0014186024974336378 0 -0.009031672488672109 -0.0011677810376334904 0 -0.0098463751627329461 -0.0014186024974336378 0 -0.009031672488672109 -0.0011677810376334904 0 -0.0092248132020248449 -0.0020901896924008928 0 -0.0085755989909163718 -0.0018221066521999874 0 -0.009031672488672109 -0.0011677810376334904 0 -0.0092248132020248449 -0.0020901896924008928 0 -0.0098463751627329461 -0.0014186024974336378 0 -0.0092248132020248449 -0.0020901896924008928 0 -0.0097937061188985482 -0.0024599284629215749 0 -0.0085423365598373234 -0.0024652857856117486 0 -0.0092248132020248449 -0.0020901896924008928 0 -0.0092733396225903562 -0.0030310691499502618 0 -0.0092248132020248449 -0.0020901896924008928 0 -0.0097937061188985482 -0.0024599284629215749 0 -0.0092733396225903562 -0.0030310691499502618 0 0.0035165762959546818 0.00389597160366798 0 0.00033322037218394611 -0.00050091864855320695 0 0.016741308064115841 0.008470067059367559 0 0.015810155253613543 0.0066323170966111908 0 0.015260734866153116 0.0078893758957800653 0 -0.0098463751627329461 -0.0014186024974336378 0 -0.0097937061188985482 -0.0024599284629215749 0 -0.010585717269948553 -0.0029968517317343932 0 -0.012892573089003184 -0.0031642801108736729 0 -0.010618952413390453 -0.0046557160405234013 0 -0.0091789960406487379 -0.0032015554943008347 0 0.00033322037218394611 -0.00050091864855320695 0 -0.010193661699589875 -0.0027088607814821667 0 -0.0097937061188985482 -0.0024599284629215749 0 -0.010585717269948553 -0.0029968517317343932 0 -0.0092733396225903562 -0.0030310691499502618 0 -0.012892573089003184 -0.0031642801108736729 0 -0.0145812046778986 -0.006437028691908782 0 -0.012083233412129321 -0.0055206915873366631 0 -0.012892573089003184 -0.0031642801108736729 0 -0.010618952413390453 -0.0046557160405234013 0 -0.012083233412129321 -0.0055206915873366631 0 -0.010618952413390453 -0.0046557160405234013 0 -0.0092648414585379309 -0.004877626093348947 0 -0.0091789960406487379 -0.0032015554943008347 0 -0.0080582219484124345 -0.0037330472200336516 0 -0.0092648414585379309 -0.004877626093348947 0 -0.0091789960406487379 -0.0032015554943008347 0 0.016508313503054456 0.0095436203615567664 0 0.016512626507877545 0.0094394592031625969 0 0.016617458673742671 0.0094897955954654813 0 0.016512626507877545 0.0094394592031625969 0 0.016428195231989285 0.0094749733287602337 0 0.016473838627686123 0.0093230277212536967 0 0.016399844757788579 0.0094573764408139461 0 0.016428195231989285 0.0094749733287602337 0 0.01640837417044605 0.0094165270107459814 0 0.010881529733404663 0.0050422866861328745 0 0.0089339505306784469 -0.00031024760605691254 0 0.016508313503054456 0.0095436203615567664 0 0.016512626507877545 0.0094394592031625969 0 0.016428195231989285 0.0094749733287602337 0 0.01642482652527235 0.0095442595199115975 0 0.016508313503054456 0.0095436203615567664 0 0.016428195231989285 0.0094749733287602337 0 0.013639963577075838 0.0077925954968894066 0 0.0067531079114634251 0.00042986241607583637 0 0.016512626507877545 0.0094394592031625969 0 0.016617458673742671 0.0094897955954654813 0 0.016521888504624781 0.00932384562415812 0 0.015810155253613543 0.0066323170966111908 0 0.015260734866153116 0.0078893758957800653 0 0.015466470244974131 0.0066240949516935379 0 0.013639963577075838 0.0077925954968894066 0 0.0092069310266967644 -3.1762914484976431e-05 0 0.010632080868469942 0.0044363178217828063 0 0.011338527034411239 0.0012226314566192629 0 0.0087031198750018666 0.0011774186806962179 0 0.00033322037218394611 -0.00050091864855320695 0 -0.00075274273006278793 -0.008916409834834849 0 0.0037022446151876148 -0.0035042247991849537 0 0.0032865106279372073 -0.0034707257110814902 0 0.0034004239094239299 -0.0032813256978110909 0 0.0042437836523928595 -0.0032520474576402383 0 0.0040275596338693069 -0.0032587195988600156 0 0.0037603574370218724 -0.0041990554429864047 0 0.0040275596338693069 -0.0032587195988600156 0 0.0037022446151876148 -0.0035042247991849537 0 0.0037603574370218724 -0.0041990554429864047 0 0.0040275596338693069 -0.0032587195988600156 0 0.0037022446151876148 -0.0035042247991849537 0 0.0034004239094239299 -0.0032813256978110909 0 0.0067531079114634251 0.00042986241607583637 0 0.0092069310266967644 -3.1762914484976431e-05 0 0.00033322037218394611 -0.00050091864855320695 0 0.0067531079114634251 0.00042986241607583637 0 0.0037022446151876148 -0.0035042247991849537 0 0.0032865106279372073 -0.0034707257110814902 0 0.0037603574370218724 -0.0041990554429864047 0 0.0017097802516740979 -0.013901286904435659 0 0.0018354869453607579 -0.01410694920286131 0 0.002162182226103536 -0.013676150142951963 0 0.0065017317961772996 -0.0051060284876918776 0 0.0092069310266967644 -3.1762914484976431e-05 0 0.0092069310266967644 -3.1762914484976431e-05 0 0.0089339505306784469 -0.00031024760605691254 0 0.016512626507877545 0.0094394592031625969 0 0.016521888504624781 0.00932384562415812 0 0.016473838627686123 0.0093230277212536967 0 0.0070069074319852199 0.0023548227354099386 0 0.0048559312575708145 -0.0012719695441933505 0 0.009497959097883266 -0.0011999015483603992 0 0.0065017317961772996 -0.0051060284876918776 0 0.0089339505306784469 -0.00031024760605691254 0 0.0026304437258179172 -0.013870188427387352 0 0.0018354869453607579 -0.01410694920286131 0 0.002162182226103536 -0.013676150142951963 0 0.002162182226103536 -0.013676150142951963 0 0.0022155249993088518 -0.013055699002199432 0 0.0024651325216400537 -0.013502591239946573 0 0.00051618857397581392 -0.014877924410788713 0 0.0013346704129921512 -0.013585176957490007 0 0.00050968039396358938 -0.013575806009604559 0 0.0017097802516740979 -0.013901286904435659 0 0.002162182226103536 -0.013676150142951963 0 0.0022155249993088518 -0.013055699002199432 0 0.0065017317961772996 -0.0051060284876918776 0 0.0014919269061888501 -0.013712025256651219 0 0.0013346704129921512 -0.013585176957490007 0 0.00050968039396358938 -0.013575806009604559 0 0.00089509074258455545 -0.012863070742016992 0 0.00051618857397581392 -0.014877924410788713 0 0.00050968039396358938 -0.013575806009604559 0 -0.00034111438229209739 -0.013722112292290809 0 0.0065017317961772996 -0.0051060284876918776 0 -0.00075274273006278793 -0.008916409834834849 0 -0.00075274273006278793 -0.008916409834834849 0 -0.0053768064810253988 -0.009494199907942185 0 0.00050968039396358938 -0.013575806009604559 0 -0.00034111438229209739 -0.013722112292290809 0 8.3350313542632199e-05 -0.012792399016221737 0 -0.00075274273006278793 -0.008916409834834849 0 -0.0012497845415039642 -0.011709047929316777 0 8.3350313542632199e-05 -0.012792399016221737 0 -0.00047142855405771879 -0.011991698364508715 0 -0.0012377654944807849 -0.012574720110037216 0 -0.00041489954383957378 -0.01372615830310304 0 8.3350313542632199e-05 -0.012792399016221737 0 -0.0012377654944807849 -0.012574720110037216 0 -0.00047142855405771879 -0.011991698364508715 0 -0.0012377654944807849 -0.012574720110037216 0 -0.00075942168928465304 -0.011078944072422695 0 8.3350313542632199e-05 -0.012792399016221737 0 -0.00047142855405771879 -0.011991698364508715 0 3.720989510194992e-05 -0.01154502110334877 0 8.3350313542632199e-05 -0.012792399016221737 0 0.00095804956227217564 -0.011943871406867028 0 3.720989510194992e-05 -0.01154502110334877 0 0.00095804956227217564 -0.011943871406867028 0 0.0013969418306949339 -0.01262507154342166 0 0.00089509074258455545 -0.012863070742016992 0 0.00095804956227217564 -0.011943871406867028 0 0.0013969418306949339 -0.01262507154342166 0 0.0024091008778608998 -0.012095279306828695 0 0.0013346704129921512 -0.013585176957490007 0 0.0013969418306949339 -0.01262507154342166 0 0.00089509074258455545 -0.012863070742016992 0 0.00050968039396358938 -0.013575806009604559 0 8.3350313542632199e-05 -0.012792399016221737 0 0.00089509074258455545 -0.012863070742016992 0 8.3350313542632199e-05 -0.012792399016221737 0 0.00095804956227217564 -0.011943871406867028 0 0.00089509074258455545 -0.012863070742016992 0 -0.0067898718254640862 -0.0070139400955124623 0 -0.0098235737484024151 -0.0065195298820525469 0 -0.0081402718044215252 -0.0084322442249228618 0 -0.0076549272539534526 -0.0054899704013969377 0 -0.0092648414585379309 -0.004877626093348947 0 -0.0098235737484024151 -0.0065195298820525469 0 -0.010618952413390453 -0.0046557160405234013 0 -0.0092648414585379309 -0.004877626093348947 0 -0.0098235737484024151 -0.0065195298820525469 0 -0.0098235737484024151 -0.0065195298820525469 0 -0.011824685687073396 -0.0073355721470281148 0 -0.010048189725799326 -0.009017374302113074 0 -0.0145812046778986 -0.006437028691908782 0 -0.011824685687073396 -0.0073355721470281148 0 -0.013002056883836178 -0.0088063710933455105 0 -0.0145812046778986 -0.006437028691908782 0 -0.011824685687073396 -0.0073355721470281148 0 -0.012083233412129321 -0.0055206915873366631 0 -0.0098235737484024151 -0.0065195298820525469 0 -0.011824685687073396 -0.0073355721470281148 0 -0.012083233412129321 -0.0055206915873366631 0 -0.010618952413390453 -0.0046557160405234013 0 -0.0098235737484024151 -0.0065195298820525469 0 -0.012083233412129321 -0.0055206915873366631 0 -0.013002056883836178 -0.0088063710933455105 0 -0.010048189725799326 -0.009017374302113074 0 -0.011389776810272305 -0.011198141390432261 0 -0.011824685687073396 -0.0073355721470281148 0 -0.013002056883836178 -0.0088063710933455105 0 -0.010048189725799326 -0.009017374302113074 0 -0.0053768064810253988 -0.009494199907942185 0 -0.0047322200348408902 -0.010368432806902479 0 -0.0073704354162136467 -0.010222546675052386 0 -0.010048189725799326 -0.009017374302113074 0 -0.0081402718044215252 -0.0084322442249228618 0 -0.0073704354162136467 -0.010222546675052386 0 -0.010048189725799326 -0.009017374302113074 0 -0.011389776810272305 -0.011198141390432261 0 -0.0098235737484024151 -0.0065195298820525469 0 -0.010048189725799326 -0.009017374302113074 0 -0.0081402718044215252 -0.0084322442249228618 0 -0.0024219616063171985 -0.010272365180576034 0 -0.002238703839467174 -0.010391066048610516 0 -0.0022197268161311249 -0.010364370021665509 0 -0.0050244431348667584 -0.010164057907238745 0 -0.0047322200348408902 -0.010368432806902479 0 -0.0026237066218668401 -0.010170768737328403 0 -0.0024219616063171985 -0.010272365180576034 0 -0.002238703839467174 -0.010391066048610516 0 -0.0018072958832490063 -0.01111078592402787 0 -0.0014914118654264993 -0.010258372820142563 0 -0.0022197268161311249 -0.010364370021665509 0 -0.0012377654944807849 -0.012574720110037216 0 -0.002044933245137884 -0.011433102294003714 0 -0.00075942168928465304 -0.011078944072422695 0 -0.0018072958832490063 -0.01111078592402787 0 -0.0014914118654264993 -0.010258372820142563 0 -0.00086431568504402188 -0.010996518404436826 0 -0.0047322200348408902 -0.010368432806902479 0 -0.0034719709896409408 -0.011015179118064943 0 -0.0047322200348408902 -0.010368432806902479 0 -0.00098944820300409615 -0.01052225504880649 0 -0.00089396723841418907 -0.0096882407232575605 0 -0.0020596083283492359 -0.0098855691430676587 0 -0.0014914118654264993 -0.010258372820142563 0 -0.0020596083283492359 -0.0098855691430676587 0 -0.0014914118654264993 -0.010258372820142563 0 -0.0022197268161311249 -0.010364370021665509 0 -0.0024320013682074563 -0.0099015192250931951 0 -0.0020596083283492359 -0.0098855691430676587 0 -0.0024339380903739666 -0.010132439958952164 0 -0.0020596083283492359 -0.0098855691430676587 0 -0.0022197268161311249 -0.010364370021665509 0 -0.0024339380903739666 -0.010132439958952164 0 -0.0024219616063171985 -0.010272365180576034 0 -0.0022197268161311249 -0.010364370021665509 0 -0.0024339380903739666 -0.010132439958952164 0 0.00095804956227217564 -0.011943871406867028 0 0.00093158454514050723 -0.010733836107580465 0 0.0024091008778608998 -0.012095279306828695 0 0.00039642468377572971 -0.010762181143682206 0 0.00057317526410227931 -0.011245260784532746 0 3.720989510194992e-05 -0.01154502110334877 0 0.00039642468377572971 -0.010762181143682206 0 0.00093158454514050723 -0.010733836107580465 0 0.00057317526410227931 -0.011245260784532746 0 0.00095804956227217564 -0.011943871406867028 0 0.00093158454514050723 -0.010733836107580465 0 0.00057317526410227931 -0.011245260784532746 0 0.00095804956227217564 -0.011943871406867028 0 0.00057317526410227931 -0.011245260784532746 0 3.720989510194992e-05 -0.01154502110334877 0 -0.00047142855405771879 -0.011991698364508715 0 3.720989510194992e-05 -0.01154502110334877 0 -0.00075942168928465304 -0.011078944072422695 0 0.00039642468377572971 -0.010762181143682206 0 3.720989510194992e-05 -0.01154502110334877 0 -0.00075942168928465304 -0.011078944072422695 0 -0.00011644649347215794 -0.010551980059558007 0 -0.00098944820300409615 -0.01052225504880649 0 -0.00089396723841418907 -0.0096882407232575605 0 -0.0014914118654264993 -0.010258372820142563 0 -0.00086431568504402188 -0.010996518404436826 0 -0.00089396723841418907 -0.0096882407232575605 0 0.00039642468377572971 -0.010762181143682206 0 -0.00086431568504402188 -0.010996518404436826 0 -0.00089396723841418907 -0.0096882407232575605 0 0.00039642468377572971 -0.010762181143682206 0 0.00093158454514050723 -0.010733836107580465 0 0.0052526405202786902 -0.017750227732279109 0 0.0062838779192151044 -0.018229923028698899 0 0.011349822217412991 -0.0256937359562916 0 0.011751787902284396 -0.025742960120213591 0 0.011758763672918584 -0.025656579642713607 0 0.011751787902284396 -0.025742960120213591 0 0.011758763672918584 -0.025656579642713607 0 0.011768276000612414 -0.025735661558565201 0 0.011935628743251958 -0.025474701438861595 0 0.011758763672918584 -0.025656579642713607 0 0.011768276000612414 -0.025735661558565201 0 0.012762994520663269 -0.025193462540562171 0 0.01276501667596483 -0.025242472485157128 0 0.012863605839136337 -0.025241671330510543 0 0.012762994520663269 -0.025193462540562171 0 0.012863605839136337 -0.025241671330510543 0 0.012927666132139446 -0.02520479445836233 0 0.012863605839136337 -0.025241671330510543 0 0.01284798124650467 -0.025266279822723461 0 0.01296156980451387 -0.025250293420161773 0 0.012863605839136337 -0.025241671330510543 0 0.01296156980451387 -0.025250293420161773 0 0.012927666132139446 -0.02520479445836233 0 0.0062838779192151044 -0.018229923028698899 0 0.0078072487900278393 -0.019243437960218695 0 0.01276501667596483 -0.025242472485157128 0 0.012863605839136337 -0.025241671330510543 0 0.01284798124650467 -0.025266279822723461 0 0.011751787902284396 -0.025742960120213591 0 0.011768276000612414 -0.025735661558565201 0 0.011692663616614371 -0.025567712474204637 0 0.00093158454514050723 -0.010733836107580465 0 0.0029511152388039027 -0.012292744382929334 0 0.0024091008778608998 -0.012095279306828695 0 0.012082501295405747 -0.026265882416429524 0 0.0078072487900278393 -0.019243437960218695 0 0.0013346704129921512 -0.013585176957490007 0 0.0013969418306949339 -0.01262507154342166 0 0.0024091008778608998 -0.012095279306828695 0 0.0022155249993088518 -0.013055699002199432 0 0.0026554256051404884 -0.012790087515872359 0 0.0024091008778608998 -0.012095279306828695 0 0.0014919269061888501 -0.013712025256651219 0 0.0023069408623653384 -0.012326317872349852 0 0.0078072487900278393 -0.019243437960218695 0 0.0044413533806626354 -0.013191978734930394 0 0.0026554256051404884 -0.012790087515872359 0 0.0029511152388039027 -0.012292744382929334 0 0.0031941027947087228 -0.01306646857293486 0 0.0026554256051404884 -0.012790087515872359 0 0.0029511152388039027 -0.012292744382929334 0 0.0024091008778608998 -0.012095279306828695 0 0.01284798124650467 -0.025266279822723461 0 0.012961472816878318 -0.025289853680293531 0 0.01296156980451387 -0.025250293420161773 0 0.0078072487900278393 -0.019243437960218695 0 0.0098663506336981767 -0.018823481666703366 0 0.0033533101722829301 -0.012512426304627332 0 0.0034905178165566802 -0.013127367292876694 0 0.0041731867934779211 -0.013204530397933954 0 0.0035348049539556722 -0.013862731072333156 0 0.0034905178165566802 -0.013127367292876694 0 0.0041731867934779211 -0.013204530397933954 0 0.003191663159680295 -0.013634258704448239 0 0.0035348049539556722 -0.013862731072333156 0 0.0031941027947087228 -0.01306646857293486 0 0.0040541020750712821 -0.013509979346509306 0 0.0044413533806626354 -0.013191978734930394 0 0.003191663159680295 -0.013634258704448239 0 0.0031941027947087228 -0.01306646857293486 0 0.0028557583717827187 -0.013427333229392263 0 0.0022155249993088518 -0.013055699002199432 0 0.0028557583717827187 -0.013427333229392263 0 0.0024651325216400537 -0.013502591239946573 0 0.0022155249993088518 -0.013055699002199432 0 0.0026554256051404884 -0.012790087515872359 0 0.0028557583717827187 -0.013427333229392263 0 0.0026554256051404884 -0.012790087515872359 0 0.0031941027947087228 -0.01306646857293486 0 0.0028557583717827187 -0.013427333229392263 0 0.013071115214084718 -0.025313648879001113 0 0.01314675455229607 -0.025284851710189876 0 0.012961472816878318 -0.025289853680293531 0 0.01314675455229607 -0.025284851710189876 0 0.012961472816878318 -0.025289853680293531 0 0.013106617991094915 -0.025256281694191352 0 0.012961472816878318 -0.025289853680293531 0 0.013106617991094915 -0.025256281694191352 0 0.01296156980451387 -0.025250293420161773 0 0.013106617991094915 -0.025256281694191352 0 0.013091006978834984 -0.025210680744912135 0 0.013186693427985363 -0.025224192209768334 0 0.013106617991094915 -0.025256281694191352 0 0.01296156980451387 -0.025250293420161773 0 0.013091006978834984 -0.025210680744912135 0 0.01296156980451387 -0.025250293420161773 0 0.012927666132139446 -0.02520479445836233 0 0.013091006978834984 -0.025210680744912135 0 0.013041019171200766 -0.025160351126885364 0 0.012927666132139446 -0.02520479445836233 0 0.013091006978834984 -0.025210680744912135 0 0.013167025689888938 -0.025131277871534866 0 0.013041019171200766 -0.025160351126885364 0 0.013091006978834984 -0.025210680744912135 0 0.013167025689888938 -0.025131277871534866 0 0.013091006978834984 -0.025210680744912135 0 0.013270349804903358 -0.025199101697112515 0 0.013270349804903358 -0.025199101697112515 0 0.013186693427985363 -0.025224192209768334 0 0.013271030038413794 -0.025224132325146968 0 0.013091006978834984 -0.025210680744912135 0 0.013270349804903358 -0.025199101697112515 0 0.013186693427985363 -0.025224192209768334 0 0.013270349804903358 -0.025199101697112515 0 0.01337694954020874 -0.025176032535327981 0 0.013271030038413794 -0.025224132325146968 0 0.013270349804903358 -0.025199101697112515 0 0.013407488976036922 -0.02520985054168318 0 0.01337694954020874 -0.025176032535327981 0 0.013317463268462835 -0.025160721687260815 0 0.013270349804903358 -0.025199101697112515 0 0.013407488976036922 -0.02520985054168318 0 0.013450720488877922 -0.025195873823819361 0 0.013546624297024747 -0.025209958675514312 0 0.013407488976036922 -0.02520985054168318 0 0.013449894661829569 -0.025119463254967427 0 0.01337694954020874 -0.025176032535327981 0 0.013660277541436717 -0.025184625802020209 0 0.013407488976036922 -0.02520985054168318 0 0.013629855920639209 -0.025308117691145802 0 0.013449894661829569 -0.025119463254967427 0 0.013437210557912825 -0.025187836702790515 0 0.013588643325277769 -0.02508498752526208 0 0.013449894661829569 -0.025119463254967427 0 0.01337694954020874 -0.025176032535327981 0 0.013437210557912825 -0.025187836702790515 0 0.01337694954020874 -0.025176032535327981 0 0.013437210557912825 -0.025187836702790515 0 0.013271030038413794 -0.025224132325146968 0 0.013437210557912825 -0.025187836702790515 0 0.01329442175184386 -0.025260928743618124 0 0.013384928751298424 -0.025292314239360039 0 0.01314675455229607 -0.025284851710189876 0 0.01329442175184386 -0.025260928743618124 0 0.013271030038413794 -0.025224132325146968 0 0.013106617991094915 -0.025256281694191352 0 0.013186693427985363 -0.025224192209768334 0 0.013271030038413794 -0.025224132325146968 0 0.01314675455229607 -0.025284851710189876 0 0.013106617991094915 -0.025256281694191352 0 0.013271030038413794 -0.025224132325146968 0 0.013437210557912825 -0.025187836702790515 0 0.01329442175184386 -0.025260928743618124 0 0.013271030038413794 -0.025224132325146968 0 0.013751205594045784 -0.02504952549650152 0 0.013766604489451365 -0.025092736162733689 0 0.013707274863990397 -0.025057492075821784 0 0.013751205594045784 -0.02504952549650152 0 0.013735259012209001 -0.025109633848642253 0 0.013766604489451365 -0.025092736162733689 0 0.013743378532159064 -0.025167312533201914 0 0.013715770789508499 -0.025169715230155081 0 0.013735259012209001 -0.025109633848642253 0 0.013762541096869549 -0.025200961955558591 0 0.013743378532159064 -0.025167312533201914 0 0.013766604489451365 -0.025092736162733689 0 0.013743378532159064 -0.025167312533201914 0 0.013735259012209001 -0.025109633848642253 0 0.013766604489451365 -0.025092736162733689 0 0.013762541096869549 -0.025200961955558591 0 0.013629855920639209 -0.025308117691145802 0 0.013749720025601566 -0.025341189626327167 0 0.013762541096869549 -0.025200961955558591 0 0.013832423156424441 -0.025295822267772633 0 0.013749720025601566 -0.025341189626327167 0 0.013832423156424441 -0.025295822267772633 0 0.013749720025601566 -0.025341189626327167 0 0.013834210707640923 -0.025338815890838667 0 0.013779307960061507 -0.025200105502775197 0 0.013769725795410151 -0.025150046981372447 0 0.013546624297024747 -0.025209958675514312 0 0.013684615748453493 -0.025201495851726253 0 0.013437210557912825 -0.025187836702790515 0 0.013588643325277769 -0.02508498752526208 0 0.013631858272749089 -0.025162049099795959 0 0.013437210557912825 -0.025187836702790515 0 0.013631858272749089 -0.025162049099795959 0 0.013537743062116808 -0.025261445006078638 0 0.013631858272749089 -0.025162049099795959 0 0.013769420635915209 -0.025070277752940063 0 0.013817627719975452 -0.025149669489790083 0 0.013631858272749089 -0.025162049099795959 0 0.013817627719975452 -0.025149669489790083 0 0.013718408103911483 -0.025239513934342109 0 0.013588643325277769 -0.02508498752526208 0 0.013631858272749089 -0.025162049099795959 0 0.013769420635915209 -0.025070277752940063 0 0.013684615748453493 -0.025201495851726253 0 0.013875419218972194 -0.025099644899946424 0 0.013769725795410151 -0.025150046981372447 0 0.014170505554587468 -0.025311852417900512 0 0.013832423156424441 -0.025295822267772633 0 0.013834210707640923 -0.025338815890838667 0 0.013867565384876917 -0.025320482536874665 0 0.013875419218972194 -0.025099644899946424 0 0.014515986905591898 -0.02431323168042503 0 0.013769420635915209 -0.025070277752940063 0 0.013817627719975452 -0.025149669489790083 0 0.013999377438066429 -0.025087730955303537 0 0.013817627719975452 -0.025149669489790083 0 0.013999377438066429 -0.025087730955303537 0 0.013960099999176558 -0.025214629883612914 0 0.013834210707640923 -0.025338815890838667 0 0.013877300649958711 -0.025302290841806508 0 0.013867565384876917 -0.025320482536874665 0 0.013891441893266744 -0.025263417876418903 0 0.013877300649958711 -0.025302290841806508 0 0.013867565384876917 -0.025320482536874665 0 0.0138382968404727 -0.024976744906444578 0 0.013751205594045784 -0.02504952549650152 0 0.013707274863990397 -0.025057492075821784 0 0.025022766477358179 -0.0027256023194954454 0 0.023871323691191926 -0.00084736262640627965 0 0.02311451460062583 -0.0029016764273256351 0 0.014219320731793149 -0.025142280883642065 0 0.013999377438066429 -0.025087730955303537 0 0.013960099999176558 -0.025214629883612914 0 0.023871323691191926 -0.00084736262640627965 0 0.022176058079318797 -0.0021378101779624017 0 0.021979006918947368 -0.00093210697848728472 0 0.013817627719975452 -0.025149669489790083 0 0.013960099999176558 -0.025214629883612914 0 0.013718408103911483 -0.025239513934342109 0 0.019103873071605829 -0.013400787402456434 0 0.017837095107851933 -0.013125502691867698 0 0.023871323691191926 -0.00084736262640627965 0 0.022176058079318797 -0.0021378101779624017 0 0.02311451460062583 -0.0029016764273256351 0 0.022176058079318797 -0.0021378101779624017 0 0.021979006918947368 -0.00093210697848728472 0 0.020132022948473022 -0.0010122521794870437 0 0.013631858272749089 -0.025162049099795959 0 0.013718408103911483 -0.025239513934342109 0 0.013537743062116808 -0.025261445006078638 0 0.017837095107851933 -0.013125502691867698 0 0.016843879133258306 -0.013134700987208132 0 0.022176058079318797 -0.0021378101779624017 0 0.020132022948473022 -0.0010122521794870437 0 0.020089143628834228 -0.0024575162751298437 0 0.021430492594021036 -0.0031260795634866115 0 0.020089143628834228 -0.0024575162751298437 0 0.01973988516537362 -0.0037678775195905206 0 0.022176058079318797 -0.0021378101779624017 0 0.021430492594021036 -0.0031260795634866115 0 0.020089143628834228 -0.0024575162751298437 0 0.01973988516537362 -0.0037678775195905206 0 0.019565944107407432 -0.0047435857961552431 0 0.021062405793737613 -0.0051564197887587083 0 0.021430492594021036 -0.0031260795634866115 0 0.01973988516537362 -0.0037678775195905206 0 0.021062405793737613 -0.0051564197887587083 0 0.021430492594021036 -0.0031260795634866115 0 0.022393434877897678 -0.0040670282870511184 0 0.021062405793737613 -0.0051564197887587083 0 0.022393434877897678 -0.0040670282870511184 0 0.022873302906966507 -0.0047068805978211356 0 0.021062405793737613 -0.0051564197887587083 0 0.022176058079318797 -0.0021378101779624017 0 0.021430492594021036 -0.0031260795634866115 0 0.02311451460062583 -0.0029016764273256351 0 0.021430492594021036 -0.0031260795634866115 0 0.02311451460062583 -0.0029016764273256351 0 0.022393434877897678 -0.0040670282870511184 0 0.02311451460062583 -0.0029016764273256351 0 0.022393434877897678 -0.0040670282870511184 0 0.023040631427249041 -0.0038520594836749236 0 0.02311451460062583 -0.0029016764273256351 0 0.023040631427249041 -0.0038520594836749236 0 0.023679067378782625 -0.003826602934638614 0 0.022393434877897678 -0.0040670282870511184 0 0.022873302906966507 -0.0047068805978211356 0 0.023040631427249041 -0.0038520594836749236 0 0.022873302906966507 -0.0047068805978211356 0 0.023040631427249041 -0.0038520594836749236 0 0.023679067378782625 -0.003826602934638614 0 0.022873302906966507 -0.0047068805978211356 0 0.023679067378782625 -0.003826602934638614 0 0.024697130055126644 -0.0042376692189103685 0 0.027899020223215946 0.00060181759630086019 0 0.029545477169403384 -0.0016470210166663287 0 0.025022766477358179 -0.0027256023194954454 0 0.02311451460062583 -0.0029016764273256351 0 0.023679067378782625 -0.003826602934638614 0 0.025022766477358179 -0.0027256023194954454 0 0.023679067378782625 -0.003826602934638614 0 0.024697130055126644 -0.0042376692189103685 0 0.017411854156279351 -0.0021168516962209137 0 0.015952900329801234 -0.0022607667653156346 0 0.017051121172333466 -0.0033401171190431461 0 0.017411854156279351 -0.0021168516962209137 0 0.015952900329801234 -0.0022607667653156346 0 0.01658011006081133 -0.0011609329237045188 0 0.014871122423870094 -0.0012279294158208328 0 0.015952900329801234 -0.0022607667653156346 0 0.01658011006081133 -0.0011609329237045188 0 0.01314675455229607 -0.025284851710189876 0 0.01329442175184386 -0.025260928743618124 0 0.013227030210992018 -0.025316391387708977 0 0.017411854156279351 -0.0021168516962209137 0 0.01658011006081133 -0.0011609329237045188 0 0.018331345473080251 -0.0010867654642758278 0 0.015032595548812202 -0.012665427967633671 0 0.015845516574111058 -0.013126805768816948 0 0.01329442175184386 -0.025260928743618124 0 0.013227030210992018 -0.025316391387708977 0 0.013384928751298424 -0.025292314239360039 0 0.013437210557912825 -0.025187836702790515 0 0.013537743062116808 -0.025261445006078638 0 0.013384928751298424 -0.025292314239360039 0 0.016843879133258306 -0.013134700987208132 0 0.015845516574111058 -0.013126805768816948 0 0.020132022948473022 -0.0010122521794870437 0 0.018331345473080251 -0.0010867654642758278 0 0.020089143628834228 -0.0024575162751298437 0 0.018331345473080251 -0.0010867654642758278 0 0.020089143628834228 -0.0024575162751298437 0 0.018517267190271563 -0.0028306767581479306 0 0.017411854156279351 -0.0021168516962209137 0 0.018331345473080251 -0.0010867654642758278 0 0.018517267190271563 -0.0028306767581479306 0 0.020089143628834228 -0.0024575162751298437 0 0.018517267190271563 -0.0028306767581479306 0 0.01973988516537362 -0.0037678775195905206 0 0.01973988516537362 -0.0037678775195905206 0 0.018171975402046198 -0.0044598254523123522 0 0.019565944107407432 -0.0047435857961552431 0 0.018517267190271563 -0.0028306767581479306 0 0.01973988516537362 -0.0037678775195905206 0 0.018171975402046198 -0.0044598254523123522 0 0.018243850725616916 0.0026026308876588647 0 0.016962045776449365 0.0029625917389773477 0 0.017668338146432792 0.0093139590426167956 0 0.017040239828226847 0.0096745228337802684 0 0.017255191298129295 0.0091145525936185863 0 0.017411854156279351 -0.0021168516962209137 0 0.018517267190271563 -0.0028306767581479306 0 0.017051121172333466 -0.0033401171190431461 0 0.018517267190271563 -0.0028306767581479306 0 0.018171975402046198 -0.0044598254523123522 0 0.017051121172333466 -0.0033401171190431461 0 0.01657876353451743 0.0097127939738089284 0 0.017040239828226847 0.0096745228337802684 0 0.016609622467723094 0.0096081161386067006 0 0.014748499395292573 0.0029641191660470453 0 0.016962045776449365 0.0029625917389773477 0 0.017040239828226847 0.0096745228337802684 0 0.016825156682200547 0.0093103614652432273 0 0.017255191298129295 0.0091145525936185863 0 0.017040239828226847 0.0096745228337802684 0 0.016609622467723094 0.0096081161386067006 0 0.016825156682200547 0.0093103614652432273 0 0.016825156682200547 0.0093103614652432273 0 0.017017455014435374 0.0089243863226706847 0 0.01669373736307905 0.0087545345686577802 0 0.016825156682200547 0.0093103614652432273 0 0.017017455014435374 0.0089243863226706847 0 0.017255191298129295 0.0091145525936185863 0 0.016135700938442021 0.0098697526926118245 0 0.016228370859654714 0.0098824312010145979 0 0.016162283648165857 0.009902675021119486 0 0.01669373736307905 0.0087545345686577802 0 0.017092501511245785 0.0085822755383067519 0 0.017120878359175029 0.008016343102872971 0 0.016449578970220254 0.0093112239527946561 0 0.016753462843432387 0.0089880748168297397 0 0.017017455014435374 0.0089243863226706847 0 0.01669373736307905 0.0087545345686577802 0 0.017092501511245785 0.0085822755383067519 0 0.017017455014435374 0.0089243863226706847 0 0.017092501511245785 0.0085822755383067519 0 0.017287623300081458 0.0087827656392361515 0 0.017718890484724859 0.0083953148455232756 0 0.01732610896026111 0.0083978529221698725 0 0.017287623300081458 0.0087827656392361515 0 0.017092501511245785 0.0085822755383067519 0 0.01732610896026111 0.0083978529221698725 0 0.017287623300081458 0.0087827656392361515 0 0.017668338146432792 0.0093139590426167956 0 0.017255191298129295 0.0091145525936185863 0 0.017724514588670987 0.0086950605141020466 0 0.017287623300081458 0.0087827656392361515 0 0.017255191298129295 0.0091145525936185863 0 0.017724514588670987 0.0086950605141020466 0 0.017017455014435374 0.0089243863226706847 0 0.017287623300081458 0.0087827656392361515 0 0.017255191298129295 0.0091145525936185863 0 0.018171975402046198 -0.0044598254523123522 0 0.019565944107407432 -0.0047435857961552431 0 0.019307565223588809 -0.0055952843469616797 0 0.019924866576483413 0.0043023763138297011 0 0.018565186937778356 0.0064898587498948947 0 0.018243850725616916 0.0026026308876588647 0 0.019924866576483413 0.0043023763138297011 0 0.017668338146432792 0.0093139590426167956 0 0.018221782305599007 0.0088141794024965657 0 0.017724514588670987 0.0086950605141020466 0 0.019565944107407432 -0.0047435857961552431 0 0.019307565223588809 -0.0055952843469616797 0 0.021062405793737613 -0.0051564197887587083 0 0.018468029654964638 0.0089372951467954834 0 0.018098254871494024 0.0084520098035218462 0 0.019403025183699942 0.0080357819551488945 0 0.01761080249384232 0.0085780120662339258 0 0.023788976461379091 0.0057955414671304146 0 0.019924866576483413 0.0043023763138297011 0 0.023788976461379091 0.0057955414671304146 0 0.018213073996367769 0.0086834344886382829 0 0.018623145475817997 0.0083646424171811562 0 0.019092589102306465 0.0084238127821464927 0 0.018213073996367769 0.0086834344886382829 0 0.018205880441806106 0.0082486493454039436 0 0.018623145475817997 0.0083646424171811562 0 0.017718890484724859 0.0083953148455232756 0 0.017287623300081458 0.0087827656392361515 0 0.018213073996367769 0.0086834344886382829 0 0.017287623300081458 0.0087827656392361515 0 0.017724514588670987 0.0086950605141020466 0 0.018098254871494024 0.0084520098035218462 0 0.018468029654964638 0.0089372951467954834 0 0.017724514588670987 0.0086950605141020466 0 0.018098254871494024 0.0084520098035218462 0 0.017587865178342037 0.0086736277924852872 0 0.01761080249384232 0.0085780120662339258 0 0.017718890484724859 0.0083953148455232756 0 0.018213073996367769 0.0086834344886382829 0 0.018205880441806106 0.0082486493454039436 0 0.017718890484724859 0.0083953148455232756 0 0.018205880441806106 0.0082486493454039436 0 0.01789547673688819 0.0080855774140671677 0 0.018205880441806106 0.0082486493454039436 0 0.018159676259575496 0.0079274828578217264 0 0.01789547673688819 0.0080855774140671677 0 0.018205880441806106 0.0082486493454039436 0 0.018159676259575496 0.0079274828578217264 0 0.018542128445969898 0.0079558932140697935 0 0.018159676259575496 0.0079274828578217264 0 0.01789547673688819 0.0080855774140671677 0 0.01794230476447696 0.0077686538379584964 0 0.019477529174718997 0.0088213579703311958 0 0.020911343615166385 0.010144866770113763 0 0.020710766936267565 0.0080634225657864132 0 0.01976154924881867 0.0075728015593133679 0 0.023788976461379091 0.0057955414671304146 0 0.018623145475817997 0.0083646424171811562 0 0.018542128445969898 0.0079558932140697935 0 0.019092589102306465 0.0084238127821464927 0 0.018205880441806106 0.0082486493454039436 0 0.018623145475817997 0.0083646424171811562 0 0.018542128445969898 0.0079558932140697935 0 0.019553709141922181 0.0075345866031131161 0 0.018852571680252121 0.0077658788680222508 0 0.02009220180277492 0.0079603128689982022 0 0.019477529174718997 0.0088213579703311958 0 0.018852571680252121 0.0077658788680222508 0 0.020710766936267565 0.0080634225657864132 0 0.01935206543548967 0.0076028834115378988 0 0.020247193463243881 0.0074277058170718569 0 0.019553709141922181 0.0075345866031131161 0 0.018852571680252121 0.0077658788680222508 0 0.018885630280634249 0.0072878868034630161 0 0.01789547673688819 0.0080855774140671677 0 0.01794230476447696 0.0077686538379584964 0 0.01759973048915256 0.0077454256199888227 0 0.018159676259575496 0.0079274828578217264 0 0.01794230476447696 0.0077686538379584964 0 0.018169395423105864 0.0075488069920180943 0 0.019477529174718997 0.0088213579703311958 0 0.018852571680252121 0.0077658788680222508 0 0.018169395423105864 0.0075488069920180943 0 0.018159676259575496 0.0079274828578217264 0 0.018542128445969898 0.0079558932140697935 0 0.018169395423105864 0.0075488069920180943 0 0.01976154924881867 0.0075728015593133679 0 0.018686201416448261 0.0074654217629981081 0 0.018852571680252121 0.0077658788680222508 0 0.01830106555781786 0.0072343346917394819 0 0.018885630280634249 0.0072878868034630161 0 0.018852571680252121 0.0077658788680222508 0 0.018169395423105864 0.0075488069920180943 0 0.01830106555781786 0.0072343346917394819 0 0.018169395423105864 0.0075488069920180943 0 0.017903036048438761 0.0074907129882523585 0 0.01830106555781786 0.0072343346917394819 0 0.01794230476447696 0.0077686538379584964 0 0.018169395423105864 0.0075488069920180943 0 0.017903036048438761 0.0074907129882523585 0 0.016753462843432387 0.0089880748168297397 0 0.018172281988433563 0.0088144468418864287 0 0.017903036048438761 0.0074907129882523585 0 0.01759973048915256 0.0077454256199888227 0 0.017563100103648015 0.0070273321228484708 0 0.01759973048915256 0.0077454256199888227 0 0.017120878359175029 0.008016343102872971 0 0.017563100103648015 0.0070273321228484708 0 0.016228370859654714 0.0098824312010145979 0 0.01622645474010672 0.0097518259673060395 0 0.016341775093136567 0.0097238217101874216 0 0.01794230476447696 0.0077686538379584964 0 0.017903036048438761 0.0074907129882523585 0 0.01759973048915256 0.0077454256199888227 0 0.016186936446495707 0.0098205820913308348 0 0.016228370859654714 0.0098824312010145979 0 0.016156869211957352 0.0098625922194623249 0 0.016186936446495707 0.0098205820913308348 0 0.016228370859654714 0.0098824312010145979 0 0.01622645474010672 0.0097518259673060395 0 0.016186936446495707 0.0098205820913308348 0 0.01622645474010672 0.0097518259673060395 0 0.016138846199045462 0.0097803359571675599 0 0.016228370859654714 0.0098824312010145979 0 0.016156869211957352 0.0098625922194623249 0 0.016162283648165857 0.009902675021119486 0 0.017092501511245785 0.0085822755383067519 0 0.01732610896026111 0.0083978529221698725 0 0.017120878359175029 0.008016343102872971 0 0.01732610896026111 0.0083978529221698725 0 0.017120878359175029 0.008016343102872971 0 0.017497051969329654 0.0081136793059079608 0 0.017718890484724859 0.0083953148455232756 0 0.01789547673688819 0.0080855774140671677 0 0.017497051969329654 0.0081136793059079608 0 0.017718890484724859 0.0083953148455232756 0 0.01732610896026111 0.0083978529221698725 0 0.017497051969329654 0.0081136793059079608 0 0.01789547673688819 0.0080855774140671677 0 0.01759973048915256 0.0077454256199888227 0 0.017497051969329654 0.0081136793059079608 0 0.01759973048915256 0.0077454256199888227 0 0.017120878359175029 0.008016343102872971 0 0.017497051969329654 0.0081136793059079608 0 0.034745264213181054 0.0016424327660512017 0 0.035062286099022802 0.0012053154184166362 0 0.035141709947127189 0.0018743856451283744 0 0.034249259726181168 0.001864631809944768 0 0.034685645671913221 0.0020995125110154123 0 0.034745264213181054 0.0016424327660512017 0 0.034685645671913221 0.0020995125110154123 0 0.034745264213181054 0.0016424327660512017 0 0.035141709947127189 0.0018743856451283744 0 0.034189236604341339 0.0010386230598060969 0 0.034745264213181054 0.0016424327660512017 0 0.035062286099022802 0.0012053154184166362 0 0.034189236604341339 0.0010386230598060969 0 0.034516144808041889 0.00029538900860761838 0 0.035062286099022802 0.0012053154184166362 0 0.035467586199468312 0.00079281847260357556 0 0.034516144808041889 0.00029538900860761838 0 0.035062286099022802 0.0012053154184166362 0 0.035062286099022802 0.0012053154184166362 0 0.035508880252798317 0.0012349146555653511 0 0.03557407407824973 0.001523033040200986 0 0.035467586199468312 0.00079281847260357556 0 0.035508880252798317 0.0012349146555653511 0 0.035801385716892696 0.0014283311559727936 0 0.035467586199468312 0.00079281847260357556 0 0.035062286099022802 0.0012053154184166362 0 0.035508880252798317 0.0012349146555653511 0 0.035062286099022802 0.0012053154184166362 0 0.03557407407824973 0.001523033040200986 0 0.035141709947127189 0.0018743856451283744 0 0.03557407407824973 0.001523033040200986 0 0.035141709947127189 0.0018743856451283744 0 0.035817171953680796 0.002227025361478719 0 0.033751814924042112 0.0022868958465697654 0 0.032227726061725331 0.0039371878940682899 0 0.035729517849547386 0.0015986817200917434 0 0.035894674975014619 0.0016817059868428686 0 0.035657690294566884 0.0017354250665801811 0 0.03557407407824973 0.001523033040200986 0 0.035729517849547386 0.0015986817200917434 0 0.035657690294566884 0.0017354250665801811 0 0.035729517849547386 0.0015986817200917434 0 0.035801385716892696 0.0014283311559727936 0 0.035894674975014619 0.0016817059868428686 0 0.03557407407824973 0.001523033040200986 0 0.035729517849547386 0.0015986817200917434 0 0.035801385716892696 0.0014283311559727936 0 0.027899020223215946 0.00060181759630086019 0 0.022093573376739464 -0.00039262244929063727 0 0.026230082541117816 0.00391875891988238 0 0.024997345451726386 0.002814132226628106 0 0.024324401382426215 0.0034335767773313909 0 0.027899020223215946 0.00060181759630086019 0 0.029831913829179355 0.0031946125113939297 0 0.035508880252798317 0.0012349146555653511 0 0.03557407407824973 0.001523033040200986 0 0.035801385716892696 0.0014283311559727936 0 0.019924866576483413 0.0043023763138297011 0 0.022093573376739464 -0.00039262244929063727 0 0.024997345451726386 0.002814132226628106 0 0.024324401382426215 0.0034335767773313909 0 0.023828092436743321 0.0025174466647179148 0 0.022422925617134375 0.0029252683846238128 0 0.024324401382426215 0.0034335767773313909 0 0.023828092436743321 0.0025174466647179148 0 0.029831913829179355 0.0031946125113939297 0 0.023788976461379091 0.0057955414671304146 0 0.024997345451726386 0.002814132226628106 0 0.023828092436743321 0.0025174466647179148 0 0.023713988472948994 0.0016386619199693516 0 0.022422925617134375 0.0029252683846238128 0 0.023828092436743321 0.0025174466647179148 0 0.023713988472948994 0.0016386619199693516 0 0.023788976461379091 0.0057955414671304146 0 0.025890151998024202 0.0066027114029436861 0 0.020911343615166385 0.010144866770113763 0 0.020710766936267565 0.0080634225657864132 0 0.022623826690030092 0.0084284244067627731 0 0.025544436689823272 0.005883289812827013 0 0.027436644145619464 0.0039920092702040548 0 0.026883827078886327 0.0050407882264980625 0 0.020247193463243881 0.0074277058170718569 0 0.025890151998024202 0.0066027114029436861 0 0.02009220180277492 0.0079603128689982022 0 0.020403488360602774 0.0078242576727128397 0 0.020302226056221468 0.0077525112210562351 0 0.019553709141922181 0.0075345866031131161 0 0.02009220180277492 0.0079603128689982022 0 0.020301089513272568 0.0076169238683141934 0 0.02009220180277492 0.0079603128689982022 0 0.020301089513272568 0.0076169238683141934 0 0.020302226056221468 0.0077525112210562351 0 0.020301089513272568 0.0076169238683141934 0 0.020302226056221468 0.0077525112210562351 0 0.020166897110945676 0.0077374134410958502 0 0.020302226056221468 0.0077525112210562351 0 0.020416423691595968 0.0077961062793000793 0 0.020166897110945676 0.0077374134410958502 0 0.026897778207652451 0.0072937662680417651 0 0.027684229047430169 0.0065059669250828048 0 0.026583794625910324 0.0063389724560943385 0 0.026850882137575912 0.0063403044469608682 0 0.024959129617871719 0.0073232439857660488 0 0.020403488360602774 0.0078242576727128397 0 0.020302226056221468 0.0077525112210562351 0 0.020416423691595968 0.0077961062793000793 0 0.029588419266124252 0.0054073753564707035 0 0.029618658081918332 0.0054986290789719554 0 0.030212980236117033 0.0047834551519567526 0 0.026850882137575912 0.0063403044469608682 0 0.027501314172544943 0.006214918722381022 0 0.029098940399564132 0.0051663554276218009 0 0.027013067243132093 0.0072757923966790148 0 0.026135086301444403 0.0045688206414709063 0 0.025890151998024202 0.0066027114029436861 0 0.027501314172544943 0.006214918722381022 0 0.025890151998024202 0.0066027114029436861 0 0.026850882137575912 0.0063403044469608682 0 0.027501314172544943 0.006214918722381022 0 0.032227726061725331 0.0039371878940682899 0 0.027695302583914273 0.004043654516792887 0 0.026883827078886327 0.0050407882264980625 0 0.028119871303002877 0.0053299698404085062 0 0.025544436689823272 0.005883289812827013 0 0.026883827078886327 0.0050407882264980625 0 0.028119871303002877 0.0053299698404085062 0 0.023788976461379091 0.0057955414671304146 0 0.032227726061725331 0.0039371878940682899 0 0.027436644145619464 0.0039920092702040548 0 0.027695302583914273 0.004043654516792887 0 0.026883827078886327 0.0050407882264980625 0 0.027501314172544943 0.006214918722381022 0 0.033144075209537771 0.0041820016532450122 0 0.032227726061725331 0.0039371878940682899 0 0.033144075209537771 0.0041820016532450122 0 0.029805223959254952 0.0045935497921696317 0 0.030196771878832844 0.0057804684793737477 0 0.032647599363444309 0.0051590502585897816 0 0.035141709947127189 0.0018743856451283744 0 0.035817171953680796 0.002227025361478719 0 0.03485940090480847 0.0025417398672195448 0 0.029618658081918332 0.0054986290789719554 0 0.030829189021628022 0.005728005148868791 0 0.030212980236117033 0.0047834551519567526 0 0.026850882137575912 0.0063403044469608682 0 0.029565410156339719 0.0060749745323534464 0 0.031118936838946471 0.0049241506821517574 0 0.030829189021628022 0.005728005148868791 0 0.030212980236117033 0.0047834551519567526 0 0.034105723514958476 0.0037221656817685764 0 0.033144075209537771 0.0041820016532450122 0 0.034685645671913221 0.0020995125110154123 0 0.035141709947127189 0.0018743856451283744 0 0.03485940090480847 0.0025417398672195448 0 0.034363737750971034 0.0025511881026608232 0 0.034685645671913221 0.0020995125110154123 0 0.03485940090480847 0.0025417398672195448 0 0.030739187859482341 0.0057786843553342135 0 0.030196390049491168 0.006140993315123639 0 0.030448958416606425 0.0060690596840264639 0 0.030196390049491168 0.006140993315123639 0 0.030448958416606425 0.0060690596840264639 0 0.03000685348504066 0.0062781907494282316 0 0.03059193165411881 0.0062180650052310786 0 0.030448958416606425 0.0060690596840264639 0 0.030116924395243685 0.0063530611342489038 0 0.03059193165411881 0.0062180650052310786 0 0.030116924395243685 0.0063530611342489038 0 0.030005135049436363 0.0064819687563591683 0 0.030825253256203038 0.0056159260611101129 0 0.029565410156339719 0.0060749745323534464 0 0.030448958416606425 0.0060690596840264639 0 0.030116924395243685 0.0063530611342489038 0 0.03000685348504066 0.0062781907494282316 0 0.030116924395243685 0.0063530611342489038 0 0.029849913810212923 0.0064075090610185865 0 0.03000685348504066 0.0062781907494282316 0 0.030116924395243685 0.0063530611342489038 0 0.029942660115037802 0.006517009513990233 0 0.029849913810212923 0.0064075090610185865 0 0.029644150024936193 0.0060873629785760178 0 0.029565410156339719 0.0060749745323534464 0 0.029849913810212923 0.0064075090610185865 0 0.03000685348504066 0.0062781907494282316 0 0.029731314067563762 0.0063675370795975763 0 0.03000685348504066 0.0062781907494282316 0 0.029710267919850326 0.006312103353651009 0 0.029731314067563762 0.0063675370795975763 0 0.030196390049491168 0.006140993315123639 0 0.03000685348504066 0.0062781907494282316 0 0.029710267919850326 0.006312103353651009 0 0.030196390049491168 0.006140993315123639 0 0.029710267919850326 0.006312103353651009 0 0.029495691671040297 0.0063640833823149943 0 0.029710267919850326 0.006312103353651009 0 0.029731314067563762 0.0063675370795975763 0 0.029536755646044771 0.0064979969169849721 0 0.029731314067563762 0.0063675370795975763 0 0.029635139360509467 0.0064518153478008537 0 0.029536755646044771 0.0064979969169849721 0 0.029942660115037802 0.006517009513990233 0 0.029849913810212923 0.0064075090610185865 0 0.029635139360509467 0.0064518153478008537 0 0.029565410156339719 0.0060749745323534464 0 0.024959129617871719 0.0073232439857660488 0 0.029849913810212923 0.0064075090610185865 0 0.029731314067563762 0.0063675370795975763 0 0.029635139360509467 0.0064518153478008537 0 0.020301089513272568 0.0076169238683141934 0 0.020166897110945676 0.0077374134410958502 0 0.020582408338554455 0.0081613969400565478 0 0.021481393848615849 0.0086317123510275349 0 0.021601591719873178 0.0086558061523022943 0 0.021550813375463551 0.0088668409301231772 0 0.024959129617871719 0.0073232439857660488 0 0.021337008100362112 0.0079259173623941245 0 0.021601591719873178 0.0086558061523022943 0 0.021550813375463551 0.0088668409301231772 0 0.021646927698787354 0.0087873255666290947 0 0.024959129617871719 0.0073232439857660488 0 0.025461567774992932 0.0077607017888189954 0 0.025461567774992932 0.0077607017888189954 0 0.025312356361277769 0.0081511771611040128 0 0.021550813375463551 0.0088668409301231772 0 0.02169037833077082 0.0091000450894848737 0 0.02175836996661653 0.0089570807572153868 0 0.029536755646044771 0.0064979969169849721 0 0.029149909408562446 0.0073983835728820228 0 0.029256877148814229 0.0070891806142261895 0 0.029149909408562446 0.0073983835728820228 0 0.029256877148814229 0.0070891806142261895 0 0.02890862021312993 0.0076693694158040957 0 0.029256877148814229 0.0070891806142261895 0 0.028830207571442217 0.0075496486754611999 0 0.02890862021312993 0.0076693694158040957 0 0.029710267919850326 0.006312103353651009 0 0.029536755646044771 0.0064979969169849721 0 0.029495691671040297 0.0063640833823149943 0 0.029536755646044771 0.0064979969169849721 0 0.029256877148814229 0.0070891806142261895 0 0.029495691671040297 0.0063640833823149943 0 0.030196390049491168 0.006140993315123639 0 0.029495691671040297 0.0063640833823149943 0 0.030495588984916812 0.0059095900665067412 0 0.029600406130461086 0.0065069070843515372 0 0.029809694550686022 0.0066749898871276882 0 0.029495691671040297 0.0063640833823149943 0 0.030495588984916812 0.0059095900665067412 0 0.030710860001838099 0.005606303937447224 0 0.029256877148814229 0.0070891806142261895 0 0.029495691671040297 0.0063640833823149943 0 0.028830207571442217 0.0075496486754611999 0 0.030850051598210335 0.0056938588027638697 0 0.030710860001838099 0.005606303937447224 0 0.030864490658681059 0.0058998370738439637 0 0.030850051598210335 0.0056938588027638697 0 0.030495588984916812 0.0059095900665067412 0 0.030710860001838099 0.005606303937447224 0 0.030739187859482341 0.0057786843553342135 0 0.030196390049491168 0.006140993315123639 0 0.030495588984916812 0.0059095900665067412 0 0.030739187859482341 0.0057786843553342135 0 0.030850051598210335 0.0056938588027638697 0 0.030495588984916812 0.0059095900665067412 0 0.021948478996690352 0.0088176157464367882 0 0.021871999661512001 0.0088558503022008201 0 0.021932641071439159 0.0090618450857786956 0 0.021948478996690352 0.0088176157464367882 0 0.022191126384171835 0.0089329736175942295 0 0.021932641071439159 0.0090618450857786956 0 0.020887239818263886 0.009283768409180583 0 0.021952523586417035 0.0089659348597185464 0 0.020726362297140068 0.0089990232646249228 0 0.020887239818263886 0.009283768409180583 0 0.019417023954276587 0.0092098831153392992 0 0.019209397994539756 0.0091366360816492551 0 0.019292977419022417 0.0092549778215618422 0 0.019209397994539756 0.0091366360816492551 0 0.019292977419022417 0.0092549778215618422 0 0.019194659714178209 0.0092716719159758165 0 0.019292977419022417 0.0092549778215618422 0 0.019276662418982033 0.009365553141092919 0 0.01939104107324072 0.0092772907396516391 0 0.019194659714178209 0.0092716719159758165 0 0.019276662418982033 0.009365553141092919 0 0.019111607159446171 0.0094027478284192528 0 0.017746767572136345 0.0095027088693691881 0 0.017609550293979408 0.01002657475946659 0 0.019292977419022417 0.0092549778215618422 0 0.019194659714178209 0.0092716719159758165 0 0.019276662418982033 0.009365553141092919 0 0.019276662418982033 0.009365553141092919 0 0.01939104107324072 0.0092772907396516391 0 0.01944159955322446 0.0093262720863267392 0 0.017746767572136345 0.0095027088693691881 0 0.018172281988433563 0.0088144468418864287 0 0.019417023954276587 0.0092098831153392992 0 0.019292977419022417 0.0092549778215618422 0 0.01939104107324072 0.0092772907396516391 0 0.019417023954276587 0.0092098831153392992 0 0.01939104107324072 0.0092772907396516391 0 0.019462223173047064 0.0092856799381801809 0 0.01939104107324072 0.0092772907396516391 0 0.019462223173047064 0.0092856799381801809 0 0.01944159955322446 0.0093262720863267392 0 0.018237559877418021 0.0088208058206564535 0 0.018172281988433563 0.0088144468418864287 0 0.017563100103648015 0.0070273321228484708 0 0.01830106555781786 0.0072343346917394819 0 0.018654532273003423 0.0066945129682050115 0 0.019462223173047064 0.0092856799381801809 0 0.019441978005321908 0.0093238572541666231 0 0.019627745808563479 0.0092782512991076808 0 0.019417023954276587 0.0092098831153392992 0 0.019462223173047064 0.0092856799381801809 0 0.019627745808563479 0.0092782512991076808 0 0.020726362297140068 0.0089990232646249228 0 0.020061017592767225 0.0084347901971739067 0 0.018172281988433563 0.0088144468418864287 0 0.020061017592767225 0.0084347901971739067 0 0.017903036048438761 0.0074907129882523585 0 0.017563100103648015 0.0070273321228484708 0 0.01830106555781786 0.0072343346917394819 0 0.01830106555781786 0.0072343346917394819 0 0.018654532273003423 0.0066945129682050115 0 0.018885630280634249 0.0072878868034630161 0 0.021799271585284316 0.0086150870072022497 0 0.021760037941897684 0.008707889121286852 0 0.021871999661512001 0.0088558503022008201 0 0.021794587681639374 0.008590045398157704 0 0.021799271585284316 0.0086150870072022497 0 0.021760037941897684 0.008707889121286852 0 0.020139008751464339 0.0084247524206395013 0 0.020061017592767225 0.0084347901971739067 0 0.021601591719873178 0.0086558061523022943 0 0.021666695567802582 0.0086028873686094798 0 0.021664701841086612 0.0087050357422611083 0 0.020301089513272568 0.0076169238683141934 0 0.020582408338554455 0.0081613969400565478 0 0.021666695567802582 0.0086028873686094798 0 0.020301089513272568 0.0076169238683141934 0 0.021794587681639374 0.008590045398157704 0 0.021666695567802582 0.0086028873686094798 0 0.019553709141922181 0.0075345866031131161 0 0.020301089513272568 0.0076169238683141934 0 0.018654532273003423 0.0066945129682050115 0 0.020301089513272568 0.0076169238683141934 0 0.021794587681639374 0.008590045398157704 0 0.021935449959568074 0.0085786042404797317 0 0.021337008100362112 0.0079259173623941245 0 0.021563240608019243 0.0082369438629258662 0 0.020166637211857831 0.0077329350732502199 0 0.020061017592767225 0.0084347901971739067 0 0.019553709141922181 0.0075345866031131161 0 0.018654532273003423 0.0066945129682050115 0 0.018885630280634249 0.0072878868034630161 0 0.021794587681639374 0.008590045398157704 0 0.021760037941897684 0.008707889121286852 0 0.021666695567802582 0.0086028873686094798 0 0.021760037941897684 0.008707889121286852 0 0.021666695567802582 0.0086028873686094798 0 0.021664701841086612 0.0087050357422611083 0 0.021601591719873178 0.0086558061523022943 0 0.021664701841086612 0.0087050357422611083 0 0.021646927698787354 0.0087873255666290947 0 0.021550813375463551 0.0088668409301231772 0 0.021646927698787354 0.0087873255666290947 0 0.02175836996661653 0.0089570807572153868 0 0.021664701841086612 0.0087050357422611083 0 0.021646927698787354 0.0087873255666290947 0 0.021745275636345283 0.0088141766000250678 0 0.021760037941897684 0.008707889121286852 0 0.021664701841086612 0.0087050357422611083 0 0.021745275636345283 0.0088141766000250678 0 0.021745275636345283 0.0088141766000250678 0 0.021813136391647749 0.0089071399091706898 0 0.02175836996661653 0.0089570807572153868 0 0.021646927698787354 0.0087873255666290947 0 0.021745275636345283 0.0088141766000250678 0 0.02175836996661653 0.0089570807572153868 0 0.021948478996690352 0.0088176157464367882 0 0.021799271585284316 0.0086150870072022497 0 0.021871999661512001 0.0088558503022008201 0 0.021871999661512001 0.0088558503022008201 0 0.021813136391647749 0.0089071399091706898 0 0.021887642286570981 0.0090088065711622853 0 0.021760037941897684 0.008707889121286852 0 0.021745275636345283 0.0088141766000250678 0 0.021871999661512001 0.0088558503022008201 0 0.021745275636345283 0.0088141766000250678 0 0.021871999661512001 0.0088558503022008201 0 0.021813136391647749 0.0089071399091706898 0 0.021813136391647749 0.0089071399091706898 0 0.021887642286570981 0.0090088065711622853 0 0.02175836996661653 0.0089570807572153868 0 0.021887642286570981 0.0090088065711622853 0 0.02175836996661653 0.0089570807572153868 0 0.021900018406285506 0.0090828711432239511 0 0.02169037833077082 0.0091000450894848737 0 0.02175836996661653 0.0089570807572153868 0 0.021900018406285506 0.0090828711432239511 0 0.021900018406285506 0.0090828711432239511 0 0.021874207089895056 0.0089923887526822434 0 0.021945709237418568 0.0090094217302937353 0 0.021887642286570981 0.0090088065711622853 0 0.021900018406285506 0.0090828711432239511 0 0.021874207089895056 0.0089923887526822434 0 0.021871999661512001 0.0088558503022008201 0 0.021887642286570981 0.0090088065711622853 0 0.021932641071439159 0.0090618450857786956 0 0.021887642286570981 0.0090088065711622853 0 0.021874207089895056 0.0089923887526822434 0 0.021932641071439159 0.0090618450857786956 0 0.021552704989544612 0.0094643212144060723 0 0.021673419171030911 0.0090337478896344373 0 0.02133461361829668 0.0091673572176802273 0 0.021874207089895056 0.0089923887526822434 0 0.021932641071439159 0.0090618450857786956 0 0.021673419171030911 0.0090337478896344373 0 0.021552704989544612 0.0094643212144060723 0 0.021932641071439159 0.0090618450857786956 0 0.021673419171030911 0.0090337478896344373 0 0.021729467126255956 0.0089223227863846743 0 0.0213405294122372 0.0087305603053488244 0 0.021945709237418568 0.0090094217302937353 0 0.021874207089895056 0.0089923887526822434 0 0.021729467126255956 0.0089223227863846743 0 0.021945709237418568 0.0090094217302937353 0 0.021673419171030911 0.0090337478896344373 0 0.021729467126255956 0.0089223227863846743 0 0.0213405294122372 0.0087305603053488244 0 0.021874207089895056 0.0089923887526822434 0 0.021673419171030911 0.0090337478896344373 0 0.021729467126255956 0.0089223227863846743 0 0.021340003528495077 0.010551830432544554 0 0.020836727861381431 0.010478610731817646 0 0.020752626197576909 0.010743060812095945 0 0.021340003528495077 0.010551830432544554 0 0.020836727861381431 0.010478610731817646 0 0.02109701663161986 0.010301786065170373 0 0.021340003528495077 0.010551830432544554 0 0.020752626197576909 0.010743060812095945 0 0.020811902932725782 0.011072570961014168 0 0.020274285632350703 0.0093841706674107767 0 0.020933263532020404 0.0090568422684907911 0 0.020247679413201543 0.0098479890327863636 0 0.021225790684952825 0.0096709230532598944 0 0.020067217979608282 0.0096838424164809641 0 0.0213405294122372 0.0087305603053488244 0 0.020109568500889508 0.0090832997991674973 0 0.020419978982703039 0.0090963642374305084 0 0.019934909144066107 0.0090955824201570633 0 0.020274285632350703 0.0093841706674107767 0 0.019806798087095127 0.0096666295705491664 0 0.019934909144066107 0.0090955824201570633 0 0.020274285632350703 0.0093841706674107767 0 0.020419978982703039 0.0090963642374305084 0 0.020067217979608282 0.0096838424164809641 0 0.020149742312748214 0.0096207205639824798 0 0.020274285632350703 0.0093841706674107767 0 0.020419978982703039 0.0090963642374305084 0 0.020933263532020404 0.0090568422684907911 0 0.02133461361829668 0.0091673572176802273 0 0.020933263532020404 0.0090568422684907911 0 0.02109748831323361 0.0094165449514620747 0 0.0213405294122372 0.0087305603053488244 0 0.020419978982703039 0.0090963642374305084 0 0.020933263532020404 0.0090568422684907911 0 0.021673419171030911 0.0090337478896344373 0 0.0213405294122372 0.0087305603053488244 0 0.02133461361829668 0.0091673572176802273 0 0.0213405294122372 0.0087305603053488244 0 0.02133461361829668 0.0091673572176802273 0 0.020933263532020404 0.0090568422684907911 0 0.016941507987968837 0.010961591427762379 0 0.016946760703068421 0.010894695577868398 0 0.016967443256990435 0.010956427134960102 0 0.016977295129680745 0.01100492136209281 0 0.016941507987968837 0.010961591427762379 0 0.016995698438428637 0.011097005303934423 0 0.016977295129680745 0.01100492136209281 0 0.016967443256990435 0.010956427134960102 0 0.016992813832909667 0.011002281378143471 0 0.016977295129680745 0.01100492136209281 0 0.016941507987968837 0.010961591427762379 0 0.016967443256990435 0.010956427134960102 0 0.020836727861381431 0.010478610731817646 0 0.020227720890212797 0.010666350502830482 0 0.020738372577123892 0.010061864382912586 0 0.020836727861381431 0.010478610731817646 0 0.020752626197576909 0.010743060812095945 0 0.020227720890212797 0.010666350502830482 0 0.020752626197576909 0.010743060812095945 0 0.020227720890212797 0.010666350502830482 0 0.020516074306399273 0.010937874116970973 0 0.020811902932725782 0.011072570961014168 0 0.020516074306399273 0.010937874116970973 0 0.020268843458188791 0.011202640749313776 0 0.019727179515979975 0.009021712525960934 0 0.018549875035885611 0.0092912435255912366 0 0.018990489906771088 0.0097134648200850951 0 0.020227720890212797 0.010666350502830482 0 0.020516074306399273 0.010937874116970973 0 0.020268843458188791 0.011202640749313776 0 0.020067217979608282 0.0096838424164809641 0 0.019433767804212538 0.010185125601592376 0 0.020752626197576909 0.010743060812095945 0 0.020811902932725782 0.011072570961014168 0 0.020516074306399273 0.010937874116970973 0 0.020067217979608282 0.0096838424164809641 0 0.019517442934829626 0.009770517342418775 0 0.018562829461135973 0.010808255904335786 0 0.01803155242551174 0.010687764158833523 0 0.020227720890212797 0.010666350502830482 0 0.020268843458188791 0.011202640749313776 0 0.019705210269817499 0.011323031657498017 0 0.016941507987968837 0.010961591427762379 0 0.016930831721330201 0.010849998398612455 0 0.016946760703068421 0.010894695577868398 0 0.019433767804212538 0.010185125601592376 0 0.01803155242551174 0.010687764158833523 0 0.018549875035885611 0.0092912435255912366 0 0.017923029460422013 0.0097596871491456762 0 0.017491378482861829 0.0096456563729907362 0 0.017738319032781797 0.010083167826110045 0 0.017923029460422013 0.0097596871491456762 0 0.018250273437201592 0.0098147279602632358 0 0.017738319032781797 0.010083167826110045 0 0.018250273437201592 0.0098147279602632358 0 0.018089343941463207 0.010204581464901736 0 0.017738319032781797 0.010083167826110045 0 0.017923029460422013 0.0097596871491456762 0 0.017599720523164691 0.0099210555485460417 0 0.018549875035885611 0.0092912435255912366 0 0.017923029460422013 0.0097596871491456762 0 0.018250273437201592 0.0098147279602632358 0 0.018250273437201592 0.0098147279602632358 0 0.018089343941463207 0.010204581464901736 0 0.018525023548989859 0.010092524604126466 0 0.018250273437201592 0.0098147279602632358 0 0.018525023548989859 0.010092524604126466 0 0.018990489906771088 0.0097134648200850951 0 0.018525023548989859 0.010092524604126466 0 0.018990489906771088 0.0097134648200850951 0 0.018935291630423727 0.01029658614704934 0 0.018549875035885611 0.0092912435255912366 0 0.018250273437201592 0.0098147279602632358 0 0.018990489906771088 0.0097134648200850951 0 0.019934909144066107 0.0090955824201570633 0 0.018990489906771088 0.0097134648200850951 0 0.019806798087095127 0.0096666295705491664 0 0.018990489906771088 0.0097134648200850951 0 0.019616091007720722 0.010175014495213261 0 0.019806798087095127 0.0096666295705491664 0 0.018990489906771088 0.0097134648200850951 0 0.019616091007720722 0.010175014495213261 0 0.018935291630423727 0.01029658614704934 0 0.019616091007720722 0.010175014495213261 0 0.019154050315258908 0.010904092299791562 0 0.018935291630423727 0.01029658614704934 0 0.019154050315258908 0.010904092299791562 0 0.018935291630423727 0.01029658614704934 0 0.018453707786025769 0.010572548354884826 0 0.018525023548989859 0.010092524604126466 0 0.018935291630423727 0.01029658614704934 0 0.018453707786025769 0.010572548354884826 0 0.018453707786025769 0.010572548354884826 0 0.017472544921644049 0.010944284877959762 0 0.017573872931015751 0.010641536646229325 0 0.019154050315258908 0.010904092299791562 0 0.018453707786025769 0.010572548354884826 0 0.017472544921644049 0.010944284877959762 0 0.018089343941463207 0.010204581464901736 0 0.018525023548989859 0.010092524604126466 0 0.018453707786025769 0.010572548354884826 0 0.018089343941463207 0.010204581464901736 0 0.018453707786025769 0.010572548354884826 0 0.017996718278492432 0.010465817836998547 0 0.018453707786025769 0.010572548354884826 0 0.017996718278492432 0.010465817836998547 0 0.017573872931015751 0.010641536646229325 0 0.017996718278492432 0.010465817836998547 0 0.017644724393822735 0.010425291184165495 0 0.017573872931015751 0.010641536646229325 0 0.018089343941463207 0.010204581464901736 0 0.017996718278492432 0.010465817836998547 0 0.017644724393822735 0.010425291184165495 0 0.017738319032781797 0.010083167826110045 0 0.018089343941463207 0.010204581464901736 0 0.017644724393822735 0.010425291184165495 0 0.020602059146320829 0.0093663796205090636 0 0.019838126212145597 0.0098426396015119499 0 0.020933263532020404 0.0090568422684907911 0 0.021157593897292659 0.0097888113775119502 0 0.02109748831323361 0.0094165449514620747 0 0.019209397994539756 0.0091366360816492551 0 0.019194659714178209 0.0092716719159758165 0 0.019082620136577379 0.0092003962538369909 0 0.020887239818263886 0.009283768409180583 0 0.019838126212145597 0.0098426396015119499 0 0.020887239818263886 0.009283768409180583 0 0.02118746374468846 0.0094087796136831745 0 0.021547772349384327 0.0095794425196368601 0 0.021157593897292659 0.0097888113775119502 0 0.02109748831323361 0.0094165449514620747 0 0.021552704989544612 0.0094643212144060723 0 0.02133461361829668 0.0091673572176802273 0 0.02109748831323361 0.0094165449514620747 0 0.020933263532020404 0.0090568422684907911 0 0.02099859305006492 0.010211740350831139 0 0.020247679413201543 0.0098479890327863636 0 0.019616091007720722 0.010175014495213261 0 0.02099859305006492 0.010211740350831139 0 0.020247679413201543 0.0098479890327863636 0 0.019616091007720722 0.010175014495213261 0 0.020247679413201543 0.0098479890327863636 0 0.019806798087095127 0.0096666295705491664 0 0.020274285632350703 0.0093841706674107767 0 0.020247679413201543 0.0098479890327863636 0 0.019806798087095127 0.0096666295705491664 0 0.019616091007720722 0.010175014495213261 0 0.019154050315258908 0.010904092299791562 0 0.02099859305006492 0.010211740350831139 0 0.01860307907112204 0.010699703364899893 0 0.019838126212145597 0.0098426396015119499 0 0.018090924387361762 0.010620896841612338 0 0.01871888545846298 0.010299879027945619 0 0.018471463538021045 0.010594318627080105 0 0.018471463538021045 0.010594318627080105 0 0.018384681827430877 0.010727756769704817 0 0.018798543074937408 0.01077963207817364 0 0.018090924387361762 0.010620896841612338 0 0.018471463538021045 0.010594318627080105 0 0.018384681827430877 0.010727756769704817 0 0.019838126212145597 0.0098426396015119499 0 0.017609550293979408 0.01002657475946659 0 0.019194659714178209 0.0092716719159758165 0 0.019082620136577379 0.0092003962538369909 0 0.019111607159446171 0.0094027478284192528 0 0.01871888545846298 0.010299879027945619 0 0.018471463538021045 0.010594318627080105 0 0.018798543074937408 0.01077963207817364 0 0.016186936446495707 0.0098205820913308348 0 0.016138846199045462 0.0097803359571675599 0 0.016156869211957352 0.0098625922194623249 0 0.016206466287507146 0.010181271138263106 0 0.016176565467285096 0.010070516390827303 0 0.016280760885041292 0.010112406992448468 0 0.017609550293979408 0.01002657475946659 0 0.016598008045526923 0.0098863016118529608 0 0.016598008045526923 0.0098863016118529608 0 0.016391877226918698 0.009887011589921807 0 0.016176565467285096 0.010070516390827303 0 0.016243881673720952 0.0099644405752737954 0 0.016162283648165857 0.009902675021119486 0 0.016176565467285096 0.010070516390827303 0 0.016254723647180447 0.010044008449753738 0 0.016243881673720952 0.0099644405752737954 0 0.016176565467285096 0.010070516390827303 0 0.016254723647180447 0.010044008449753738 0 0.016280760885041292 0.010112406992448468 0 0.016308043034693194 0.010027808838738063 0 0.016347028914780508 0.010083618307596241 0 0.016357078448596483 0.010009293778840104 0 0.016254723647180447 0.010044008449753738 0 0.016243881673720952 0.0099644405752737954 0 0.016308043034693194 0.010027808838738063 0 0.016254723647180447 0.010044008449753738 0 0.016308043034693194 0.010027808838738063 0 0.016280760885041292 0.010112406992448468 0 0.016308043034693194 0.010027808838738063 0 0.016347028914780508 0.010083618307596241 0 0.016280760885041292 0.010112406992448468 0 0.017609550293979408 0.01002657475946659 0 0.017234054009119544 0.010511749035624716 0 0.016347028914780508 0.010083618307596241 0 0.016280760885041292 0.010112406992448468 0 0.016363886083581011 0.010155968282294609 0 0.016206466287507146 0.010181271138263106 0 0.016280760885041292 0.010112406992448468 0 0.016363886083581011 0.010155968282294609 0 0.018384681827430877 0.010727756769704817 0 0.018798543074937408 0.01077963207817364 0 0.018175831392699342 0.010915568127488992 0 0.018090924387361762 0.010620896841612338 0 0.018384681827430877 0.010727756769704817 0 0.018175831392699342 0.010915568127488992 0 0.017234054009119544 0.010511749035624716 0 0.017052325766524209 0.010588491163345228 0 0.018090924387361762 0.010620896841612338 0 0.018175831392699342 0.010915568127488992 0 0.017821529196637528 0.010885339878993344 0 0.018175831392699342 0.010915568127488992 0 0.017821529196637528 0.010885339878993344 0 0.017547632165687076 0.011064097894440643 0 0.018090924387361762 0.010620896841612338 0 0.017821529196637528 0.010885339878993344 0 0.017472544921644049 0.010944284877959762 0 0.016363886083581011 0.010155968282294609 0 0.016464424220354788 0.010230567427728208 0 0.016434895091644926 0.010166213687025753 0 0.01860307907112204 0.010699703364899893 0 0.017748054782057442 0.010959493996463024 0 0.017821529196637528 0.010885339878993344 0 0.017547632165687076 0.011064097894440643 0 0.017472544921644049 0.010944284877959762 0 0.016464291468174096 0.010119492062219007 0 0.016399762978201473 0.010098568317960707 0 0.016395539808495011 0.0099187564159521693 0 0.016434895091644926 0.010166213687025753 0 0.016464291468174096 0.010119492062219007 0 0.01651050672089429 0.010228379990508383 0 0.016464424220354788 0.010230567427728208 0 0.016434895091644926 0.010166213687025753 0 0.01651050672089429 0.010228379990508383 0 0.016434895091644926 0.010166213687025753 0 0.016464291468174096 0.010119492062219007 0 0.016399762978201473 0.010098568317960707 0 0.016363886083581011 0.010155968282294609 0 0.016434895091644926 0.010166213687025753 0 0.016399762978201473 0.010098568317960707 0 0.016347028914780508 0.010083618307596241 0 0.016363886083581011 0.010155968282294609 0 0.016399762978201473 0.010098568317960707 0 0.016347028914780508 0.010083618307596241 0 0.016399762978201473 0.010098568317960707 0 0.016357078448596483 0.010009293778840104 0 0.016357078448596483 0.010009293778840104 0 0.016395539808495011 0.0099187564159521693 0 0.016319670570165614 0.0098830894471852587 0 0.016399762978201473 0.010098568317960707 0 0.016357078448596483 0.010009293778840104 0 0.016395539808495011 0.0099187564159521693 0 0.016395539808495011 0.0099187564159521693 0 0.016368415778271382 0.0097254387867332943 0 0.016319670570165614 0.0098830894471852587 0 0.016464291468174096 0.010119492062219007 0 0.016395539808495011 0.0099187564159521693 0 0.016485384385786832 0.0099152426885754548 0 0.016420859186491308 0.0097170413037728619 0 0.016395539808495011 0.0099187564159521693 0 0.016485384385786832 0.0099152426885754548 0 0.016420859186491308 0.0097170413037728619 0 0.016485384385786832 0.0099152426885754548 0 0.016522989271719898 0.0097439375902591881 0 0.016420859186491308 0.0097170413037728619 0 0.016395539808495011 0.0099187564159521693 0 0.016368415778271382 0.0097254387867332943 0 0.016356103721001377 0.0095265620197560914 0 0.016368415778271382 0.0097254387867332943 0 0.016319670570165614 0.0098830894471852587 0 0.016356103721001377 0.0095265620197560914 0 0.016825156682200547 0.0093103614652432273 0 0.01669373736307905 0.0087545345686577802 0 0.016356103721001377 0.0095265620197560914 0 0.016135700938442021 0.0098697526926118245 0 0.016235023222522151 0.0098559742062169914 0 0.016356103721001377 0.0095265620197560914 0 0.016235023222522151 0.0098559742062169914 0 0.016319670570165614 0.0098830894471852587 0 0.016357519099011026 0.0094915837903217157 0 0.016449578970220254 0.0093112239527946561 0 0.016135700938442021 0.0098697526926118245 0 0.016235023222522151 0.0098559742062169914 0 0.016162283648165857 0.009902675021119486 0 0.016243881673720952 0.0099644405752737954 0 0.016235023222522151 0.0098559742062169914 0 0.016162283648165857 0.009902675021119486 0 0.016243881673720952 0.0099644405752737954 0 0.016235023222522151 0.0098559742062169914 0 0.016319670570165614 0.0098830894471852587 0 0.016243881673720952 0.0099644405752737954 0 0.016308043034693194 0.010027808838738063 0 0.016319670570165614 0.0098830894471852587 0 0.016308043034693194 0.010027808838738063 0 0.016357078448596483 0.010009293778840104 0 0.016319670570165614 0.0098830894471852587 0 0.016777883111818961 0.010113942914175032 0 0.016641037134479463 0.010171443599100542 0 0.016805918977286241 0.01037499454126135 0 0.016777883111818961 0.010113942914175032 0 0.016805918977286241 0.01037499454126135 0 0.016917061127544014 0.010283126201348473 0 0.016777883111818961 0.010113942914175032 0 0.016562778813352771 0.0098512638324240523 0 0.016641037134479463 0.010171443599100542 0 0.016777883111818961 0.010113942914175032 0 0.016919770027070759 0.010043925092443314 0 0.016917061127544014 0.010283126201348473 0 0.017052374203814089 0.010136076343531742 0 0.016919770027070759 0.010043925092443314 0 0.016917061127544014 0.010283126201348473 0 0.016777883111818961 0.010113942914175032 0 0.016919770027070759 0.010043925092443314 0 0.016762023906452844 0.0098733724223358642 0 0.017052374203814089 0.010136076343531742 0 0.017067431276242013 0.0097089744561800594 0 0.016919770027070759 0.010043925092443314 0 0.017067431276242013 0.0097089744561800594 0 0.016919770027070759 0.010043925092443314 0 0.016762023906452844 0.0098733724223358642 0 0.016522098033337471 0.0095029353383776702 0 0.016762023906452844 0.0098733724223358642 0 0.016562778813352771 0.0098512638324240523 0 0.016777883111818961 0.010113942914175032 0 0.016762023906452844 0.0098733724223358642 0 0.016562778813352771 0.0098512638324240523 0 0.016562778813352771 0.0098512638324240523 0 0.016405072051677978 0.0099519314234425733 0 0.016641037134479463 0.010171443599100542 0 0.01606802442935296 0.0096018101469229709 0 0.016465986356079137 0.0098725612897847519 0 0.016352703161588593 0.0095279927705856395 0 0.016562778813352771 0.0098512638324240523 0 0.016405072051677978 0.0099519314234425733 0 0.016617324043474668 0.0096595817624696295 0 0.016643920213205002 0.0098597232685787486 0 0.016522989271719898 0.0097439375902591881 0 0.016485384385786832 0.0099152426885754548 0 0.016643920213205002 0.0098597232685787486 0 0.016522989271719898 0.0097439375902591881 0 0.016465986356079137 0.0098725612897847519 0 0.016509980274010592 0.010117463393641462 0 0.016464291468174096 0.010119492062219007 0 0.016485384385786832 0.0099152426885754548 0 0.016558498913516375 0.010213557788008034 0 0.016485384385786832 0.0099152426885754548 0 0.016643920213205002 0.0098597232685787486 0 0.016558498913516375 0.010213557788008034 0 0.016405072051677978 0.0099519314234425733 0 0.016641037134479463 0.010171443599100542 0 0.016558498913516375 0.010213557788008034 0 0.016641037134479463 0.010171443599100542 0 0.016770886041579607 0.010519741384683099 0 0.016805918977286241 0.01037499454126135 0 0.016641037134479463 0.010171443599100542 0 0.016770886041579607 0.010519741384683099 0 0.016558498913516375 0.010213557788008034 0 0.016770886041579607 0.010519741384683099 0 0.016558498913516375 0.010213557788008034 0 0.01651050672089429 0.010228379990508383 0 0.016464424220354788 0.010230567427728208 0 0.016770886041579607 0.010519741384683099 0 0.01651050672089429 0.010228379990508383 0 0.016464291468174096 0.010119492062219007 0 0.016558498913516375 0.010213557788008034 0 0.01651050672089429 0.010228379990508383 0 0.017547632165687076 0.011064097894440643 0 0.016770886041579607 0.010519741384683099 0 0.017209759149529175 0.01077501573022969 0 0.017052325766524209 0.010588491163345228 0 0.016922654778226475 0.010559139160652885 0 0.017547632165687076 0.011064097894440643 0 0.017472544921644049 0.010944284877959762 0 0.017209759149529175 0.01077501573022969 0 0.017209759149529175 0.01077501573022969 0 0.017288472210319029 0.010709686907686764 0 0.017017318798926855 0.01062287705015182 0 0.017472544921644049 0.010944284877959762 0 0.017209759149529175 0.01077501573022969 0 0.017288472210319029 0.010709686907686764 0 0.017472544921644049 0.010944284877959762 0 0.017288472210319029 0.010709686907686764 0 0.017573872931015751 0.010641536646229325 0 0.016770886041579607 0.010519741384683099 0 0.017017318798926855 0.01062287705015182 0 0.016855296151546868 0.01055194049219064 0 0.016770886041579607 0.010519741384683099 0 0.016855296151546868 0.01055194049219064 0 0.016824055542476495 0.010502704837892625 0 0.016770886041579607 0.010519741384683099 0 0.017209759149529175 0.01077501573022969 0 0.017017318798926855 0.01062287705015182 0 0.016855296151546868 0.01055194049219064 0 0.016824055542476495 0.010502704837892625 0 0.016841249660073224 0.010557273049331984 0 0.016824055542476495 0.010502704837892625 0 0.016874390756247186 0.010449371891381782 0 0.016841249660073224 0.010557273049331984 0 0.016770886041579607 0.010519741384683099 0 0.016824055542476495 0.010502704837892625 0 0.016805918977286241 0.01037499454126135 0 0.016824055542476495 0.010502704837892625 0 0.016805918977286241 0.01037499454126135 0 0.016874390756247186 0.010449371891381782 0 0.016805918977286241 0.01037499454126135 0 0.016917061127544014 0.010283126201348473 0 0.016874390756247186 0.010449371891381782 0 0.016917061127544014 0.010283126201348473 0 0.016935820217379036 0.010410384165555276 0 0.016874390756247186 0.010449371891381782 0 0.016992329593856503 0.010329548349177283 0 0.016917061127544014 0.010283126201348473 0 0.016935820217379036 0.010410384165555276 0 0.016935820217379036 0.010410384165555276 0 0.016874390756247186 0.010449371891381782 0 0.016903644200289718 0.010501082658515204 0 0.016903644200289718 0.010501082658515204 0 0.016864519223616363 0.010578584033871108 0 0.016841249660073224 0.010557273049331984 0 0.016874390756247186 0.010449371891381782 0 0.016903644200289718 0.010501082658515204 0 0.016841249660073224 0.010557273049331984 0 0.016864519223616363 0.010578584033871108 0 0.016841249660073224 0.010557273049331984 0 0.016822725342574507 0.010607902571626656 0 0.016864519223616363 0.010578584033871108 0 0.016822725342574507 0.010607902571626656 0 0.016841499030131137 0.010670213146262358 0 0.016855296151546868 0.01055194049219064 0 0.016822725342574507 0.010607902571626656 0 0.016953003681454984 0.010453071028090916 0 0.016855296151546868 0.01055194049219064 0 0.016841249660073224 0.010557273049331984 0 0.016822725342574507 0.010607902571626656 0 0.016921098337143874 0.010577058352392945 0 0.016986025413059873 0.01058832516214021 0 0.016822725342574507 0.010607902571626656 0 0.016888547761137657 0.010794671955493881 0 0.016873405867160653 0.010783738837277125 0 0.016822725342574507 0.010607902571626656 0 0.016859240682580795 0.010740680724963656 0 0.016873405867160653 0.010783738837277125 0 0.016822725342574507 0.010607902571626656 0 0.016856184128724548 0.010711771894529931 0 0.016859240682580795 0.010740680724963656 0 0.016856184128724548 0.010711771894529931 0 0.016837194550161472 0.010718911078315551 0 0.016841499030131137 0.010670213146262358 0 0.016826182872240605 0.010712624933568695 0 0.016856184128724548 0.010711771894529931 0 0.016837194550161472 0.010718911078315551 0 0.016822725342574507 0.010607902571626656 0 0.016856184128724548 0.010711771894529931 0 0.016841499030131137 0.010670213146262358 0 0.017738319032781797 0.010083167826110045 0 0.017412182457936791 0.010290254312503241 0 0.017644724393822735 0.010425291184165495 0 0.017412182457936791 0.010290254312503241 0 0.017644724393822735 0.010425291184165495 0 0.017223319805990844 0.010501578076965961 0 0.017288472210319029 0.010709686907686764 0 0.017573872931015751 0.010641536646229325 0 0.017223319805990844 0.010501578076965961 0 0.017644724393822735 0.010425291184165495 0 0.017573872931015751 0.010641536646229325 0 0.017223319805990844 0.010501578076965961 0 0.017288472210319029 0.010709686907686764 0 0.017017318798926855 0.01062287705015182 0 0.017223319805990844 0.010501578076965961 0 0.017412182457936791 0.010290254312503241 0 0.017223319805990844 0.010501578076965961 0 0.017204283689484838 0.010273972911377173 0 0.017223319805990844 0.010501578076965961 0 0.016953003681454984 0.010453071028090916 0 0.017204283689484838 0.010273972911377173 0 0.017017318798926855 0.01062287705015182 0 0.017223319805990844 0.010501578076965961 0 0.016953003681454984 0.010453071028090916 0 0.017017318798926855 0.01062287705015182 0 0.016855296151546868 0.01055194049219064 0 0.016953003681454984 0.010453071028090916 0 0.016822725342574507 0.010607902571626656 0 0.016953003681454984 0.010453071028090916 0 0.01696505423718201 0.010221830961038656 0 0.016953003681454984 0.010453071028090916 0 0.01696505423718201 0.010221830961038656 0 0.017204283689484838 0.010273972911377173 0 0.016986025413059873 0.01058832516214021 0 0.01803155242551174 0.010687764158833523 0 0.01696505423718201 0.010221830961038656 0 0.017349953864153955 0.009987580012995682 0 0.017433492789706059 0.0098286957197974683 0 0.01696505423718201 0.010221830961038656 0 0.017204283689484838 0.010273972911377173 0 0.017349953864153955 0.009987580012995682 0 0.016888547761137657 0.010794671955493881 0 0.016930831721330201 0.010849998398612455 0 0.016923634819571494 0.010844489098423667 0 0.017204283689484838 0.010273972911377173 0 0.017349953864153955 0.009987580012995682 0 0.017460185768548828 0.010113410110262778 0 0.017923029460422013 0.0097596871491456762 0 0.017491378482861829 0.0096456563729907362 0 0.017599720523164691 0.0099210555485460417 0 0.018012595943781084 0.01058028361852514 0 0.01803155242551174 0.010687764158833523 0 0.017349953864153955 0.009987580012995682 0 0.017491378482861829 0.0096456563729907362 0 0.017599720523164691 0.0099210555485460417 0 0.017738319032781797 0.010083167826110045 0 0.017599720523164691 0.0099210555485460417 0 0.017460185768548828 0.010113410110262778 0 0.017349953864153955 0.009987580012995682 0 0.017599720523164691 0.0099210555485460417 0 0.017460185768548828 0.010113410110262778 0 0.017412182457936791 0.010290254312503241 0 0.017204283689484838 0.010273972911377173 0 0.017460185768548828 0.010113410110262778 0 0.017738319032781797 0.010083167826110045 0 0.017412182457936791 0.010290254312503241 0 0.017460185768548828 0.010113410110262778 0 0.016930831721330201 0.010849998398612455 0 0.016946760703068421 0.010894695577868398 0 0.016923634819571494 0.010844489098423667 0 0.016946760703068421 0.010894695577868398 0 0.016923634819571494 0.010844489098423667 0 0.016923159117421194 0.010845450520435198 0 0.016946760703068421 0.010894695577868398 0 0.016923159117421194 0.010845450520435198 0 0.01695433981435018 0.010908088323376119 0 0.016923159117421194 0.010845450520435198 0 0.01691975844619345 0.010851231733844027 0 0.01695433981435018 0.010908088323376119 0 0.016888547761137657 0.010794671955493881 0 0.016923634819571494 0.010844489098423667 0 0.016923159117421194 0.010845450520435198 0 0.016888547761137657 0.010794671955493881 0 0.016923159117421194 0.010845450520435198 0 0.016873405867160653 0.010783738837277125 0 0.016923159117421194 0.010845450520435198 0 0.01691975844619345 0.010851231733844027 0 0.016873405867160653 0.010783738837277125 0 0.01691975844619345 0.010851231733844027 0 0.016969675383033699 0.010942067972254462 0 0.016943668098213901 0.010903435495657678 0 0.01691975844619345 0.010851231733844027 0 0.016969675383033699 0.010942067972254462 0 0.01695433981435018 0.010908088323376119 0 0.016969675383033699 0.010942067972254462 0 0.01695433981435018 0.010908088323376119 0 0.016992813832909667 0.011002281378143471 0 0.01695433981435018 0.010908088323376119 0 0.016967443256990435 0.010956427134960102 0 0.016992813832909667 0.011002281378143471 0 0.016946760703068421 0.010894695577868398 0 0.01695433981435018 0.010908088323376119 0 0.016967443256990435 0.010956427134960102 0 0.016857122626231225 0.010736911453185321 0 0.016844278420540919 0.010702193609166804 0 0.016854966716825355 0.010785103891757849 0 0.016857122626231225 0.010736911453185321 0 0.016870770437729377 0.010789833479362597 0 0.016854966716825355 0.010785103891757849 0 0.016857122626231225 0.010736911453185321 0 0.016844278420540919 0.010702193609166804 0 0.016849089950862046 0.010715471822585152 0 0.016826182872240605 0.010712624933568695 0 0.016844278420540919 0.010702193609166804 0 0.016849089950862046 0.010715471822585152 0 0.016826182872240605 0.010712624933568695 0 0.016856184128724548 0.010711771894529931 0 0.016849089950862046 0.010715471822585152 0 0.016856184128724548 0.010711771894529931 0 0.016857122626231225 0.010736911453185321 0 0.016849089950862046 0.010715471822585152 0 0.016856184128724548 0.010711771894529931 0 0.016857122626231225 0.010736911453185321 0 0.016859240682580795 0.010740680724963656 0 0.016859240682580795 0.010740680724963656 0 0.016873405867160653 0.010783738837277125 0 0.016870770437729377 0.010789833479362597 0 0.01691975844619345 0.010851231733844027 0 0.016873405867160653 0.010783738837277125 0 0.016870770437729377 0.010789833479362597 0 0.016857122626231225 0.010736911453185321 0 0.016859240682580795 0.010740680724963656 0 0.016870770437729377 0.010789833479362597 0 0.016366548726372034 0.010358615183135801 0 0.013950197348265782 0.013708554262745132 0 0.0057816669402399427 0.020239034183342892 0 0.0059029988611897389 0.019072029010479292 0 0.0073690427990736208 0.019548868084318501 0 0.01691975844619345 0.010851231733844027 0 0.016870770437729377 0.010789833479362597 0 0.016943668098213901 0.010903435495657678 0 0.01126370357386283 0.01542378263722124 0 0.013950197348265782 0.013708554262745132 0 0.016870770437729377 0.010789833479362597 0 0.016854966716825355 0.010785103891757849 0 0.016825858702486422 0.010835800722540393 0 0.0043792224275532414 0.020039841832894513 0 0.0057816669402399427 0.020239034183342892 0 0.0046346491534857183 0.019432398666821483 0 0.0043792224275532414 0.020039841832894513 0 0.0045268210927457289 0.02051063927548915 0 0.0057816669402399427 0.020239034183342892 0 0.0094887845838384725 0.016387764862923027 0 0.01126370357386283 0.01542378263722124 0 0.0042687970938837024 0.020776742249722913 0 0.0045268210927457289 0.02051063927548915 0 0.0057816669402399427 0.020239034183342892 0 0.0057816669402399427 0.020239034183342892 0 0.0059029988611897389 0.019072029010479292 0 0.0046346491534857183 0.019432398666821483 0 0.016829797750646622 0.010658701322059755 0 0.016844278420540919 0.010702193609166804 0 0.016854966716825355 0.010785103891757849 0 0.0059029988611897389 0.019072029010479292 0 0.0046346491534857183 0.019432398666821483 0 0.0037353069465700999 0.018532859061182218 0 0.0059029988611897389 0.019072029010479292 0 0.0060889411387833759 0.017869346132854087 0 0.0037353069465700999 0.018532859061182218 0 0.0073690427990736208 0.019548868084318501 0 0.006993423190424097 0.018277297716560833 0 0.0083675633621209979 0.017727843635979242 0 0.0059029988611897389 0.019072029010479292 0 0.0073690427990736208 0.019548868084318501 0 0.006993423190424097 0.018277297716560833 0 0.0059029988611897389 0.019072029010479292 0 0.006993423190424097 0.018277297716560833 0 0.0060889411387833759 0.017869346132854087 0 0.006993423190424097 0.018277297716560833 0 0.0072242555446509022 0.017170671806846054 0 0.0060889411387833759 0.017869346132854087 0 0.006993423190424097 0.018277297716560833 0 0.0072242555446509022 0.017170671806846054 0 0.0083675633621209979 0.017727843635979242 0 0.0060889411387833759 0.017869346132854087 0 0.0053280200488415334 0.016521539893832381 0 0.0037353069465700999 0.018532859061182218 0 0.0072242555446509022 0.017170671806846054 0 0.0060889411387833759 0.017869346132854087 0 0.0053280200488415334 0.016521539893832381 0 0.016992813832909667 0.011002281378143471 0 0.017028156518965096 0.011043826769089616 0 0.016995698438428637 0.011097005303934423 0 0.016969675383033699 0.010942067972254462 0 0.016992813832909667 0.011002281378143471 0 0.017028156518965096 0.011043826769089616 0 0.015558967105286377 0.012414748878091575 0 0.016530163380618645 0.011891422403445401 0 0.015990454099993529 0.011499357779988685 0 0.013950197348265782 0.013708554262745132 0 0.012218710946615238 0.014978931236176607 0 0.016969675383033699 0.010942067972254462 0 0.016943668098213901 0.010903435495657678 0 0.017028156518965096 0.011043826769089616 0 0.013950197348265782 0.013708554262745132 0 0.017096294786277114 0.011360011508026617 0 0.0072242555446509022 0.017170671806846054 0 0.0083675633621209979 0.017727843635979242 0 0.0080442213018583307 0.016500993910974628 0 0.016530163380618645 0.011891422403445401 0 0.015990454099993529 0.011499357779988685 0 0.016502452287331083 0.011545107561003135 0 0.015990454099993529 0.011499357779988685 0 0.016502452287331083 0.011545107561003135 0 0.016130909735902157 0.011252212147491733 0 0.016502452287331083 0.011545107561003135 0 0.016821244188722682 0.01121984785877571 0 0.017016639217913455 0.011527873225594181 0 0.016530163380618645 0.011891422403445401 0 0.016502452287331083 0.011545107561003135 0 0.017016639217913455 0.011527873225594181 0 0.016130909735902157 0.011252212147491733 0 0.015950861769852658 0.011453108843850292 0 0.014436268409888325 0.012053268956444858 0 0.016130909735902157 0.011252212147491733 0 0.017304994231598134 0.0096019546322662404 0 0.017139015566825712 0.010601167572264734 0 0.016821244188722682 0.01121984785877571 0 0.016130909735902157 0.011252212147491733 0 0.017139015566825712 0.010601167572264734 0 0.016502452287331083 0.011545107561003135 0 0.016821244188722682 0.01121984785877571 0 0.016130909735902157 0.011252212147491733 0 0.012218710946615238 0.014978931236176607 0 0.012710527027897035 0.013661759220075073 0 0.015990454099993529 0.011499357779988685 0 0.016130909735902157 0.011252212147491733 0 0.015950861769852658 0.011453108843850292 0 0.0083675633621209979 0.017727843635979242 0 0.0095054305822019469 0.016014870940653445 0 0.0080442213018583307 0.016500993910974628 0 0.0095054305822019469 0.016014870940653445 0 0.0080442213018583307 0.016500993910974628 0 0.0081878634172485761 0.015629302231921847 0 0.0081878634172485761 0.015629302231921847 0 0.0087044986443993375 0.014652062816262811 0 0.0090793873844816041 0.015416398064232544 0 0.0081878634172485761 0.015629302231921847 0 0.0087044986443993375 0.014652062816262811 0 0.0071036910172666288 0.014750600244804027 0 0.0087044986443993375 0.014652062816262811 0 0.0090793873844816041 0.015416398064232544 0 0.0097138324048495379 0.014834070675856268 0 0.0095054305822019469 0.016014870940653445 0 0.0090793873844816041 0.015416398064232544 0 0.0097138324048495379 0.014834070675856268 0 0.0095054305822019469 0.016014870940653445 0 0.0081878634172485761 0.015629302231921847 0 0.0090793873844816041 0.015416398064232544 0 0.015950861769852658 0.011453108843850292 0 0.014496352642605655 0.012286758578625814 0 0.014436268409888325 0.012053268956444858 0 0.015942242075047054 0.011269951559160097 0 0.015900571496927116 0.011002613377111751 0 0.012710527027897035 0.013661759220075073 0 0.012907261059219311 0.013056739309029437 0 0.0095054305822019469 0.016014870940653445 0 0.0097138324048495379 0.014834070675856268 0 0.01097812985286949 0.014390832456036682 0 0.0053280200488415334 0.016521539893832381 0 0.0055891450912953907 0.014963517233780668 0 0.0034370863095121245 0.015588760929389336 0 0.0053280200488415334 0.016521539893832381 0 0.0068671786606049976 0.015915774962317598 0 0.0055891450912953907 0.014963517233780668 0 0.0072242555446509022 0.017170671806846054 0 0.0053280200488415334 0.016521539893832381 0 0.0068671786606049976 0.015915774962317598 0 0.0072242555446509022 0.017170671806846054 0 0.0080442213018583307 0.016500993910974628 0 0.0068671786606049976 0.015915774962317598 0 0.0080442213018583307 0.016500993910974628 0 0.0081878634172485761 0.015629302231921847 0 0.0068671786606049976 0.015915774962317598 0 0.0071036910172666288 0.014750600244804027 0 0.0055891450912953907 0.014963517233780668 0 0.0063684258745549654 0.013454526326926234 0 0.0068671786606049976 0.015915774962317598 0 0.0071036910172666288 0.014750600244804027 0 0.0055891450912953907 0.014963517233780668 0 0.0081878634172485761 0.015629302231921847 0 0.0068671786606049976 0.015915774962317598 0 0.0071036910172666288 0.014750600244804027 0 0.0055891450912953907 0.014963517233780668 0 0.0063684258745549654 0.013454526326926234 0 0.0044085629635960133 0.01355506437830435 0 0.0051496650806859027 0.012285306267739686 0 0.0063684258745549654 0.013454526326926234 0 0.0044085629635960133 0.01355506437830435 0 0.0051496650806859027 0.012285306267739686 0 0.0047048394338582581 0.010994835927331442 0 0.0068801174591273358 0.011403645708886587 0 0.0051496650806859027 0.012285306267739686 0 0.0063684258745549654 0.013454526326926234 0 0.0068801174591273358 0.011403645708886587 0 0.0063684258745549654 0.013454526326926234 0 0.0081751271001728985 0.013384061483104136 0 0.0068801174591273358 0.011403645708886587 0 0.0081751271001728985 0.013384061483104136 0 0.0089070793263919031 0.012217224583274488 0 0.0068801174591273358 0.011403645708886587 0 0.0071036910172666288 0.014750600244804027 0 0.0063684258745549654 0.013454526326926234 0 0.0081751271001728985 0.013384061483104136 0 0.0087044986443993375 0.014652062816262811 0 0.0071036910172666288 0.014750600244804027 0 0.0081751271001728985 0.013384061483104136 0 0.0087044986443993375 0.014652062816262811 0 0.0095818935568736767 0.013995977128396756 0 0.0081751271001728985 0.013384061483104136 0 0.0087044986443993375 0.014652062816262811 0 0.0097138324048495379 0.014834070675856268 0 0.0095818935568736767 0.013995977128396756 0 0.0095818935568736767 0.013995977128396756 0 0.0081751271001728985 0.013384061483104136 0 0.0097173044884232007 0.013012717814483392 0 0.0097138324048495379 0.014834070675856268 0 0.0095818935568736767 0.013995977128396756 0 0.010190535905276122 0.014216218232990782 0 0.0097138324048495379 0.014834070675856268 0 0.01097812985286949 0.014390832456036682 0 0.010190535905276122 0.014216218232990782 0 0.01097812985286949 0.014390832456036682 0 0.010190535905276122 0.014216218232990782 0 0.010482208409019859 0.013604341769348299 0 0.0095818935568736767 0.013995977128396756 0 0.010190535905276122 0.014216218232990782 0 0.010482208409019859 0.013604341769348299 0 0.0095818935568736767 0.013995977128396756 0 0.010482208409019859 0.013604341769348299 0 0.0097173044884232007 0.013012717814483392 0 0.01097812985286949 0.014390832456036682 0 0.010482208409019859 0.013604341769348299 0 0.011520565460989429 0.013038977568125523 0 0.01097812985286949 0.014390832456036682 0 0.011520565460989429 0.013038977568125523 0 0.013236563900996614 0.012297524352325395 0 0.011520565460989429 0.013038977568125523 0 0.010911618614100421 0.012709331848853948 0 0.011729522411955332 0.012001798844354209 0 0.010482208409019859 0.013604341769348299 0 0.010911618614100421 0.012709331848853948 0 0.0097173044884232007 0.013012717814483392 0 0.010911618614100421 0.012709331848853948 0 0.010378358731645856 0.012020699585247581 0 0.0097173044884232007 0.013012717814483392 0 0.010482208409019859 0.013604341769348299 0 0.011520565460989429 0.013038977568125523 0 0.010911618614100421 0.012709331848853948 0 0.010911618614100421 0.012709331848853948 0 0.010378358731645856 0.012020699585247581 0 0.011729522411955332 0.012001798844354209 0 0.010378358731645856 0.012020699585247581 0 0.011729522411955332 0.012001798844354209 0 0.011475497613111065 0.011016850543885327 0 0.011520565460989429 0.013038977568125523 0 0.011729522411955332 0.012001798844354209 0 0.013236563900996614 0.012297524352325395 0 0.0089070793263919031 0.012217224583274488 0 0.0095680628268598935 0.011016952030672723 0 0.0068801174591273358 0.011403645708886587 0 0.0081751271001728985 0.013384061483104136 0 0.0097173044884232007 0.013012717814483392 0 0.0089070793263919031 0.012217224583274488 0 0.010378358731645856 0.012020699585247581 0 0.0097173044884232007 0.013012717814483392 0 0.0089070793263919031 0.012217224583274488 0 0.010378358731645856 0.012020699585247581 0 0.0089070793263919031 0.012217224583274488 0 0.0095680628268598935 0.011016952030672723 0 0.0084343828639773886 0.0098849323604208589 0 0.0095680628268598935 0.011016952030672723 0 0.011446456343294492 0.0091319206623080903 0 0.0084343828639773886 0.0098849323604208589 0 0.0095680628268598935 0.011016952030672723 0 0.0068801174591273358 0.011403645708886587 0 0.0095680628268598935 0.011016952030672723 0 0.011475497613111065 0.011016850543885327 0 0.011446456343294492 0.0091319206623080903 0 0.011475497613111065 0.011016850543885327 0 0.011446456343294492 0.0091319206623080903 0 0.013590725797600079 0.010459456306236403 0 0.011729522411955332 0.012001798844354209 0 0.011475497613111065 0.011016850543885327 0 0.012846529775946575 0.011510481824718989 0 0.010378358731645856 0.012020699585247581 0 0.0095680628268598935 0.011016952030672723 0 0.011475497613111065 0.011016850543885327 0 0.0084343828639773886 0.0098849323604208589 0 0.0070297726104870941 0.0086882641272685319 0 0.0093241981625790324 0.0072356645042313357 0 0.0084343828639773886 0.0098849323604208589 0 0.011446456343294492 0.0091319206623080903 0 0.0093241981625790324 0.0072356645042313357 0 0.0070297726104870941 0.0086882641272685319 0 0.0047649079690581476 0.0094105548953128254 0 0.0068801174591273358 0.011403645708886587 0 0.0070297726104870941 0.0086882641272685319 0 0.0047649079690581476 0.0094105548953128254 0 0.0067659743870353804 0.0059341541508566471 0 0.0047649079690581476 0.0094105548953128254 0 0.0047048394338582581 0.010994835927331442 0 0.0068801174591273358 0.011403645708886587 0 0.0084343828639773886 0.0098849323604208589 0 0.0070297726104870941 0.0086882641272685319 0 0.0068801174591273358 0.011403645708886587 0 0.019717767215702817 0.0082254722220514755 0 0.019866814344363177 0.0078705837520903002 0 0.019226978303671 0.0078181237253132189 0 0.020270455607210983 0.0082083488539073171 0 0.020354993499498045 0.0078549724031041317 0 0.019866814344363177 0.0078705837520903002 0 0.019717767215702817 0.0082254722220514755 0 0.020270455607210983 0.0082083488539073171 0 0.019866814344363177 0.0078705837520903002 0 0.019717767215702817 0.0082254722220514755 0 0.020270455607210983 0.0082083488539073171 0 0.020270044801082184 0.0086698731669098989 0 0.020270455607210983 0.0082083488539073171 0 0.020783134927795911 0.0083346041680866026 0 0.020270044801082184 0.0086698731669098989 0 0.020270455607210983 0.0082083488539073171 0 0.020783134927795911 0.0083346041680866026 0 0.020804926334544005 0.0080151021318876324 0 0.020783134927795911 0.0083346041680866026 0 0.020804926334544005 0.0080151021318876324 0 0.021270616627263265 0.0080780608472766184 0 0.020270455607210983 0.0082083488539073171 0 0.020804926334544005 0.0080151021318876324 0 0.020354993499498045 0.0078549724031041317 0 0.020804926334544005 0.0080151021318876324 0 0.020354993499498045 0.0078549724031041317 0 0.020734262845217209 0.0076275167046229919 0 0.020354993499498045 0.0078549724031041317 0 0.020734262845217209 0.0076275167046229919 0 0.020235513737742735 0.0075767375740351701 0 0.020804926334544005 0.0080151021318876324 0 0.020734262845217209 0.0076275167046229919 0 0.021120636112254943 0.0077689533815650047 0 0.020734262845217209 0.0076275167046229919 0 0.020935852228399578 0.0072892181563309543 0 0.020558495795796189 0.0073371321159710319 0 0.020734262845217209 0.0076275167046229919 0 0.021094318614069487 0.0075200469261226524 0 0.020935852228399578 0.0072892181563309543 0 0.020734262845217209 0.0076275167046229919 0 0.021094318614069487 0.0075200469261226524 0 0.021120636112254943 0.0077689533815650047 0 0.020734262845217209 0.0076275167046229919 0 0.020235513737742735 0.0075767375740351701 0 0.020558495795796189 0.0073371321159710319 0 0.019792533012889472 0.0074898035988666817 0 0.019866814344363177 0.0078705837520903002 0 0.019226978303671 0.0078181237253132189 0 0.020235513737742735 0.0075767375740351701 0 0.019792533012889472 0.0074898035988666817 0 0.020118435005885161 0.0071452014503756807 0 0.019792533012889472 0.0074898035988666817 0 0.019226978303671 0.0078181237253132189 0 0.019211960450467504 0.0067822624736127808 0 0.020235513737742735 0.0075767375740351701 0 0.019792533012889472 0.0074898035988666817 0 0.019866814344363177 0.0078705837520903002 0 0.020354993499498045 0.0078549724031041317 0 0.020235513737742735 0.0075767375740351701 0 0.019866814344363177 0.0078705837520903002 0 0.016003439902285452 0.0099952934987471535 0 0.014442047874646794 0.0086402646182403321 0 0.016248550426658126 0.0074843039940042707 0 0.017663992745850839 0.0086985049098069409 0 0.018883934625657284 0.0068989176198036295 0 0.016003439902285452 0.0099952934987471535 0 0.014442047874646794 0.0086402646182403321 0 0.013590725797600079 0.010459456306236403 0 0.011446456343294492 0.0091319206623080903 0 0.014442047874646794 0.0086402646182403321 0 0.013736461012913349 0.0069668319227081717 0 0.011446456343294492 0.0091319206623080903 0 0.014442047874646794 0.0086402646182403321 0 0.013590725797600079 0.010459456306236403 0 0.016003439902285452 0.0099952934987471535 0 0.013590725797600079 0.010459456306236403 0 0.013655443835456629 0.012525324314123577 0 0.013590725797600079 0.010459456306236403 0 0.012846529775946575 0.011510481824718989 0 0.013655443835456629 0.012525324314123577 0 0.011475497613111065 0.011016850543885327 0 0.013590725797600079 0.010459456306236403 0 0.012846529775946575 0.011510481824718989 0 0.017663992745850839 0.0086985049098069409 0 0.01625525253937456 0.010481836450200213 0 0.019226978303671 0.0078181237253132189 0 0.019140512864613841 0.0084052916490799223 0 0.018495815395740189 0.0085063389052019746 0 0.019717767215702817 0.0082254722220514755 0 0.019226978303671 0.0078181237253132189 0 0.019140512864613841 0.0084052916490799223 0 0.019717767215702817 0.0082254722220514755 0 0.019140512864613841 0.0084052916490799223 0 0.019384894914817499 0.0087821064329144053 0 0.019140512864613841 0.0084052916490799223 0 0.018867785603043401 0.0088154611581871805 0 0.018495815395740189 0.0085063389052019746 0 0.019140512864613841 0.0084052916490799223 0 0.018867785603043401 0.0088154611581871805 0 0.019384894914817499 0.0087821064329144053 0 0.014496352642605655 0.012286758578625814 0 0.013236563900996614 0.012297524352325395 0 0.013655443835456629 0.012525324314123577 0 0.012846529775946575 0.011510481824718989 0 0.013236563900996614 0.012297524352325395 0 0.013655443835456629 0.012525324314123577 0 0.011729522411955332 0.012001798844354209 0 0.012846529775946575 0.011510481824718989 0 0.013236563900996614 0.012297524352325395 0 0.014496352642605655 0.012286758578625814 0 0.013655443835456629 0.012525324314123577 0 0.014436268409888325 0.012053268956444858 0 0.012907261059219311 0.013056739309029437 0 0.013228057215051214 0.012303272807821539 0 0.018495815395740189 0.0085063389052019746 0 0.018401906404635012 0.0092422535939817585 0 0.017304994231598134 0.0096019546322662404 0 0.01625525253937456 0.010481836450200213 0 0.015900571496927116 0.011002613377111751 0 0.018867785603043401 0.0088154611581871805 0 0.018495815395740189 0.0085063389052019746 0 0.018401906404635012 0.0092422535939817585 0 0.019384894914817499 0.0087821064329144053 0 0.018998473849639784 0.0092064391131592878 0 0.019418693232667587 0.0092509798423894719 0 0.018867785603043401 0.0088154611581871805 0 0.019384894914817499 0.0087821064329144053 0 0.018998473849639784 0.0092064391131592878 0 0.018867785603043401 0.0088154611581871805 0 0.018401906404635012 0.0092422535939817585 0 0.018998473849639784 0.0092064391131592878 0 0.018401906404635012 0.0092422535939817585 0 0.018998473849639784 0.0092064391131592878 0 0.018669522502545638 0.009656090541462839 0 0.018998473849639784 0.0092064391131592878 0 0.019308130987522678 0.0095805756818556978 0 0.018669522502545638 0.009656090541462839 0 0.018998473849639784 0.0092064391131592878 0 0.019418693232667587 0.0092509798423894719 0 0.019308130987522678 0.0095805756818556978 0 0.019418693232667587 0.0092509798423894719 0 0.019816957445984617 0.0091215469079055107 0 0.019791268096702893 0.0095072499697390848 0 0.019418693232667587 0.0092509798423894719 0 0.019791268096702893 0.0095072499697390848 0 0.019308130987522678 0.0095805756818556978 0 0.019816957445984617 0.0091215469079055107 0 0.020296660468078865 0.0090765010221263986 0 0.020278662447990477 0.0094042554093218215 0 0.019816957445984617 0.0091215469079055107 0 0.020278662447990477 0.0094042554093218215 0 0.019791268096702893 0.0095072499697390848 0 0.019816957445984617 0.0091215469079055107 0 0.020270044801082184 0.0086698731669098989 0 0.020296660468078865 0.0090765010221263986 0 0.019384894914817499 0.0087821064329144053 0 0.019418693232667587 0.0092509798423894719 0 0.019816957445984617 0.0091215469079055107 0 0.019717767215702817 0.0082254722220514755 0 0.019384894914817499 0.0087821064329144053 0 0.020270044801082184 0.0086698731669098989 0 0.019384894914817499 0.0087821064329144053 0 0.019816957445984617 0.0091215469079055107 0 0.020270044801082184 0.0086698731669098989 0 0.020270044801082184 0.0086698731669098989 0 0.020782762506473009 0.0090210001630118188 0 0.020989205686431884 0.008657871180741997 0 0.020783134927795911 0.0083346041680866026 0 0.020270044801082184 0.0086698731669098989 0 0.020989205686431884 0.008657871180741997 0 0.020270044801082184 0.0086698731669098989 0 0.020782762506473009 0.0090210001630118188 0 0.020296660468078865 0.0090765010221263986 0 0.020782762506473009 0.0090210001630118188 0 0.020296660468078865 0.0090765010221263986 0 0.020278662447990477 0.0094042554093218215 0 0.020782762506473009 0.0090210001630118188 0 0.020278662447990477 0.0094042554093218215 0 0.020743818298195764 0.0094815614288244737 0 0.020782762506473009 0.0090210001630118188 0 0.020743818298195764 0.0094815614288244737 0 0.021112873818681571 0.0093620948883539248 0 0.020743818298195764 0.0094815614288244737 0 0.021089591365767529 0.0097429348044152202 0 0.020420516416828318 0.0097892684572191552 0 0.020743818298195764 0.0094815614288244737 0 0.021089591365767529 0.0097429348044152202 0 0.021112873818681571 0.0093620948883539248 0 0.021089591365767529 0.0097429348044152202 0 0.020420516416828318 0.0097892684572191552 0 0.020193002721626593 0.010310595222614892 0 0.020278662447990477 0.0094042554093218215 0 0.020743818298195764 0.0094815614288244737 0 0.020420516416828318 0.0097892684572191552 0 0.020278662447990477 0.0094042554093218215 0 0.019791268096702893 0.0095072499697390848 0 0.019845230465620225 0.0099401676875995881 0 0.020278662447990477 0.0094042554093218215 0 0.020420516416828318 0.0097892684572191552 0 0.019845230465620225 0.0099401676875995881 0 0.019308130987522678 0.0095805756818556978 0 0.019845230465620225 0.0099401676875995881 0 0.019027140253885556 0.010111126429976275 0 0.019791268096702893 0.0095072499697390848 0 0.019308130987522678 0.0095805756818556978 0 0.019845230465620225 0.0099401676875995881 0 0.019845230465620225 0.0099401676875995881 0 0.019447119539638638 0.010619947955699864 0 0.019027140253885556 0.010111126429976275 0 0.019845230465620225 0.0099401676875995881 0 0.020193002721626593 0.010310595222614892 0 0.019447119539638638 0.010619947955699864 0 0.020420516416828318 0.0097892684572191552 0 0.019845230465620225 0.0099401676875995881 0 0.020193002721626593 0.010310595222614892 0 0.020193002721626593 0.010310595222614892 0 0.019447119539638638 0.010619947955699864 0 0.020280869819385833 0.011174977685542929 0 0.019447119539638638 0.010619947955699864 0 0.020280869819385833 0.011174977685542929 0 0.018845071091359744 0.011479520095850146 0 0.019884707252634973 0.010344991140761936 0 0.017801365829872996 0.011271911131965058 0 0.021089591365767529 0.0097429348044152202 0 0.020193002721626593 0.010310595222614892 0 0.020280869819385833 0.011174977685542929 0 0.021215303037555002 0.0095266737497651643 0 0.021541136106288883 0.0097494150089037709 0 0.021652851468480425 0.009512772001195326 0 0.021089591365767529 0.0097429348044152202 0 0.020875307797318717 0.01010803169054755 0 0.021251343385624628 0.010042329667335119 0 0.019884707252634973 0.010344991140761936 0 0.021448702138580616 0.0098494629020178994 0 0.020832640743421282 0.009828382323501866 0 0.019884707252634973 0.010344991140761936 0 0.017304994231598134 0.0096019546322662404 0 0.017684298437962775 0.010139233394406718 0 0.017139015566825712 0.010601167572264734 0 0.017684298437962775 0.010139233394406718 0 0.017674100986650242 0.010526590359969243 0 0.017139015566825712 0.010601167572264734 0 0.017304994231598134 0.0096019546322662404 0 0.018028836468130575 0.0097579217918503779 0 0.017684298437962775 0.010139233394406718 0 0.018401906404635012 0.0092422535939817585 0 0.017304994231598134 0.0096019546322662404 0 0.018028836468130575 0.0097579217918503779 0 0.017684298437962775 0.010139233394406718 0 0.018236304559115218 0.010244315644627902 0 0.017674100986650242 0.010526590359969243 0 0.018028836468130575 0.0097579217918503779 0 0.017684298437962775 0.010139233394406718 0 0.018236304559115218 0.010244315644627902 0 0.018236304559115218 0.010244315644627902 0 0.019027140253885556 0.010111126429976275 0 0.018623048881791018 0.010706846194163872 0 0.018236304559115218 0.010244315644627902 0 0.018669522502545638 0.009656090541462839 0 0.019027140253885556 0.010111126429976275 0 0.018401906404635012 0.0092422535939817585 0 0.018028836468130575 0.0097579217918503779 0 0.018669522502545638 0.009656090541462839 0 0.018028836468130575 0.0097579217918503779 0 0.018236304559115218 0.010244315644627902 0 0.018669522502545638 0.009656090541462839 0 0.019308130987522678 0.0095805756818556978 0 0.018669522502545638 0.009656090541462839 0 0.019027140253885556 0.010111126429976275 0 0.019447119539638638 0.010619947955699864 0 0.019027140253885556 0.010111126429976275 0 0.018623048881791018 0.010706846194163872 0 0.019447119539638638 0.010619947955699864 0 0.018623048881791018 0.010706846194163872 0 0.018845071091359744 0.011479520095850146 0 0.018623048881791018 0.010706846194163872 0 0.017762716949245964 0.010966045364996806 0 0.018845071091359744 0.011479520095850146 0 0.018236304559115218 0.010244315644627902 0 0.018623048881791018 0.010706846194163872 0 0.017762716949245964 0.010966045364996806 0 0.017762716949245964 0.010966045364996806 0 0.017016639217913455 0.011527873225594181 0 0.018845071091359744 0.011479520095850146 0 0.018236304559115218 0.010244315644627902 0 0.017674100986650242 0.010526590359969243 0 0.017762716949245964 0.010966045364996806 0 0.017674100986650242 0.010526590359969243 0 0.017762716949245964 0.010966045364996806 0 0.017284413059796843 0.010984680921308158 0 0.016821244188722682 0.01121984785877571 0 0.017284413059796843 0.010984680921308158 0 0.017016639217913455 0.011527873225594181 0 0.017762716949245964 0.010966045364996806 0 0.017284413059796843 0.010984680921308158 0 0.017016639217913455 0.011527873225594181 0 0.016821244188722682 0.01121984785877571 0 0.017284413059796843 0.010984680921308158 0 0.017139015566825712 0.010601167572264734 0 0.017674100986650242 0.010526590359969243 0 0.017284413059796843 0.010984680921308158 0 0.017139015566825712 0.010601167572264734 0 0.017313568299477725 0.011438283923858698 0 0.017801365829872996 0.011271911131965058 0 0.017096294786277114 0.011360011508026617 0 0.016882312507517115 0.011466884015081523 0 0.016530163380618645 0.011891422403445401 0 0.017016639217913455 0.011527873225594181 0 0.017056683686588484 0.011397118241031569 0 0.017016639217913455 0.011527873225594181 0 0.017056683686588484 0.011397118241031569 0 0.017029845924109874 0.011286716604368039 0 0.017028156518965096 0.011043826769089616 0 0.017056683686588484 0.011397118241031569 0 0.017023901295336392 0.011191506888211789 0 0.017056683686588484 0.011397118241031569 0 0.017023901295336392 0.011191506888211789 0 0.016992926251060855 0.011235218743665523 0 0.016992926251060855 0.011235218743665523 0 0.017029845924109874 0.011286716604368039 0 0.016950746842874571 0.011187529061110606 0 0.017056683686588484 0.011397118241031569 0 0.016992926251060855 0.011235218743665523 0 0.017029845924109874 0.011286716604368039 0 0.016992926251060855 0.011235218743665523 0 0.016950746842874571 0.011187529061110606 0 0.016995698438428637 0.011097005303934423 0 0.016941507987968837 0.010961591427762379 0 0.016950746842874571 0.011187529061110606 0 0.016995698438428637 0.011097005303934423 0 0.018562829461135973 0.010808255904335786 0 0.018833392089906874 0.010695842473067945 0 0.017028156518965096 0.011043826769089616 0 0.017023901295336392 0.011191506888211789 0 0.016995698438428637 0.011097005303934423 0 0.017023901295336392 0.011191506888211789 0 0.016992926251060855 0.011235218743665523 0 0.016995698438428637 0.011097005303934423 0 0.016977295129680745 0.01100492136209281 0 0.016992813832909667 0.011002281378143471 0 0.016995698438428637 0.011097005303934423 0 0.021215303037555002 0.0095266737497651643 0 0.021541136106288883 0.0097494150089037709 0 0.021294275376263681 0.010020513928971882 0 0.021541136106288883 0.0097494150089037709 0 0.021294275376263681 0.010020513928971882 0 0.021809521413820157 0.010049921827396129 0 0.021215303037555002 0.0095266737497651643 0 0.020738372577123892 0.010061864382912586 0 0.021294275376263681 0.010020513928971882 0 0.019884707252634973 0.010344991140761936 0 0.018833392089906874 0.010695842473067945 0 0.016948397156922958 0.011294978802301379 0 0.017029845924109874 0.011286716604368039 0 0.016950746842874571 0.011187529061110606 0 0.020836727861381431 0.010478610731817646 0 0.020738372577123892 0.010061864382912586 0 0.02109701663161986 0.010301786065170373 0 0.020738372577123892 0.010061864382912586 0 0.02109701663161986 0.010301786065170373 0 0.021294275376263681 0.010020513928971882 0 0.021340003528495077 0.010551830432544554 0 0.02109701663161986 0.010301786065170373 0 0.021294275376263681 0.010020513928971882 0 0.021340003528495077 0.010551830432544554 0 0.021294275376263681 0.010020513928971882 0 0.021809521413820157 0.010049921827396129 0 0.021225790684952825 0.0096709230532598944 0 0.02178418877824085 0.009553145565230934 0 0.021541136106288883 0.0097494150089037709 0 0.021809521413820157 0.010049921827396129 0 0.021824401995242527 0.0096707178581207 0 0.021541136106288883 0.0097494150089037709 0 0.021824401995242527 0.0096707178581207 0 0.021652851468480425 0.009512772001195326 0 0.021945709237418568 0.0090094217302937353 0 0.022071294301157694 0.009534192562226991 0 0.021940140171848633 0.0092554908177693192 0 0.021809521413820157 0.010049921827396129 0 0.021824401995242527 0.0096707178581207 0 0.022071294301157694 0.009534192562226991 0 0.02178418877824085 0.009553145565230934 0 0.021962959228636079 0.0095380287118743915 0 0.021900018406285506 0.0090828711432239511 0 0.021945709237418568 0.0090094217302937353 0 0.021940140171848633 0.0092554908177693192 0 0.02169037833077082 0.0091000450894848737 0 0.021900018406285506 0.0090828711432239511 0 0.021940140171848633 0.0092554908177693192 0 0.02169037833077082 0.0091000450894848737 0 0.021940140171848633 0.0092554908177693192 0 0.021858120076544082 0.0093452894304682475 0 0.025312356361277769 0.0081511771611040128 0 0.024876787982189241 0.0084338910592252469 0 0.022071294301157694 0.009534192562226991 0 0.021940140171848633 0.0092554908177693192 0 0.021858120076544082 0.0093452894304682475 0 0.022071294301157694 0.009534192562226991 0 0.022272782202961208 0.0095278878290845533 0 0.022186022304267587 0.0095078192473638645 0 0.022071294301157694 0.009534192562226991 0 0.021858120076544082 0.0093452894304682475 0 0.022272782202961208 0.0095278878290845533 0 0.024876787982189241 0.0084338910592252469 0 0.024278025237998303 0.0081772600724252641 0 0.028001656477235182 0.0078670730150194705 0 0.026283184264058405 0.0073438890854882624 0 0.027641194798073549 0.0074464999983993802 0 0.026283184264058405 0.0073438890854882624 0 0.026039887676962154 0.0066323392632192876 0 0.027641194798073549 0.0074464999983993802 0 0.024278025237998303 0.0081772600724252641 0 0.023700689539013393 0.0072862403075336741 0 0.026283184264058405 0.0073438890854882624 0 0.026039887676962154 0.0066323392632192876 0 0.024552051182403258 0.0060804217093105347 0 0.022272782202961208 0.0095278878290845533 0 0.022442736883808868 0.0091953571899664865 0 0.022186022304267587 0.0095078192473638645 0 0.022272782202961208 0.0095278878290845533 0 0.022442736883808868 0.0091953571899664865 0 0.022885293570748363 0.0087930606864157022 0 0.022442736883808868 0.0091953571899664865 0 0.022186022304267587 0.0095078192473638645 0 0.02211952633725759 0.0092159894504710849 0 0.022186022304267587 0.0095078192473638645 0 0.021983581362961857 0.0095086651698708408 0 0.02211952633725759 0.0092159894504710849 0 0.021983581362961857 0.0095086651698708408 0 0.02211952633725759 0.0092159894504710849 0 0.02167566676095517 0.0095565023543087053 0 0.021983581362961857 0.0095086651698708408 0 0.02167566676095517 0.0095565023543087053 0 0.021948844420900702 0.0096429764188377762 0 0.02211952633725759 0.0092159894504710849 0 0.021686198793372784 0.0092236206694362877 0 0.02167566676095517 0.0095565023543087053 0 0.021686198793372784 0.0092236206694362877 0 0.021361441214128148 0.0095667046065817871 0 0.02167566676095517 0.0095565023543087053 0 0.021089591365767529 0.0097429348044152202 0 0.021361441214128148 0.0095667046065817871 0 0.021112873818681571 0.0093620948883539248 0 0.021686198793372784 0.0092236206694362877 0 0.021361441214128148 0.0095667046065817871 0 0.021112873818681571 0.0093620948883539248 0 0.021089591365767529 0.0097429348044152202 0 0.021361441214128148 0.0095667046065817871 0 0.021413904889184918 0.0097654380145557884 0 0.021361441214128148 0.0095667046065817871 0 0.02167566676095517 0.0095565023543087053 0 0.021413904889184918 0.0097654380145557884 0 0.021448702138580616 0.0098494629020178994 0 0.021729572221839129 0.0097484406282385538 0 0.021413904889184918 0.0097654380145557884 0 0.021251343385624628 0.010042329667335119 0 0.021948844420900702 0.0096429764188377762 0 0.021824401995242527 0.0096707178581207 0 0.021652851468480425 0.009512772001195326 0 0.021948844420900702 0.0096429764188377762 0 0.02167566676095517 0.0095565023543087053 0 0.021413904889184918 0.0097654380145557884 0 0.021948844420900702 0.0096429764188377762 0 0.021089591365767529 0.0097429348044152202 0 0.021413904889184918 0.0097654380145557884 0 0.021251343385624628 0.010042329667335119 0 0.021824401995242527 0.0096707178581207 0 0.022071294301157694 0.009534192562226991 0 0.021948844420900702 0.0096429764188377762 0 0.022071294301157694 0.009534192562226991 0 0.022186022304267587 0.0095078192473638645 0 0.021948844420900702 0.0096429764188377762 0 0.022186022304267587 0.0095078192473638645 0 0.021983581362961857 0.0095086651698708408 0 0.021948844420900702 0.0096429764188377762 0 0.029294403841417772 0.0078838479668057616 0 0.028830207571442217 0.0075496486754611999 0 0.028956698936390367 0.0077685767195883057 0 0.030157262081530061 0.0071465133047905324 0 0.029809694550686022 0.0066749898871276882 0 0.031159095985012823 0.006490673935907583 0 0.030710860001838099 0.005606303937447224 0 0.030864490658681059 0.0058998370738439637 0 0.028830207571442217 0.0075496486754611999 0 0.028956698936390367 0.0077685767195883057 0 0.02890862021312993 0.0076693694158040957 0 0.029294403841417772 0.0078838479668057616 0 0.028956698936390367 0.0077685767195883057 0 0.029056151646726133 0.0076682831521210767 0 0.028956698936390367 0.0077685767195883057 0 0.02890862021312993 0.0076693694158040957 0 0.028624780554190821 0.0076663673403167014 0 0.02890862021312993 0.0076693694158040957 0 0.028445385368976187 0.0077847267154098837 0 0.028624780554190821 0.0076663673403167014 0 0.029149909408562446 0.0073983835728820228 0 0.02890862021312993 0.0076693694158040957 0 0.028445385368976187 0.0077847267154098837 0 0.029149909408562446 0.0073983835728820228 0 0.028001656477235182 0.0078670730150194705 0 0.028445385368976187 0.0077847267154098837 0 0.028001656477235182 0.0078670730150194705 0 0.028445385368976187 0.0077847267154098837 0 0.027641194798073549 0.0074464999983993802 0 0.028445385368976187 0.0077847267154098837 0 0.027641194798073549 0.0074464999983993802 0 0.028624780554190821 0.0076663673403167014 0 0.027641194798073549 0.0074464999983993802 0 0.02759749595198881 0.0066370995275013582 0 0.028422606324846188 0.0070316732680037507 0 0.026039887676962154 0.0066323392632192876 0 0.027641194798073549 0.0074464999983993802 0 0.02759749595198881 0.0066370995275013582 0 0.027941458431327264 0.0072182946106798809 0 0.026648482189809589 0.0074506510929812962 0 0.02759749595198881 0.0066370995275013582 0 0.028422606324846188 0.0070316732680037507 0 0.028391958753264727 0.0060661147424398995 0 0.028623993835360434 0.0073935396521166092 0 0.029134214299397169 0.0071602048771254321 0 0.028611264558952122 0.0070219063436845683 0 0.028623993835360434 0.0073935396521166092 0 0.028624780554190821 0.0076663673403167014 0 0.029056151646726133 0.0076682831521210767 0 0.027941458431327264 0.0072182946106798809 0 0.028242790310330997 0.0075377758401546317 0 0.027641194798073549 0.0074464999983993802 0 0.028422606324846188 0.0070316732680037507 0 0.028624780554190821 0.0076663673403167014 0 0.028956698936390367 0.0077685767195883057 0 0.028624780554190821 0.0076663673403167014 0 0.029056151646726133 0.0076682831521210767 0 0.029056151646726133 0.0076682831521210767 0 0.029134214299397169 0.0071602048771254321 0 0.029564049827396344 0.0077030712919830798 0 0.028623993835360434 0.0073935396521166092 0 0.029056151646726133 0.0076682831521210767 0 0.029134214299397169 0.0071602048771254321 0 0.028339858862229218 0.0083151850656503368 0 0.029178361817938845 0.0084836593081791898 0 0.027261147861844175 0.0096606242349692052 0 0.028660131178949767 0.0096442497853009637 0 0.028596774013032643 0.009151211065936856 0 0.029134214299397169 0.0071602048771254321 0 0.029564049827396344 0.0077030712919830798 0 0.03003828227118736 0.0074579642027693014 0 0.029294403841417772 0.0078838479668057616 0 0.029056151646726133 0.0076682831521210767 0 0.029564049827396344 0.0077030712919830798 0 0.027484003522609105 0.008699534631180476 0 0.02800142373895104 0.0089425252616010167 0 0.028307274788109349 0.0085962315986260612 0 0.027484003522609105 0.008699534631180476 0 0.02800142373895104 0.0089425252616010167 0 0.026920192503002208 0.0089794489570016664 0 0.027261147861844175 0.0096606242349692052 0 0.02800142373895104 0.0089425252616010167 0 0.028596774013032643 0.009151211065936856 0 0.027261147861844175 0.0096606242349692052 0 0.02800142373895104 0.0089425252616010167 0 0.026920192503002208 0.0089794489570016664 0 0.027261147861844175 0.0096606242349692052 0 0.026920192503002208 0.0089794489570016664 0 0.026386075489911807 0.0094807173158480713 0 0.028339858862229218 0.0083151850656503368 0 0.026648482189809589 0.0074506510929812962 0 0.026920192503002208 0.0089794489570016664 0 0.026294378900214868 0.0087859885641303776 0 0.026386075489911807 0.0094807173158480713 0 0.024686511164036081 0.0077065724317768002 0 0.026648482189809589 0.0074506510929812962 0 0.022683165860706657 0.0066789758272409166 0 0.022638303228390229 0.0056341801925870807 0 0.02331665153989837 0.0057832572940936192 0 0.026039887676962154 0.0066323392632192876 0 0.02759749595198881 0.0066370995275013582 0 0.027025782460998141 0.0057782836009698689 0 0.026648482189809589 0.0074506510929812962 0 0.025088721688400328 0.0061577176951637894 0 0.02759749595198881 0.0066370995275013582 0 0.028391958753264727 0.0060661147424398995 0 0.027025782460998141 0.0057782836009698689 0 0.022683165860706657 0.0066789758272409166 0 0.02331665153989837 0.0057832572940936192 0 0.023479319800387168 0.0064993938126399467 0 0.022683165860706657 0.0066789758272409166 0 0.023479319800387168 0.0064993938126399467 0 0.023241650027485797 0.006946315053320589 0 0.022683165860706657 0.0066789758272409166 0 0.022760433977269456 0.0072888389155009109 0 0.023241650027485797 0.006946315053320589 0 0.022760433977269456 0.0072888389155009109 0 0.023241650027485797 0.006946315053320589 0 0.022973927996538974 0.0073741434748415737 0 0.024686511164036081 0.0077065724317768002 0 0.024276527570872557 0.0078219545341848152 0 0.026294378900214868 0.0087859885641303776 0 0.025871709715645921 0.0085062528500116259 0 0.026631802518579037 0.0085101650948204485 0 0.027484003522609105 0.008699534631180476 0 0.026920192503002208 0.0089794489570016664 0 0.026631802518579037 0.0085101650948204485 0 0.026920192503002208 0.0089794489570016664 0 0.026294378900214868 0.0087859885641303776 0 0.026631802518579037 0.0085101650948204485 0 0.025871709715645921 0.0085062528500116259 0 0.026631802518579037 0.0085101650948204485 0 0.025715581874962021 0.0084056416761713413 0 0.026631802518579037 0.0085101650948204485 0 0.026740074137145527 0.0083545456222824475 0 0.02764565349241151 0.0083737872386986049 0 0.027484003522609105 0.008699534631180476 0 0.026631802518579037 0.0085101650948204485 0 0.02764565349241151 0.0083737872386986049 0 0.022725093390749532 0.0081563999729595861 0 0.021953941899575388 0.007942525879371205 0 0.023439159933362375 0.0070664579620959983 0 0.022725093390749532 0.0081563999729595861 0 0.021953941899575388 0.007942525879371205 0 0.022476614515922966 0.0087379036967285429 0 0.020782762506473009 0.0090210001630118188 0 0.020989205686431884 0.008657871180741997 0 0.021505855133452743 0.0087855634164230346 0 0.020989205686431884 0.008657871180741997 0 0.021505855133452743 0.0087855634164230346 0 0.021424360144279453 0.0083452479593594513 0 0.021686198793372784 0.0092236206694362877 0 0.021112873818681571 0.0093620948883539248 0 0.021953941899575388 0.007942525879371205 0 0.020782762506473009 0.0090210001630118188 0 0.021112873818681571 0.0093620948883539248 0 0.021505855133452743 0.0087855634164230346 0 0.021250242819335376 0.0091912544842967965 0 0.021802582770913646 0.008429721023011932 0 0.021686198793372784 0.0092236206694362877 0 0.021953941899575388 0.007942525879371205 0 0.022073746761453676 0.008808378398895058 0 0.02211952633725759 0.0092159894504710849 0 0.021686198793372784 0.0092236206694362877 0 0.022073746761453676 0.008808378398895058 0 0.02211952633725759 0.0092159894504710849 0 0.022073746761453676 0.008808378398895058 0 0.022476614515922966 0.0087379036967285429 0 0.021953941899575388 0.007942525879371205 0 0.022073746761453676 0.008808378398895058 0 0.022476614515922966 0.0087379036967285429 0 0.022442736883808868 0.0091953571899664865 0 0.02211952633725759 0.0092159894504710849 0 0.022476614515922966 0.0087379036967285429 0 0.022442736883808868 0.0091953571899664865 0 0.022476614515922966 0.0087379036967285429 0 0.022885293570748363 0.0087930606864157022 0 0.022725093390749532 0.0081563999729595861 0 0.022476614515922966 0.0087379036967285429 0 0.022885293570748363 0.0087930606864157022 0 0.02331665153989837 0.0057832572940936192 0 0.024614320168583781 0.0059874545375576778 0 0.023479319800387168 0.0064993938126399467 0 0.026039887676962154 0.0066323392632192876 0 0.027025782460998141 0.0057782836009698689 0 0.024614320168583781 0.0059874545375576778 0 0.025088721688400328 0.0061577176951637894 0 0.02489214112538626 0.0060179887876836312 0 0.026039887676962154 0.0066323392632192876 0 0.024552051182403258 0.0060804217093105347 0 0.024614320168583781 0.0059874545375576778 0 0.023479319800387168 0.0064993938126399467 0 0.023900368469434816 0.0066455170071579566 0 0.023241650027485797 0.006946315053320589 0 0.024614320168583781 0.0059874545375576778 0 0.023479319800387168 0.0064993938126399467 0 0.023900368469434816 0.0066455170071579566 0 0.022725093390749532 0.0081563999729595861 0 0.022885293570748363 0.0087930606864157022 0 0.023439159933362375 0.0070664579620959983 0 0.024552051182403258 0.0060804217093105347 0 0.023900368469434816 0.0066455170071579566 0 0.023439159933362375 0.0070664579620959983 0 0.024552051182403258 0.0060804217093105347 0 0.024614320168583781 0.0059874545375576778 0 0.023900368469434816 0.0066455170071579566 0 0.023700689539013393 0.0072862403075336741 0 0.023457027694158663 0.0068848977178789248 0 0.023900368469434816 0.0066455170071579566 0 0.023452700595191566 0.0069363190563965036 0 0.023439159933362375 0.0070664579620959983 0 0.023452700595191566 0.0069363190563965036 0 0.02345562978933587 0.0067531464236163328 0 0.023439159933362375 0.0070664579620959983 0 0.023900368469434816 0.0066455170071579566 0 0.023452700595191566 0.0069363190563965036 0 0.023241650027485797 0.006946315053320589 0 0.023452700595191566 0.0069363190563965036 0 0.022917379878492204 0.0073593008691155192 0 0.022973927996538974 0.0073741434748415737 0 0.023452700595191566 0.0069363190563965036 0 0.023241650027485797 0.006946315053320589 0 0.022973927996538974 0.0073741434748415737 0 0.023452700595191566 0.0069363190563965036 0 0.02345562978933587 0.0067531464236163328 0 0.022917379878492204 0.0073593008691155192 0 0.022180823152624547 0.0081064781515901106 0 0.022303498696672246 0.0074537882265113499 0 0.022917379878492204 0.0073593008691155192 0 0.022680256203845076 0.0074843940351851613 0 0.022910582903309513 0.0072896250277791437 0 0.02201351180170109 0.0078204754248697595 0 0.022180823152624547 0.0081064781515901106 0 0.022303498696672246 0.0074537882265113499 0 0.021813312078949355 0.0076911166294814821 0 0.02201351180170109 0.0078204754248697595 0 0.022303498696672246 0.0074537882265113499 0 0.021813312078949355 0.0076911166294814821 0 0.021747263844392423 0.0073852894804105505 0 0.022303498696672246 0.0074537882265113499 0 0.02201351180170109 0.0078204754248697595 0 0.022180823152624547 0.0081064781515901106 0 0.021755379627064829 0.0080324338653613367 0 0.021813312078949355 0.0076911166294814821 0 0.02201351180170109 0.0078204754248697595 0 0.021755379627064829 0.0080324338653613367 0 0.021802582770913646 0.008429721023011932 0 0.022680256203845076 0.0074843940351851613 0 0.022180823152624547 0.0081064781515901106 0 0.021755379627064829 0.0080324338653613367 0 0.021424360144279453 0.0083452479593594513 0 0.021505855133452743 0.0087855634164230346 0 0.022180823152624547 0.0081064781515901106 0 0.021424360144279453 0.0083452479593594513 0 0.021953941899575388 0.007942525879371205 0 0.02345562978933587 0.0067531464236163328 0 0.023439159933362375 0.0070664579620959983 0 0.020783134927795911 0.0083346041680866026 0 0.021424360144279453 0.0083452479593594513 0 0.021270616627263265 0.0080780608472766184 0 0.020783134927795911 0.0083346041680866026 0 0.020989205686431884 0.008657871180741997 0 0.021424360144279453 0.0083452479593594513 0 0.021755379627064829 0.0080324338653613367 0 0.021424360144279453 0.0083452479593594513 0 0.021270616627263265 0.0080780608472766184 0 0.021755379627064829 0.0080324338653613367 0 0.021270616627263265 0.0080780608472766184 0 0.021507146553050981 0.007844491775072843 0 0.020804926334544005 0.0080151021318876324 0 0.021270616627263265 0.0080780608472766184 0 0.021120636112254943 0.0077689533815650047 0 0.021270616627263265 0.0080780608472766184 0 0.021120636112254943 0.0077689533815650047 0 0.021507146553050981 0.007844491775072843 0 0.021120636112254943 0.0077689533815650047 0 0.021507146553050981 0.007844491775072843 0 0.021454917460620841 0.0076035260062215313 0 0.021813312078949355 0.0076911166294814821 0 0.021755379627064829 0.0080324338653613367 0 0.021507146553050981 0.007844491775072843 0 0.021813312078949355 0.0076911166294814821 0 0.021454917460620841 0.0076035260062215313 0 0.021747263844392423 0.0073852894804105505 0 0.021813312078949355 0.0076911166294814821 0 0.021507146553050981 0.007844491775072843 0 0.021454917460620841 0.0076035260062215313 0 0.021094318614069487 0.0075200469261226524 0 0.021120636112254943 0.0077689533815650047 0 0.021454917460620841 0.0076035260062215313 0 0.021094318614069487 0.0075200469261226524 0 0.021454917460620841 0.0076035260062215313 0 0.021346381074500043 0.0073361999157564107 0 0.021346381074500043 0.0073361999157564107 0 0.021264690739992011 0.0071063018324599141 0 0.020935852228399578 0.0072892181563309543 0 0.021346381074500043 0.0073361999157564107 0 0.021569193649538142 0.0071580478948001496 0 0.021264690739992011 0.0071063018324599141 0 0.021346381074500043 0.0073361999157564107 0 0.021747263844392423 0.0073852894804105505 0 0.021569193649538142 0.0071580478948001496 0 0.021454917460620841 0.0076035260062215313 0 0.021346381074500043 0.0073361999157564107 0 0.021747263844392423 0.0073852894804105505 0 0.021569193649538142 0.0071580478948001496 0 0.021483134848225009 0.0068552691390135999 0 0.021944742865833654 0.0071181446178490556 0 0.021747263844392423 0.0073852894804105505 0 0.021569193649538142 0.0071580478948001496 0 0.021944742865833654 0.0071181446178490556 0 0.021569193649538142 0.0071580478948001496 0 0.021264690739992011 0.0071063018324599141 0 0.021483134848225009 0.0068552691390135999 0 0.021483134848225009 0.0068552691390135999 0 0.022021397807711621 0.0067859544071983378 0 0.021485844423907663 0.006577363404508021 0 0.021483134848225009 0.0068552691390135999 0 0.021944742865833654 0.0071181446178490556 0 0.022021397807711621 0.0067859544071983378 0 0.021944742865833654 0.0071181446178490556 0 0.022426613248657971 0.0071567497250329334 0 0.022021397807711621 0.0067859544071983378 0 0.022426613248657971 0.0071567497250329334 0 0.022317551371880816 0.007152820030806222 0 0.022021397807711621 0.0067859544071983378 0 0.021944742865833654 0.0071181446178490556 0 0.022303498696672246 0.0074537882265113499 0 0.022426613248657971 0.0071567497250329334 0 0.021747263844392423 0.0073852894804105505 0 0.021944742865833654 0.0071181446178490556 0 0.022303498696672246 0.0074537882265113499 0 0.022303498696672246 0.0074537882265113499 0 0.022917379878492204 0.0073593008691155192 0 0.022426613248657971 0.0071567497250329334 0 0.022917379878492204 0.0073593008691155192 0 0.022973927996538974 0.0073741434748415737 0 0.02270774217155953 0.0075115064995540182 0 0.022917379878492204 0.0073593008691155192 0 0.02270774217155953 0.0075115064995540182 0 0.022426613248657971 0.0071567497250329334 0 0.02270774217155953 0.0075115064995540182 0 0.022426613248657971 0.0071567497250329334 0 0.022317551371880816 0.007152820030806222 0 0.022317551371880816 0.007152820030806222 0 0.022288239029593402 0.0073909656928085711 0 0.022130178597823628 0.0070148702047315064 0 0.02270774217155953 0.0075115064995540182 0 0.022317551371880816 0.007152820030806222 0 0.022288239029593402 0.0073909656928085711 0 0.02270774217155953 0.0075115064995540182 0 0.022288239029593402 0.0073909656928085711 0 0.022312086391739636 0.007656719249665561 0 0.022288239029593402 0.0073909656928085711 0 0.022312086391739636 0.007656719249665561 0 0.021997819026021506 0.0075085796893088509 0 0.022288239029593402 0.0073909656928085711 0 0.022130178597823628 0.0070148702047315064 0 0.021997819026021506 0.0075085796893088509 0 0.022130178597823628 0.0070148702047315064 0 0.022273690308299718 0.007394676696805492 0 0.021997819026021506 0.0075085796893088509 0 0.022130178597823628 0.0070148702047315064 0 0.022335556852850224 0.0070457115580896852 0 0.022273690308299718 0.007394676696805492 0 0.022130178597823628 0.0070148702047315064 0 0.022335556852850224 0.0070457115580896852 0 0.021910813113462952 0.0064229018599967803 0 0.022021397807711621 0.0067859544071983378 0 0.021910813113462952 0.0064229018599967803 0 0.021485844423907663 0.006577363404508021 0 0.022130178597823628 0.0070148702047315064 0 0.022021397807711621 0.0067859544071983378 0 0.021910813113462952 0.0064229018599967803 0 0.022317551371880816 0.007152820030806222 0 0.022130178597823628 0.0070148702047315064 0 0.022021397807711621 0.0067859544071983378 0 0.026276007630301901 0.0083283961935212338 0 0.025715581874962021 0.0084056416761713413 0 0.025081791610137776 0.0082835405942184668 0 0.026276007630301901 0.0083283961935212338 0 0.026740074137145527 0.0083545456222824475 0 0.025715581874962021 0.0084056416761713413 0 0.026631802518579037 0.0085101650948204485 0 0.026740074137145527 0.0083545456222824475 0 0.025715581874962021 0.0084056416761713413 0 0.025715581874962021 0.0084056416761713413 0 0.024921879932858878 0.0084361942417128417 0 0.025081791610137776 0.0082835405942184668 0 0.023877330394402523 0.0078342971384078794 0 0.023566415481580325 0.0077235045263478333 0 0.025871709715645921 0.0085062528500116259 0 0.025715581874962021 0.0084056416761713413 0 0.024921879932858878 0.0084361942417128417 0 0.024276527570872557 0.0078219545341848152 0 0.023877330394402523 0.0078342971384078794 0 0.022760433977269456 0.0072888389155009109 0 0.022973927996538974 0.0073741434748415737 0 0.02288647274420735 0.0075854967757595275 0 0.02270774217155953 0.0075115064995540182 0 0.02288647274420735 0.0075854967757595275 0 0.023272610605573656 0.0079119792688543203 0 0.022973927996538974 0.0073741434748415737 0 0.02270774217155953 0.0075115064995540182 0 0.02288647274420735 0.0075854967757595275 0 0.02270774217155953 0.0075115064995540182 0 0.022312086391739636 0.007656719249665561 0 0.023272610605573656 0.0079119792688543203 0 0.022312086391739636 0.007656719249665561 0 0.023272610605573656 0.0079119792688543203 0 0.022786675242540869 0.0078171581101988928 0 0.023272610605573656 0.0079119792688543203 0 0.024327557275813597 0.007980387458074353 0 0.022786675242540869 0.0078171581101988928 0 0.024921879932858878 0.0084361942417128417 0 0.023272610605573656 0.0079119792688543203 0 0.025081791610137776 0.0082835405942184668 0 0.023272610605573656 0.0079119792688543203 0 0.025081791610137776 0.0082835405942184668 0 0.024327557275813597 0.007980387458074353 0 0.024327557275813597 0.007980387458074353 0 0.023362905954419949 0.0078682913270350166 0 0.022786675242540869 0.0078171581101988928 0 0.024327557275813597 0.007980387458074353 0 0.024813164605656614 0.0078813775200192466 0 0.023961539795588946 0.0078515102768595586 0 0.024327557275813597 0.007980387458074353 0 0.024813164605656614 0.0078813775200192466 0 0.025549807844983126 0.0082317687091524195 0 0.025081791610137776 0.0082835405942184668 0 0.024327557275813597 0.007980387458074353 0 0.025549807844983126 0.0082317687091524195 0 0.026276007630301901 0.0083283961935212338 0 0.025081791610137776 0.0082835405942184668 0 0.025549807844983126 0.0082317687091524195 0 0.024105204006566582 0.0075642056787277043 0 0.024072768811357493 0.007775267827697642 0 0.023892653777255211 0.0073374932880456867 0 0.023413324537521693 0.0075669762330075373 0 0.02187796822950103 0.0099928467573506437 0 0.024105204006566582 0.0075642056787277043 0 0.024072768811357493 0.007775267827697642 0 0.024377161321784427 0.0077952296732956682 0 0.024813164605656614 0.0078813775200192466 0 0.024072768811357493 0.007775267827697642 0 0.024377161321784427 0.0077952296732956682 0 0.024813164605656614 0.0078813775200192466 0 0.023961539795588946 0.0078515102768595586 0 0.024072768811357493 0.007775267827697642 0 0.024327557275813597 0.007980387458074353 0 0.023961539795588946 0.0078515102768595586 0 0.023362905954419949 0.0078682913270350166 0 0.023961539795588946 0.0078515102768595586 0 0.024072768811357493 0.007775267827697642 0 0.02295612958766961 0.0079148822428634566 0 0.023961539795588946 0.0078515102768595586 0 0.023362905954419949 0.0078682913270350166 0 0.02295612958766961 0.0079148822428634566 0 0.024072768811357493 0.007775267827697642 0 0.02295612958766961 0.0079148822428634566 0 0.022746780812011713 0.007825338669859596 0 0.023362905954419949 0.0078682913270350166 0 0.02295612958766961 0.0079148822428634566 0 0.022176237773626054 0.0079899028394292901 0 0.02295612958766961 0.0079148822428634566 0 0.022176237773626054 0.0079899028394292901 0 0.021556185777106329 0.0082746527678156292 0 0.023362905954419949 0.0078682913270350166 0 0.022176237773626054 0.0079899028394292901 0 0.022786675242540869 0.0078171581101988928 0 0.022312086391739636 0.007656719249665561 0 0.022786675242540869 0.0078171581101988928 0 0.021757786322702095 0.0079180168454276029 0 0.022176237773626054 0.0079899028394292901 0 0.022786675242540869 0.0078171581101988928 0 0.021757786322702095 0.0079180168454276029 0 0.022176237773626054 0.0079899028394292901 0 0.021757786322702095 0.0079180168454276029 0 0.020949899748666595 0.0083575104483546211 0 0.022176237773626054 0.0079899028394292901 0 0.021556185777106329 0.0082746527678156292 0 0.020949899748666595 0.0083575104483546211 0 0.01937652626052988 0.0090293273936887571 0 0.021556185777106329 0.0082746527678156292 0 0.020949899748666595 0.0083575104483546211 0 0.019168527707273481 0.0091543342931182398 0 0.01764106386913385 0.010734591235478673 0 0.01937652626052988 0.0090293273936887571 0 0.021556185777106329 0.0082746527678156292 0 0.021577679430237712 0.007469230306342012 0 0.02295612958766961 0.0079148822428634566 0 0.021556185777106329 0.0082746527678156292 0 0.022746780812011713 0.007825338669859596 0 0.02187796822950103 0.0099928467573506437 0 0.01764106386913385 0.010734591235478673 0 0.019649050098182023 0.01127754339471689 0 0.019296913684455849 0.010342272451968155 0 0.018945396701503574 0.010442955766537681 0 0.02187796822950103 0.0099928467573506437 0 0.017022417641868206 0.012637751371869335 0 0.022014251753392462 0.012720736535069201 0 0.021754434136704026 0.013311335888969031 0 0.022306256900646238 0.013654356293762493 0 0.021556185777106329 0.0082746527678156292 0 0.022746780812011713 0.007825338669859596 0 0.021577679430237712 0.007469230306342012 0 0.021754434136704026 0.013311335888969031 0 0.021186919248629848 0.012959684192006361 0 0.021460877847139185 0.013935918028772313 0 0.022014251753392462 0.012720736535069201 0 0.021754434136704026 0.013311335888969031 0 0.021186919248629848 0.012959684192006361 0 0.02159901567046343 0.012169715971285777 0 0.022014251753392462 0.012720736535069201 0 0.021186919248629848 0.012959684192006361 0 0.022997637566506322 0.0097799606714718511 0 0.02187796822950103 0.0099928467573506437 0 0.022234456332125854 0.0080073123261154566 0 0.023302653299714426 0.0087876405051538504 0 0.022990567717971932 0.0077113098118906046 0 0.022335556852850224 0.0070457115580896852 0 0.022273690308299718 0.007394676696805492 0 0.022990567717971932 0.0077113098118906046 0 0.022234456332125854 0.0080073123261154566 0 0.022273690308299718 0.007394676696805492 0 0.022990567717971932 0.0077113098118906046 0 0.022234456332125854 0.0080073123261154566 0 0.022273690308299718 0.007394676696805492 0 0.021997819026021506 0.0075085796893088509 0 0.022312086391739636 0.007656719249665561 0 0.021757786322702095 0.0079180168454276029 0 0.021997819026021506 0.0075085796893088509 0 0.021757786322702095 0.0079180168454276029 0 0.021997819026021506 0.0075085796893088509 0 0.021613277568050072 0.0080132651304282276 0 0.021757786322702095 0.0079180168454276029 0 0.021613277568050072 0.0080132651304282276 0 0.020949899748666595 0.0083575104483546211 0 0.022234456332125854 0.0080073123261154566 0 0.021613277568050072 0.0080132651304282276 0 0.021441391955011411 0.0086479046888959642 0 0.022234456332125854 0.0080073123261154566 0 0.021997819026021506 0.0075085796893088509 0 0.021613277568050072 0.0080132651304282276 0 0.021613277568050072 0.0080132651304282276 0 0.021441391955011411 0.0086479046888959642 0 0.020949899748666595 0.0083575104483546211 0 0.021441391955011411 0.0086479046888959642 0 0.020949899748666595 0.0083575104483546211 0 0.020565271299288698 0.0091659959106882381 0 0.01937652626052988 0.0090293273936887571 0 0.020949899748666595 0.0083575104483546211 0 0.020565271299288698 0.0091659959106882381 0 0.01937652626052988 0.0090293273936887571 0 0.020565271299288698 0.0091659959106882381 0 0.019979615683380067 0.01088737162016498 0 0.021441391955011411 0.0086479046888959642 0 0.021180686555578927 0.010320261655157228 0 0.022436645201468881 0.0095723765387365472 0 0.020565271299288698 0.0091659959106882381 0 0.021180686555578927 0.010320261655157228 0 0.019979615683380067 0.01088737162016498 0 0.021441391955011411 0.0086479046888959642 0 0.020565271299288698 0.0091659959106882381 0 0.021180686555578927 0.010320261655157228 0 0.021180686555578927 0.010320261655157228 0 0.022064218056258793 0.010811945083070821 0 0.022436645201468881 0.0095723765387365472 0 0.022064218056258793 0.010811945083070821 0 0.022436645201468881 0.0095723765387365472 0 0.023045786285863658 0.010770140968859122 0 0.022234456332125854 0.0080073123261154566 0 0.021441391955011411 0.0086479046888959642 0 0.022436645201468881 0.0095723765387365472 0 0.022234456332125854 0.0080073123261154566 0 0.022436645201468881 0.0095723765387365472 0 0.023302653299714426 0.0087876405051538504 0 0.019941257186635791 0.010030552032473142 0 0.021003889317329088 0.011939413574388038 0 0.022436645201468881 0.0095723765387365472 0 0.023302653299714426 0.0087876405051538504 0 0.023470511411957259 0.010700194536339407 0 0.022436645201468881 0.0095723765387365472 0 0.023045786285863658 0.010770140968859122 0 0.023470511411957259 0.010700194536339407 0 0.016314471489567106 0.011175480799296372 0 0.016418782827117031 0.011298571315259218 0 0.016274276269146886 0.011425100360814081 0 0.016418782827117031 0.011298571315259218 0 0.016418552043481117 0.011434696034063869 0 0.016274276269146886 0.011425100360814081 0 0.016418782827117031 0.011298571315259218 0 0.016573383564009048 0.011457624119739914 0 0.016418552043481117 0.011434696034063869 0 0.016418782827117031 0.011298571315259218 0 0.01654901178584325 0.011246260788637072 0 0.016573383564009048 0.011457624119739914 0 0.01654901178584325 0.011246260788637072 0 0.016446666115084652 0.011098023619800834 0 0.01660189365589047 0.011102759960848613 0 0.016418782827117031 0.011298571315259218 0 0.01654901178584325 0.011246260788637072 0 0.016446666115084652 0.011098023619800834 0 0.016314471489567106 0.011175480799296372 0 0.016418782827117031 0.011298571315259218 0 0.016446666115084652 0.011098023619800834 0 0.016446666115084652 0.011098023619800834 0 0.016425025862770781 0.010903169691846269 0 0.016380771256311419 0.010926893346201134 0 0.016314471489567106 0.011175480799296372 0 0.016446666115084652 0.011098023619800834 0 0.016380771256311419 0.010926893346201134 0 0.019941257186635791 0.010030552032473142 0 0.019507271453077523 0.0096670403254294247 0 0.016425025862770781 0.010903169691846269 0 0.016292431781143313 0.010820923968282188 0 0.016295665983960601 0.010681679012106437 0 0.016217729829236714 0.011084437687019296 0 0.015485496429771704 0.01088518795312742 0 0.016446666115084652 0.011098023619800834 0 0.016425025862770781 0.010903169691846269 0 0.01660189365589047 0.011102759960848613 0 0.016425025862770781 0.010903169691846269 0 0.01629548191844889 0.010938399727093224 0 0.016448215633004266 0.010910658723512606 0 0.019507271453077523 0.0096670403254294247 0 0.019258812807879291 0.0059714765671102007 0 0.016425025862770781 0.010903169691846269 0 0.016380771256311419 0.010926893346201134 0 0.016448215633004266 0.010910658723512606 0 0.01633807822155349 0.0044441802325112766 0 0.01308300387174635 0.0070541068736189212 0 0.013463315715122805 -0.0020857736514266791 0 0.017145129752170245 -0.0022846999613557856 0 0.013548446917385477 -0.0048489890339560903 0 0.01629548191844889 0.010938399727093224 0 0.01614963174184646 0.010747244177812089 0 0.016292431781143313 0.010820923968282188 0 0.016425025862770781 0.010903169691846269 0 0.01629548191844889 0.010938399727093224 0 0.016292431781143313 0.010820923968282188 0 0.01629548191844889 0.010938399727093224 0 0.01614963174184646 0.010747244177812089 0 0.015953673343443536 0.010769206946238808 0 0.01614963174184646 0.010747244177812089 0 0.016292431781143313 0.010820923968282188 0 0.016295665983960601 0.010681679012106437 0 0.01614963174184646 0.010747244177812089 0 0.016295665983960601 0.010681679012106437 0 0.016052734463140143 0.010574124444242067 0 0.01614963174184646 0.010747244177812089 0 0.015953673343443536 0.010769206946238808 0 0.016052734463140143 0.010574124444242067 0 0.01308300387174635 0.0070541068736189212 0 0.014556378252177017 0.010020333645788798 0 0.015645407637196535 0.011182304454468894 0 0.015822702031090412 0.010578702801113891 0 0.015334453778802755 0.010967856210143571 0 0.010031361439552309 0.017210892112047238 0 0.0097698570747871468 0.012027249559696673 0 0.015645407637196535 0.011182304454468894 0 0.015822702031090412 0.010578702801113891 0 0.016052734463140143 0.010574124444242067 0 0.0046828496146383448 0.024470227922887521 0 0.0069729940983913417 0.02413690677160843 0 0.008028892866201242 0.021249922378954032 0 0.015822702031090412 0.010578702801113891 0 0.016052734463140143 0.010574124444242067 0 0.016165513655215867 0.010378514453529204 0 0.0046828496146383448 0.024470227922887521 0 0.0015498798744283057 0.027450525118174439 0 0.0047735422605480905 0.02761633798676567 0 0.010031361439552309 0.017210892112047238 0 0.014123325357842916 0.017943913205963252 0 0.0046828496146383448 0.024470227922887521 0 0.0062066230157129835 0.026344747289088619 0 0.0069729940983913417 0.02413690677160843 0 0.0046828496146383448 0.024470227922887521 0 0.0062066230157129835 0.026344747289088619 0 0.0047735422605480905 0.02761633798676567 0 0.01654901178584325 0.011246260788637072 0 0.01660189365589047 0.011102759960848613 0 0.016711866073856954 0.011332257675405475 0 0.016295665983960601 0.010681679012106437 0 0.016052734463140143 0.010574124444242067 0 0.016165513655215867 0.010378514453529204 0 0.015485496429771704 0.01088518795312742 0 0.014123325357842916 0.017943913205963252 0 0.014123325357842916 0.017943913205963252 0 0.021074438413114942 0.01598949109653601 0 0.01595835514910373 0.020437155745247522 0 0.014990242643153505 0.018386793372483275 0 0.018128197987071687 0.01848477409479482 0 0.01654901178584325 0.011246260788637072 0 0.016711866073856954 0.011332257675405475 0 0.016573383564009048 0.011457624119739914 0 0.014123325357842916 0.017943913205963252 0 0.014600469158000055 0.022927390937427836 0 0.0061561743850273333 0.028002728281264086 0 0.0047735422605480905 0.02761633798676567 0 0.0058076902943277296 0.029440621296480056 0 0.0062066230157129835 0.026344747289088619 0 0.0061561743850273333 0.028002728281264086 0 0.0073369023886416572 0.027557588477101193 0 0.0062066230157129835 0.026344747289088619 0 0.0061561743850273333 0.028002728281264086 0 0.0047735422605480905 0.02761633798676567 0 0.0015498798744283057 0.027450525118174439 0 0.0047735422605480905 0.02761633798676567 0 0.0041706103180333531 0.02921528940045888 0 0.0041706103180333531 0.02921528940045888 0 0.0050943234203045442 0.0302559058941426 0 0.0033827670631617389 0.031247288389135812 0 0.0015498798744283057 0.027450525118174439 0 0.0041706103180333531 0.02921528940045888 0 0.0033827670631617389 0.031247288389135812 0 0.0050943234203045442 0.0302559058941426 0 0.0063663960840285019 0.030319001364019459 0 0.0055192890798989105 0.031284283550045096 0 0.0047735422605480905 0.02761633798676567 0 0.0041706103180333531 0.02921528940045888 0 0.0058076902943277296 0.029440621296480056 0 0.0041706103180333531 0.02921528940045888 0 0.0050943234203045442 0.0302559058941426 0 0.0058076902943277296 0.029440621296480056 0 0.0061561743850273333 0.028002728281264086 0 0.0058076902943277296 0.029440621296480056 0 0.0066900095161900831 0.02900740859445694 0 0.0058076902943277296 0.029440621296480056 0 0.0065434478595022775 0.029754722639113419 0 0.0066900095161900831 0.02900740859445694 0 0.0058076902943277296 0.029440621296480056 0 0.0065434478595022775 0.029754722639113419 0 0.0063663960840285019 0.030319001364019459 0 0.0050943234203045442 0.0302559058941426 0 0.0058076902943277296 0.029440621296480056 0 0.0063663960840285019 0.030319001364019459 0 0.0072999626384849135 0.030228879127987392 0 0.0066900095161900831 0.02900740859445694 0 0.0073369023886416572 0.027557588477101193 0 0.0072999626384849135 0.030228879127987392 0 0.0082958223230027075 0.030010410026153064 0 0.0079365870002992573 0.02862130466172708 0 0.0072999626384849135 0.030228879127987392 0 0.0073369023886416572 0.027557588477101193 0 0.0092256178021265199 0.025781403855568305 0 0.0071853774459003606 0.029016982352736784 0 0.0074187064909333128 0.026754348113098878 0 0.0063663960840285019 0.030319001364019459 0 0.0072999626384849135 0.030228879127987392 0 0.0071999837116685627 0.031124946890348421 0 0.0065434478595022775 0.029754722639113419 0 0.0063663960840285019 0.030319001364019459 0 0.0072999626384849135 0.030228879127987392 0 0.0065434478595022775 0.029754722639113419 0 0.0072999626384849135 0.030228879127987392 0 0.0066900095161900831 0.02900740859445694 0 0.0061561743850273333 0.028002728281264086 0 0.0066900095161900831 0.02900740859445694 0 0.0073369023886416572 0.027557588477101193 0 0.0082958223230027075 0.030010410026153064 0 0.0093228803912789576 0.029515419533137657 0 0.0079365870002992573 0.02862130466172708 0 0.0072999626384849135 0.030228879127987392 0 0.0082958223230027075 0.030010410026153064 0 0.0079823948022918079 0.030792993833323488 0 0.0082958223230027075 0.030010410026153064 0 0.0088964836768370883 0.030902673774619058 0 0.0079823948022918079 0.030792993833323488 0 0.0093228803912789576 0.029515419533137657 0 0.011331421801117252 0.02873292552878606 0 0.010103375510545893 0.030777164311191603 0 0.0093228803912789576 0.029515419533137657 0 0.010103375510545893 0.030777164311191603 0 0.0088964836768370883 0.030902673774619058 0 0.0082958223230027075 0.030010410026153064 0 0.0093228803912789576 0.029515419533137657 0 0.0088964836768370883 0.030902673774619058 0 0.009427228022222572 0.028081423504020802 0 0.011331421801117252 0.02873292552878606 0 0.0093736151271211626 0.0262431096455325 0 0.0093228803912789576 0.029515419533137657 0 0.009427228022222572 0.028081423504020802 0 0.011331421801117252 0.02873292552878606 0 0.009427228022222572 0.028081423504020802 0 0.0079365870002992573 0.02862130466172708 0 0.0085970314412749486 0.026794212899059387 0 0.0093228803912789576 0.029515419533137657 0 0.009427228022222572 0.028081423504020802 0 0.0079365870002992573 0.02862130466172708 0 0.0074187064909333128 0.026754348113098878 0 0.006667493146591417 0.019899429923183616 0 0.0069729940983913417 0.02413690677160843 0 0.0092256178021265199 0.025781403855568305 0 0.010918018875440375 0.021409169095426613 0 0.0073243849155173674 0.021812439962011355 0 0.006667493146591417 0.019899429923183616 0 0.0062066230157129835 0.026344747289088619 0 0.0069729940983913417 0.02413690677160843 0 0.0075086938548967978 0.025916124174684977 0 0.0069729940983913417 0.02413690677160843 0 0.0075086938548967978 0.025916124174684977 0 0.0092256178021265199 0.025781403855568305 0 0.0062066230157129835 0.026344747289088619 0 0.0073369023886416572 0.027557588477101193 0 0.0075086938548967978 0.025916124174684977 0 0.0073369023886416572 0.027557588477101193 0 0.0075086938548967978 0.025916124174684977 0 0.0092256178021265199 0.025781403855568305 0 -0.01015242413359093 0.016360387926656231 0 -0.01103447370164338 0.016463990447975994 0 -0.011035386823591906 0.015471410832078137 0 0.011331421801117252 0.02873292552878606 0 0.011497356558842911 0.031868028466189621 0 0.01327968362231894 0.031249675598777012 0 -0.01103447370164338 0.016463990447975994 0 -0.011035386823591906 0.015471410832078137 0 -0.011483595395878368 0.016006787054251053 0 -5.8124550938607962e-05 0.021921637731390525 0 -0.00063488964509458043 0.034275361818730088 0 0.011331421801117252 0.02873292552878606 0 0.011497356558842911 0.031868028466189621 0 0.010103375510545893 0.030777164311191603 0 -5.8124550938607962e-05 0.021921637731390525 0 0.0048393290729878803 0.017185269944662549 0 -0.01103447370164338 0.016463990447975994 0 -0.010748364919498246 0.017246720319126146 0 -0.011397838196735561 0.017217961159790782 0 -0.01015242413359093 0.016360387926656231 0 -0.01103447370164338 0.016463990447975994 0 -0.010748364919498246 0.017246720319126146 0 -0.010748364919498246 0.017246720319126146 0 -0.011119792805064305 0.017942444065133012 0 -0.011397838196735561 0.017217961159790782 0 -0.010748364919498246 0.017246720319126146 0 -0.010572902522456523 0.017750850976656476 0 -0.010038624805439574 0.017522312159263326 0 -0.010748364919498246 0.017246720319126146 0 -0.010572902522456523 0.017750850976656476 0 -0.011119792805064305 0.017942444065133012 0 -0.01015242413359093 0.016360387926656231 0 -0.010038624805439574 0.017522312159263326 0 -0.0090954851590857363 0.017454804751191103 0 -0.01015242413359093 0.016360387926656231 0 -0.010748364919498246 0.017246720319126146 0 -0.010038624805439574 0.017522312159263326 0 -0.010038624805439574 0.017522312159263326 0 -0.010390491358278714 0.018305849197817772 0 -0.0090954851590857363 0.017454804751191103 0 0.0045689636188030753 0.0061284076440903078 0 0.0052223055817084453 0.0060715925770731703 0 0.0047446826636016598 0.0065360989606531661 0 0.0066188376826232962 0.0089716399822325106 0 0.0054000617638566041 0.0066156984732234003 0 -0.0029149160420109646 0.012869591548880262 0 0.0048393290729878803 0.017185269944662549 0 -0.010572902522456523 0.017750850976656476 0 -0.010038624805439574 0.017522312159263326 0 -0.010390491358278714 0.018305849197817772 0 -0.010390491358278714 0.018305849197817772 0 -0.011119792805064305 0.017942444065133012 0 -0.011821548631808324 0.019214023430720917 0 -0.010572902522456523 0.017750850976656476 0 -0.010390491358278714 0.018305849197817772 0 -0.011119792805064305 0.017942444065133012 0 0.0097698570747871468 0.012027249559696673 0 0.0064517503548179823 0.01119976573992834 0 0.0066561752391364228 0.005213366044021909 0 0.0061300146811623848 0.0056566099233103188 0 0.0064746025083193435 0.0056867890486559042 0 0.008028892866201242 0.021249922378954032 0 0.011042425382852245 0.021238354332325408 0 0.011502833921244541 0.018012702107576037 0 0.0069948954592676605 0.0054549128976277882 0 0.0066561752391364228 0.005213366044021909 0 0.0064746025083193435 0.0056867890486559042 0 0.0069729940983913417 0.02413690677160843 0 0.008028892866201242 0.021249922378954032 0 0.011042425382852245 0.021238354332325408 0 0.01308300387174635 0.0070541068736189212 0 0.0097698570747871468 0.012027249559696673 0 0.009427228022222572 0.028081423504020802 0 0.0085970314412749486 0.026794212899059387 0 0.0093736151271211626 0.0262431096455325 0 0.006667493146591417 0.019899429923183616 0 0.0048393290729878803 0.017185269944662549 0 0.011042425382852245 0.021238354332325408 0 0.012032630083217139 0.018663746438649279 0 0.011502833921244541 0.018012702107576037 0 0.0051964267837575307 0.0058488205587305039 0 0.0052761650179425079 0.0059433564598290814 0 0.0052223055817084453 0.0060715925770731703 0 0.006667493146591417 0.019899429923183616 0 0.0061170293369000924 0.013325856420957424 0 0.0067930589230945151 0.017934369025209118 0 0.0069448960222905981 0.017820946496183033 0 0.0068692630186181413 0.017723937655562617 0 0.0048393290729878803 0.017185269944662549 0 0.0061170293369000924 0.013325856420957424 0 0.0061170293369000924 0.013325856420957424 0 0.0064517503548179823 0.01119976573992834 0 0.0066188376826232962 0.0089716399822325106 0 0.0057470040092093694 0.0065996625364984221 0 0.00611819246962776 0.0056409938343056857 0 0.0059319123582616696 0.0057946104943415958 0 0.0062289550727713458 0.0057746833993502014 0 0.0059319123582616696 0.0057946104943415958 0 0.0061173832916091592 0.0060992744624328568 0 0.0062289550727713458 0.0057746833993502014 0 0.0064517503548179823 0.01119976573992834 0 0.0061241182939863036 0.010578974273756389 0 0.0045689636188030753 0.0061284076440903078 0 0.0051964267837575307 0.0058488205587305039 0 0.0052223055817084453 0.0060715925770731703 0 0.0059319123582616696 0.0057946104943415958 0 0.0061173832916091592 0.0060992744624328568 0 0.0059166106544516891 0.0064331676120920819 0 0.0057865013262786849 0.0099709594528311855 0 0.0060391305729684923 0.010279483604553922 0 0.0054560039918955753 0.010801135416869655 0 0.0061170293369000924 0.013325856420957424 0 0.0066188376826232962 0.0089716399822325106 0 0.0064517503548179823 0.01119976573992834 0 0.0066188376826232962 0.0089716399822325106 0 0.01308300387174635 0.0070541068736189212 0 0.0094791360507978095 0.0024044315262466602 0 0.0064746025083193435 0.0056867890486559042 0 0.0062289550727713458 0.0057746833993502014 0 0.0063699501947943856 0.006342435475821577 0 0.0069948954592676605 0.0054549128976277882 0 0.0064746025083193435 0.0056867890486559042 0 0.0063699501947943856 0.006342435475821577 0 0.013463315715122805 -0.0020857736514266791 0 0.013548446917385477 -0.0048489890339560903 0 0.011162754192480969 -0.0011886594512168481 0 0.0061173832916091592 0.0060992744624328568 0 0.0062289550727713458 0.0057746833993502014 0 0.0063699501947943856 0.006342435475821577 0 0.0061300146811623848 0.0056566099233103188 0 0.0064746025083193435 0.0056867890486559042 0 0.0062289550727713458 0.0057746833993502014 0 0.012685008607211534 3.0184977968945783e-05 0 0.011162754192480969 -0.0011886594512168481 0 0.011433117774186777 0.0016372379357500856 0 0.013463315715122805 -0.0020857736514266791 0 0.012685008607211534 3.0184977968945783e-05 0 0.011162754192480969 -0.0011886594512168481 0 0.0059166106544516891 0.0064331676120920819 0 0.0055078045232277812 0.0066555464584039867 0 0.0056611181560747344 0.0073214903263624492 0 0.0061173832916091592 0.0060992744624328568 0 0.0063699501947943856 0.006342435475821577 0 0.0059166106544516891 0.0064331676120920819 0 0.0063699501947943856 0.006342435475821577 0 0.0059166106544516891 0.0064331676120920819 0 0.0056611181560747344 0.0073214903263624492 0 0.0059319123582616696 0.0057946104943415958 0 0.0059166106544516891 0.0064331676120920819 0 0.0055078045232277812 0.0066555464584039867 0 0.0094791360507978095 0.0024044315262466602 0 0.0072890394798488019 0.0049684865996581515 0 0.0088626927261019478 0.0024883251756036922 0 0.011433117774186777 0.0016372379357500856 0 0.010472390070303426 0.0034801458062119744 0 0.011162754192480969 -0.0011886594512168481 0 0.0088626927261019478 0.0024883251756036922 0 0.011433117774186777 0.0016372379357500856 0 0.011433117774186777 0.0016372379357500856 0 0.012180398470728155 0.0035350260371611528 0 0.010472390070303426 0.0034801458062119744 0 0.011433117774186777 0.0016372379357500856 0 0.012180398470728155 0.0035350260371611528 0 0.013742589029727392 0.0019113806896877757 0 0.012685008607211534 3.0184977968945783e-05 0 0.011433117774186777 0.0016372379357500856 0 0.013742589029727392 0.0019113806896877757 0 0.0047446826636016598 0.0065360989606531661 0 0.0042650621465514967 0.0071418154617364678 0 0.0034316664176058265 0.0065724426589379671 0 -0.0029149160420109646 0.012869591548880262 0 -0.0041979774592610479 0.012910588995877112 0 0.0045689636188030753 0.0061284076440903078 0 0.0047446826636016598 0.0065360989606531661 0 0.0034316664176058265 0.0065724426589379671 0 0.0056236851886893556 0.005794444491558067 0 0.0052597429920278466 0.0066638649954269035 0 0.0047446826636016598 0.0065360989606531661 0 0.0052597429920278466 0.0066638649954269035 0 0.0047446826636016598 0.0065360989606531661 0 0.0048202643587460436 0.0070031465510763538 0 0.0057470040092093694 0.0065996625364984221 0 0.0051682769203977809 0.0074787312592395159 0 0.0055078045232277812 0.0066555464584039867 0 0.0056611181560747344 0.0073214903263624492 0 0.00503241907664825 0.0075945982397664837 0 0.0052597429920278466 0.0066638649954269035 0 0.0048202643587460436 0.0070031465510763538 0 0.00503241907664825 0.0075945982397664837 0 0.0048202643587460436 0.0070031465510763538 0 0.0042650621465514967 0.0071418154617364678 0 0.00503241907664825 0.0075945982397664837 0 0.0047446826636016598 0.0065360989606531661 0 0.0048202643587460436 0.0070031465510763538 0 0.0042650621465514967 0.0071418154617364678 0 0.0042650621465514967 0.0071418154617364678 0 0.0044759753307126501 0.0079356352643444993 0 0.0038316483694652826 0.007642955535147382 0 0.0042650621465514967 0.0071418154617364678 0 0.0044759753307126501 0.0079356352643444993 0 0.00503241907664825 0.0075945982397664837 0 0.0044759753307126501 0.0079356352643444993 0 0.0041298183980508826 0.0085820802571280278 0 0.0038316483694652826 0.007642955535147382 0 0.0044759753307126501 0.0079356352643444993 0 0.0049711364864493731 0.0083840266109505967 0 0.0041298183980508826 0.0085820802571280278 0 0.0072890394798488019 0.0049684865996581515 0 0.005889391075775241 0.0072158681648518772 0 0.0044759753307126501 0.0079356352643444993 0 0.00503241907664825 0.0075945982397664837 0 0.0049711364864493731 0.0083840266109505967 0 0.0056611181560747344 0.0073214903263624492 0 0.00503241907664825 0.0075945982397664837 0 0.0049711364864493731 0.0083840266109505967 0 0.0070297726104870941 0.0086882641272685319 0 0.0067659743870353804 0.0059341541508566471 0 0.0093241981625790324 0.0072356645042313357 0 0.0048801236007860408 0.0090073555983485789 0 0.005889391075775241 0.0072158681648518772 0 0.0047649079690581476 0.0094105548953128254 0 0.0049711364864493731 0.0083840266109505967 0 0.0041298183980508826 0.0085820802571280278 0 0.010697560293214153 0.0053769804695235814 0 0.012777495932283214 0.0054052103675869094 0 0.012180398470728155 0.0035350260371611528 0 0.010697560293214153 0.0053769804695235814 0 0.012180398470728155 0.0035350260371611528 0 0.010472390070303426 0.0034801458062119744 0 0.0088626927261019478 0.0024883251756036922 0 0.0067659743870353804 0.0059341541508566471 0 0.0092183580644996724 0.0049206866480112372 0 0.0088626927261019478 0.0024883251756036922 0 0.010472390070303426 0.0034801458062119744 0 0.0092183580644996724 0.0049206866480112372 0 0.010697560293214153 0.0053769804695235814 0 0.010472390070303426 0.0034801458062119744 0 0.0092183580644996724 0.0049206866480112372 0 0.010697560293214153 0.0053769804695235814 0 0.0092183580644996724 0.0049206866480112372 0 0.0093241981625790324 0.0072356645042313357 0 0.0067659743870353804 0.0059341541508566471 0 0.0092183580644996724 0.0049206866480112372 0 0.0093241981625790324 0.0072356645042313357 0 0.011446456343294492 0.0091319206623080903 0 0.0093241981625790324 0.0072356645042313357 0 0.01158319031241793 0.0068498577597874907 0 0.011446456343294492 0.0091319206623080903 0 0.01158319031241793 0.0068498577597874907 0 0.013736461012913349 0.0069668319227081717 0 0.010697560293214153 0.0053769804695235814 0 0.0093241981625790324 0.0072356645042313357 0 0.01158319031241793 0.0068498577597874907 0 0.010697560293214153 0.0053769804695235814 0 0.012777495932283214 0.0054052103675869094 0 0.01158319031241793 0.0068498577597874907 0 0.012777495932283214 0.0054052103675869094 0 0.01158319031241793 0.0068498577597874907 0 0.013736461012913349 0.0069668319227081717 0 0.014442047874646794 0.0086402646182403321 0 0.013736461012913349 0.0069668319227081717 0 0.015210612718982273 0.0065819900916583782 0 0.013736461012913349 0.0069668319227081717 0 0.015210612718982273 0.0065819900916583782 0 0.014524925153264831 0.0054286274720247519 0 0.012777495932283214 0.0054052103675869094 0 0.013736461012913349 0.0069668319227081717 0 0.014524925153264831 0.0054286274720247519 0 0.012777495932283214 0.0054052103675869094 0 0.014524925153264831 0.0054286274720247519 0 0.013960167354952731 0.0039322484505472152 0 0.014524925153264831 0.0054286274720247519 0 0.015160854519953039 0.0044086695557708231 0 0.016265871341633525 0.0051041948891819202 0 0.015210612718982273 0.0065819900916583782 0 0.014524925153264831 0.0054286274720247519 0 0.016265871341633525 0.0051041948891819202 0 0.014524925153264831 0.0054286274720247519 0 0.015160854519953039 0.0044086695557708231 0 0.013960167354952731 0.0039322484505472152 0 0.015160854519953039 0.0044086695557708231 0 0.013960167354952731 0.0039322484505472152 0 0.015805718993427666 0.0032835252810092816 0 0.012777495932283214 0.0054052103675869094 0 0.012180398470728155 0.0035350260371611528 0 0.013960167354952731 0.0039322484505472152 0 0.017203820236202427 0.0043185567500245159 0 0.018569229298132244 0.0047427432310943856 0 0.017914774501512482 0.0031191851127486602 0 0.017203820236202427 0.0043185567500245159 0 0.015805718993427666 0.0032835252810092816 0 0.017914774501512482 0.0031191851127486602 0 0.015160854519953039 0.0044086695557708231 0 0.016265871341633525 0.0051041948891819202 0 0.015805718993427666 0.0032835252810092816 0 0.017203820236202427 0.0043185567500245159 0 0.016265871341633525 0.0051041948891819202 0 0.015805718993427666 0.0032835252810092816 0 0.016265871341633525 0.0051041948891819202 0 0.017559868438195028 0.005386404892662516 0 0.017154905487526677 0.0062343445925038066 0 0.017203820236202427 0.0043185567500245159 0 0.016265871341633525 0.0051041948891819202 0 0.017559868438195028 0.005386404892662516 0 0.017559868438195028 0.005386404892662516 0 0.018431121267901078 0.005897330851425896 0 0.018569229298132244 0.0047427432310943856 0 0.017203820236202427 0.0043185567500245159 0 0.017559868438195028 0.005386404892662516 0 0.018569229298132244 0.0047427432310943856 0 0.017559868438195028 0.005386404892662516 0 0.017154905487526677 0.0062343445925038066 0 0.018431121267901078 0.005897330851425896 0 0.017154905487526677 0.0062343445925038066 0 0.019211960450467504 0.0067822624736127808 0 0.018431121267901078 0.005897330851425896 0 0.017154905487526677 0.0062343445925038066 0 0.016248550426658126 0.0074843039940042707 0 0.019211960450467504 0.0067822624736127808 0 0.016003439902285452 0.0099952934987471535 0 0.016248550426658126 0.0074843039940042707 0 0.019211960450467504 0.0067822624736127808 0 0.015210612718982273 0.0065819900916583782 0 0.017154905487526677 0.0062343445925038066 0 0.016248550426658126 0.0074843039940042707 0 0.015210612718982273 0.0065819900916583782 0 0.016265871341633525 0.0051041948891819202 0 0.017154905487526677 0.0062343445925038066 0 0.014442047874646794 0.0086402646182403321 0 0.015210612718982273 0.0065819900916583782 0 0.016248550426658126 0.0074843039940042707 0 0.019792533012889472 0.0074898035988666817 0 0.020118435005885161 0.0071452014503756807 0 0.019211960450467504 0.0067822624736127808 0 0.020118435005885161 0.0071452014503756807 0 0.019944868301527648 0.0066919085962260025 0 0.019211960450467504 0.0067822624736127808 0 0.020118435005885161 0.0071452014503756807 0 0.020275388124454844 0.0068420659101559676 0 0.019944868301527648 0.0066919085962260025 0 0.020275388124454844 0.0068420659101559676 0 0.019944868301527648 0.0066919085962260025 0 0.020295243867767453 0.0064526152744483192 0 0.019944868301527648 0.0066919085962260025 0 0.019211960450467504 0.0067822624736127808 0 0.019642330154476022 0.0062089856779424298 0 0.019211960450467504 0.0067822624736127808 0 0.018431121267901078 0.005897330851425896 0 0.019642330154476022 0.0062089856779424298 0 0.020935852228399578 0.0072892181563309543 0 0.020559720643967612 0.0070678228173876936 0 0.020946230740155617 0.0069309448363375006 0 0.021094318614069487 0.0075200469261226524 0 0.021346381074500043 0.0073361999157564107 0 0.020935852228399578 0.0072892181563309543 0 0.020235513737742735 0.0075767375740351701 0 0.020118435005885161 0.0071452014503756807 0 0.020558495795796189 0.0073371321159710319 0 0.020935852228399578 0.0072892181563309543 0 0.020558495795796189 0.0073371321159710319 0 0.020559720643967612 0.0070678228173876936 0 0.020118435005885161 0.0071452014503756807 0 0.020558495795796189 0.0073371321159710319 0 0.020559720643967612 0.0070678228173876936 0 0.020589167663275263 0.0067690719041813337 0 0.020946230740155617 0.0069309448363375006 0 0.020882163262135701 0.0065974639797565142 0 0.020275388124454844 0.0068420659101559676 0 0.020559720643967612 0.0070678228173876936 0 0.020589167663275263 0.0067690719041813337 0 0.020118435005885161 0.0071452014503756807 0 0.020275388124454844 0.0068420659101559676 0 0.020559720643967612 0.0070678228173876936 0 0.020275388124454844 0.0068420659101559676 0 0.020589167663275263 0.0067690719041813337 0 0.020295243867767453 0.0064526152744483192 0 0.020559720643967612 0.0070678228173876936 0 0.020589167663275263 0.0067690719041813337 0 0.020946230740155617 0.0069309448363375006 0 0.021264690739992011 0.0071063018324599141 0 0.021483134848225009 0.0068552691390135999 0 0.020946230740155617 0.0069309448363375006 0 0.021264690739992011 0.0071063018324599141 0 0.020935852228399578 0.0072892181563309543 0 0.020946230740155617 0.0069309448363375006 0 0.020882163262135701 0.0065974639797565142 0 0.021485844423907663 0.006577363404508021 0 0.02056322660101504 0.006265716493443675 0 0.021483134848225009 0.0068552691390135999 0 0.020946230740155617 0.0069309448363375006 0 0.020882163262135701 0.0065974639797565142 0 0.021483134848225009 0.0068552691390135999 0 0.020882163262135701 0.0065974639797565142 0 0.021485844423907663 0.006577363404508021 0 0.020589167663275263 0.0067690719041813337 0 0.020882163262135701 0.0065974639797565142 0 0.020295243867767453 0.0064526152744483192 0 0.020882163262135701 0.0065974639797565142 0 0.020295243867767453 0.0064526152744483192 0 0.02056322660101504 0.006265716493443675 0 0.019786281446164164 0.0058603218251874756 0 0.020105761057085902 0.0046601066812263659 0 0.019642330154476022 0.0062089856779424298 0 0.020295243867767453 0.0064526152744483192 0 0.02056322660101504 0.006265716493443675 0 0.019642330154476022 0.0062089856779424298 0 0.018569229298132244 0.0047427432310943856 0 0.020145661117701538 0.0030069195289169899 0 0.018431121267901078 0.005897330851425896 0 0.019642330154476022 0.0062089856779424298 0 0.018569229298132244 0.0047427432310943856 0 0.019944868301527648 0.0066919085962260025 0 0.019642330154476022 0.0062089856779424298 0 0.020295243867767453 0.0064526152744483192 0 0.018569229298132244 0.0047427432310943856 0 0.020145661117701538 0.0030069195289169899 0 0.017914774501512482 0.0031191851127486602 0 0.020105761057085902 0.0046601066812263659 0 0.019258812807879291 0.0059714765671102007 0 0.020145661117701538 0.0030069195289169899 0 0.018459263941794247 0.0010565263916143346 0 0.017914774501512482 0.0031191851127486602 0 0.020145661117701538 0.0030069195289169899 0 0.018459263941794247 0.0010565263916143346 0 0.020843367173645183 0.0003393526529176374 0 0.021910813113462952 0.0064229018599967803 0 0.02056322660101504 0.006265716493443675 0 0.02093358456478607 0.0054859966683114721 0 0.021910813113462952 0.0064229018599967803 0 0.021485844423907663 0.006577363404508021 0 0.02056322660101504 0.006265716493443675 0 0.021611810644125092 0.006871844204327732 0 0.019258812807879291 0.0059714765671102007 0 0.022335556852850224 0.0070457115580896852 0 0.021910813113462952 0.0064229018599967803 0 0.02287422404086659 0.0068577311796569305 0 0.022335556852850224 0.0070457115580896852 0 0.022990567717971932 0.0077113098118906046 0 0.02287422404086659 0.0068577311796569305 0 0.017145129752170245 -0.0022846999613557856 0 0.018459263941794247 0.0010565263916143346 0 0.020843367173645183 0.0003393526529176374 0 0.01633807822155349 0.0044441802325112766 0 0.019258812807879291 0.0059714765671102007 0 0.017145129752170245 -0.0022846999613557856 0 0.014396137829163654 -0.00030969368839869053 0 0.016262102311451476 0.0011763886913605584 0 0.017145129752170245 -0.0022846999613557856 0 0.018459263941794247 0.0010565263916143346 0 0.016262102311451476 0.0011763886913605584 0 0.013463315715122805 -0.0020857736514266791 0 0.017145129752170245 -0.0022846999613557856 0 0.014396137829163654 -0.00030969368839869053 0 0.013463315715122805 -0.0020857736514266791 0 0.012685008607211534 3.0184977968945783e-05 0 0.014396137829163654 -0.00030969368839869053 0 0.012685008607211534 3.0184977968945783e-05 0 0.014396137829163654 -0.00030969368839869053 0 0.013742589029727392 0.0019113806896877757 0 0.014396137829163654 -0.00030969368839869053 0 0.013742589029727392 0.0019113806896877757 0 0.016262102311451476 0.0011763886913605584 0 0.012180398470728155 0.0035350260371611528 0 0.013960167354952731 0.0039322484505472152 0 0.013742589029727392 0.0019113806896877757 0 0.013960167354952731 0.0039322484505472152 0 0.013742589029727392 0.0019113806896877757 0 0.015805718993427666 0.0032835252810092816 0 0.013742589029727392 0.0019113806896877757 0 0.015805718993427666 0.0032835252810092816 0 0.016262102311451476 0.0011763886913605584 0 0.015805718993427666 0.0032835252810092816 0 0.017914774501512482 0.0031191851127486602 0 0.016262102311451476 0.0011763886913605584 0 0.018459263941794247 0.0010565263916143346 0 0.017914774501512482 0.0031191851127486602 0 0.016262102311451476 0.0011763886913605584 0 0.035026164161601328 0.0073308775616012876 0 0.034984094898710613 0.007978420634677949 0 0.03478796637192702 0.00795773541796122 0 0.035026164161601328 0.0073308775616012876 0 0.03478796637192702 0.00795773541796122 0 0.034757014599304248 0.0074699159102691792 0 0.035026164161601328 0.0073308775616012876 0 0.034998712766467217 0.0075467162277855181 0 0.035000240427053186 0.005484258363934646 0 0.035026164161601328 0.0073308775616012876 0 0.034998712766467217 0.0075467162277855181 0 0.034984094898710613 0.007978420634677949 0 0.034998712766467217 0.0075467162277855181 0 0.035043933887663671 0.0085877242565177512 0 0.034984094898710613 0.007978420634677949 0 0.035043933887663671 0.0085877242565177512 0 0.034984094898710613 0.007978420634677949 0 0.034785215034898932 0.0083583004299246505 0 0.034998712766467217 0.0075467162277855181 0 0.035043933887663671 0.0085877242565177512 0 0.034999665636967457 0.0096165013577086175 0 0.034984094898710613 0.007978420634677949 0 0.03478796637192702 0.00795773541796122 0 0.034785215034898932 0.0083583004299246505 0 0.03478796637192702 0.00795773541796122 0 0.034709882270541045 0.0083859004135232625 0 0.034785215034898932 0.0083583004299246505 0 0.03478796637192702 0.00795773541796122 0 0.034644925669360997 0.0083248793869147783 0 0.034544408437533661 0.0077363383819041235 0 0.03478796637192702 0.00795773541796122 0 0.034644925669360997 0.0083248793869147783 0 0.034709882270541045 0.0083859004135232625 0 0.034644925669360997 0.0083248793869147783 0 0.034544408437533661 0.0077363383819041235 0 0.034597962453006989 0.0085416984211199795 0 0.034544408437533661 0.0077363383819041235 0 0.034757014599304248 0.0074699159102691792 0 0.034521178073888215 0.0073730715041136685 0 0.03478796637192702 0.00795773541796122 0 0.034544408437533661 0.0077363383819041235 0 0.034757014599304248 0.0074699159102691792 0 0.034521178073888215 0.0073730715041136685 0 0.034648620843333741 0.0073390566628761698 0 0.034889072486383337 0.006885414043875826 0 0.034757014599304248 0.0074699159102691792 0 0.034521178073888215 0.0073730715041136685 0 0.034889072486383337 0.006885414043875826 0 0.034521178073888215 0.0073730715041136685 0 0.033985183763485173 0.0075677542746100147 0 0.034221490022857494 0.0076054015933693748 0 0.034544408437533661 0.0077363383819041235 0 0.034521178073888215 0.0073730715041136685 0 0.033985183763485173 0.0075677542746100147 0 0.034544408437533661 0.0077363383819041235 0 0.033985183763485173 0.0075677542746100147 0 0.033348156482359351 0.007288413772307897 0 0.034221490022857494 0.0076054015933693748 0 0.033921971967676531 0.0079845956031053388 0 0.033663775372595343 0.0077907952396115438 0 0.033985183763485173 0.0075677542746100147 0 0.034221490022857494 0.0076054015933693748 0 0.033663775372595343 0.0077907952396115438 0 0.034221490022857494 0.0076054015933693748 0 0.034648620843333741 0.0073390566628761698 0 0.034383974347534242 0.007796605843991224 0 0.034521178073888215 0.0073730715041136685 0 0.034221490022857494 0.0076054015933693748 0 0.034648620843333741 0.0073390566628761698 0 0.034648620843333741 0.0073390566628761698 0 0.034889072486383337 0.006885414043875826 0 0.034991253326199685 0.0072838495273820454 0 0.034648620843333741 0.0073390566628761698 0 0.034991253326199685 0.0072838495273820454 0 0.034383974347534242 0.007796605843991224 0 0.035026164161601328 0.0073308775616012876 0 0.034757014599304248 0.0074699159102691792 0 0.034889072486383337 0.006885414043875826 0 0.035026164161601328 0.0073308775616012876 0 0.034889072486383337 0.006885414043875826 0 0.035000240427053186 0.005484258363934646 0 0.034999983725605165 0.0054787167050171044 0 0.035000001244322496 0.0034416859031297211 0 0.036158672297017712 0.0043077006990374297 0 0.034889072486383337 0.006885414043875826 0 0.035000240427053186 0.005484258363934646 0 0.034991253326199685 0.0072838495273820454 0 0.03500016270174381 0.0054792161145107267 0 0.035405503105547804 0.0057276004927560038 0 0.035000001244322496 0.0034416859031297211 0 0.036158672297017712 0.0043077006990374297 0 0.036156763693310931 0.0026560379261959576 0 0.034991253326199685 0.0072838495273820454 0 0.034586002987968954 0.0082376343360293387 0 0.034383974347534242 0.007796605843991224 0 0.035405503105547804 0.0057276004927560038 0 0.035556583859907238 0.0055107512638127264 0 0.036158672297017712 0.0043077006990374297 0 0.036156763693310931 0.0026560379261959576 0 0.037341032233457028 0.0031337630294831055 0 0.036156763693310931 0.0026560379261959576 0 0.037141918169045503 0.0020293009908598373 0 0.037341032233457028 0.0031337630294831055 0 0.035000001244322496 0.0034416859031297211 0 0.036156763693310931 0.0026560379261959576 0 0.034999811136547675 0.0014044977560364899 0 0.036156763693310931 0.0026560379261959576 0 0.034999811136547675 0.0014044977560364899 0 0.036247588294758805 0.0014079722480835541 0 0.036156763693310931 0.0026560379261959576 0 0.037141918169045503 0.0020293009908598373 0 0.036247588294758805 0.0014079722480835541 0 0.037141918169045503 0.0020293009908598373 0 0.036247588294758805 0.0014079722480835541 0 0.037385538214978559 0.00098315798516696072 0 0.036247588294758805 0.0014079722480835541 0 0.035981888925470086 -8.6526879949574894e-05 0 0.037385538214978559 0.00098315798516696072 0 0.036100288434368709 0.00019969552990140165 0 0.03653367224504378 0.00086058489684070127 0 0.03611097177122826 -4.742124352233111e-05 0 0.035981888925470086 -8.6526879949574894e-05 0 0.036237296885897968 9.3071389687055767e-05 0 0.035780389373218258 -0.00041935753472148435 0 0.03611097177122826 -4.742124352233111e-05 0 0.035981888925470086 -8.6526879949574894e-05 0 0.034999811136547675 0.0014044977560364899 0 0.036247588294758805 0.0014079722480835541 0 0.035981888925470086 -8.6526879949574894e-05 0 0.034999711983252607 -0.00063333339724627594 0 0.035780389373218258 -0.00041935753472148435 0 0.034999811136547675 0.0014044977560364899 0 0.035780389373218258 -0.00041935753472148435 0 0.034999811136547675 0.0014044977560364899 0 0.035981888925470086 -8.6526879949574894e-05 0 0.036198275356574772 0.00015296900790646233 0 0.036312812434550854 -3.0816609100991117e-06 0 0.036262425310055586 7.1125137858090456e-05 0 0.036198275356574772 0.00015296900790646233 0 0.036262425310055586 7.1125137858090456e-05 0 0.036198153463422512 7.5947358369201444e-05 0 0.036312812434550854 -3.0816609100991117e-06 0 0.036262425310055586 7.1125137858090456e-05 0 0.036237296885897968 9.3071389687055767e-05 0 0.036312812434550854 -3.0816609100991117e-06 0 0.03611097177122826 -4.742124352233111e-05 0 0.036237296885897968 9.3071389687055767e-05 0 0.036262425310055586 7.1125137858090456e-05 0 0.036237296885897968 9.3071389687055767e-05 0 0.036244707262936063 6.8056748686576806e-05 0 0.037141918169045503 0.0020293009908598373 0 0.037385538214978559 0.00098315798516696072 0 0.038575529835597318 0.0019235589314391176 0 0.03653367224504378 0.00086058489684070127 0 0.035727892459744774 0.0023995593850833631 0 0.036262425310055586 7.1125137858090456e-05 0 0.036244707262936063 6.8056748686576806e-05 0 0.036198153463422512 7.5947358369201444e-05 0 0.036208246596414959 6.1502452861519262e-05 0 0.036198153463422512 7.5947358369201444e-05 0 0.036164181524019838 3.5602052147621313e-05 0 0.035727892459744774 0.0023995593850833631 0 0.036597295223091846 0.00081367893258861015 0 0.034042272762793535 0.0088493834746338294 0 0.034019940717119536 0.0082908867373045984 0 0.033610369495204309 0.0085727538905410999 0 0.035727892459744774 0.0023995593850833631 0 0.034919004225614489 0.004255523235919643 0 0.034019940717119536 0.0082908867373045984 0 0.033605512394605269 0.0082657966090615102 0 0.033610369495204309 0.0085727538905410999 0 0.037141918169045503 0.0020293009908598373 0 0.038575529835597318 0.0019235589314391176 0 0.037341032233457028 0.0031337630294831055 0 0.034042272762793535 0.0088493834746338294 0 0.034019940717119536 0.0082908867373045984 0 0.034586002987968954 0.0082376343360293387 0 0.035727892459744774 0.0023995593850833631 0 0.035556583859907238 0.0055107512638127264 0 0.034019940717119536 0.0082908867373045984 0 0.034586002987968954 0.0082376343360293387 0 0.034383974347534242 0.007796605843991224 0 0.034019940717119536 0.0082908867373045984 0 0.033921971967676531 0.0079845956031053388 0 0.033605512394605269 0.0082657966090615102 0 0.034019940717119536 0.0082908867373045984 0 0.034383974347534242 0.007796605843991224 0 0.033921971967676531 0.0079845956031053388 0 0.034221490022857494 0.0076054015933693748 0 0.034383974347534242 0.007796605843991224 0 0.033921971967676531 0.0079845956031053388 0 0.033921971967676531 0.0079845956031053388 0 0.033588802429223914 0.0080374752696306274 0 0.033663775372595343 0.0077907952396115438 0 0.033921971967676531 0.0079845956031053388 0 0.033588802429223914 0.0080374752696306274 0 0.033605512394605269 0.0082657966090615102 0 0.033588802429223914 0.0080374752696306274 0 0.033270654994896093 0.0081957526540166435 0 0.033036796911671232 0.0078967824995162389 0 0.033270654994896093 0.0081957526540166435 0 0.033169555902432618 0.0083435250025745734 0 0.033605512394605269 0.0082657966090615102 0 0.033736941550115578 0.0069535005705575357 0 0.034273480977770256 0.0060982316323062082 0 0.033588802429223914 0.0080374752696306274 0 0.033270654994896093 0.0081957526540166435 0 0.033605512394605269 0.0082657966090615102 0 0.031773348780252814 0.0077440620117745617 0 0.032288657700617805 0.0080190299524141393 0 0.032017896881943141 0.0076213054644742838 0 0.032288657700617805 0.0080190299524141393 0 0.032257949540743625 0.0079017169680163403 0 0.032486807220738517 0.0079233222875758503 0 0.033270654994896093 0.0081957526540166435 0 0.032288657700617805 0.0080190299524141393 0 0.033036796911671232 0.0078967824995162389 0 0.034273480977770256 0.0060982316323062082 0 0.033520797913370336 0.0066038027226415219 0 0.033270654994896093 0.0081957526540166435 0 0.032974118996747098 0.0085971557192683901 0 0.032288657700617805 0.0080190299524141393 0 0.032288657700617805 0.0080190299524141393 0 0.032017896881943141 0.0076213054644742838 0 0.032257949540743625 0.0079017169680163403 0 0.031773348780252814 0.0077440620117745617 0 0.031635852957397959 0.0071397939527044893 0 0.032017896881943141 0.0076213054644742838 0 0.036110244384114247 1.4498154629389936e-05 0 0.036116772059183504 3.9469846428016657e-05 0 0.036052208590323577 4.9180286057539154e-05 0 0.034273480977770256 0.0060982316323062082 0 0.034107784147294991 0.0035527853049028054 0 0.033169555902432618 0.0083435250025745734 0 0.033605512394605269 0.0082657966090615102 0 0.033610369495204309 0.0085727538905410999 0 0.034273480977770256 0.0060982316323062082 0 0.034919004225614489 0.004255523235919643 0 0.036110244384114247 1.4498154629389936e-05 0 0.036116772059183504 3.9469846428016657e-05 0 0.036164181524019838 3.5602052147621313e-05 0 0.036116772059183504 3.9469846428016657e-05 0 0.036164181524019838 3.5602052147621313e-05 0 0.036133796738844835 6.0951385840785571e-05 0 0.036198153463422512 7.5947358369201444e-05 0 0.036133796738844835 6.0951385840785571e-05 0 0.036101597186846537 0.00010998065373403934 0 0.036198153463422512 7.5947358369201444e-05 0 0.036164181524019838 3.5602052147621313e-05 0 0.036133796738844835 6.0951385840785571e-05 0 0.036052208590323577 4.9180286057539154e-05 0 0.036101597186846537 0.00010998065373403934 0 0.035955776980693847 0.00012201726764255336 0 0.036133796738844835 6.0951385840785571e-05 0 0.036052208590323577 4.9180286057539154e-05 0 0.036101597186846537 0.00010998065373403934 0 0.036116772059183504 3.9469846428016657e-05 0 0.036133796738844835 6.0951385840785571e-05 0 0.036052208590323577 4.9180286057539154e-05 0 0.036042648591754184 0.00021625872780843913 0 0.036101597186846537 0.00010998065373403934 0 0.035955776980693847 0.00012201726764255336 0 0.036198275356574772 0.00015296900790646233 0 0.036198153463422512 7.5947358369201444e-05 0 0.036101597186846537 0.00010998065373403934 0 0.036198275356574772 0.00015296900790646233 0 0.036042648591754184 0.00021625872780843913 0 0.036101597186846537 0.00010998065373403934 0 0.031391706888772575 0.0049200017673288422 0 0.031340068120686564 0.0061873391776390016 0 0.031986308218941231 0.0055253499594346642 0 0.031340068120686564 0.0061873391776390016 0 0.03202809679013599 0.0067930089995970229 0 0.031986308218941231 0.0055253499594346642 0 0.03271093364825519 0.001563416324692566 0 0.033547362926440165 0.0029782772644985989 0 0.035846092285347089 0.00024626138119393938 0 0.036042648591754184 0.00021625872780843913 0 0.035955776980693847 0.00012201726764255336 0 0.034107784147294991 0.0035527853049028054 0 0.033547362926440165 0.0029782772644985989 0 0.031635852957397959 0.0071397939527044893 0 0.031340068120686564 0.0061873391776390016 0 0.031808538167389343 0.0070449716250985629 0 0.031340068120686564 0.0061873391776390016 0 0.031808538167389343 0.0070449716250985629 0 0.03202809679013599 0.0067930089995970229 0 0.03202809679013599 0.0067930089995970229 0 0.032110273117757993 0.007632970078478539 0 0.032415984476340809 0.0077206413836359315 0 0.031808538167389343 0.0070449716250985629 0 0.03202809679013599 0.0067930089995970229 0 0.032110273117757993 0.007632970078478539 0 0.031635852957397959 0.0071397939527044893 0 0.031808538167389343 0.0070449716250985629 0 0.032017896881943141 0.0076213054644742838 0 0.031808538167389343 0.0070449716250985629 0 0.032110273117757993 0.007632970078478539 0 0.032017896881943141 0.0076213054644742838 0 0.032110273117757993 0.007632970078478539 0 0.032257949540743625 0.0079017169680163403 0 0.032400646506662127 0.0080202264855626856 0 0.032110273117757993 0.007632970078478539 0 0.032017896881943141 0.0076213054644742838 0 0.032257949540743625 0.0079017169680163403 0 0.032110273117757993 0.007632970078478539 0 0.032400646506662127 0.0080202264855626856 0 0.032415984476340809 0.0077206413836359315 0 0.032400646506662127 0.0080202264855626856 0 0.032765444179663997 0.0082493788032556858 0 0.032415984476340809 0.0077206413836359315 0 0.032400646506662127 0.0080202264855626856 0 0.032920970802184195 0.0084880431108274972 0 0.032765444179663997 0.0082493788032556858 0 0.033894781363578923 0.0088293866456465673 0 0.033469957991051381 0.0086161848943752586 0 0.032920970802184195 0.0084880431108274972 0 0.032400646506662127 0.0080202264855626856 0 0.032491504140447457 0.0078526160563170723 0 0.032920970802184195 0.0084880431108274972 0 0.03329988513314628 0.0082694721331846213 0 0.033083270673093038 0.0083998290581624897 0 0.032400646506662127 0.0080202264855626856 0 0.032491504140447457 0.0078526160563170723 0 0.032486807220738517 0.0079233222875758503 0 0.032257949540743625 0.0079017169680163403 0 0.032400646506662127 0.0080202264855626856 0 0.032486807220738517 0.0079233222875758503 0 0.032288657700617805 0.0080190299524141393 0 0.032486807220738517 0.0079233222875758503 0 0.033036796911671232 0.0078967824995162389 0 0.032486807220738517 0.0079233222875758503 0 0.033084297369988226 0.0077233601176394089 0 0.033036796911671232 0.0078967824995162389 0 0.033985183763485173 0.0075677542746100147 0 0.033084297369988226 0.0077233601176394089 0 0.033663775372595343 0.0077907952396115438 0 0.033588802429223914 0.0080374752696306274 0 0.033663775372595343 0.0077907952396115438 0 0.033036796911671232 0.0078967824995162389 0 0.033084297369988226 0.0077233601176394089 0 0.033663775372595343 0.0077907952396115438 0 0.033036796911671232 0.0078967824995162389 0 0.033985183763485173 0.0075677542746100147 0 0.033084297369988226 0.0077233601176394089 0 0.033348156482359351 0.007288413772307897 0 0.032491504140447457 0.0078526160563170723 0 0.032486807220738517 0.0079233222875758503 0 0.033084297369988226 0.0077233601176394089 0 0.03329988513314628 0.0082694721331846213 0 0.033851104874486886 0.0079691528128414159 0 0.032491504140447457 0.0078526160563170723 0 0.033084297369988226 0.0077233601176394089 0 0.033348156482359351 0.007288413772307897 0 0.033894781363578923 0.0088293866456465673 0 0.034463881592374151 0.008501761271205624 0 0.034086656449985188 0.0086221062072661253 0 0.034544408437533661 0.0077363383819041235 0 0.034463881592374151 0.008501761271205624 0 0.034597962453006989 0.0085416984211199795 0 0.034278452130118382 0.0078194802879942172 0 0.033851104874486886 0.0079691528128414159 0 0.034463881592374151 0.008501761271205624 0 0.034597962453006989 0.0085416984211199795 0 0.034086656449985188 0.0086221062072661253 0 0.034086656449985188 0.0086221062072661253 0 0.03363886250040888 0.0086695836757103399 0 0.033958710819958805 0.0088516807838409668 0 0.03363886250040888 0.0086695836757103399 0 0.033469957991051381 0.0086161848943752586 0 0.033173887770175776 0.0085940999629953701 0 0.034086656449985188 0.0086221062072661253 0 0.03363886250040888 0.0086695836757103399 0 0.033469957991051381 0.0086161848943752586 0 0.033469957991051381 0.0086161848943752586 0 0.033173887770175776 0.0085940999629953701 0 0.032920970802184195 0.0084880431108274972 0 0.033894781363578923 0.0088293866456465673 0 0.034086656449985188 0.0086221062072661253 0 0.033469957991051381 0.0086161848943752586 0 0.033173887770175776 0.0085940999629953701 0 0.03284421092607246 0.0084543818038050108 0 0.032800660959888282 0.0084812409639636321 0 0.033173887770175776 0.0085940999629953701 0 0.032800660959888282 0.0084812409639636321 0 0.032920970802184195 0.0084880431108274972 0 0.03363886250040888 0.0086695836757103399 0 0.033173887770175776 0.0085940999629953701 0 0.033385144971539951 0.0086813071631660702 0 0.033173887770175776 0.0085940999629953701 0 0.03284421092607246 0.0084543818038050108 0 0.033385144971539951 0.0086813071631660702 0 0.03284421092607246 0.0084543818038050108 0 0.031922778926143688 0.0082429422831587461 0 0.032597138054755274 0.0082446239009045501 0 0.03284421092607246 0.0084543818038050108 0 0.032453425512083613 0.008412853342266503 0 0.031922778926143688 0.0082429422831587461 0 0.032453425512083613 0.008412853342266503 0 0.032156366301323257 0.0084803351591889193 0 0.031922778926143688 0.0082429422831587461 0 0.03284421092607246 0.0084543818038050108 0 0.032453425512083613 0.008412853342266503 0 0.032800660959888282 0.0084812409639636321 0 0.032156366301323257 0.0084803351591889193 0 0.032641120777571621 0.0083873847551930222 0 0.032800660959888282 0.0084812409639636321 0 0.032453425512083613 0.008412853342266503 0 0.032156366301323257 0.0084803351591889193 0 0.032800660959888282 0.0084812409639636321 0 0.032156366301323257 0.0084803351591889193 0 0.032288371000699145 0.008398206034664556 0 0.031386247512102117 0.0085665510864740071 0 0.032156366301323257 0.0084803351591889193 0 0.032288371000699145 0.008398206034664556 0 0.032641120777571621 0.0083873847551930222 0 0.032288371000699145 0.008398206034664556 0 0.032641120777571621 0.0083873847551930222 0 0.032791737219471935 0.0081854939364489621 0 0.032641120777571621 0.0083873847551930222 0 0.032765444179663997 0.0082493788032556858 0 0.032791737219471935 0.0081854939364489621 0 0.032641120777571621 0.0083873847551930222 0 0.032800660959888282 0.0084812409639636321 0 0.032765444179663997 0.0082493788032556858 0 0.032800660959888282 0.0084812409639636321 0 0.032920970802184195 0.0084880431108274972 0 0.032765444179663997 0.0082493788032556858 0 0.032765444179663997 0.0082493788032556858 0 0.032796314438665743 0.0078858762721865008 0 0.032415984476340809 0.0077206413836359315 0 0.032765444179663997 0.0082493788032556858 0 0.032796314438665743 0.0078858762721865008 0 0.032791737219471935 0.0081854939364489621 0 0.032796314438665743 0.0078858762721865008 0 0.032735354609064016 0.0067440974258998069 0 0.033138078819880352 0.0078504287669744956 0 0.032796314438665743 0.0078858762721865008 0 0.033138078819880352 0.0078504287669744956 0 0.032791737219471935 0.0081854939364489621 0 0.032796314438665743 0.0078858762721865008 0 0.032415984476340809 0.0077206413836359315 0 0.032735354609064016 0.0067440974258998069 0 0.03202809679013599 0.0067930089995970229 0 0.032735354609064016 0.0067440974258998069 0 0.031986308218941231 0.0055253499594346642 0 0.03202809679013599 0.0067930089995970229 0 0.032415984476340809 0.0077206413836359315 0 0.032735354609064016 0.0067440974258998069 0 0.032735354609064016 0.0067440974258998069 0 0.033668938347947111 0.0067588817404807501 0 0.033138078819880352 0.0078504287669744956 0 0.032735354609064016 0.0067440974258998069 0 0.03345663022667926 0.0056800371435111142 0 0.033668938347947111 0.0067588817404807501 0 0.032735354609064016 0.0067440974258998069 0 0.03345663022667926 0.0056800371435111142 0 0.032969004161383444 0.0051692336267674483 0 0.033597065997629981 0.0036270510235057135 0 0.03345663022667926 0.0056800371435111142 0 0.032969004161383444 0.0051692336267674483 0 0.032735354609064016 0.0067440974258998069 0 0.032969004161383444 0.0051692336267674483 0 0.031986308218941231 0.0055253499594346642 0 0.032591447863912854 0.0036059475850934463 0 0.032969004161383444 0.0051692336267674483 0 0.031986308218941231 0.0055253499594346642 0 0.032754980099288733 0.0062523221306234221 0 0.031248971330495891 0.007350089919140157 0 0.030487398221525755 0.0059070807901429739 0 0.030163055506837722 0.0059961068335569719 0 0.030505210167831597 0.00616879609880654 0 0.030355626068142974 0.0056936571202503318 0 0.030487398221525755 0.0059070807901429739 0 0.030163055506837722 0.0059961068335569719 0 0.033009024628185543 0.0062813232747157485 0 0.032754980099288733 0.0062523221306234221 0 0.033597065997629981 0.0036270510235057135 0 0.03345663022667926 0.0056800371435111142 0 0.03448957165684418 0.0052685622264016223 0 0.03345663022667926 0.0056800371435111142 0 0.03448957165684418 0.0052685622264016223 0 0.033668938347947111 0.0067588817404807501 0 0.03448957165684418 0.0052685622264016223 0 0.034836904148413568 0.0056590612731074325 0 0.033668938347947111 0.0067588817404807501 0 0.034836904148413568 0.0056590612731074325 0 0.033473187791547794 0.0078955685240558581 0 0.033668938347947111 0.0067588817404807501 0 0.032754980099288733 0.0062523221306234221 0 0.033213130654117594 0.0075031582980701695 0 0.033473187791547794 0.0078955685240558581 0 0.033668938347947111 0.0067588817404807501 0 0.033138078819880352 0.0078504287669744956 0 0.033504656982910642 0.0091973589713817399 0 0.033473187791547794 0.0078955685240558581 0 0.031962641515312383 0.0088208934744702597 0 0.033473187791547794 0.0078955685240558581 0 0.03182118649656844 0.0084520497762889894 0 0.031962641515312383 0.0088208934744702597 0 0.033473187791547794 0.0078955685240558581 0 0.03258996301799013 0.0082127180586568475 0 0.03182118649656844 0.0084520497762889894 0 0.033473187791547794 0.0078955685240558581 0 0.03258996301799013 0.0082127180586568475 0 0.033138078819880352 0.0078504287669744956 0 0.03258996301799013 0.0082127180586568475 0 0.033138078819880352 0.0078504287669744956 0 0.032791737219471935 0.0081854939364489621 0 0.032288371000699145 0.008398206034664556 0 0.03258996301799013 0.0082127180586568475 0 0.032791737219471935 0.0081854939364489621 0 0.032288371000699145 0.008398206034664556 0 0.03258996301799013 0.0082127180586568475 0 0.031623830909322456 0.0084695327792385401 0 0.031623830909322456 0.0084695327792385401 0 0.030934014316458525 0.0085623316708019447 0 0.03182118649656844 0.0084520497762889894 0 0.031623830909322456 0.0084695327792385401 0 0.030934014316458525 0.0085623316708019447 0 0.030515920402692957 0.0087278541104360563 0 0.030934014316458525 0.0085623316708019447 0 0.030285657081294274 0.0085541961954443066 0 0.030515920402692957 0.0087278541104360563 0 0.030934014316458525 0.0085623316708019447 0 0.030800271092781602 0.0087927785002806045 0 0.03182118649656844 0.0084520497762889894 0 0.030934014316458525 0.0085623316708019447 0 0.030800271092781602 0.0087927785002806045 0 0.030285657081294274 0.0085541961954443066 0 0.03258996301799013 0.0082127180586568475 0 0.031623830909322456 0.0084695327792385401 0 0.03182118649656844 0.0084520497762889894 0 0.030800271092781602 0.0087927785002806045 0 0.03182118649656844 0.0084520497762889894 0 0.031962641515312383 0.0088208934744702597 0 0.030735188037336724 0.007635663505839373 0 0.031248971330495891 0.007350089919140157 0 0.030381845689955035 0.0065460815321572293 0 0.030505210167831597 0.00616879609880654 0 0.030677117604483828 0.0059879089493025776 0 0.030381845689955035 0.0065460815321572293 0 0.030677117604483828 0.0059879089493025776 0 0.030584949502478326 0.0063565664642022852 0 0.030693762322922643 0.00556728199142282 0 0.030487398221525755 0.0059070807901429739 0 0.030677117604483828 0.0059879089493025776 0 0.030487398221525755 0.0059070807901429739 0 0.030505210167831597 0.00616879609880654 0 0.030677117604483828 0.0059879089493025776 0 0.030864490658681059 0.0058998370738439637 0 0.030847820409003641 0.005784347862207764 0 0.030584949502478326 0.0063565664642022852 0 0.030677117604483828 0.0059879089493025776 0 0.030847820409003641 0.005784347862207764 0 0.030584949502478326 0.0063565664642022852 0 0.031159095985012823 0.006490673935907583 0 0.030864490658681059 0.0058998370738439637 0 0.030584949502478326 0.0063565664642022852 0 0.031159095985012823 0.006490673935907583 0 0.030584949502478326 0.0063565664642022852 0 0.030349910273718278 0.0077367197618886897 0 0.029294403841417772 0.0078838479668057616 0 0.029564049827396344 0.0077030712919830798 0 0.030252386902315929 0.0078697518099288995 0 0.030157262081530061 0.0071465133047905324 0 0.030208326578173891 0.0076143962396776829 0 0.031159095985012823 0.006490673935907583 0 0.030349910273718278 0.0077367197618886897 0 0.030252386902315929 0.0078697518099288995 0 0.030735188037336724 0.007635663505839373 0 0.030601335960585219 0.0077487045930332401 0 0.030381845689955035 0.0065460815321572293 0 0.030584949502478326 0.0063565664642022852 0 0.030349910273718278 0.0077367197618886897 0 0.030800271092781602 0.0087927785002806045 0 0.030349910273718278 0.0077367197618886897 0 0.030285657081294274 0.0085541961954443066 0 0.030285657081294274 0.0085541961954443066 0 0.029614188936052326 0.0089345948975077163 0 0.030515920402692957 0.0087278541104360563 0 0.030349910273718278 0.0077367197618886897 0 0.030285657081294274 0.0085541961954443066 0 0.030252386902315929 0.0078697518099288995 0 0.030285657081294274 0.0085541961954443066 0 0.028660131178949767 0.0096442497853009637 0 0.029614188936052326 0.0089345948975077163 0 0.030285657081294274 0.0085541961954443066 0 0.030252386902315929 0.0078697518099288995 0 0.03003828227118736 0.0074579642027693014 0 0.029564049827396344 0.0077030712919830798 0 0.030252386902315929 0.0078697518099288995 0 0.03003828227118736 0.0074579642027693014 0 0.029780441723507516 0.0085450062971047895 0 0.029178361817938845 0.0084836593081791898 0 0.02800142373895104 0.0089425252616010167 0 0.028596774013032643 0.009151211065936856 0 0.029373226479631281 0.0087692540624563046 0 0.028596774013032643 0.009151211065936856 0 0.029373226479631281 0.0087692540624563046 0 0.029614188936052326 0.0089345948975077163 0 0.028660131178949767 0.0096442497853009637 0 0.028596774013032643 0.009151211065936856 0 0.029614188936052326 0.0089345948975077163 0 0.02800142373895104 0.0089425252616010167 0 0.029373226479631281 0.0087692540624563046 0 0.028307274788109349 0.0085962315986260612 0 0.029373226479631281 0.0087692540624563046 0 0.029614188936052326 0.0089345948975077163 0 0.030515920402692957 0.0087278541104360563 0 0.029373226479631281 0.0087692540624563046 0 0.030515920402692957 0.0087278541104360563 0 0.031011595061099861 0.0085789621768271977 0 0.030515920402692957 0.0087278541104360563 0 0.031386247512102117 0.0085665510864740071 0 0.031011595061099861 0.0085789621768271977 0 0.031623830909322456 0.0084695327792385401 0 0.030515920402692957 0.0087278541104360563 0 0.031386247512102117 0.0085665510864740071 0 0.032288371000699145 0.008398206034664556 0 0.031623830909322456 0.0084695327792385401 0 0.031386247512102117 0.0085665510864740071 0 0.032156366301323257 0.0084803351591889193 0 0.031011595061099861 0.0085789621768271977 0 0.031922778926143688 0.0082429422831587461 0 0.032156366301323257 0.0084803351591889193 0 0.031386247512102117 0.0085665510864740071 0 0.031011595061099861 0.0085789621768271977 0 0.029373226479631281 0.0087692540624563046 0 0.031011595061099861 0.0085789621768271977 0 0.029134798158261477 0.0082158099939971425 0 0.031011595061099861 0.0085789621768271977 0 0.031922778926143688 0.0082429422831587461 0 0.029134798158261477 0.0082158099939971425 0 0.031922778926143688 0.0082429422831587461 0 0.029134798158261477 0.0082158099939971425 0 0.031327952644063489 0.0077417787148064583 0 0.029053483439625025 0.008435953916725086 0 0.029295388659642714 0.0082335364052237119 0 0.02764565349241151 0.0083737872386986049 0 0.029134798158261477 0.0082158099939971425 0 0.027413664949270167 0.0082350503708730951 0 0.026740074137145527 0.0083545456222824475 0 0.02764565349241151 0.0083737872386986049 0 0.027413664949270167 0.0082350503708730951 0 0.027484003522609105 0.008699534631180476 0 0.02764565349241151 0.0083737872386986049 0 0.028307274788109349 0.0085962315986260612 0 0.02764565349241151 0.0083737872386986049 0 0.028307274788109349 0.0085962315986260612 0 0.029134798158261477 0.0082158099939971425 0 0.029373226479631281 0.0087692540624563046 0 0.028307274788109349 0.0085962315986260612 0 0.029134798158261477 0.0082158099939971425 0 0.027413664949270167 0.0082350503708730951 0 0.027007473756121295 0.008307033344157333 0 0.026570312933942609 0.0083053181298499684 0 0.026276007630301901 0.0083283961935212338 0 0.027413664949270167 0.0082350503708730951 0 0.026570312933942609 0.0083053181298499684 0 0.026276007630301901 0.0083283961935212338 0 0.026740074137145527 0.0083545456222824475 0 0.027413664949270167 0.0082350503708730951 0 0.029134798158261477 0.0082158099939971425 0 0.027413664949270167 0.0082350503708730951 0 0.027372311683014745 0.0082386300529613404 0 0.031922778926143688 0.0082429422831587461 0 0.031327952644063489 0.0077417787148064583 0 0.032597138054755274 0.0082446239009045501 0 0.031327952644063489 0.0077417787148064583 0 0.032576680667149645 0.0082515319818359349 0 0.032597138054755274 0.0082446239009045501 0 0.029295388659642714 0.0082335364052237119 0 0.029611813721089543 0.0083520083150174368 0 0.027372311683014745 0.0082386300529613404 0 0.027007473756121295 0.008307033344157333 0 0.026842979509011527 0.0082228776605819884 0 0.027413664949270167 0.0082350503708730951 0 0.027372311683014745 0.0082386300529613404 0 0.027007473756121295 0.008307033344157333 0 0.027007473756121295 0.008307033344157333 0 0.026859626656365404 0.008358959964408802 0 0.026842979509011527 0.0082228776605819884 0 0.027007473756121295 0.008307033344157333 0 0.026859626656365404 0.008358959964408802 0 0.026643278772829754 0.0082795710773832052 0 0.026859626656365404 0.008358959964408802 0 0.026842979509011527 0.0082228776605819884 0 0.026815179050979701 0.0085097560291919529 0 0.026842979509011527 0.0082228776605819884 0 0.026815179050979701 0.0085097560291919529 0 0.026675901804394234 0.008989977122814085 0 0.026815179050979701 0.0085097560291919529 0 0.026714139021318951 0.0086347100341787886 0 0.026656650255660604 0.0083870032504997725 0 0.026815179050979701 0.0085097560291919529 0 0.026714139021318951 0.0086347100341787886 0 0.026675901804394234 0.008989977122814085 0 0.026859626656365404 0.008358959964408802 0 0.026729337311386565 0.0083350704121705772 0 0.026643278772829754 0.0082795710773832052 0 0.026859626656365404 0.008358959964408802 0 0.026815179050979701 0.0085097560291919529 0 0.026729337311386565 0.0083350704121705772 0 0.026815179050979701 0.0085097560291919529 0 0.026729337311386565 0.0083350704121705772 0 0.026656650255660604 0.0083870032504997725 0 0.026729337311386565 0.0083350704121705772 0 0.026529984900709014 0.0081259803089631186 0 0.026656650255660604 0.0083870032504997725 0 0.026412253770255766 0.0081071940596276638 0 0.026643278772829754 0.0082795710773832052 0 0.026529984900709014 0.0081259803089631186 0 0.026729337311386565 0.0083350704121705772 0 0.026643278772829754 0.0082795710773832052 0 0.026529984900709014 0.0081259803089631186 0 0.026412253770255766 0.0081071940596276638 0 0.026643278772829754 0.0082795710773832052 0 0.026073872554762477 0.0081928116103815139 0 0.026643278772829754 0.0082795710773832052 0 0.026570312933942609 0.0083053181298499684 0 0.026073872554762477 0.0081928116103815139 0 0.027007473756121295 0.008307033344157333 0 0.026643278772829754 0.0082795710773832052 0 0.026570312933942609 0.0083053181298499684 0 0.025549807844983126 0.0082317687091524195 0 0.026570312933942609 0.0083053181298499684 0 0.026073872554762477 0.0081928116103815139 0 0.026276007630301901 0.0083283961935212338 0 0.025549807844983126 0.0082317687091524195 0 0.026570312933942609 0.0083053181298499684 0 0.024813164605656614 0.0078813775200192466 0 0.025549807844983126 0.0082317687091524195 0 0.026073872554762477 0.0081928116103815139 0 0.024813164605656614 0.0078813775200192466 0 0.026073872554762477 0.0081928116103815139 0 0.026328424094429648 0.0078264449442951908 0 0.026412253770255766 0.0081071940596276638 0 0.026073872554762477 0.0081928116103815139 0 0.026328424094429648 0.0078264449442951908 0 0.024813164605656614 0.0078813775200192466 0 0.026328424094429648 0.0078264449442951908 0 0.025765219750408661 0.0070867317460966374 0 0.024806349514400659 0.0077247022083727487 0 0.023922611255801047 0.0086857469094405639 0 0.026328424094429648 0.0078264449442951908 0 0.026479424100855051 0.0080234204482713452 0 0.026418115393886474 0.008047465665347607 0 0.024710742983672037 0.0086777092078718296 0 0.023922611255801047 0.0086857469094405639 0 0.026328424094429648 0.0078264449442951908 0 0.026529984900709014 0.0081259803089631186 0 0.026418115393886474 0.008047465665347607 0 0.026412253770255766 0.0081071940596276638 0 0.026328424094429648 0.0078264449442951908 0 0.026529984900709014 0.0081259803089631186 0 0.026529984900709014 0.0081259803089631186 0 0.026418115393886474 0.008047465665347607 0 0.026501710123767275 0.0081720806054319979 0 0.026418115393886474 0.008047465665347607 0 0.026452128244179293 0.0081473538704723396 0 0.026501710123767275 0.0081720806054319979 0 0.026452128244179293 0.0081473538704723396 0 0.026501710123767275 0.0081720806054319979 0 0.026549960483222262 0.0081779005953017594 0 0.02159901567046343 0.012169715971285777 0 0.021171918201910229 0.011610303381014115 0 0.020664980478404132 0.012252827341456569 0 0.023922611255801047 0.0086857469094405639 0 0.023523438628759195 0.010249222190794721 0 0.026479424100855051 0.0080234204482713452 0 0.026418115393886474 0.008047465665347607 0 0.026452128244179293 0.0081473538704723396 0 0.022997637566506322 0.0097799606714718511 0 0.023922611255801047 0.0086857469094405639 0 0.02159901567046343 0.012169715971285777 0 0.020664980478404132 0.012252827341456569 0 0.021186919248629848 0.012959684192006361 0 0.020664980478404132 0.012252827341456569 0 0.021186919248629848 0.012959684192006361 0 0.020167906164915879 0.012893987194431421 0 0.026452128244179293 0.0081473538704723396 0 0.026534629741567728 0.0081230076065009153 0 0.026549960483222262 0.0081779005953017594 0 0.023523438628759195 0.010249222190794721 0 0.023906393299445841 0.010855822051529195 0 0.021186919248629848 0.012959684192006361 0 0.020167906164915879 0.012893987194431421 0 0.020721684711460041 0.013524447192567719 0 0.020167906164915879 0.012893987194431421 0 0.020189610748019452 0.013856170869828053 0 0.020721684711460041 0.013524447192567719 0 0.021186919248629848 0.012959684192006361 0 0.020721684711460041 0.013524447192567719 0 0.021460877847139185 0.013935918028772313 0 0.026682435669223469 0.011400940580857248 0 0.025283659887684967 0.014089000584236004 0 0.026448792309073075 0.016420440562193588 0 0.027439613192680946 0.014763939483487455 0 0.025844265648672031 0.015432104980353712 0 0.026448792309073075 0.016420440562193588 0 0.027439613192680946 0.014763939483487455 0 0.027682812393258246 0.016672242009731018 0 0.026534629741567728 0.0081230076065009153 0 0.02662496825849078 0.008131256913536616 0 0.026579424110783925 0.008116408103968565 0 0.023906393299445841 0.010855822051529195 0 0.025283659887684967 0.014089000584236004 0 0.020167906164915879 0.012893987194431421 0 0.020189610748019452 0.013856170869828053 0 0.01967128513855642 0.013540418718715336 0 0.026534629741567728 0.0081230076065009153 0 0.02662496825849078 0.008131256913536616 0 0.026549960483222262 0.0081779005953017594 0 0.026682435669223469 0.011400940580857248 0 0.026931080969168523 0.010314488040840439 0 0.027439613192680946 0.014763939483487455 0 0.027518431507242279 0.012510032295909967 0 0.02609674389040624 0.013927942594905419 0 0.026759697874248988 0.008273357648500795 0 0.026549960483222262 0.0081779005953017594 0 0.026604614661552776 0.0083168444122441124 0 0.02662496825849078 0.008131256913536616 0 0.026759697874248988 0.008273357648500795 0 0.026549960483222262 0.0081779005953017594 0 0.026501710123767275 0.0081720806054319979 0 0.026549960483222262 0.0081779005953017594 0 0.026604614661552776 0.0083168444122441124 0 0.026501710123767275 0.0081720806054319979 0 0.026604614661552776 0.0083168444122441124 0 0.026656650255660604 0.0083870032504997725 0 0.026604614661552776 0.0083168444122441124 0 0.026656650255660604 0.0083870032504997725 0 0.026667818121460362 0.008544238762199995 0 0.026529984900709014 0.0081259803089631186 0 0.026501710123767275 0.0081720806054319979 0 0.026656650255660604 0.0083870032504997725 0 0.026931080969168523 0.010314488040840439 0 0.026749966740825158 0.0093016049515438261 0 0.026759697874248988 0.008273357648500795 0 0.026667818121460362 0.008544238762199995 0 0.026675901804394234 0.008989977122814085 0 0.026759697874248988 0.008273357648500795 0 0.026604614661552776 0.0083168444122441124 0 0.026667818121460362 0.008544238762199995 0 0.026714139021318951 0.0086347100341787886 0 0.026656650255660604 0.0083870032504997725 0 0.026667818121460362 0.008544238762199995 0 0.026714139021318951 0.0086347100341787886 0 0.026667818121460362 0.008544238762199995 0 0.026675901804394234 0.008989977122814085 0 0.026201405995492671 0.011456418563229057 0 0.026675901804394234 0.008989977122814085 0 0.02598851747318949 0.0089907308199878907 0 0.027518431507242279 0.012510032295909967 0 0.026201405995492671 0.011456418563229057 0 0.026675901804394234 0.008989977122814085 0 0.026201405995492671 0.011456418563229057 0 0.024280396482137322 0.013454670888717383 0 0.02598851747318949 0.0089907308199878907 0 0.029032394271624382 0.011256395827671545 0 0.029548285420516195 0.0091621342900732976 0 0.033245317731846316 0.0091824018921632562 0 0.033293211474713237 0.0094198487785453928 0 0.033205152132777666 0.0089336147256887499 0 0.027518431507242279 0.012510032295909967 0 0.026201405995492671 0.011456418563229057 0 0.02609674389040624 0.013927942594905419 0 0.026201405995492671 0.011456418563229057 0 0.024280396482137322 0.013454670888717383 0 0.02609674389040624 0.013927942594905419 0 0.02609674389040624 0.013927942594905419 0 0.025227022270114197 0.014800461219733807 0 0.025844265648672031 0.015432104980353712 0 0.027439613192680946 0.014763939483487455 0 0.02609674389040624 0.013927942594905419 0 0.025844265648672031 0.015432104980353712 0 0.024280396482137322 0.013454670888717383 0 0.02609674389040624 0.013927942594905419 0 0.025227022270114197 0.014800461219733807 0 0.024280396482137322 0.013454670888717383 0 0.025088229033668408 0.014951968417599467 0 0.025227022270114197 0.014800461219733807 0 0.024280396482137322 0.013454670888717383 0 0.025088229033668408 0.014951968417599467 0 0.026054665659083362 0.015580853404310351 0 0.025088229033668408 0.014951968417599467 0 0.025227022270114197 0.014800461219733807 0 0.024648684620797744 0.015562285495434295 0 0.025088229033668408 0.014951968417599467 0 0.024648684620797744 0.015562285495434295 0 0.026054665659083362 0.015580853404310351 0 0.026448792309073075 0.016420440562193588 0 0.025844265648672031 0.015432104980353712 0 0.025363673972172842 0.01703275641246179 0 0.024648684620797744 0.015562285495434295 0 0.025844265648672031 0.015432104980353712 0 0.025363673972172842 0.01703275641246179 0 0.025227022270114197 0.014800461219733807 0 0.024648684620797744 0.015562285495434295 0 0.025844265648672031 0.015432104980353712 0 0.032355532337354394 0.0097086769146403681 0 0.031861943006659531 0.0099078811897382393 0 0.031386838793483127 0.010588060874981792 0 0.032501693556426875 0.00965422354784886 0 0.029428505538711906 0.01060169187688886 0 0.030343829129968216 0.011265315779739063 0 0.031386838793483127 0.010588060874981792 0 0.029428505538711906 0.01060169187688886 0 0.030343829129968216 0.011265315779739063 0 0.029428505538711906 0.01060169187688886 0 0.02946380530414424 0.011667531932198433 0 0.031386838793483127 0.010588060874981792 0 0.032775361630892508 0.0099324971123286188 0 0.029164432366899248 0.012518680601735168 0 0.024648684620797744 0.015562285495434295 0 0.026054665659083362 0.015580853404310351 0 0.028063558124700808 0.012690271953075552 0 0.031386838793483127 0.010588060874981792 0 0.032775361630892508 0.0099324971123286188 0 0.032501693556426875 0.00965422354784886 0 0.033293211474713237 0.0094198487785453928 0 0.032775361630892508 0.0099324971123286188 0 0.033002059114108244 0.0095347866309014751 0 0.032775361630892508 0.0099324971123286188 0 0.032501693556426875 0.00965422354784886 0 0.033002059114108244 0.0095347866309014751 0 0.029032394271624382 0.011256395827671545 0 0.02930953515913752 0.012343111435192837 0 0.032501693556426875 0.00965422354784886 0 0.033286643517920732 0.0095843519025745807 0 0.033709522001207415 0.0089321291615183061 0 0.032501693556426875 0.00965422354784886 0 0.033286643517920732 0.0095843519025745807 0 0.033002059114108244 0.0095347866309014751 0 0.033286643517920732 0.0095843519025745807 0 0.033516317691993425 0.0097011262449977036 0 0.033943077197527947 0.0097636820911213701 0 0.033286643517920732 0.0095843519025745807 0 0.033516317691993425 0.0097011262449977036 0 0.033002059114108244 0.0095347866309014751 0 0.033516317691993425 0.0097011262449977036 0 0.033002059114108244 0.0095347866309014751 0 0.03326324227813536 0.0094381645628224473 0 0.033293211474713237 0.0094198487785453928 0 0.033002059114108244 0.0095347866309014751 0 0.03326324227813536 0.0094381645628224473 0 0.033245317731846316 0.0091824018921632562 0 0.03326324227813536 0.0094381645628224473 0 0.033434967421391654 0.0092688972500602224 0 0.033245317731846316 0.0091824018921632562 0 0.033293211474713237 0.0094198487785453928 0 0.03326324227813536 0.0094381645628224473 0 0.033516317691993425 0.0097011262449977036 0 0.03326324227813536 0.0094381645628224473 0 0.03370731495362992 0.0096107851685245226 0 0.033516317691993425 0.0097011262449977036 0 0.03370731495362992 0.0096107851685245226 0 0.03415624933850539 0.010002162978213502 0 0.03326324227813536 0.0094381645628224473 0 0.03370731495362992 0.0096107851685245226 0 0.033434967421391654 0.0092688972500602224 0 0.03370731495362992 0.0096107851685245226 0 0.033735622612735036 0.0092867543870388189 0 0.033434967421391654 0.0092688972500602224 0 0.033735622612735036 0.0092867543870388189 0 0.033342216428517847 0.0089845353955571132 0 0.033434967421391654 0.0092688972500602224 0 0.033735622612735036 0.0092867543870388189 0 0.033342216428517847 0.0089845353955571132 0 0.033354436554933455 0.008797905267706024 0 0.033735622612735036 0.0092867543870388189 0 0.033354436554933455 0.008797905267706024 0 0.033812131618900669 0.0090124055061930591 0 0.033342216428517847 0.0089845353955571132 0 0.033073928452972204 0.0086513714920858163 0 0.033354436554933455 0.008797905267706024 0 0.033342216428517847 0.0089845353955571132 0 0.033434967421391654 0.0092688972500602224 0 0.033182916407262848 0.0089474635999192125 0 0.033245317731846316 0.0091824018921632562 0 0.033434967421391654 0.0092688972500602224 0 0.033182916407262848 0.0089474635999192125 0 0.033182916407262848 0.0089474635999192125 0 0.033205152132777666 0.0089336147256887499 0 0.032949908242042629 0.0085929215578065231 0 0.033245317731846316 0.0091824018921632562 0 0.033182916407262848 0.0089474635999192125 0 0.033205152132777666 0.0089336147256887499 0 0.029611813721089543 0.0083520083150174368 0 0.029548285420516195 0.0091621342900732976 0 0.026842979509011527 0.0082228776605819884 0 0.026675901804394234 0.008989977122814085 0 0.02598851747318949 0.0089907308199878907 0 0.032576680667149645 0.0082515319818359349 0 0.033205152132777666 0.0089336147256887499 0 0.032949908242042629 0.0085929215578065231 0 0.033182916407262848 0.0089474635999192125 0 0.032949908242042629 0.0085929215578065231 0 0.033073928452972204 0.0086513714920858163 0 0.033342216428517847 0.0089845353955571132 0 0.033182916407262848 0.0089474635999192125 0 0.033073928452972204 0.0086513714920858163 0 0.032949908242042629 0.0085929215578065231 0 0.033073928452972204 0.0086513714920858163 0 0.032597138054755274 0.0082446239009045501 0 0.033073928452972204 0.0086513714920858163 0 0.032597138054755274 0.0082446239009045501 0 0.033042871760432455 0.0085379925516925297 0 0.032576680667149645 0.0082515319818359349 0 0.032949908242042629 0.0085929215578065231 0 0.032597138054755274 0.0082446239009045501 0 0.03284421092607246 0.0084543818038050108 0 0.032597138054755274 0.0082446239009045501 0 0.033042871760432455 0.0085379925516925297 0 0.03284421092607246 0.0084543818038050108 0 0.033042871760432455 0.0085379925516925297 0 0.033385144971539951 0.0086813071631660702 0 0.033385144971539951 0.0086813071631660702 0 0.033354436554933455 0.008797905267706024 0 0.033812131618900669 0.0090124055061930591 0 0.033042871760432455 0.0085379925516925297 0 0.033385144971539951 0.0086813071631660702 0 0.033354436554933455 0.008797905267706024 0 0.033073928452972204 0.0086513714920858163 0 0.033042871760432455 0.0085379925516925297 0 0.033354436554933455 0.008797905267706024 0 0.03434248953730272 0.0091900269491231121 0 0.033958710819958805 0.0088516807838409668 0 0.034376262991945745 0.0089104723973293457 0 0.03434248953730272 0.0091900269491231121 0 0.033812131618900669 0.0090124055061930591 0 0.033958710819958805 0.0088516807838409668 0 0.033385144971539951 0.0086813071631660702 0 0.033812131618900669 0.0090124055061930591 0 0.033958710819958805 0.0088516807838409668 0 0.03363886250040888 0.0086695836757103399 0 0.033385144971539951 0.0086813071631660702 0 0.033958710819958805 0.0088516807838409668 0 0.034086656449985188 0.0086221062072661253 0 0.033958710819958805 0.0088516807838409668 0 0.034376262991945745 0.0089104723973293457 0 0.034597962453006989 0.0085416984211199795 0 0.034376262991945745 0.0089104723973293457 0 0.034648342839437518 0.0089499655804271498 0 0.034597962453006989 0.0085416984211199795 0 0.034086656449985188 0.0086221062072661253 0 0.034376262991945745 0.0089104723973293457 0 0.034597962453006989 0.0085416984211199795 0 0.034648342839437518 0.0089499655804271498 0 0.034669151695143084 0.0087047054916241304 0 0.034648342839437518 0.0089499655804271498 0 0.034857289799492465 0.0096143020135019946 0 0.034717006210978743 0.0090802483366867002 0 0.034648342839437518 0.0089499655804271498 0 0.034617645784463233 0.0092808571205247239 0 0.034857289799492465 0.0096143020135019946 0 0.034648342839437518 0.0089499655804271498 0 0.034717006210978743 0.0090802483366867002 0 0.034669151695143084 0.0087047054916241304 0 0.034376262991945745 0.0089104723973293457 0 0.034648342839437518 0.0089499655804271498 0 0.034617645784463233 0.0092808571205247239 0 0.03434248953730272 0.0091900269491231121 0 0.034376262991945745 0.0089104723973293457 0 0.034617645784463233 0.0092808571205247239 0 0.034617645784463233 0.0092808571205247239 0 0.034722291293551678 0.0097237781097130084 0 0.034857289799492465 0.0096143020135019946 0 0.03434248953730272 0.0091900269491231121 0 0.034617645784463233 0.0092808571205247239 0 0.034722291293551678 0.0097237781097130084 0 0.034857289799492465 0.0096143020135019946 0 0.035053063122947981 0.010357460198282886 0 0.034834103123942119 0.0096442839619716083 0 0.034857289799492465 0.0096143020135019946 0 0.035048069970756719 0.010319294112382662 0 0.035053063122947981 0.010357460198282886 0 0.034722291293551678 0.0097237781097130084 0 0.034857289799492465 0.0096143020135019946 0 0.035048069970756719 0.010319294112382662 0 0.034722291293551678 0.0097237781097130084 0 0.035048069970756719 0.010319294112382662 0 0.034663013460296675 0.0099992903233463316 0 0.034722291293551678 0.0097237781097130084 0 0.034663013460296675 0.0099992903233463316 0 0.034274911077015857 0.0095001972088820698 0 0.034663013460296675 0.0099992903233463316 0 0.034274911077015857 0.0095001972088820698 0 0.034221958133601058 0.0097974334392340739 0 0.03434248953730272 0.0091900269491231121 0 0.034722291293551678 0.0097237781097130084 0 0.034274911077015857 0.0095001972088820698 0 0.03434248953730272 0.0091900269491231121 0 0.033812131618900669 0.0090124055061930591 0 0.034274911077015857 0.0095001972088820698 0 0.033735622612735036 0.0092867543870388189 0 0.033812131618900669 0.0090124055061930591 0 0.034274911077015857 0.0095001972088820698 0 0.033735622612735036 0.0092867543870388189 0 0.034274911077015857 0.0095001972088820698 0 0.034221958133601058 0.0097974334392340739 0 0.03370731495362992 0.0096107851685245226 0 0.033735622612735036 0.0092867543870388189 0 0.034221958133601058 0.0097974334392340739 0 0.034221958133601058 0.0097974334392340739 0 0.03415624933850539 0.010002162978213502 0 0.034616001902685385 0.010190716507052801 0 0.03370731495362992 0.0096107851685245226 0 0.034221958133601058 0.0097974334392340739 0 0.03415624933850539 0.010002162978213502 0 0.034616001902685385 0.010190716507052801 0 0.034865748700112213 0.010374469381246721 0 0.035058937591601343 0.010601045922318983 0 0.034663013460296675 0.0099992903233463316 0 0.034616001902685385 0.010190716507052801 0 0.035058937591601343 0.010601045922318983 0 0.034663013460296675 0.0099992903233463316 0 0.034221958133601058 0.0097974334392340739 0 0.034616001902685385 0.010190716507052801 0 0.03415624933850539 0.010002162978213502 0 0.034616001902685385 0.010190716507052801 0 0.034865748700112213 0.010374469381246721 0 0.033516317691993425 0.0097011262449977036 0 0.03415624933850539 0.010002162978213502 0 0.033943077197527947 0.0097636820911213701 0 0.03415624933850539 0.010002162978213502 0 0.034865748700112213 0.010374469381246721 0 0.033943077197527947 0.0097636820911213701 0 0.033286643517920732 0.0095843519025745807 0 0.033943077197527947 0.0097636820911213701 0 0.033709522001207415 0.0089321291615183061 0 0.033943077197527947 0.0097636820911213701 0 0.034571414224949241 0.0094112423204506974 0 0.033709522001207415 0.0089321291615183061 0 0.034865748700112213 0.010374469381246721 0 0.033943077197527947 0.0097636820911213701 0 0.034571414224949241 0.0094112423204506974 0 0.034865748700112213 0.010374469381246721 0 0.034571414224949241 0.0094112423204506974 0 0.035450922159368181 0.0093613290799770058 0 0.03509328899550096 0.010719198052617892 0 0.035662597172001695 0.010536185785604496 0 0.034571414224949241 0.0094112423204506974 0 0.034879949616428055 0.0086725700182281699 0 0.035450922159368181 0.0093613290799770058 0 0.031891321846739686 0.010581080017703645 0 0.031861943006659531 0.0099078811897382393 0 0.034571414224949241 0.0094112423204506974 0 0.034879949616428055 0.0086725700182281699 0 0.033709522001207415 0.0089321291615183061 0 0.028967107444916741 0.011274658357753192 0 0.029428505538711906 0.01060169187688886 0 0.029181942561955668 0.011595354414392574 0 0.029428505538711906 0.01060169187688886 0 0.02946380530414424 0.011667531932198433 0 0.029181942561955668 0.011595354414392574 0 0.034992858613045102 0.013683063552981383 0 0.0365843733271628 0.013587639252326211 0 0.037935642099855567 0.016010170126096897 0 0.039531676897953304 0.015539937422231266 0 0.036170228696838176 0.013109565993372976 0 0.0355119276622776 0.011634221894875514 0 0.035571929695356455 0.012118788859349991 0 0.036170228696838176 0.013109565993372976 0 0.036847449840669351 0.013912237355975982 0 0.034992858613045102 0.013683063552981383 0 0.031891321846739686 0.010581080017703645 0 0.034992858613045102 0.013683063552981383 0 0.0355119276622776 0.011634221894875514 0 0.035352767629602509 0.011707108489571145 0 0.035571929695356455 0.012118788859349991 0 0.034992858613045102 0.013683063552981383 0 0.035662597172001695 0.010536185785604496 0 0.034879949616428055 0.0086725700182281699 0 0.036059478446287534 0.0085275263957110964 0 0.035450922159368181 0.0093613290799770058 0 0.034865748700112213 0.010374469381246721 0 0.035352767629602509 0.011707108489571145 0 0.035335226806056858 0.011333767269235538 0 0.035352767629602509 0.011707108489571145 0 0.035571929695356455 0.012118788859349991 0 0.035335226806056858 0.011333767269235538 0 0.035571929695356455 0.012118788859349991 0 0.035627213969790732 0.012061260763478118 0 0.036170228696838176 0.013109565993372976 0 0.035571929695356455 0.012118788859349991 0 0.035627213969790732 0.012061260763478118 0 0.035335226806056858 0.011333767269235538 0 0.035627213969790732 0.012061260763478118 0 0.035353036800310565 0.011191251949957882 0 0.035525417801441139 0.0121475123204809 0 0.035627213969790732 0.012061260763478118 0 0.035335226806056858 0.011333767269235538 0 0.035353036800310565 0.011191251949957882 0 0.035335226806056858 0.011333767269235538 0 0.035058937591601343 0.010601045922318983 0 0.035353036800310565 0.011191251949957882 0 0.034865748700112213 0.010374469381246721 0 0.035335226806056858 0.011333767269235538 0 0.035058937591601343 0.010601045922318983 0 0.035048069970756719 0.010319294112382662 0 0.035058937591601343 0.010601045922318983 0 0.035353036800310565 0.011191251949957882 0 0.035048069970756719 0.010319294112382662 0 0.034663013460296675 0.0099992903233463316 0 0.035058937591601343 0.010601045922318983 0 0.035048069970756719 0.010319294112382662 0 0.035353036800310565 0.011191251949957882 0 0.035053063122947981 0.010357460198282886 0 0.035353036800310565 0.011191251949957882 0 0.035067785048741897 0.01137522272795035 0 0.035525417801441139 0.0121475123204809 0 0.035353036800310565 0.011191251949957882 0 0.035067785048741897 0.01137522272795035 0 0.035053063122947981 0.010357460198282886 0 0.035067785048741897 0.01137522272795035 0 0.035149997755324 0.012893530360912434 0 0.034032651873589823 0.011558544702565135 0 0.035067785048741897 0.01137522272795035 0 0.034032651873589823 0.011558544702565135 0 0.034585195582879667 0.010794858142410947 0 0.035149997755324 0.012893530360912434 0 0.035525417801441139 0.0121475123204809 0 0.036170228696838176 0.013109565993372976 0 0.035067785048741897 0.01137522272795035 0 0.035149997755324 0.012893530360912434 0 0.035525417801441139 0.0121475123204809 0 0.035627213969790732 0.012061260763478118 0 0.035525417801441139 0.0121475123204809 0 0.036170228696838176 0.013109565993372976 0 0.036170228696838176 0.013109565993372976 0 0.035212034721574734 0.01426233410431647 0 0.035614496628881727 0.01524200906487605 0 0.035149997755324 0.012893530360912434 0 0.035212034721574734 0.01426233410431647 0 0.034659515140147881 0.014178688442540329 0 0.035149997755324 0.012893530360912434 0 0.036170228696838176 0.013109565993372976 0 0.035212034721574734 0.01426233410431647 0 0.035614496628881727 0.01524200906487605 0 0.034925015174805396 0.015505346041951603 0 0.035202912131358198 0.016554446331675136 0 0.035212034721574734 0.01426233410431647 0 0.035614496628881727 0.01524200906487605 0 0.034925015174805396 0.015505346041951603 0 0.035614496628881727 0.01524200906487605 0 0.035202912131358198 0.016554446331675136 0 0.035675956486127092 0.016686861335275357 0 0.035614496628881727 0.01524200906487605 0 0.03624874605219143 0.016367945759075749 0 0.035675956486127092 0.016686861335275357 0 0.036170228696838176 0.013109565993372976 0 0.035614496628881727 0.01524200906487605 0 0.036501981569521794 0.015510868716122946 0 0.037935642099855567 0.016010170126096897 0 0.036170228696838176 0.013109565993372976 0 0.036501981569521794 0.015510868716122946 0 0.035614496628881727 0.01524200906487605 0 0.036501981569521794 0.015510868716122946 0 0.03624874605219143 0.016367945759075749 0 0.034988979871113442 0.016914230252901171 0 0.034925015174805396 0.015505346041951603 0 0.034996283292993743 0.016344840759063443 0 0.034988979871113442 0.016914230252901171 0 0.034996283292993743 0.016344840759063443 0 0.035000266378824946 0.017627343341801546 0 0.034988979871113442 0.016914230252901171 0 0.034925015174805396 0.015505346041951603 0 0.035202912131358198 0.016554446331675136 0 0.034925015174805396 0.015505346041951603 0 0.034659515140147881 0.014178688442540329 0 0.034996283292993743 0.016344840759063443 0 0.035212034721574734 0.01426233410431647 0 0.034925015174805396 0.015505346041951603 0 0.034659515140147881 0.014178688442540329 0 0.03500000296584764 0.016346983174688755 0 0.035764189773745139 0.014891205183205258 0 0.034999992801427848 0.015192019063775234 0 0.034999823946339423 0.016345508596276558 0 0.035102320502793161 0.014190757850961425 0 0.034659515140147881 0.014178688442540329 0 0.034996283292993743 0.016344840759063443 0 0.033991140953315638 0.013677375311792698 0 0.035764189773745139 0.014891205183205258 0 0.034999992801427848 0.015192019063775234 0 0.034999985681201044 0.014037091169724509 0 0.035149997755324 0.012893530360912434 0 0.034659515140147881 0.014178688442540329 0 0.034032651873589823 0.011558544702565135 0 0.034659515140147881 0.014178688442540329 0 0.033991140953315638 0.013677375311792698 0 0.034032651873589823 0.011558544702565135 0 0.035102320502793161 0.014190757850961425 0 0.035298563178291747 0.01247603378840601 0 0.035764189773745139 0.014891205183205258 0 0.034999985681201044 0.014037091169724509 0 0.035646335920579884 0.013512019321316258 0 0.035764189773745139 0.014891205183205258 0 0.036504980365350777 0.013448906063905126 0 0.035646335920579884 0.013512019321316258 0 0.034999224207075144 0.014045654185328944 0 0.035994674639654965 0.012961690680831715 0 0.034999985681201044 0.014037091169724509 0 0.035646335920579884 0.013512019321316258 0 0.035093509378249489 0.012892012984720827 0 0.036504980365350777 0.013448906063905126 0 0.035646335920579884 0.013512019321316258 0 0.035971818593329027 0.012689222218434867 0 0.035093509378249489 0.012892012984720827 0 0.035971818593329027 0.012689222218434867 0 0.035187149254263056 0.011760424026048134 0 0.035994674639654965 0.012961690680831715 0 0.034947238853403749 0.01132378592677815 0 0.034903135582710999 0.012874583488423155 0 0.034999905514928736 0.011685998174779508 0 0.035184129931831822 0.011712145320927451 0 0.035646335920579884 0.013512019321316258 0 0.035093509378249489 0.012892012984720827 0 0.035971818593329027 0.012689222218434867 0 0.035971818593329027 0.012689222218434867 0 0.035187149254263056 0.011760424026048134 0 0.036216055223754512 0.011900310168986883 0 0.034392994322316184 0.0091134111582845245 0 0.034537287092391969 0.0089874082689608836 0 0.0345036837936872 0.0087685585621225717 0 0.034947238853403749 0.01132378592677815 0 0.034960936699841016 0.0094915388240372003 0 0.03500021106199256 0.01168622800821181 0 0.035193967986644495 0.011712057120177454 0 0.035346748652637767 0.010232910401041656 0 0.035000002482530358 0.011683486245903551 0 0.034947238853403749 0.01132378592677815 0 0.034947238853403749 0.01132378592677815 0 0.035309344886153837 0.010863604278778331 0 0.034392994322316184 0.0091134111582845245 0 0.034537287092391969 0.0089874082689608836 0 0.034548044788930865 0.0091364700931951676 0 0.034542815983247335 0.0091548304761645011 0 0.034530842625152998 0.0091300208400216451 0 0.034572014602869218 0.0089642383952679774 0 0.034537287092391969 0.0089874082689608836 0 0.034542815983247335 0.0091548304761645011 0 0.034572014602869218 0.0089642383952679774 0 0.034537287092391969 0.0089874082689608836 0 0.034542815983247335 0.0091548304761645011 0 0.034548044788930865 0.0091364700931951676 0 0.035309344886153837 0.010863604278778331 0 0.035257917754719002 0.010857558213670395 0 0.034542815983247335 0.0091548304761645011 0 0.034548044788930865 0.0091364700931951676 0 0.03450948679874926 0.0092040215188853303 0 0.035971818593329027 0.012689222218434867 0 0.036216055223754512 0.011900310168986883 0 0.037239644922315379 0.012035098522301082 0 0.036504980365350777 0.013448906063905126 0 0.035971818593329027 0.012689222218434867 0 0.037239644922315379 0.012035098522301082 0 0.035298563178291747 0.01247603378840601 0 0.035257917754719002 0.010857558213670395 0 0.035067785048741897 0.01137522272795035 0 0.034585195582879667 0.010794858142410947 0 0.034771236677993568 0.010037481643325453 0 0.034032651873589823 0.011558544702565135 0 0.034585195582879667 0.010794858142410947 0 0.034289838553256125 0.010175309374669449 0 0.034585195582879667 0.010794858142410947 0 0.034771236677993568 0.010037481643325453 0 0.034289838553256125 0.010175309374669449 0 0.034698835145125319 0.010463234987274049 0 0.035257917754719002 0.010857558213670395 0 0.035067785048741897 0.01137522272795035 0 0.035053063122947981 0.010357460198282886 0 0.034771236677993568 0.010037481643325453 0 0.035053063122947981 0.010357460198282886 0 0.034771236677993568 0.010037481643325453 0 0.034834103123942119 0.0096442839619716083 0 0.034771236677993568 0.010037481643325453 0 0.034834103123942119 0.0096442839619716083 0 0.034691504685688608 0.0093121242719455509 0 0.034834103123942119 0.0096442839619716083 0 0.034691504685688608 0.0093121242719455509 0 0.034717006210978743 0.0090802483366867002 0 0.034857289799492465 0.0096143020135019946 0 0.034834103123942119 0.0096442839619716083 0 0.034717006210978743 0.0090802483366867002 0 0.034542815983247335 0.0091548304761645011 0 0.034454208308776976 0.0093456161963090048 0 0.03450948679874926 0.0092040215188853303 0 0.03527683553303005 0.010474243833823177 0 0.035257917754719002 0.010857558213670395 0 0.034771236677993568 0.010037481643325453 0 0.034454208308776976 0.0093456161963090048 0 0.034287890422163167 0.0096551364298222767 0 0.034771236677993568 0.010037481643325453 0 0.034691504685688608 0.0093121242719455509 0 0.034454208308776976 0.0093456161963090048 0 0.034691504685688608 0.0093121242719455509 0 0.034454208308776976 0.0093456161963090048 0 0.034571796118223183 0.0091957335591124501 0 0.034542815983247335 0.0091548304761645011 0 0.034454208308776976 0.0093456161963090048 0 0.034530842625152998 0.0091300208400216451 0 0.034454208308776976 0.0093456161963090048 0 0.034571796118223183 0.0091957335591124501 0 0.034530842625152998 0.0091300208400216451 0 0.034595601499299265 0.0089488341921401711 0 0.034717006210978743 0.0090802483366867002 0 0.034657460968621566 0.0086520540715516493 0 0.034571796118223183 0.0091957335591124501 0 0.034530842625152998 0.0091300208400216451 0 0.034595601499299265 0.0089488341921401711 0 0.034530842625152998 0.0091300208400216451 0 0.034595601499299265 0.0089488341921401711 0 0.034572014602869218 0.0089642383952679774 0 0.034691504685688608 0.0093121242719455509 0 0.034571796118223183 0.0091957335591124501 0 0.034595601499299265 0.0089488341921401711 0 0.034595601499299265 0.0089488341921401711 0 0.034657460968621566 0.0086520540715516493 0 0.03467099232193712 0.0086151967063750126 0 0.034691504685688608 0.0093121242719455509 0 0.034595601499299265 0.0089488341921401711 0 0.034717006210978743 0.0090802483366867002 0 0.034717006210978743 0.0090802483366867002 0 0.034669151695143084 0.0087047054916241304 0 0.034657460968621566 0.0086520540715516493 0 0.034644925669360997 0.0083248793869147783 0 0.034597962453006989 0.0085416984211199795 0 0.034669151695143084 0.0087047054916241304 0 0.034644925669360997 0.0083248793869147783 0 0.034669151695143084 0.0087047054916241304 0 0.034657460968621566 0.0086520540715516493 0 0.034657460968621566 0.0086520540715516493 0 0.034709882270541045 0.0083859004135232625 0 0.03467099232193712 0.0086151967063750126 0 0.034644925669360997 0.0083248793869147783 0 0.034657460968621566 0.0086520540715516493 0 0.034709882270541045 0.0083859004135232625 0 0.034709882270541045 0.0083859004135232625 0 0.034785215034898932 0.0083583004299246505 0 0.03467099232193712 0.0086151967063750126 0 0.034785215034898932 0.0083583004299246505 0 0.03467099232193712 0.0086151967063750126 0 0.034711453630737313 0.0086118138438208442 0 0.03467099232193712 0.0086151967063750126 0 0.034711453630737313 0.0086118138438208442 0 0.034630549993821924 0.0087587744481782016 0 0.035043933887663671 0.0085877242565177512 0 0.034711453630737313 0.0086118138438208442 0 0.0345036837936872 0.0087685585621225717 0 0.035002416653374439 0.0089433696837362773 0 0.034960936699841016 0.0094915388240372003 0 0.035043933887663671 0.0085877242565177512 0 0.034785215034898932 0.0083583004299246505 0 0.034711453630737313 0.0086118138438208442 0 0.035043933887663671 0.0085877242565177512 0 0.034999665636967457 0.0096165013577086175 0 0.035346748652637767 0.010232910401041656 0 0.034711453630737313 0.0086118138438208442 0 0.0345036837936872 0.0087685585621225717 0 0.034600092536232863 0.0088152221149905927 0 0.03500021106199256 0.01168622800821181 0 0.034999665636967457 0.0096165013577086175 0 0.035346748652637767 0.010232910401041656 0 0.034537287092391969 0.0089874082689608836 0 0.0345036837936872 0.0087685585621225717 0 0.034600092536232863 0.0088152221149905927 0 0.034537287092391969 0.0089874082689608836 0 0.034572014602869218 0.0089642383952679774 0 0.034600092536232863 0.0088152221149905927 0 0.034595601499299265 0.0089488341921401711 0 0.034572014602869218 0.0089642383952679774 0 0.034630549993821924 0.0087587744481782016 0 0.034595601499299265 0.0089488341921401711 0 0.03467099232193712 0.0086151967063750126 0 0.034630549993821924 0.0087587744481782016 0 0.034711453630737313 0.0086118138438208442 0 0.034630549993821924 0.0087587744481782016 0 0.034600092536232863 0.0088152221149905927 0 0.034572014602869218 0.0089642383952679774 0 0.034630549993821924 0.0087587744481782016 0 0.034600092536232863 0.0088152221149905927 0 0.036199877056814656 0.025370270024255133 0 0.03719159345734812 0.024468458008398121 0 0.036063526720957993 0.023744899115173954 0 0.036199877056814656 0.025370270024255133 0 0.03499975112563964 0.025095870681640167 0 0.036063526720957993 0.023744899115173954 0 0.03499975112563964 0.025095870681640167 0 0.036111552628788769 0.026690635420730923 0 0.034999962529138735 0.027158278713676688 0 0.036199877056814656 0.025370270024255133 0 0.03499975112563964 0.025095870681640167 0 0.036111552628788769 0.026690635420730923 0 0.036199877056814656 0.025370270024255133 0 0.037035875147046544 0.026625350205809542 0 0.036111552628788769 0.026690635420730923 0 0.037035875147046544 0.026625350205809542 0 0.03693949759547463 0.026965036689270933 0 0.037012763630123034 0.026970817578434728 0 0.036199877056814656 0.025370270024255133 0 0.037035875147046544 0.026625350205809542 0 0.03719159345734812 0.024468458008398121 0 0.037035875147046544 0.026625350205809542 0 0.03693949759547463 0.026965036689270933 0 0.037057805064181645 0.026922752752571884 0 0.037110989750942534 0.026349233648739739 0 0.03706230160594072 0.025655376553569059 0 0.037057805064181645 0.026922752752571884 0 0.03697764646108026 0.026982404070695902 0 0.036979880426888011 0.026978903438107472 0 0.03693949759547463 0.026965036689270933 0 0.037057805064181645 0.026922752752571884 0 0.03697764646108026 0.026982404070695902 0 0.03706230160594072 0.025655376553569059 0 0.036970241041076893 0.025008692467817711 0 0.03693949759547463 0.026965036689270933 0 0.03697764646108026 0.026982404070695902 0 0.036935876346260034 0.027003546105567419 0 0.03693949759547463 0.026965036689270933 0 0.036935876346260034 0.027003546105567419 0 0.03689065319030909 0.027020485361247727 0 0.036672536311602243 0.022688165672988654 0 0.035078262124788623 0.022165816443492397 0 0.03697764646108026 0.026982404070695902 0 0.036935876346260034 0.027003546105567419 0 0.036961578306586251 0.026985218049493585 0 0.036935876346260034 0.027003546105567419 0 0.036961578306586251 0.026985218049493585 0 0.036914316301305969 0.026989965434460576 0 0.03697764646108026 0.026982404070695902 0 0.036979880426888011 0.026978903438107472 0 0.036961578306586251 0.026985218049493585 0 0.036940164278867371 0.022639147702755064 0 0.036063526720957993 0.023744899115173954 0 0.035809553497561271 0.021986984383629456 0 0.03719159345734812 0.024468458008398121 0 0.036940164278867371 0.022639147702755064 0 0.036063526720957993 0.023744899115173954 0 0.03499975112563964 0.025095870681640167 0 0.036063526720957993 0.023744899115173954 0 0.034999934188707463 0.023032885985386262 0 0.034999934188707463 0.023032885985386262 0 0.035809553497561271 0.021986984383629456 0 0.034999907522090451 0.020969991631380139 0 0.036063526720957993 0.023744899115173954 0 0.034999934188707463 0.023032885985386262 0 0.035809553497561271 0.021986984383629456 0 0.035809553497561271 0.021986984383629456 0 0.035756422769917036 0.021099244342037735 0 0.034999907522090451 0.020969991631380139 0 0.035809553497561271 0.021986984383629456 0 0.035756422769917036 0.021099244342037735 0 0.036608263924250171 0.020926665460327516 0 0.035756422769917036 0.021099244342037735 0 0.034999907522090451 0.020969991631380139 0 0.035305520624440909 0.02024178006778158 0 0.036970241041076893 0.025008692467817711 0 0.036117232131646748 0.021872866703680716 0 0.036940164278867371 0.022639147702755064 0 0.035809553497561271 0.021986984383629456 0 0.036608263924250171 0.020926665460327516 0 0.036752594359164933 0.020800249026655251 0 0.036474259696785222 0.019585135259997142 0 0.035305520624440909 0.02024178006778158 0 0.036516004808572353 0.018837010362313437 0 0.036332495667641851 0.019145809819920895 0 0.036147822917558407 0.01879138232206401 0 0.036516004808572353 0.018837010362313437 0 0.036332495667641851 0.019145809819920895 0 0.036474259696785222 0.019585135259997142 0 0.036117232131646748 0.021872866703680716 0 0.03605417555959619 0.019938015676881138 0 0.036332495667641851 0.019145809819920895 0 0.036474259696785222 0.019585135259997142 0 0.036530726203062816 0.019431137825580119 0 0.036474259696785222 0.019585135259997142 0 0.035305520624440909 0.02024178006778158 0 0.035000159637263085 0.018907179256004443 0 0.034999907522090451 0.020969991631380139 0 0.035305520624440909 0.02024178006778158 0 0.035000159637263085 0.018907179256004443 0 0.035756422769917036 0.021099244342037735 0 0.036608263924250171 0.020926665460327516 0 0.035305520624440909 0.02024178006778158 0 0.036117232131646748 0.021872866703680716 0 0.035465866791791839 0.020773676814003605 0 0.036474259696785222 0.019585135259997142 0 0.035000159637263085 0.018907179256004443 0 0.036530726203062816 0.019431137825580119 0 0.034998877102175176 0.018904812175037856 0 0.035084168142191882 0.018168064976850782 0 0.035034397564774784 0.017971230780482801 0 0.034998877102175176 0.018904812175037856 0 0.035077061714389818 0.01822040126447573 0 0.035084168142191882 0.018168064976850782 0 0.035000268974265961 0.018907246263459548 0 0.035707887601767872 0.018907432790791528 0 0.035077061714389818 0.01822040126447573 0 0.035137069509645937 0.018106344588338302 0 0.035084168142191882 0.018168064976850782 0 0.035077061714389818 0.01822040126447573 0 0.035137069509645937 0.018106344588338302 0 0.035444658118746905 0.018264915212473018 0 0.035214559656349946 0.017877562097914232 0 0.035137069509645937 0.018106344588338302 0 0.035444658118746905 0.018264915212473018 0 0.035214559656349946 0.017877562097914232 0 0.035084168142191882 0.018168064976850782 0 0.035106475382425673 0.017507401638881155 0 0.035214559656349946 0.017877562097914232 0 0.035137069509645937 0.018106344588338302 0 0.035084168142191882 0.018168064976850782 0 0.034988979871113442 0.016914230252901171 0 0.035106475382425673 0.017507401638881155 0 0.035202912131358198 0.016554446331675136 0 0.035214559656349946 0.017877562097914232 0 0.035106475382425673 0.017507401638881155 0 0.035400162214062211 0.017365077390569448 0 0.035106475382425673 0.017507401638881155 0 0.035202912131358198 0.016554446331675136 0 0.035400162214062211 0.017365077390569448 0 0.034998877102175176 0.018904812175037856 0 0.035000266378824946 0.017627343341801546 0 0.035034397564774784 0.017971230780482801 0 0.034988979871113442 0.016914230252901171 0 0.035106475382425673 0.017507401638881155 0 0.035034397564774784 0.017971230780482801 0 0.034988979871113442 0.016914230252901171 0 0.035000266378824946 0.017627343341801546 0 0.035034397564774784 0.017971230780482801 0 0.035084168142191882 0.018168064976850782 0 0.035106475382425673 0.017507401638881155 0 0.035034397564774784 0.017971230780482801 0 0.036063383387878442 0.017588146798981723 0 0.037009839291877039 0.01664732398572924 0 0.037628106001064983 0.017434054070835925 0 0.037935642099855567 0.016010170126096897 0 0.036501981569521794 0.015510868716122946 0 0.037009839291877039 0.01664732398572924 0 0.036501981569521794 0.015510868716122946 0 0.037009839291877039 0.01664732398572924 0 0.03624874605219143 0.016367945759075749 0 0.036063383387878442 0.017588146798981723 0 0.037009839291877039 0.01664732398572924 0 0.03624874605219143 0.016367945759075749 0 0.036063383387878442 0.017588146798981723 0 0.03624874605219143 0.016367945759075749 0 0.035675956486127092 0.016686861335275357 0 0.035202912131358198 0.016554446331675136 0 0.035675956486127092 0.016686861335275357 0 0.035400162214062211 0.017365077390569448 0 0.036063383387878442 0.017588146798981723 0 0.035675956486127092 0.016686861335275357 0 0.035400162214062211 0.017365077390569448 0 0.036063383387878442 0.017588146798981723 0 0.0355687816140089 0.018052585021615383 0 0.035846681166062572 0.018479745839766731 0 0.036063383387878442 0.017588146798981723 0 0.035400162214062211 0.017365077390569448 0 0.0355687816140089 0.018052585021615383 0 0.035214559656349946 0.017877562097914232 0 0.0355687816140089 0.018052585021615383 0 0.035444658118746905 0.018264915212473018 0 0.035214559656349946 0.017877562097914232 0 0.035400162214062211 0.017365077390569448 0 0.0355687816140089 0.018052585021615383 0 0.0355687816140089 0.018052585021615383 0 0.035444658118746905 0.018264915212473018 0 0.035846681166062572 0.018479745839766731 0 0.035444658118746905 0.018264915212473018 0 0.035846681166062572 0.018479745839766731 0 0.035969131386056986 0.018948748114169869 0 0.036060590200504519 0.018648005540014882 0 0.035778510749621503 0.018272257787368729 0 0.036063383387878442 0.017588146798981723 0 0.036191622751671766 0.018922848088326009 0 0.037628106001064983 0.017434054070835925 0 0.036063383387878442 0.017588146798981723 0 0.035846681166062572 0.018479745839766731 0 0.036191622751671766 0.018922848088326009 0 0.036191622751671766 0.018922848088326009 0 0.035868851310516772 0.01880253704373077 0 0.035258817127185517 0.019139966575784591 0 0.035846681166062572 0.018479745839766731 0 0.036191622751671766 0.018922848088326009 0 0.035969131386056986 0.018948748114169869 0 0.036191622751671766 0.018922848088326009 0 0.035868851310516772 0.01880253704373077 0 0.035969131386056986 0.018948748114169869 0 0.035868851310516772 0.01880253704373077 0 0.035969131386056986 0.018948748114169869 0 0.035957413843628508 0.01870338816169655 0 0.035077061714389818 0.01822040126447573 0 0.035444658118746905 0.018264915212473018 0 0.035969131386056986 0.018948748114169869 0 0.036332495667641851 0.019145809819920895 0 0.036530726203062816 0.019431137825580119 0 0.035969131386056986 0.018948748114169869 0 0.035707887601767872 0.018907432790791528 0 0.036003122675942044 0.018967922775312233 0 0.035969131386056986 0.018948748114169869 0 0.036147822917558407 0.01879138232206401 0 0.035957413843628508 0.01870338816169655 0 0.036332495667641851 0.019145809819920895 0 0.035969131386056986 0.018948748114169869 0 0.036147822917558407 0.01879138232206401 0 0.036516004808572353 0.018837010362313437 0 0.036147822917558407 0.01879138232206401 0 0.036029426740339397 0.018322916414640577 0 0.036117232131646748 0.021872866703680716 0 0.036672536311602243 0.022688165672988654 0 0.036979880426888011 0.026978903438107472 0 0.03695612304013212 0.026930222771577875 0 0.036961578306586251 0.026985218049493585 0 0.036147822917558407 0.01879138232206401 0 0.035957413843628508 0.01870338816169655 0 0.036029426740339397 0.018322916414640577 0 0.03575875046337941 0.018549616646704625 0 0.036029426740339397 0.018322916414640577 0 0.035457487119728591 0.018219802843490649 0 0.035868851310516772 0.01880253704373077 0 0.03575875046337941 0.018549616646704625 0 0.035333924849478421 0.018645431202182091 0 0.035868851310516772 0.01880253704373077 0 0.03575875046337941 0.018549616646704625 0 0.035957413843628508 0.01870338816169655 0 0.03575875046337941 0.018549616646704625 0 0.035957413843628508 0.01870338816169655 0 0.036029426740339397 0.018322916414640577 0 0.035457487119728591 0.018219802843490649 0 0.035333924849478421 0.018645431202182091 0 0.034794687114581641 0.018266801917364038 0 0.035333924849478421 0.018645431202182091 0 0.034794687114581641 0.018266801917364038 0 0.034652034256795514 0.018869770418691648 0 0.03575875046337941 0.018549616646704625 0 0.035457487119728591 0.018219802843490649 0 0.035333924849478421 0.018645431202182091 0 0.034794687114581641 0.018266801917364038 0 0.033964016898412538 0.018853836899623094 0 0.03332311059863291 0.017086071393154614 0 0.034794687114581641 0.018266801917364038 0 0.033964016898412538 0.018853836899623094 0 0.034652034256795514 0.018869770418691648 0 0.033964016898412538 0.018853836899623094 0 0.034145323155576182 0.019054575523693069 0 0.034652034256795514 0.018869770418691648 0 0.034145323155576182 0.019054575523693069 0 0.034652034256795514 0.018869770418691648 0 0.034520585890579818 0.019247652102450788 0 0.034652034256795514 0.018869770418691648 0 0.034520585890579818 0.019247652102450788 0 0.035258817127185517 0.019139966575784591 0 0.034145323155576182 0.019054575523693069 0 0.034520585890579818 0.019247652102450788 0 0.034025151301780118 0.019370689661113626 0 0.035333924849478421 0.018645431202182091 0 0.034652034256795514 0.018869770418691648 0 0.035258817127185517 0.019139966575784591 0 0.035868851310516772 0.01880253704373077 0 0.035333924849478421 0.018645431202182091 0 0.035258817127185517 0.019139966575784591 0 0.035258817127185517 0.019139966575784591 0 0.034646642195742122 0.019708760302128227 0 0.035465219123845725 0.020003325244020088 0 0.036191622751671766 0.018922848088326009 0 0.035258817127185517 0.019139966575784591 0 0.035465219123845725 0.020003325244020088 0 0.034646642195742122 0.019708760302128227 0 0.033962511702922277 0.019960793728920737 0 0.034025151301780118 0.019370689661113626 0 0.034520585890579818 0.019247652102450788 0 0.035258817127185517 0.019139966575784591 0 0.034646642195742122 0.019708760302128227 0 0.034520585890579818 0.019247652102450788 0 0.034646642195742122 0.019708760302128227 0 0.034025151301780118 0.019370689661113626 0 0.034866955695694771 0.020715894672081958 0 0.03480294306940665 0.020356756509075112 0 0.033962511702922277 0.019960793728920737 0 0.034646642195742122 0.019708760302128227 0 0.03480294306940665 0.020356756509075112 0 0.033962511702922277 0.019960793728920737 0 0.034992858613045102 0.013683063552981383 0 0.031416360394216497 0.015796508523687466 0 0.028967107444916741 0.011274658357753192 0 0.028428806639253526 0.011403961417746515 0 0.029051275527219006 0.011903983160779497 0 0.037935642099855567 0.016010170126096897 0 0.039011008766791512 0.015700799959574616 0 0.037628106001064983 0.017434054070835925 0 0.034866955695694771 0.020715894672081958 0 0.03480294306940665 0.020356756509075112 0 0.035465219123845725 0.020003325244020088 0 0.034992858613045102 0.013683063552981383 0 0.035778510749621503 0.018272257787368729 0 0.034646642195742122 0.019708760302128227 0 0.03480294306940665 0.020356756509075112 0 0.035465219123845725 0.020003325244020088 0 0.037935642099855567 0.016010170126096897 0 0.037009839291877039 0.01664732398572924 0 0.037628106001064983 0.017434054070835925 0 0.029531217896471021 0.011991741695487194 0 0.029181942561955668 0.011595354414392574 0 0.029051275527219006 0.011903983160779497 0 0.029531217896471021 0.011991741695487194 0 0.02946380530414424 0.011667531932198433 0 0.029566543545929847 0.011945117258109482 0 0.029531217896471021 0.011991741695487194 0 0.02946380530414424 0.011667531932198433 0 0.029181942561955668 0.011595354414392574 0 0.028967107444916741 0.011274658357753192 0 0.029181942561955668 0.011595354414392574 0 0.029051275527219006 0.011903983160779497 0 0.033962511702922277 0.019960793728920737 0 0.034025151301780118 0.019370689661113626 0 0.033271195010801197 0.019363821482029819 0 0.029531217896471021 0.011991741695487194 0 0.029937469159625165 0.011661463136172546 0 0.029164432366899248 0.012518680601735168 0 0.031416360394216497 0.015796508523687466 0 0.029091550200457901 0.018255670418684304 0 0.029531217896471021 0.011991741695487194 0 0.029051275527219006 0.011903983160779497 0 0.029937469159625165 0.011661463136172546 0 0.02956746668354979 0.023171218577969409 0 0.031856022703907576 0.02120773691204662 0 0.029476427357795747 0.020170526541687342 0 0.029091550200457901 0.018255670418684304 0 0.032082421768906737 0.019313861752875944 0 0.034025151301780118 0.019370689661113626 0 0.033271195010801197 0.019363821482029819 0 0.033772760544206117 0.019012924051285903 0 0.034145323155576182 0.019054575523693069 0 0.034025151301780118 0.019370689661113626 0 0.033772760544206117 0.019012924051285903 0 0.033964016898412538 0.018853836899623094 0 0.034145323155576182 0.019054575523693069 0 0.033772760544206117 0.019012924051285903 0 0.033964016898412538 0.018853836899623094 0 0.031663463513460659 0.01879873479303178 0 0.03332311059863291 0.017086071393154614 0 0.033262406121828847 0.0189594619428613 0 0.032082421768906737 0.019313861752875944 0 0.033964016898412538 0.018853836899623094 0 0.031856022703907576 0.02120773691204662 0 0.031663463513460659 0.01879873479303178 0 0.031663463513460659 0.01879873479303178 0 0.029476427357795747 0.020170526541687342 0 0.029469426547589647 0.017274854773468618 0 0.031856022703907576 0.02120773691204662 0 0.031663463513460659 0.01879873479303178 0 0.029476427357795747 0.020170526541687342 0 0.027515423750532859 0.018374270787701926 0 0.02832338564173455 0.017377482717263804 0 0.029606398430533285 0.018242444009285503 0 0.027515423750532859 0.018374270787701926 0 0.02832338564173455 0.017377482717263804 0 0.026464655768502876 0.016961435599881981 0 0.02832338564173455 0.017377482717263804 0 0.027975584040391254 0.016257826472740915 0 0.026464655768502876 0.016961435599881981 0 0.02832338564173455 0.017377482717263804 0 0.027975584040391254 0.016257826472740915 0 0.029848833174708194 0.017052687700921994 0 0.032355783919489491 0.021712690976081868 0 0.033305611401774342 0.021982168834456015 0 0.036673450849435886 0.027115489864955381 0 0.036758508435567543 0.027090625727171622 0 0.036768185002797348 0.027078546500143921 0 0.028507065322246894 0.018002091844203309 0 0.031324952841235411 0.018361236040159587 0 0.02832338564173455 0.017377482717263804 0 0.029848833174708194 0.017052687700921994 0 0.029606398430533285 0.018242444009285503 0 0.031663463513460659 0.01879873479303178 0 0.029469426547589647 0.017274854773468618 0 0.03332311059863291 0.017086071393154614 0 0.031324952841235411 0.018361236040159587 0 0.035078262124788623 0.022165816443492397 0 0.034794687114581641 0.018266801917364038 0 0.03332311059863291 0.017086071393154614 0 0.035175337112538577 0.017395512702495054 0 0.029848833174708194 0.017052687700921994 0 0.029606398430533285 0.018242444009285503 0 0.031864555610783565 0.018006930811220814 0 0.033305611401774342 0.021982168834456015 0 0.035078262124788623 0.022165816443492397 0 0.03649348323259307 0.024277933936761045 0 0.035078262124788623 0.022165816443492397 0 0.036029426740339397 0.018322916414640577 0 0.035457487119728591 0.018219802843490649 0 0.035175337112538577 0.017395512702495054 0 0.036935876346260034 0.027003546105567419 0 0.036860941694528575 0.027063264815941481 0 0.03689065319030909 0.027020485361247727 0 0.035457487119728591 0.018219802843490649 0 0.034794687114581641 0.018266801917364038 0 0.035175337112538577 0.017395512702495054 0 0.03693949759547463 0.026965036689270933 0 0.03689065319030909 0.027020485361247727 0 0.036873605188450009 0.027036928472717756 0 0.036860941694528575 0.027063264815941481 0 0.03689065319030909 0.027020485361247727 0 0.036834056880579932 0.027055927028674234 0 0.03689065319030909 0.027020485361247727 0 0.036834056880579932 0.027055927028674234 0 0.036873605188450009 0.027036928472717756 0 0.036758508435567543 0.027090625727171622 0 0.036860941694528575 0.027063264815941481 0 0.036834056880579932 0.027055927028674234 0 0.036758508435567543 0.027090625727171622 0 0.036834056880579932 0.027055927028674234 0 0.036768185002797348 0.027078546500143921 0 0.036834056880579932 0.027055927028674234 0 0.036768185002797348 0.027078546500143921 0 0.036873605188450009 0.027036928472717756 0 0.036768185002797348 0.027078546500143921 0 0.036873605188450009 0.027036928472717756 0 0.036794877823560744 0.027060422575547128 0 0.036768185002797348 0.027078546500143921 0 0.036794877823560744 0.027060422575547128 0 0.036720939324321973 0.027099906994517045 0 0.03693949759547463 0.026965036689270933 0 0.036873605188450009 0.027036928472717756 0 0.037012763630123034 0.026970817578434728 0 0.036873605188450009 0.027036928472717756 0 0.037012763630123034 0.026970817578434728 0 0.036794877823560744 0.027060422575547128 0 0.037012763630123034 0.026970817578434728 0 0.036794877823560744 0.027060422575547128 0 0.036725986119094459 0.027068919211848893 0 0.036794877823560744 0.027060422575547128 0 0.036679071939814081 0.027130851161052478 0 0.036725986119094459 0.027068919211848893 0 0.036679071939814081 0.027130851161052478 0 0.036671233586247673 0.027143140836161043 0 0.036720939324321973 0.027099906994517045 0 0.036794877823560744 0.027060422575547128 0 0.036679071939814081 0.027130851161052478 0 0.036720939324321973 0.027099906994517045 0 0.036679071939814081 0.027130851161052478 0 0.036671233586247673 0.027143140836161043 0 0.036668526194075519 0.027218834640207669 0 0.036673450849435886 0.027115489864955381 0 0.036671233586247673 0.027143140836161043 0 0.036720939324321973 0.027099906994517045 0 0.036673450849435886 0.027115489864955381 0 0.036671233586247673 0.027143140836161043 0 0.036656979152776915 0.027162390006930177 0 0.036673450849435886 0.027115489864955381 0 0.036768185002797348 0.027078546500143921 0 0.036720939324321973 0.027099906994517045 0 0.031265175911578666 0.02143725168658794 0 0.032034091897230228 0.022995112794090923 0 0.02546510527562279 0.015738522500258121 0 0.026327109073151424 0.015565390640837699 0 0.024874849687405536 0.014780502492781679 0 0.02546510527562279 0.015738522500258121 0 0.024958169766875139 0.015642492558921809 0 0.024874849687405536 0.014780502492781679 0 0.02546510527562279 0.015738522500258121 0 0.024958169766875139 0.015642492558921809 0 0.024973263859567749 0.016338681696732943 0 0.02546510527562279 0.015738522500258121 0 0.026327109073151424 0.015565390640837699 0 0.026464655768502876 0.016961435599881981 0 0.032355783919489491 0.021712690976081868 0 0.031265175911578666 0.02143725168658794 0 0.036671233586247673 0.027143140836161043 0 0.036656979152776915 0.027162390006930177 0 0.036668526194075519 0.027218834640207669 0 0.036656979152776915 0.027162390006930177 0 0.036668526194075519 0.027218834640207669 0 0.036670304446909552 0.02722340331892336 0 0.036668526194075519 0.027218834640207669 0 0.036676130201382828 0.027257934369544851 0 0.036670304446909552 0.02722340331892336 0 0.036656979152776915 0.027162390006930177 0 0.036670304446909552 0.02722340331892336 0 0.036683032078627054 0.027271493565710972 0 0.036676130201382828 0.027257934369544851 0 0.036670304446909552 0.02722340331892336 0 0.036678598497738461 0.027268904703004963 0 0.036670304446909552 0.02722340331892336 0 0.036678598497738461 0.027268904703004963 0 0.036683032078627054 0.027271493565710972 0 0.036678598497738461 0.027268904703004963 0 0.036683032078627054 0.027271493565710972 0 0.036678209423342802 0.027273787064693227 0 0.036676130201382828 0.027257934369544851 0 0.036678598497738461 0.027268904703004963 0 0.036678350106312541 0.027285997429348566 0 0.036678350106312541 0.027285997429348566 0 0.036674371798779901 0.027286773557949513 0 0.036673315350555104 0.027301870359266064 0 0.036678598497738461 0.027268904703004963 0 0.036678350106312541 0.027285997429348566 0 0.036674371798779901 0.027286773557949513 0 0.024306674685640801 0.014816741047935128 0 0.024874849687405536 0.014780502492781679 0 0.02358039050919283 0.014462905440435806 0 0.036674371798779901 0.027286773557949513 0 0.036672803626824894 0.027281292851096147 0 0.036664451414824648 0.027296468840232103 0 0.036674371798779901 0.027286773557949513 0 0.036664451414824648 0.027296468840232103 0 0.036673315350555104 0.027301870359266064 0 0.032034091897230228 0.022995112794090923 0 0.029261001761971859 0.021100228360927922 0 0.03665641444587945 0.027287384303460307 0 0.036683032078627054 0.027271493565710972 0 0.03656873891530138 0.027325752817988505 0 0.03665641444587945 0.027287384303460307 0 0.036642278192894104 0.027295583658297505 0 0.03656873891530138 0.027325752817988505 0 0.032034091897230228 0.022995112794090923 0 0.037672877789087886 0.027348594652514189 0 0.024874849687405536 0.014780502492781679 0 0.022769241321640796 0.013796955268682791 0 0.02358039050919283 0.014462905440435806 0 0.036678598497738461 0.027268904703004963 0 0.036672803626824894 0.027281292851096147 0 0.036678209423342802 0.027273787064693227 0 0.036678598497738461 0.027268904703004963 0 0.036674371798779901 0.027286773557949513 0 0.036672803626824894 0.027281292851096147 0 0.036672803626824894 0.027281292851096147 0 0.036678209423342802 0.027273787064693227 0 0.036669889071796608 0.027280401157760502 0 0.036672803626824894 0.027281292851096147 0 0.036660716171841419 0.027289657902879114 0 0.036669889071796608 0.027280401157760502 0 0.036672803626824894 0.027281292851096147 0 0.036660716171841419 0.027289657902879114 0 0.036664451414824648 0.027296468840232103 0 0.03665641444587945 0.027287384303460307 0 0.036660716171841419 0.027289657902879114 0 0.036669889071796608 0.027280401157760502 0 0.036660716171841419 0.027289657902879114 0 0.036664451414824648 0.027296468840232103 0 0.036649699019757981 0.027298358656459965 0 0.036649699019757981 0.027298358656459965 0 0.03662716213742296 0.027304989102306582 0 0.036648944475075572 0.027306716794049876 0 0.036664451414824648 0.027296468840232103 0 0.036649699019757981 0.027298358656459965 0 0.036648944475075572 0.027306716794049876 0 0.036649699019757981 0.027298358656459965 0 0.03662716213742296 0.027304989102306582 0 0.036642278192894104 0.027295583658297505 0 0.03662716213742296 0.027304989102306582 0 0.036628679564915008 0.02731181852793255 0 0.036648944475075572 0.027306716794049876 0 0.036660716171841419 0.027289657902879114 0 0.036649699019757981 0.027298358656459965 0 0.036642278192894104 0.027295583658297505 0 0.03665641444587945 0.027287384303460307 0 0.036660716171841419 0.027289657902879114 0 0.036642278192894104 0.027295583658297505 0 0.023976467212902759 0.014769307038074773 0 0.024306674685640801 0.014816741047935128 0 0.02358039050919283 0.014462905440435806 0 0.023801757276118746 0.014727558115958208 0 0.023976467212902759 0.014769307038074773 0 0.02358039050919283 0.014462905440435806 0 0.023801757276118746 0.014727558115958208 0 0.023584390970434684 0.014845367412512923 0 0.023912680035194794 0.015019236125255235 0 0.023976467212902759 0.014769307038074773 0 0.024224368141584296 0.014997016088184463 0 0.023912680035194794 0.015019236125255235 0 0.023801757276118746 0.014727558115958208 0 0.023976467212902759 0.014769307038074773 0 0.023912680035194794 0.015019236125255235 0 0.023976467212902759 0.014769307038074773 0 0.024306674685640801 0.014816741047935128 0 0.024224368141584296 0.014997016088184463 0 0.024306674685640801 0.014816741047935128 0 0.024505227276629075 0.014944612786829296 0 0.024224368141584296 0.014997016088184463 0 0.024306674685640801 0.014816741047935128 0 0.024505227276629075 0.014944612786829296 0 0.024874849687405536 0.014780502492781679 0 0.024505227276629075 0.014944612786829296 0 0.024874849687405536 0.014780502492781679 0 0.024584363287412144 0.015097125369029959 0 0.036683032078627054 0.027271493565710972 0 0.036678209423342802 0.027273787064693227 0 0.036669889071796608 0.027280401157760502 0 0.03665641444587945 0.027287384303460307 0 0.036683032078627054 0.027271493565710972 0 0.036669889071796608 0.027280401157760502 0 0.03513976633199116 0.026486184862345274 0 0.03656873891530138 0.027325752817988505 0 0.036682406360969762 0.027170391707241337 0 0.022769241321640796 0.013796955268682791 0 0.022590303474486057 0.014181768963149986 0 0.022181804581197388 0.014124310770818703 0 0.036641241427638492 0.027291032348796283 0 0.036682406360969762 0.027170391707241337 0 0.036678380241135976 0.027287842763711545 0 0.036641241427638492 0.027291032348796283 0 0.03656873891530138 0.027325752817988505 0 0.036682406360969762 0.027170391707241337 0 0.022769241321640796 0.013796955268682791 0 0.023055097050520279 0.014181302688950553 0 0.022843419671360277 0.014213303013625526 0 0.022769241321640796 0.013796955268682791 0 0.022843419671360277 0.014213303013625526 0 0.022590303474486057 0.014181768963149986 0 0.03662716213742296 0.027304989102306582 0 0.036642278192894104 0.027295583658297505 0 0.03656873891530138 0.027325752817988505 0 0.03662716213742296 0.027304989102306582 0 0.03656873891530138 0.027325752817988505 0 0.036611649594458354 0.027314627322385637 0 0.03662716213742296 0.027304989102306582 0 0.036628679564915008 0.02731181852793255 0 0.036611649594458354 0.027314627322385637 0 0.022769241321640796 0.013796955268682791 0 0.02358039050919283 0.014462905440435806 0 0.023055097050520279 0.014181302688950553 0 0.02358039050919283 0.014462905440435806 0 0.023584390970434684 0.014845367412512923 0 0.023296979542120028 0.014690543355783152 0 0.023801757276118746 0.014727558115958208 0 0.02358039050919283 0.014462905440435806 0 0.023584390970434684 0.014845367412512923 0 0.023296979542120028 0.014690543355783152 0 0.023082293479985885 0.014467248164317666 0 0.022943439971159618 0.014819120427713377 0 0.02358039050919283 0.014462905440435806 0 0.023296979542120028 0.014690543355783152 0 0.023082293479985885 0.014467248164317666 0 0.02358039050919283 0.014462905440435806 0 0.023082293479985885 0.014467248164317666 0 0.023055097050520279 0.014181302688950553 0 0.023082293479985885 0.014467248164317666 0 0.023055097050520279 0.014181302688950553 0 0.022843419671360277 0.014213303013625526 0 0.022843419671360277 0.014213303013625526 0 0.022741733121409362 0.014442428827299656 0 0.022590303474486057 0.014181768963149986 0 0.023082293479985885 0.014467248164317666 0 0.022843419671360277 0.014213303013625526 0 0.022741733121409362 0.014442428827299656 0 0.023082293479985885 0.014467248164317666 0 0.022741733121409362 0.014442428827299656 0 0.022943439971159618 0.014819120427713377 0 0.022741733121409362 0.014442428827299656 0 0.022943439971159618 0.014819120427713377 0 0.022402845086837524 0.014859978221164352 0 0.022741733121409362 0.014442428827299656 0 0.022376925887261343 0.014426952406820676 0 0.022402845086837524 0.014859978221164352 0 0.022376925887261343 0.014426952406820676 0 0.022590303474486057 0.014181768963149986 0 0.022181804581197388 0.014124310770818703 0 0.022741733121409362 0.014442428827299656 0 0.022376925887261343 0.014426952406820676 0 0.022590303474486057 0.014181768963149986 0 0.022402845086837524 0.014859978221164352 0 0.022790532839804409 0.015231507671236074 0 0.022288243938336918 0.015604274896846272 0 0.022790532839804409 0.015231507671236074 0 0.023002347706257281 0.01573237870095455 0 0.022288243938336918 0.015604274896846272 0 0.022943439971159618 0.014819120427713377 0 0.022402845086837524 0.014859978221164352 0 0.022790532839804409 0.015231507671236074 0 0.022943439971159618 0.014819120427713377 0 0.022790532839804409 0.015231507671236074 0 0.02323705625227053 0.015110067901032781 0 0.022790532839804409 0.015231507671236074 0 0.02323705625227053 0.015110067901032781 0 0.023002347706257281 0.01573237870095455 0 0.02323705625227053 0.015110067901032781 0 0.023541635121083492 0.015680585768201756 0 0.023002347706257281 0.01573237870095455 0 0.023584390970434684 0.014845367412512923 0 0.023296979542120028 0.014690543355783152 0 0.02323705625227053 0.015110067901032781 0 0.023296979542120028 0.014690543355783152 0 0.022943439971159618 0.014819120427713377 0 0.02323705625227053 0.015110067901032781 0 0.023584390970434684 0.014845367412512923 0 0.02323705625227053 0.015110067901032781 0 0.023635189331815586 0.015179943903934547 0 0.023584390970434684 0.014845367412512923 0 0.023635189331815586 0.015179943903934547 0 0.023912680035194794 0.015019236125255235 0 0.023635189331815586 0.015179943903934547 0 0.023541635121083492 0.015680585768201756 0 0.023952425599328954 0.015402615573905775 0 0.02323705625227053 0.015110067901032781 0 0.023635189331815586 0.015179943903934547 0 0.023541635121083492 0.015680585768201756 0 0.023541635121083492 0.015680585768201756 0 0.023806995861264779 0.016163403161912619 0 0.023371657922701614 0.016368091491080154 0 0.023541635121083492 0.015680585768201756 0 0.023002347706257281 0.01573237870095455 0 0.023371657922701614 0.016368091491080154 0 0.023002347706257281 0.01573237870095455 0 0.022725658569663618 0.016192014659730136 0 0.022288243938336918 0.015604274896846272 0 0.023002347706257281 0.01573237870095455 0 0.022725658569663618 0.016192014659730136 0 0.023371657922701614 0.016368091491080154 0 0.024958169766875139 0.015642492558921809 0 0.024874849687405536 0.014780502492781679 0 0.024689763697242594 0.015309738128836967 0 0.024351324430282668 0.015504256547302668 0 0.024689763697242594 0.015309738128836967 0 0.024424460167741562 0.015204579673993262 0 0.024625159575366262 0.015594217640835696 0 0.024351324430282668 0.015504256547302668 0 0.024689763697242594 0.015309738128836967 0 0.024958169766875139 0.015642492558921809 0 0.024625159575366262 0.015594217640835696 0 0.024689763697242594 0.015309738128836967 0 0.024874849687405536 0.014780502492781679 0 0.024689763697242594 0.015309738128836967 0 0.024584363287412144 0.015097125369029959 0 0.024689763697242594 0.015309738128836967 0 0.024584363287412144 0.015097125369029959 0 0.024424460167741562 0.015204579673993262 0 0.024505227276629075 0.014944612786829296 0 0.024584363287412144 0.015097125369029959 0 0.024424460167741562 0.015204579673993262 0 0.024505227276629075 0.014944612786829296 0 0.024424460167741562 0.015204579673993262 0 0.024224368141584296 0.014997016088184463 0 0.024224368141584296 0.014997016088184463 0 0.024183440581595654 0.0152114495488437 0 0.023912680035194794 0.015019236125255235 0 0.024424460167741562 0.015204579673993262 0 0.024224368141584296 0.014997016088184463 0 0.024183440581595654 0.0152114495488437 0 0.023635189331815586 0.015179943903934547 0 0.023912680035194794 0.015019236125255235 0 0.023952425599328954 0.015402615573905775 0 0.024183440581595654 0.0152114495488437 0 0.023912680035194794 0.015019236125255235 0 0.023952425599328954 0.015402615573905775 0 0.024351324430282668 0.015504256547302668 0 0.024183440581595654 0.0152114495488437 0 0.023952425599328954 0.015402615573905775 0 0.024351324430282668 0.015504256547302668 0 0.023952425599328954 0.015402615573905775 0 0.024070422926248312 0.015813328548961465 0 0.024351324430282668 0.015504256547302668 0 0.024424460167741562 0.015204579673993262 0 0.024183440581595654 0.0152114495488437 0 0.024351324430282668 0.015504256547302668 0 0.024070422926248312 0.015813328548961465 0 0.02454924064331707 0.01593108749065969 0 0.023541635121083492 0.015680585768201756 0 0.024070422926248312 0.015813328548961465 0 0.023806995861264779 0.016163403161912619 0 0.023541635121083492 0.015680585768201756 0 0.023952425599328954 0.015402615573905775 0 0.024070422926248312 0.015813328548961465 0 0.024070422926248312 0.015813328548961465 0 0.023806995861264779 0.016163403161912619 0 0.024202183308730939 0.016193657797441498 0 0.024070422926248312 0.015813328548961465 0 0.024202183308730939 0.016193657797441498 0 0.02454924064331707 0.01593108749065969 0 0.024202183308730939 0.016193657797441498 0 0.02454924064331707 0.01593108749065969 0 0.024468885580492324 0.016529167107905265 0 0.024958169766875139 0.015642492558921809 0 0.02454924064331707 0.01593108749065969 0 0.024973263859567749 0.016338681696732943 0 0.024625159575366262 0.015594217640835696 0 0.024351324430282668 0.015504256547302668 0 0.02454924064331707 0.01593108749065969 0 0.024958169766875139 0.015642492558921809 0 0.024625159575366262 0.015594217640835696 0 0.02454924064331707 0.01593108749065969 0 0.024468885580492324 0.016529167107905265 0 0.024824434981415233 0.017092378998876383 0 0.024973263859567749 0.016338681696732943 0 0.02454924064331707 0.01593108749065969 0 0.024468885580492324 0.016529167107905265 0 0.024973263859567749 0.016338681696732943 0 0.024202183308730939 0.016193657797441498 0 0.024468885580492324 0.016529167107905265 0 0.023940574753864373 0.0166431039875727 0 0.023806995861264779 0.016163403161912619 0 0.024202183308730939 0.016193657797441498 0 0.023940574753864373 0.0166431039875727 0 0.024468885580492324 0.016529167107905265 0 0.023940574753864373 0.0166431039875727 0 0.024199160157309111 0.017170070877513301 0 0.023940574753864373 0.0166431039875727 0 0.024199160157309111 0.017170070877513301 0 0.023592995366913179 0.017066009454387486 0 0.024199160157309111 0.017170070877513301 0 0.023592995366913179 0.017066009454387486 0 0.023857486936096465 0.017814818851934179 0 0.024468885580492324 0.016529167107905265 0 0.024199160157309111 0.017170070877513301 0 0.024824434981415233 0.017092378998876383 0 0.024199160157309111 0.017170070877513301 0 0.024824434981415233 0.017092378998876383 0 0.024509008512513066 0.017655174328528818 0 0.022725658569663618 0.016192014659730136 0 0.022942144083159588 0.016836437560884421 0 0.021969675976609433 0.016474839356781634 0 0.022725658569663618 0.016192014659730136 0 0.022942144083159588 0.016836437560884421 0 0.023371657922701614 0.016368091491080154 0 0.023940574753864373 0.0166431039875727 0 0.023371657922701614 0.016368091491080154 0 0.023592995366913179 0.017066009454387486 0 0.022942144083159588 0.016836437560884421 0 0.023371657922701614 0.016368091491080154 0 0.023592995366913179 0.017066009454387486 0 0.023806995861264779 0.016163403161912619 0 0.023940574753864373 0.0166431039875727 0 0.023371657922701614 0.016368091491080154 0 0.022942144083159588 0.016836437560884421 0 0.023592995366913179 0.017066009454387486 0 0.023175113085934455 0.017490389317188111 0 0.023592995366913179 0.017066009454387486 0 0.023175113085934455 0.017490389317188111 0 0.023857486936096465 0.017814818851934179 0 0.022942144083159588 0.016836437560884421 0 0.023175113085934455 0.017490389317188111 0 0.022343555597631824 0.017696781741146944 0 0.023191836398417078 0.018129572716983379 0 0.022729248358441909 0.018715027033468754 0 0.022343555597631824 0.017696781741146944 0 0.023175113085934455 0.017490389317188111 0 0.023191836398417078 0.018129572716983379 0 0.022343555597631824 0.017696781741146944 0 0.023191836398417078 0.018129572716983379 0 0.023784067392655817 0.018559445380027809 0 0.023857486936096465 0.017814818851934179 0 0.023175113085934455 0.017490389317188111 0 0.023191836398417078 0.018129572716983379 0 0.023857486936096465 0.017814818851934179 0 0.023191836398417078 0.018129572716983379 0 0.023784067392655817 0.018559445380027809 0 0.022729248358441909 0.018715027033468754 0 0.024509008512513066 0.017655174328528818 0 0.023857486936096465 0.017814818851934179 0 0.024365956520458289 0.018302925681038088 0 0.024509008512513066 0.017655174328528818 0 0.024365956520458289 0.018302925681038088 0 0.025093268399153729 0.017787786470865565 0 0.024199160157309111 0.017170070877513301 0 0.024509008512513066 0.017655174328528818 0 0.023857486936096465 0.017814818851934179 0 0.023784067392655817 0.018559445380027809 0 0.024365956520458289 0.018302925681038088 0 0.024367619761084699 0.019060195502281656 0 0.023784067392655817 0.018559445380027809 0 0.023857486936096465 0.017814818851934179 0 0.024365956520458289 0.018302925681038088 0 0.024365956520458289 0.018302925681038088 0 0.024753950932926986 0.018558381959995724 0 0.025093268399153729 0.017787786470865565 0 0.024753950932926986 0.018558381959995724 0 0.025535691095079766 0.01832854278508329 0 0.025093268399153729 0.017787786470865565 0 0.025093268399153729 0.017787786470865565 0 0.025448745863577364 0.01695641508210699 0 0.025975314751770531 0.017669234007371616 0 0.025535691095079766 0.01832854278508329 0 0.025093268399153729 0.017787786470865565 0 0.025975314751770531 0.017669234007371616 0 0.024824434981415233 0.017092378998876383 0 0.024509008512513066 0.017655174328528818 0 0.025093268399153729 0.017787786470865565 0 0.02546510527562279 0.015738522500258121 0 0.025448745863577364 0.01695641508210699 0 0.026464655768502876 0.016961435599881981 0 0.024824434981415233 0.017092378998876383 0 0.025093268399153729 0.017787786470865565 0 0.025448745863577364 0.01695641508210699 0 0.02546510527562279 0.015738522500258121 0 0.025448745863577364 0.01695641508210699 0 0.024973263859567749 0.016338681696732943 0 0.024824434981415233 0.017092378998876383 0 0.025448745863577364 0.01695641508210699 0 0.024973263859567749 0.016338681696732943 0 0.027975584040391254 0.016257826472740915 0 0.026327109073151424 0.015565390640837699 0 0.026464655768502876 0.016961435599881981 0 0.025448745863577364 0.01695641508210699 0 0.026464655768502876 0.016961435599881981 0 0.025975314751770531 0.017669234007371616 0 0.027515423750532859 0.018374270787701926 0 0.026464655768502876 0.016961435599881981 0 0.025975314751770531 0.017669234007371616 0 0.027515423750532859 0.018374270787701926 0 0.025535691095079766 0.01832854278508329 0 0.025975314751770531 0.017669234007371616 0 0.028507065322246894 0.018002091844203309 0 0.02626180021232976 0.018221212020891973 0 0.029469426547589647 0.017274854773468618 0 0.025535691095079766 0.01832854278508329 0 0.027201013781996096 0.019241034154978874 0 0.029476427357795747 0.020170526541687342 0 0.029469426547589647 0.017274854773468618 0 0.027201013781996096 0.019241034154978874 0 0.027201013781996096 0.019241034154978874 0 0.02470066569681563 0.019421770323953657 0 0.027156838328594484 0.021318277726337747 0 0.029476427357795747 0.020170526541687342 0 0.027201013781996096 0.019241034154978874 0 0.027156838328594484 0.021318277726337747 0 0.024753950932926986 0.018558381959995724 0 0.02470066569681563 0.019421770323953657 0 0.024367619761084699 0.019060195502281656 0 0.024753950932926986 0.018558381959995724 0 0.025535691095079766 0.01832854278508329 0 0.02470066569681563 0.019421770323953657 0 0.025535691095079766 0.01832854278508329 0 0.027201013781996096 0.019241034154978874 0 0.02470066569681563 0.019421770323953657 0 0.025023477592883925 0.019334650634692935 0 0.025904972833882919 0.019450887519956214 0 0.02470066569681563 0.019421770323953657 0 0.024378331541797728 0.019386166821459699 0 0.024072727511284305 0.019259832483392567 0 0.02470066569681563 0.019421770323953657 0 0.024378331541797728 0.019386166821459699 0 0.024367619761084699 0.019060195502281656 0 0.024378331541797728 0.019386166821459699 0 0.024072727511284305 0.019259832483392567 0 0.024246978770061108 0.019349311540397356 0 0.02470066569681563 0.019421770323953657 0 0.024072727511284305 0.019259832483392567 0 0.02341062769632964 0.019319222673719282 0 0.024072727511284305 0.019259832483392567 0 0.02341062769632964 0.019319222673719282 0 0.023564110655051762 0.018825866409214347 0 0.024072727511284305 0.019259832483392567 0 0.023564110655051762 0.018825866409214347 0 0.024112285810179539 0.019064720335784741 0 0.024072727511284305 0.019259832483392567 0 0.024112285810179539 0.019064720335784741 0 0.024246978770061108 0.019349311540397356 0 0.022782793659057388 0.018878622612741515 0 0.02341062769632964 0.019319222673719282 0 0.023564110655051762 0.018825866409214347 0 0.02956746668354979 0.023171218577969409 0 0.029476427357795747 0.020170526541687342 0 0.027156838328594484 0.021318277726337747 0 0.029091550200457901 0.018255670418684304 0 0.025904972833882919 0.019450887519956214 0 0.022782793659057388 0.018878622612741515 0 0.023564110655051762 0.018825866409214347 0 0.02322203147791839 0.017996659588651737 0 0.029091550200457901 0.018255670418684304 0 0.025770458758487529 0.015546910786552744 0 0.029937469159625165 0.011661463136172546 0 0.028063558124700808 0.012690271953075552 0 0.029164432366899248 0.012518680601735168 0 0.023564110655051762 0.018825866409214347 0 0.023783610320466293 0.018463145022738332 0 0.02322203147791839 0.017996659588651737 0 0.023564110655051762 0.018825866409214347 0 0.023783610320466293 0.018463145022738332 0 0.024112285810179539 0.019064720335784741 0 0.024983875098959853 0.01557002538427461 0 0.025770458758487529 0.015546910786552744 0 0.023783610320466293 0.018463145022738332 0 0.02322203147791839 0.017996659588651737 0 0.024311573293422449 0.0178101964693562 0 0.026054665659083362 0.015580853404310351 0 0.028063558124700808 0.012690271953075552 0 0.029164432366899248 0.012518680601735168 0 0.02930953515913752 0.012343111435192837 0 0.029368141977548057 0.012371198272413697 0 0.030343829129968216 0.011265315779739063 0 0.031386838793483127 0.010588060874981792 0 0.029164432366899248 0.012518680601735168 0 0.030343829129968216 0.011265315779739063 0 0.029566543545929847 0.011945117258109482 0 0.029164432366899248 0.012518680601735168 0 0.030343829129968216 0.011265315779739063 0 0.02946380530414424 0.011667531932198433 0 0.029566543545929847 0.011945117258109482 0 0.029531217896471021 0.011991741695487194 0 0.029566543545929847 0.011945117258109482 0 0.029164432366899248 0.012518680601735168 0 0.026448792309073075 0.016420440562193588 0 0.025363673972172842 0.01703275641246179 0 0.025846777173947604 0.018288260519048687 0 0.025363673972172842 0.01703275641246179 0 0.024311573293422449 0.0178101964693562 0 0.024985626222365921 0.018216122244297386 0 0.025363673972172842 0.01703275641246179 0 0.024985626222365921 0.018216122244297386 0 0.025846777173947604 0.018288260519048687 0 0.024648684620797744 0.015562285495434295 0 0.025363673972172842 0.01703275641246179 0 0.024311573293422449 0.0178101964693562 0 0.024648684620797744 0.015562285495434295 0 0.02322203147791839 0.017996659588651737 0 0.024311573293422449 0.0178101964693562 0 0.024311573293422449 0.0178101964693562 0 0.024169404347260226 0.018607727367359685 0 0.024420771281508998 0.018904166628178981 0 0.024311573293422449 0.0178101964693562 0 0.024420771281508998 0.018904166628178981 0 0.024985626222365921 0.018216122244297386 0 0.023783610320466293 0.018463145022738332 0 0.024311573293422449 0.0178101964693562 0 0.024169404347260226 0.018607727367359685 0 0.023783610320466293 0.018463145022738332 0 0.024169404347260226 0.018607727367359685 0 0.024112285810179539 0.019064720335784741 0 0.024169404347260226 0.018607727367359685 0 0.024112285810179539 0.019064720335784741 0 0.024420771281508998 0.018904166628178981 0 0.024112285810179539 0.019064720335784741 0 0.024420771281508998 0.018904166628178981 0 0.024272727160925683 0.01945405104428486 0 0.024420771281508998 0.018904166628178981 0 0.024985626222365921 0.018216122244297386 0 0.024395947714346836 0.020058065506442808 0 0.024420771281508998 0.018904166628178981 0 0.024395947714346836 0.020058065506442808 0 0.024272727160925683 0.01945405104428486 0 0.024985626222365921 0.018216122244297386 0 0.024395947714346836 0.020058065506442808 0 0.025846777173947604 0.018288260519048687 0 0.024395947714346836 0.020058065506442808 0 0.024096729823776551 0.019590154794740418 0 0.022900638286357567 0.019557359609146039 0 0.024395947714346836 0.020058065506442808 0 0.024096729823776551 0.019590154794740418 0 0.024272727160925683 0.01945405104428486 0 0.024112285810179539 0.019064720335784741 0 0.024272727160925683 0.01945405104428486 0 0.024246978770061108 0.019349311540397356 0 0.024096729823776551 0.019590154794740418 0 0.024272727160925683 0.01945405104428486 0 0.024236622931920224 0.019413452680915915 0 0.024378331541797728 0.019386166821459699 0 0.024236622931920224 0.019413452680915915 0 0.024246978770061108 0.019349311540397356 0 0.024272727160925683 0.01945405104428486 0 0.024236622931920224 0.019413452680915915 0 0.024246978770061108 0.019349311540397356 0 0.024378331541797728 0.019386166821459699 0 0.024236622931920224 0.019413452680915915 0 0.024367619761084699 0.019060195502281656 0 0.024236622931920224 0.019413452680915915 0 0.024367619761084699 0.019060195502281656 0 0.023813633067036953 0.019136613261418446 0 0.024096729823776551 0.019590154794740418 0 0.024236622931920224 0.019413452680915915 0 0.023813633067036953 0.019136613261418446 0 0.023784067392655817 0.018559445380027809 0 0.024367619761084699 0.019060195502281656 0 0.023813633067036953 0.019136613261418446 0 0.024365956520458289 0.018302925681038088 0 0.024753950932926986 0.018558381959995724 0 0.024367619761084699 0.019060195502281656 0 0.023813633067036953 0.019136613261418446 0 0.022900638286357567 0.019557359609146039 0 0.022729248358441909 0.018715027033468754 0 0.024096729823776551 0.019590154794740418 0 0.023813633067036953 0.019136613261418446 0 0.022900638286357567 0.019557359609146039 0 0.023784067392655817 0.018559445380027809 0 0.023813633067036953 0.019136613261418446 0 0.022729248358441909 0.018715027033468754 0 0.021804861876207018 0.019148556925036943 0 0.022900638286357567 0.019557359609146039 0 0.022729248358441909 0.018715027033468754 0 0.021804861876207018 0.019148556925036943 0 0.020575358597648887 0.019727179996394201 0 0.022900638286357567 0.019557359609146039 0 0.021804861876207018 0.019148556925036943 0 0.020575358597648887 0.019727179996394201 0 0.020991099116817579 0.018616345410430842 0 0.020575358597648887 0.019727179996394201 0 0.022900638286357567 0.019557359609146039 0 0.021529515871952006 0.021401457648140634 0 0.018012135085930754 0.023707652116558942 0 0.018247482948216546 0.026172747796369262 0 0.016309135841429893 0.025193067575440962 0 0.019470143981359624 0.021754878465407558 0 0.021326284671094733 0.020019115416593122 0 0.024395947714346836 0.020058065506442808 0 0.022900638286357567 0.019557359609146039 0 0.021529515871952006 0.021401457648140634 0 0.024395947714346836 0.020058065506442808 0 0.025846777173947604 0.018288260519048687 0 0.028793665966768238 0.019187699273810196 0 0.025323670933057481 0.01974800880994779 0 0.021326284671094733 0.020019115416593122 0 0.021326284671094733 0.020019115416593122 0 0.025283659887684967 0.014089000584236004 0 0.019891561328529903 0.014430585271590281 0 0.020189610748019452 0.013856170869828053 0 0.01967128513855642 0.013540418718715336 0 0.025846777173947604 0.018288260519048687 0 0.028793665966768238 0.019187699273810196 0 0.027879922833101096 0.015722876235826872 0 0.025539296803176743 0.017121660382460064 0 0.025283659887684967 0.014089000584236004 0 0.026448792309073075 0.016420440562193588 0 0.025846777173947604 0.018288260519048687 0 0.027682812393258246 0.016672242009731018 0 0.020721684711460041 0.013524447192567719 0 0.020701221190528307 0.014168959043309176 0 0.021460877847139185 0.013935918028772313 0 0.018056582082331178 0.02000529256053148 0 0.016826359351761064 0.017764038411394102 0 0.020189610748019452 0.013856170869828053 0 0.020721684711460041 0.013524447192567719 0 0.020701221190528307 0.014168959043309176 0 0.018247482948216546 0.026172747796369262 0 0.015987477833065027 0.026649697945371486 0 0.016309135841429893 0.025193067575440962 0 0.019891561328529903 0.014430585271590281 0 0.020189610748019452 0.013856170869828053 0 0.020701221190528307 0.014168959043309176 0 0.021326284671094733 0.020019115416593122 0 0.018056582082331178 0.02000529256053148 0 0.015987477833065027 0.026649697945371486 0 0.01444963640348366 0.025223395371504701 0 0.013926580211532875 0.02696443105222145 0 0.015987477833065027 0.026649697945371486 0 0.01444963640348366 0.025223395371504701 0 0.016309135841429893 0.025193067575440962 0 0.01444963640348366 0.025223395371504701 0 0.016309135841429893 0.025193067575440962 0 0.014938519449361767 0.023820557130412222 0 0.01444963640348366 0.025223395371504701 0 0.014938519449361767 0.023820557130412222 0 0.013420681473769321 0.023304834215880629 0 0.018012135085930754 0.023707652116558942 0 0.016309135841429893 0.025193067575440962 0 0.014938519449361767 0.023820557130412222 0 0.018012135085930754 0.023707652116558942 0 0.014938519449361767 0.023820557130412222 0 0.013815798665981007 0.021709372382222251 0 0.014938519449361767 0.023820557130412222 0 0.013815798665981007 0.021709372382222251 0 0.013420681473769321 0.023304834215880629 0 0.013815798665981007 0.021709372382222251 0 0.012980390557860703 0.023175967056131456 0 0.013302500411886306 0.02263381101427011 0 0.013815798665981007 0.021709372382222251 0 0.012368052698098424 0.023528093117305606 0 0.010825520251296496 0.023975070916290742 0 0.013671040328464754 0.021624269744112991 0 0.014125826093820966 0.020886473427707972 0 0.013815798665981007 0.021709372382222251 0 0.012368052698098424 0.023528093117305606 0 0.012980390557860703 0.023175967056131456 0 0.012368052698098424 0.023528093117305606 0 0.010825520251296496 0.023975070916290742 0 0.011606118820602411 0.024594209263573769 0 0.012368052698098424 0.023528093117305606 0 0.012362735816319094 0.024353918108965741 0 0.012980390557860703 0.023175967056131456 0 0.012368052698098424 0.023528093117305606 0 0.012362735816319094 0.024353918108965741 0 0.011606118820602411 0.024594209263573769 0 0.013815798665981007 0.021709372382222251 0 0.016450432098729758 0.016612333058345329 0 0.018267446134552629 0.018992379320421797 0 0.016450432098729758 0.016612333058345329 0 0.018267446134552629 0.018992379320421797 0 0.01900005584040031 0.016628497841445898 0 0.019470143981359624 0.021754878465407558 0 0.018445458651413088 0.019018885720061919 0 0.018012135085930754 0.023707652116558942 0 0.013815798665981007 0.021709372382222251 0 0.018267446134552629 0.018992379320421797 0 0.018267446134552629 0.018992379320421797 0 0.020991099116817579 0.018616345410430842 0 0.019991131848367597 0.017688660510053293 0 0.020575358597648887 0.019727179996394201 0 0.018267446134552629 0.018992379320421797 0 0.020991099116817579 0.018616345410430842 0 0.020991099116817579 0.018616345410430842 0 0.022729248358441909 0.018715027033468754 0 0.022343555597631824 0.017696781741146944 0 0.021804861876207018 0.019148556925036943 0 0.020991099116817579 0.018616345410430842 0 0.022729248358441909 0.018715027033468754 0 0.022343555597631824 0.017696781741146944 0 0.021058433546360538 0.017282544102261318 0 0.021969675976609433 0.016474839356781634 0 0.020991099116817579 0.018616345410430842 0 0.022343555597631824 0.017696781741146944 0 0.021058433546360538 0.017282544102261318 0 0.021058433546360538 0.017282544102261318 0 0.021158660300645459 0.016385529500178561 0 0.021969675976609433 0.016474839356781634 0 0.022942144083159588 0.016836437560884421 0 0.022343555597631824 0.017696781741146944 0 0.021969675976609433 0.016474839356781634 0 0.018267446134552629 0.018992379320421797 0 0.019991131848367597 0.017688660510053293 0 0.01900005584040031 0.016628497841445898 0 0.020991099116817579 0.018616345410430842 0 0.021058433546360538 0.017282544102261318 0 0.019991131848367597 0.017688660510053293 0 0.021058433546360538 0.017282544102261318 0 0.019991131848367597 0.017688660510053293 0 0.020388327370001885 0.01621121455221896 0 0.021058433546360538 0.017282544102261318 0 0.021158660300645459 0.016385529500178561 0 0.020388327370001885 0.01621121455221896 0 0.019991131848367597 0.017688660510053293 0 0.01900005584040031 0.016628497841445898 0 0.020388327370001885 0.01621121455221896 0 0.01900005584040031 0.016628497841445898 0 0.0196845004581447 0.015518166086865149 0 0.020388327370001885 0.01621121455221896 0 0.01900005584040031 0.016628497841445898 0 0.0196845004581447 0.015518166086865149 0 0.01871251569539199 0.01514307154779837 0 0.020388327370001885 0.01621121455221896 0 0.020469608329815887 0.015233715051122558 0 0.021326757143105508 0.015671206878659711 0 0.0196845004581447 0.015518166086865149 0 0.020388327370001885 0.01621121455221896 0 0.020469608329815887 0.015233715051122558 0 0.0196845004581447 0.015518166086865149 0 0.020469608329815887 0.015233715051122558 0 0.019797466020968529 0.014786036636124272 0 0.020469608329815887 0.015233715051122558 0 0.021122110282646638 0.014807911238887644 0 0.020467420083368479 0.01449629679401879 0 0.020469608329815887 0.015233715051122558 0 0.019797466020968529 0.014786036636124272 0 0.020467420083368479 0.01449629679401879 0 0.0196845004581447 0.015518166086865149 0 0.019797466020968529 0.014786036636124272 0 0.01871251569539199 0.01514307154779837 0 0.019797466020968529 0.014786036636124272 0 0.019295429296360363 0.014373421002494816 0 0.01871251569539199 0.01514307154779837 0 0.022725658569663618 0.016192014659730136 0 0.021969675976609433 0.016474839356781634 0 0.022288243938336918 0.015604274896846272 0 0.021969675976609433 0.016474839356781634 0 0.022288243938336918 0.015604274896846272 0 0.021326757143105508 0.015671206878659711 0 0.021158660300645459 0.016385529500178561 0 0.020388327370001885 0.01621121455221896 0 0.021326757143105508 0.015671206878659711 0 0.021158660300645459 0.016385529500178561 0 0.021969675976609433 0.016474839356781634 0 0.021326757143105508 0.015671206878659711 0 0.021326757143105508 0.015671206878659711 0 0.021122110282646638 0.014807911238887644 0 0.021772667032112406 0.01496421308855005 0 0.020469608329815887 0.015233715051122558 0 0.021326757143105508 0.015671206878659711 0 0.021122110282646638 0.014807911238887644 0 0.022288243938336918 0.015604274896846272 0 0.021326757143105508 0.015671206878659711 0 0.021772667032112406 0.01496421308855005 0 0.022402845086837524 0.014859978221164352 0 0.022288243938336918 0.015604274896846272 0 0.021772667032112406 0.01496421308855005 0 0.029261001761971859 0.021100228360927922 0 0.025245016514726163 0.025505526855669123 0 0.022769241321640796 0.013796955268682791 0 0.021072406371967074 0.013566490852021336 0 0.021676962851651868 0.013872299830228941 0 0.036682406360969762 0.027170391707241337 0 0.036713834840828512 0.027332750893219768 0 0.036678380241135976 0.027287842763711545 0 0.022769241321640796 0.013796955268682791 0 0.021072406371967074 0.013566490852021336 0 0.020102149822474848 0.012842463707124253 0 0.022181804581197388 0.014124310770818703 0 0.021995496585043829 0.014494673396224449 0 0.021735546058337048 0.014169841140131255 0 0.022376925887261343 0.014426952406820676 0 0.022181804581197388 0.014124310770818703 0 0.021995496585043829 0.014494673396224449 0 0.022376925887261343 0.014426952406820676 0 0.022402845086837524 0.014859978221164352 0 0.021995496585043829 0.014494673396224449 0 0.022402845086837524 0.014859978221164352 0 0.021772667032112406 0.01496421308855005 0 0.021995496585043829 0.014494673396224449 0 0.021772667032112406 0.01496421308855005 0 0.021995496585043829 0.014494673396224449 0 0.021487338502196793 0.014413241854265792 0 0.022181804581197388 0.014124310770818703 0 0.021735546058337048 0.014169841140131255 0 0.021676962851651868 0.013872299830228941 0 0.021995496585043829 0.014494673396224449 0 0.021735546058337048 0.014169841140131255 0 0.021487338502196793 0.014413241854265792 0 0.021735546058337048 0.014169841140131255 0 0.021427268174939361 0.014080589095284925 0 0.021676962851651868 0.013872299830228941 0 0.021427268174939361 0.014080589095284925 0 0.021487338502196793 0.014413241854265792 0 0.021032688938280617 0.014094945070426936 0 0.021427268174939361 0.014080589095284925 0 0.021032688938280617 0.014094945070426936 0 0.021199970432572338 0.013853207283176974 0 0.021735546058337048 0.014169841140131255 0 0.021427268174939361 0.014080589095284925 0 0.021487338502196793 0.014413241854265792 0 0.021122110282646638 0.014807911238887644 0 0.021772667032112406 0.01496421308855005 0 0.021487338502196793 0.014413241854265792 0 0.021122110282646638 0.014807911238887644 0 0.021487338502196793 0.014413241854265792 0 0.021032688938280617 0.014094945070426936 0 0.021122110282646638 0.014807911238887644 0 0.021032688938280617 0.014094945070426936 0 0.020467420083368479 0.01449629679401879 0 0.020868941215562029 0.013782037870415978 0 0.021072406371967074 0.013566490852021336 0 0.020614493073715958 0.013625435523771144 0 0.021032688938280617 0.014094945070426936 0 0.020868941215562029 0.013782037870415978 0 0.020439993625615993 0.013884779162785967 0 0.021032688938280617 0.014094945070426936 0 0.020868941215562029 0.013782037870415978 0 0.021199970432572338 0.013853207283176974 0 0.020868941215562029 0.013782037870415978 0 0.021072406371967074 0.013566490852021336 0 0.021199970432572338 0.013853207283176974 0 0.021072406371967074 0.013566490852021336 0 0.021199970432572338 0.013853207283176974 0 0.021676962851651868 0.013872299830228941 0 0.021427268174939361 0.014080589095284925 0 0.021199970432572338 0.013853207283176974 0 0.021676962851651868 0.013872299830228941 0 0.022769241321640796 0.013796955268682791 0 0.022181804581197388 0.014124310770818703 0 0.021676962851651868 0.013872299830228941 0 0.019397497116258204 0.013768370398243896 0 0.018585582048750927 0.014442062304264664 0 0.019382148683588653 0.01268054027835375 0 0.019295429296360363 0.014373421002494816 0 0.019397497116258204 0.013768370398243896 0 0.018585582048750927 0.014442062304264664 0 0.019931491256394762 0.014158196975756996 0 0.019990169368324363 0.013693443313309874 0 0.019397497116258204 0.013768370398243896 0 0.019295429296360363 0.014373421002494816 0 0.019931491256394762 0.014158196975756996 0 0.019397497116258204 0.013768370398243896 0 0.019797466020968529 0.014786036636124272 0 0.019295429296360363 0.014373421002494816 0 0.019931491256394762 0.014158196975756996 0 0.019797466020968529 0.014786036636124272 0 0.020467420083368479 0.01449629679401879 0 0.019931491256394762 0.014158196975756996 0 0.021032688938280617 0.014094945070426936 0 0.020467420083368479 0.01449629679401879 0 0.020439993625615993 0.013884779162785967 0 0.020467420083368479 0.01449629679401879 0 0.019931491256394762 0.014158196975756996 0 0.020439993625615993 0.013884779162785967 0 0.019931491256394762 0.014158196975756996 0 0.019990169368324363 0.013693443313309874 0 0.020439993625615993 0.013884779162785967 0 0.019990169368324363 0.013693443313309874 0 0.020301780220565085 0.013596542126509304 0 0.020439993625615993 0.013884779162785967 0 0.021072406371967074 0.013566490852021336 0 0.020371645831938335 0.013322426902423402 0 0.020102149822474848 0.012842463707124253 0 0.019990169368324363 0.013693443313309874 0 0.020301780220565085 0.013596542126509304 0 0.020068577204484277 0.013380401215685617 0 0.020868941215562029 0.013782037870415978 0 0.020439993625615993 0.013884779162785967 0 0.020614493073715958 0.013625435523771144 0 0.020301780220565085 0.013596542126509304 0 0.020439993625615993 0.013884779162785967 0 0.020614493073715958 0.013625435523771144 0 0.021072406371967074 0.013566490852021336 0 0.020614493073715958 0.013625435523771144 0 0.020371645831938335 0.013322426902423402 0 0.020301780220565085 0.013596542126509304 0 0.020614493073715958 0.013625435523771144 0 0.020371645831938335 0.013322426902423402 0 0.019990169368324363 0.013693443313309874 0 0.020068577204484277 0.013380401215685617 0 0.019786398444062617 0.013279147202807809 0 0.020371645831938335 0.013322426902423402 0 0.020068577204484277 0.013380401215685617 0 0.020102149822474848 0.012842463707124253 0 0.020068577204484277 0.013380401215685617 0 0.019786398444062617 0.013279147202807809 0 0.020102149822474848 0.012842463707124253 0 0.020301780220565085 0.013596542126509304 0 0.020371645831938335 0.013322426902423402 0 0.020068577204484277 0.013380401215685617 0 0.019786398444062617 0.013279147202807809 0 0.019397497116258204 0.013768370398243896 0 0.019382148683588653 0.01268054027835375 0 0.019990169368324363 0.013693443313309874 0 0.019786398444062617 0.013279147202807809 0 0.019397497116258204 0.013768370398243896 0 0.016979839343722894 0.020414182904161731 0 0.021609316477295477 0.025224189287278844 0 0.0097674511994805223 0.026180649188089249 0 0.011036496805990817 0.027346905424093911 0 0.010897606972573992 0.025418944231656835 0 0.016979839343722894 0.020414182904161731 0 0.016603456281481185 0.027865782511144573 0 0.0097674511994805223 0.026180649188089249 0 0.011036496805990817 0.027346905424093911 0 0.011020407190265286 0.029133070659926902 0 0.010897606972573992 0.025418944231656835 0 0.010623654829077102 0.02819709748164748 0 0.01141316589862288 0.027224449523537798 0 0.011036496805990817 0.027346905424093911 0 0.010897606972573992 0.025418944231656835 0 0.012461643800008542 0.028707525158037213 0 0.010897606972573992 0.025418944231656835 0 0.01141316589862288 0.027224449523537798 0 0.011774687818780813 0.026250796033950592 0 0.010945786086131375 0.02605844088227784 0 0.011575147177127831 0.028503573987501921 0 0.010897606972573992 0.025418944231656835 0 0.011817848205971359 0.025216047347289668 0 0.011774687818780813 0.026250796033950592 0 0.012362735816319094 0.024353918108965741 0 0.011817848205971359 0.025216047347289668 0 0.011606118820602411 0.024594209263573769 0 0.010825520251296496 0.023975070916290742 0 0.010897606972573992 0.025418944231656835 0 0.011606118820602411 0.024594209263573769 0 0.010897606972573992 0.025418944231656835 0 0.011817848205971359 0.025216047347289668 0 0.011606118820602411 0.024594209263573769 0 0.014125826093820966 0.020886473427707972 0 0.016979839343722894 0.020414182904161731 0 0.010825520251296496 0.023975070916290742 0 0.0097674511994805223 0.026180649188089249 0 0.010897606972573992 0.025418944231656835 0 0.016450432098729758 0.016612333058345329 0 0.018258330602588912 0.013858058144107741 0 0.01871251569539199 0.01514307154779837 0 0.016450432098729758 0.016612333058345329 0 0.01900005584040031 0.016628497841445898 0 0.01871251569539199 0.01514307154779837 0 0.019295429296360363 0.014373421002494816 0 0.018585582048750927 0.014442062304264664 0 0.01871251569539199 0.01514307154779837 0 0.016979839343722894 0.020414182904161731 0 0.016685108142591155 0.017680970299615236 0 0.021940065975562417 0.028918234792551383 0 0.021898467660775297 0.028973135292375139 0 0.02186471453958443 0.028900130802306891 0 0.021940065975562417 0.028918234792551383 0 0.021917182994865926 0.028891564387015314 0 0.02186471453958443 0.028900130802306891 0 0.021940065975562417 0.028918234792551383 0 0.021898467660775297 0.028973135292375139 0 0.021944440566422963 0.028949728563154174 0 0.021940065975562417 0.028918234792551383 0 0.021944440566422963 0.028949728563154174 0 0.021981217651668588 0.028926854525659924 0 0.021940065975562417 0.028918234792551383 0 0.021991714195327812 0.028893479680843215 0 0.021972943190983928 0.028887326016391164 0 0.021940065975562417 0.028918234792551383 0 0.021917182994865926 0.028891564387015314 0 0.021972943190983928 0.028887326016391164 0 0.021940065975562417 0.028918234792551383 0 0.021981217651668588 0.028926854525659924 0 0.021991714195327812 0.028893479680843215 0 0.012505513013307329 0.029484099361309669 0 0.012461643800008542 0.028707525158037213 0 0.01371432450122358 0.03192374015242317 0 0.016603456281481185 0.027865782511144573 0 0.017598700106558788 0.03076922491142944 0 0.012505513013307329 0.029484099361309669 0 0.012405587023235042 0.031774349019607545 0 0.01371432450122358 0.03192374015242317 0 0.012505513013307329 0.029484099361309669 0 0.011245647518332595 0.029110561143392333 0 0.012405587023235042 0.031774349019607545 0 0.011575147177127831 0.028503573987501921 0 0.012400655305690423 0.031610759165869598 0 0.012505513013307329 0.029484099361309669 0 0.012461643800008542 0.028707525158037213 0 0.011020407190265286 0.029133070659926902 0 0.013694719519051823 0.027793166430727146 0 0.016603456281481185 0.027865782511144573 0 0.010623654829077102 0.02819709748164748 0 0.01141316589862288 0.027224449523537798 0 0.011530104820309075 0.028246534731858664 0 0.011036496805990817 0.027346905424093911 0 0.012461643800008542 0.028707525158037213 0 0.011020407190265286 0.029133070659926902 0 0.017817495752037796 0.023020329782190832 0 0.018965763228484617 0.025973718644269717 0 0.016887261832282844 0.025359655038603161 0 0.021898467660775297 0.028973135292375139 0 0.021944440566422963 0.028949728563154174 0 0.021985454806328561 0.028999932195123805 0 0.016603456281481185 0.027865782511144573 0 0.021609316477295477 0.025224189287278844 0 0.021944440566422963 0.028949728563154174 0 0.021985454806328561 0.028999932195123805 0 0.021981217651668588 0.028926854525659924 0 0.022201593944578959 0.028539844618746098 0 0.022101231166995493 0.02851478759198468 0 0.022053370568506165 0.028876266578312503 0 0.025245016514726163 0.025505526855669123 0 0.029141107761387477 0.027322928693718915 0 0.021609316477295477 0.025224189287278844 0 0.025245016514726163 0.025505526855669123 0 0.019786398444062617 0.013279147202807809 0 0.019382148683588653 0.01268054027835375 0 0.020102149822474848 0.012842463707124253 0 0.036713834840828512 0.027332750893219768 0 0.036678380241135976 0.027287842763711545 0 0.036692446351688772 0.027359918089495599 0 0.036713834840828512 0.027332750893219768 0 0.036692446351688772 0.027359918089495599 0 0.03669576444483294 0.027437677895735185 0 0.036678380241135976 0.027287842763711545 0 0.036692446351688772 0.027359918089495599 0 0.036670489926986537 0.027370079369358376 0 0.036692446351688772 0.027359918089495599 0 0.03669576444483294 0.027437677895735185 0 0.036670489926986537 0.027370079369358376 0 0.03669576444483294 0.027437677895735185 0 0.036667822415379865 0.02740767215963064 0 0.036670489926986537 0.027370079369358376 0 0.021609316477295477 0.025224189287278844 0 0.021423781613005267 0.029277428529986077 0 0.021985454806328561 0.028999932195123805 0 0.021981217651668588 0.028926854525659924 0 0.022053370568506165 0.028876266578312503 0 0.022101231166995493 0.02851478759198468 0 0.022004080082360027 0.028878001875322346 0 0.022053370568506165 0.028876266578312503 0 0.022004080082360027 0.028878001875322346 0 0.022053370568506165 0.028876266578312503 0 0.022024568041588331 0.02888385605418007 0 0.022053370568506165 0.028876266578312503 0 0.021991714195327812 0.028893479680843215 0 0.022024568041588331 0.02888385605418007 0 0.021981217651668588 0.028926854525659924 0 0.022053370568506165 0.028876266578312503 0 0.021991714195327812 0.028893479680843215 0 0.021991714195327812 0.028893479680843215 0 0.022024568041588331 0.02888385605418007 0 0.021972943190983928 0.028887326016391164 0 0.022024568041588331 0.02888385605418007 0 0.022064468963888542 0.028899210259124938 0 0.021995207081290227 0.028860319235001222 0 0.022024568041588331 0.02888385605418007 0 0.021995207081290227 0.028860319235001222 0 0.021972943190983928 0.028887326016391164 0 0.022004080082360027 0.028878001875322346 0 0.022024568041588331 0.02888385605418007 0 0.022064468963888542 0.028899210259124938 0 0.03669576444483294 0.027437677895735185 0 0.036656664676542501 0.02753940559087938 0 0.036669914175174789 0.027494801670688102 0 0.029141107761387477 0.027322928693718915 0 0.025808878499386331 0.033184709601323754 0 0.025808878499386331 0.033184709601323754 0 0.020460042935057633 0.034498549265937276 0 0.021841771302271353 0.039855418201170494 0 0.019856006925188071 0.040222250630184607 0 0.020141112173689423 0.038961838141188483 0 0.019856006925188071 0.040222250630184607 0 0.018969724792726107 0.039681536898067221 0 0.020141112173689423 0.038961838141188483 0 0.019856006925188071 0.040222250630184607 0 0.018969724792726107 0.039681536898067221 0 0.017860573704427399 0.040579683954698305 0 0.018969724792726107 0.039681536898067221 0 0.018551905323619836 0.039234631796117525 0 0.018973260576089335 0.038786939137200029 0 0.021995207081290227 0.028860319235001222 0 0.021917182994865926 0.028891564387015314 0 0.021843558842526839 0.028867493476506776 0 0.020460042935057633 0.034498549265937276 0 0.018695341544429627 0.03295314040697226 0 0.021995207081290227 0.028860319235001222 0 0.021917182994865926 0.028891564387015314 0 0.021972943190983928 0.028887326016391164 0 0.012405587023235042 0.031774349019607545 0 0.012916990398293257 0.03266008198079625 0 0.01371432450122358 0.03192374015242317 0 0.017598700106558788 0.03076922491142944 0 0.018695341544429627 0.03295314040697226 0 0.021917182994865926 0.028891564387015314 0 0.02186471453958443 0.028900130802306891 0 0.021843558842526839 0.028867493476506776 0 0.01804743019948727 0.039849687284809386 0 0.017576710386750197 0.038190823080900611 0 0.017454748577182048 0.039619933102352865 0 0.017860573704427399 0.040579683954698305 0 0.01804743019948727 0.039849687284809386 0 0.017454748577182048 0.039619933102352865 0 0.018969724792726107 0.039681536898067221 0 0.017860573704427399 0.040579683954698305 0 0.01804743019948727 0.039849687284809386 0 0.018695341544429627 0.03295314040697226 0 0.016733368295618768 0.036104584469268744 0 0.01804743019948727 0.039849687284809386 0 0.018551905323619836 0.039234631796117525 0 0.01828688899226473 0.038730711779299216 0 0.018969724792726107 0.039681536898067221 0 0.01804743019948727 0.039849687284809386 0 0.018551905323619836 0.039234631796117525 0 0.017953420734187198 0.039535299135015953 0 0.017622278900042837 0.038268713522135886 0 0.01804743019948727 0.039849687284809386 0 0.01828688899226473 0.038730711779299216 0 0.017659940230944738 0.038265600747900606 0 0.018551905323619836 0.039234631796117525 0 0.01828688899226473 0.038730711779299216 0 0.018973260576089335 0.038786939137200029 0 0.01828688899226473 0.038730711779299216 0 0.018973260576089335 0.038786939137200029 0 0.018527287740603408 0.038035957165966854 0 0.01828688899226473 0.038730711779299216 0 0.017659940230944738 0.038265600747900606 0 0.018527287740603408 0.038035957165966854 0 0.018973260576089335 0.038786939137200029 0 0.0193385285648612 0.038059083152367112 0 0.020141112173689423 0.038961838141188483 0 0.018969724792726107 0.039681536898067221 0 0.018973260576089335 0.038786939137200029 0 0.020141112173689423 0.038961838141188483 0 0.018973260576089335 0.038786939137200029 0 0.0193385285648612 0.038059083152367112 0 0.018527287740603408 0.038035957165966854 0 0.0193385285648612 0.038059083152367112 0 0.019016937642539956 0.037262655481006282 0 0.020184881525278208 0.037581214241393344 0 0.0193385285648612 0.038059083152367112 0 0.019016937642539956 0.037262655481006282 0 0.018527287740603408 0.038035957165966854 0 0.017659940230944738 0.038265600747900606 0 0.0181276198123594 0.037272220028579529 0 0.017211941479743424 0.036649390171372642 0 0.017659940230944738 0.038265600747900606 0 0.018527287740603408 0.038035957165966854 0 0.0181276198123594 0.037272220028579529 0 0.019016937642539956 0.037262655481006282 0 0.018527287740603408 0.038035957165966854 0 0.0181276198123594 0.037272220028579529 0 0.019016937642539956 0.037262655481006282 0 0.0181276198123594 0.037272220028579529 0 0.01822547693528705 0.036133218902525736 0 0.0181276198123594 0.037272220028579529 0 0.01822547693528705 0.036133218902525736 0 0.017211941479743424 0.036649390171372642 0 0.019016937642539956 0.037262655481006282 0 0.01822547693528705 0.036133218902525736 0 0.019701628412542513 0.036268514074170352 0 0.019016937642539956 0.037262655481006282 0 0.019701628412542513 0.036268514074170352 0 0.020184881525278208 0.037581214241393344 0 0.018669974588878417 0.034999976173343827 0 0.020594800524588914 0.034999984419957282 0 0.019701628412542513 0.036268514074170352 0 0.01822547693528705 0.036133218902525736 0 0.018669974588878417 0.034999976173343827 0 0.019701628412542513 0.036268514074170352 0 0.01822547693528705 0.036133218902525736 0 0.018669974588878417 0.034999976173343827 0 0.016745168140015247 0.03499999174618075 0 0.020594800524588914 0.034999984419957282 0 0.021513439374040762 0.03666531701831615 0 0.022519703283942382 0.034999950647378056 0 0.020594800524588914 0.034999984419957282 0 0.019701628412542513 0.036268514074170352 0 0.021513439374040762 0.03666531701831615 0 0.019701628412542513 0.036268514074170352 0 0.021513439374040762 0.03666531701831615 0 0.020184881525278208 0.037581214241393344 0 0.021513439374040762 0.03666531701831615 0 0.021260221258400901 0.03824140489718466 0 0.022618595018933086 0.038116495601053957 0 0.021513439374040762 0.03666531701831615 0 0.020184881525278208 0.037581214241393344 0 0.021260221258400901 0.03824140489718466 0 0.020184881525278208 0.037581214241393344 0 0.020141112173689423 0.038961838141188483 0 0.021260221258400901 0.03824140489718466 0 0.0193385285648612 0.038059083152367112 0 0.020184881525278208 0.037581214241393344 0 0.020141112173689423 0.038961838141188483 0 0.021841771302271353 0.039855418201170494 0 0.020141112173689423 0.038961838141188483 0 0.021260221258400901 0.03824140489718466 0 0.022303207481248283 0.039574564934433197 0 0.022919416773394406 0.038014802645279344 0 0.023918675962337817 0.039322878885909497 0 0.021841771302271353 0.039855418201170494 0 0.021260221258400901 0.03824140489718466 0 0.022618595018933086 0.038116495601053957 0 0.025808878499386331 0.033184709601323754 0 0.022434333475435737 0.03898833450807878 0 0.022919416773394406 0.038014802645279344 0 0.024378491648909473 0.037675465808070727 0 0.023918675962337817 0.039322878885909497 0 0.022434333475435737 0.03898833450807878 0 0.023493729306176925 0.036329769391739875 0 0.022919416773394406 0.038014802645279344 0 0.023473849294567927 0.036321104059954701 0 0.024378491648909473 0.037675465808070727 0 0.021513439374040762 0.03666531701831615 0 0.022618595018933086 0.038116495601053957 0 0.023473849294567927 0.036321104059954701 0 0.023473849294567927 0.036321104059954701 0 0.022519703283942382 0.034999950647378056 0 0.02444460135630791 0.034999977713542657 0 0.021513439374040762 0.03666531701831615 0 0.023473849294567927 0.036321104059954701 0 0.022519703283942382 0.034999950647378056 0 0.02444460135630791 0.034999977713542657 0 0.024689809457692523 0.036178251640095076 0 0.026369399849988966 0.034999964390301931 0 0.023473849294567927 0.036321104059954701 0 0.02444460135630791 0.034999977713542657 0 0.024689809457692523 0.036178251640095076 0 0.024689809457692523 0.036178251640095076 0 0.025677488197206253 0.03702335918226643 0 0.024378491648909473 0.037675465808070727 0 0.023473849294567927 0.036321104059954701 0 0.024689809457692523 0.036178251640095076 0 0.024378491648909473 0.037675465808070727 0 0.024689809457692523 0.036178251640095076 0 0.025677488197206253 0.03702335918226643 0 0.026369399849988966 0.034999964390301931 0 0.025677488197206253 0.03702335918226643 0 0.02567608263967849 0.03907534167100285 0 0.026820320975343509 0.037761804293412429 0 0.025677488197206253 0.03702335918226643 0 0.024378491648909473 0.037675465808070727 0 0.02567608263967849 0.03907534167100285 0 0.024378491648909473 0.037675465808070727 0 0.02567608263967849 0.03907534167100285 0 0.023918675962337817 0.039322878885909497 0 0.036850443983568917 0.027621820517331905 0 0.036757663027131418 0.027637879493667767 0 0.037074112236152361 0.027783355436420312 0 0.036815804142402951 0.02761385620754022 0 0.036916313737137142 0.027555455179578064 0 0.036757663027131418 0.027637879493667767 0 0.036717308073071962 0.027433851340266428 0 0.036616637441353427 0.027286892204104057 0 0.036757663027131418 0.027637879493667767 0 0.03669985551585752 0.027497752187899363 0 0.036717308073071962 0.027433851340266428 0 0.036757663027131418 0.027637879493667767 0 0.036668304870055506 0.027564757031238323 0 0.03669985551585752 0.027497752187899363 0 0.036850443983568917 0.027621820517331905 0 0.036757663027131418 0.027637879493667767 0 0.036668304870055506 0.027564757031238323 0 0.031231023854272115 0.03335218514588402 0 0.030730240542900415 0.033280289064623506 0 0.025808878499386331 0.033184709601323754 0 0.030730240542900415 0.033280289064623506 0 0.036656664676542501 0.02753940559087938 0 0.036668304870055506 0.027564757031238323 0 0.036669914175174789 0.027494801670688102 0 0.036668304870055506 0.027564757031238323 0 0.036669914175174789 0.027494801670688102 0 0.03669985551585752 0.027497752187899363 0 0.03669985551585752 0.027497752187899363 0 0.036679580881672259 0.027392589769697842 0 0.03669539583076855 0.027372314097446237 0 0.03669985551585752 0.027497752187899363 0 0.036679580881672259 0.027392589769697842 0 0.036667822415379865 0.02740767215963064 0 0.036679580881672259 0.027392589769697842 0 0.036667822415379865 0.02740767215963064 0 0.036652385502297817 0.027339377733302982 0 0.036679580881672259 0.027392589769697842 0 0.03667575567260533 0.027348207251093676 0 0.03669539583076855 0.027372314097446237 0 0.036669914175174789 0.027494801670688102 0 0.03669985551585752 0.027497752187899363 0 0.036667822415379865 0.02740767215963064 0 0.03669576444483294 0.027437677895735185 0 0.036669914175174789 0.027494801670688102 0 0.036667822415379865 0.02740767215963064 0 0.036667822415379865 0.02740767215963064 0 0.036670489926986537 0.027370079369358376 0 0.036645825959877969 0.027350384621249241 0 0.036670489926986537 0.027370079369358376 0 0.036645825959877969 0.027350384621249241 0 0.036635924248738967 0.027320069230749582 0 0.036667822415379865 0.02740767215963064 0 0.036645825959877969 0.027350384621249241 0 0.036652385502297817 0.027339377733302982 0 0.036645825959877969 0.027350384621249241 0 0.036620099607039026 0.027319222598662159 0 0.036652385502297817 0.027339377733302982 0 0.036628679564915008 0.02731181852793255 0 0.036620099607039026 0.027319222598662159 0 0.036652385502297817 0.027339377733302982 0 0.036628679564915008 0.02731181852793255 0 0.036611649594458354 0.027314627322385637 0 0.036620099607039026 0.027319222598662159 0 0.03656873891530138 0.027325752817988505 0 0.036611649594458354 0.027314627322385637 0 0.036620099607039026 0.027319222598662159 0 0.036678380241135976 0.027287842763711545 0 0.036670489926986537 0.027370079369358376 0 0.036635924248738967 0.027320069230749582 0 0.036645825959877969 0.027350384621249241 0 0.036620099607039026 0.027319222598662159 0 0.036635924248738967 0.027320069230749582 0 0.03656873891530138 0.027325752817988505 0 0.036620099607039026 0.027319222598662159 0 0.036635924248738967 0.027320069230749582 0 0.036641241427638492 0.027291032348796283 0 0.03656873891530138 0.027325752817988505 0 0.036635924248738967 0.027320069230749582 0 0.036641241427638492 0.027291032348796283 0 0.036678380241135976 0.027287842763711545 0 0.036635924248738967 0.027320069230749582 0 0.03667575567260533 0.027348207251093676 0 0.036663454561111759 0.027318103744806164 0 0.036681943492558815 0.027323031483794783 0 0.036679580881672259 0.027392589769697842 0 0.03667575567260533 0.027348207251093676 0 0.036652385502297817 0.027339377733302982 0 0.03667575567260533 0.027348207251093676 0 0.036652385502297817 0.027339377733302982 0 0.036663454561111759 0.027318103744806164 0 0.036628679564915008 0.02731181852793255 0 0.036652385502297817 0.027339377733302982 0 0.036648756478004987 0.027318930552930012 0 0.036652385502297817 0.027339377733302982 0 0.036648756478004987 0.027318930552930012 0 0.036663454561111759 0.027318103744806164 0 0.036628679564915008 0.02731181852793255 0 0.036648756478004987 0.027318930552930012 0 0.036648944475075572 0.027306716794049876 0 0.036648756478004987 0.027318930552930012 0 0.036648944475075572 0.027306716794049876 0 0.036663454561111759 0.027318103744806164 0 0.036664451414824648 0.027296468840232103 0 0.036663454561111759 0.027318103744806164 0 0.036673315350555104 0.027301870359266064 0 0.036663454561111759 0.027318103744806164 0 0.036673315350555104 0.027301870359266064 0 0.036681943492558815 0.027323031483794783 0 0.036664451414824648 0.027296468840232103 0 0.036648944475075572 0.027306716794049876 0 0.036663454561111759 0.027318103744806164 0 0.036681123652317744 0.027292688949679785 0 0.036679033325772971 0.027313967192797075 0 0.03669539583076855 0.027372314097446237 0 0.036678350106312541 0.027285997429348566 0 0.036673315350555104 0.027301870359266064 0 0.036681943492558815 0.027323031483794783 0 0.036678350106312541 0.027285997429348566 0 0.036681943492558815 0.027323031483794783 0 0.036681123652317744 0.027292688949679785 0 0.036681943492558815 0.027323031483794783 0 0.036681123652317744 0.027292688949679785 0 0.03669539583076855 0.027372314097446237 0 0.03667575567260533 0.027348207251093676 0 0.036681943492558815 0.027323031483794783 0 0.03669539583076855 0.027372314097446237 0 0.036676130201382828 0.027257934369544851 0 0.036678350106312541 0.027285997429348566 0 0.036681123652317744 0.027292688949679785 0 0.036668526194075519 0.027218834640207669 0 0.036681123652317744 0.027292688949679785 0 0.036679033325772971 0.027313967192797075 0 0.036668526194075519 0.027218834640207669 0 0.036679033325772971 0.027313967192797075 0 0.036616637441353427 0.027286892204104057 0 0.036668526194075519 0.027218834640207669 0 0.036676130201382828 0.027257934369544851 0 0.036681123652317744 0.027292688949679785 0 0.036679033325772971 0.027313967192797075 0 0.036717308073071962 0.027433851340266428 0 0.036616637441353427 0.027286892204104057 0 0.036679033325772971 0.027313967192797075 0 0.036717308073071962 0.027433851340266428 0 0.03669539583076855 0.027372314097446237 0 0.03669985551585752 0.027497752187899363 0 0.036717308073071962 0.027433851340266428 0 0.03669539583076855 0.027372314097446237 0 0.036916313737137142 0.027555455179578064 0 0.037008467688785671 0.027323251854979556 0 0.037181942429903934 0.027886323889034129 0 0.037339633732748539 0.027606793768260404 0 0.03725129157416697 0.027894436385893825 0 0.036679071939814081 0.027130851161052478 0 0.036668526194075519 0.027218834640207669 0 0.036616637441353427 0.027286892204104057 0 0.036679071939814081 0.027130851161052478 0 0.036616637441353427 0.027286892204104057 0 0.036725986119094459 0.027068919211848893 0 0.036969259386106269 0.027086355868694498 0 0.037008467688785671 0.027323251854979556 0 0.037012763630123034 0.026970817578434728 0 0.037339633732748539 0.027606793768260404 0 0.03712544047590681 0.027491922020627377 0 0.03712544047590681 0.027491922020627377 0 0.037203888960117781 0.027789681127242435 0 0.037069425249321865 0.027695608571870728 0 0.037203888960117781 0.027789681127242435 0 0.037089090075792218 0.02795839875680407 0 0.037069425249321865 0.027695608571870728 0 0.037339633732748539 0.027606793768260404 0 0.03712544047590681 0.027491922020627377 0 0.037203888960117781 0.027789681127242435 0 0.037339633732748539 0.027606793768260404 0 0.037203888960117781 0.027789681127242435 0 0.03725129157416697 0.027894436385893825 0 0.037203888960117781 0.027789681127242435 0 0.037157404549365544 0.028040624537147969 0 0.03725129157416697 0.027894436385893825 0 0.037203888960117781 0.027789681127242435 0 0.037089090075792218 0.02795839875680407 0 0.037157404549365544 0.028040624537147969 0 0.037089090075792218 0.02795839875680407 0 0.037157404549365544 0.028040624537147969 0 0.036967881111020943 0.028192152352827852 0 0.037157404549365544 0.028040624537147969 0 0.036974088213144463 0.028348096159037838 0 0.036967881111020943 0.028192152352827852 0 0.037157404549365544 0.028040624537147969 0 0.036974088213144463 0.028348096159037838 0 0.037150611636508048 0.028188222019700868 0 0.037157404549365544 0.028040624537147969 0 0.037212223464761461 0.028004473462360804 0 0.03725129157416697 0.027894436385893825 0 0.037157404549365544 0.028040624537147969 0 0.037212223464761461 0.028004473462360804 0 0.037150611636508048 0.028188222019700868 0 0.037212223464761461 0.028004473462360804 0 0.037150611636508048 0.028188222019700868 0 0.037214973016143689 0.028019401471484708 0 0.03719075408664891 0.027913658357010512 0 0.037074112236152361 0.027783355436420312 0 0.03713691423082429 0.027860930875148272 0 0.03719075408664891 0.027913658357010512 0 0.03725129157416697 0.027894436385893825 0 0.037074112236152361 0.027783355436420312 0 0.037212223464761461 0.028004473462360804 0 0.03719075408664891 0.027913658357010512 0 0.037214973016143689 0.028019401471484708 0 0.037212223464761461 0.028004473462360804 0 0.03719075408664891 0.027913658357010512 0 0.03725129157416697 0.027894436385893825 0 0.036757663027131418 0.027637879493667767 0 0.037181942429903934 0.027886323889034129 0 0.037074112236152361 0.027783355436420312 0 0.037181942429903934 0.027886323889034129 0 0.03725129157416697 0.027894436385893825 0 0.037074112236152361 0.027783355436420312 0 0.036850443983568917 0.027621820517331905 0 0.037074112236152361 0.027783355436420312 0 0.03713691423082429 0.027860930875148272 0 0.031231023854272115 0.03335218514588402 0 0.032053085061788972 0.033195318383204823 0 0.02567608263967849 0.03907534167100285 0 0.02752773812529944 0.038777226321390613 0 0.026820320975343509 0.037761804293412429 0 0.02752773812529944 0.038777226321390613 0 0.028280296784580699 0.037748776994782539 0 0.029388872820142478 0.038431039752703414 0 0.032053085061788972 0.033195318383204823 0 0.034711810849887115 0.030989264029490576 0 0.03719075408664891 0.027913658357010512 0 0.03713691423082429 0.027860930875148272 0 0.037214973016143689 0.028019401471484708 0 0.02752773812529944 0.038777226321390613 0 0.028280296784580699 0.037748776994782539 0 0.026820320975343509 0.037761804293412429 0 0.028280296784580699 0.037748776994782539 0 0.026820320975343509 0.037761804293412429 0 0.027352076686647086 0.036521143216703238 0 0.025677488197206253 0.03702335918226643 0 0.026820320975343509 0.037761804293412429 0 0.027352076686647086 0.036521143216703238 0 0.025677488197206253 0.03702335918226643 0 0.027352076686647086 0.036521143216703238 0 0.026369399849988966 0.034999964390301931 0 0.027352076686647086 0.036521143216703238 0 0.028294277231612191 0.034999958222073822 0 0.029045919367976528 0.036777554493836281 0 0.028280296784580699 0.037748776994782539 0 0.027352076686647086 0.036521143216703238 0 0.029045919367976528 0.036777554493836281 0 0.027352076686647086 0.036521143216703238 0 0.028294277231612191 0.034999958222073822 0 0.026369399849988966 0.034999964390301931 0 0.029794095329800461 0.035966570123508471 0 0.030218998849095416 0.034999949581749554 0 0.030881846618472489 0.035987432379241117 0 0.030220110006103213 0.035000125689410001 0 0.031694091237193675 0.035492620585651696 0 0.028294277231612191 0.034999958222073822 0 0.029794095329800461 0.035966570123508471 0 0.029045919367976528 0.036777554493836281 0 0.028294277231612191 0.034999958222073822 0 0.029794095329800461 0.035966570123508471 0 0.030218998849095416 0.034999949581749554 0 0.029794095329800461 0.035966570123508471 0 0.030358731168076997 0.036681858455449474 0 0.030881846618472489 0.035987432379241117 0 0.029045919367976528 0.036777554493836281 0 0.030358731168076997 0.036681858455449474 0 0.030485694717898762 0.037706098449607942 0 0.029794095329800461 0.035966570123508471 0 0.029045919367976528 0.036777554493836281 0 0.030358731168076997 0.036681858455449474 0 0.033593223786217208 0.03321409039876274 0 0.034711810849887115 0.030989264029490576 0 0.029045919367976528 0.036777554493836281 0 0.030485694717898762 0.037706098449607942 0 0.029388872820142478 0.038431039752703414 0 0.036916534930638123 0.028741480500774422 0 0.037089767043371552 0.028600524084321125 0 0.036920947327563118 0.028625783774699858 0 0.028280296784580699 0.037748776994782539 0 0.029045919367976528 0.036777554493836281 0 0.029388872820142478 0.038431039752703414 0 0.03713691423082429 0.027860930875148272 0 0.037272208789229398 0.028085293715950432 0 0.037214973016143689 0.028019401471484708 0 0.037150611636508048 0.028188222019700868 0 0.037161367667113712 0.028383149189508787 0 0.037214973016143689 0.028019401471484708 0 0.034711810849887115 0.030989264029490576 0 0.037332999212399486 0.028689951250235622 0 0.037161367667113712 0.028383149189508787 0 0.036920947327563118 0.028625783774699858 0 0.037028920385024165 0.028404476493531422 0 0.034711810849887115 0.030989264029490576 0 0.03708977950749473 0.029591874750062117 0 0.036920947327563118 0.028625783774699858 0 0.037028920385024165 0.028404476493531422 0 0.03690817570810203 0.028508374094008547 0 0.037150611636508048 0.028188222019700868 0 0.037161367667113712 0.028383149189508787 0 0.037028920385024165 0.028404476493531422 0 0.036974088213144463 0.028348096159037838 0 0.037150611636508048 0.028188222019700868 0 0.037028920385024165 0.028404476493531422 0 0.036974088213144463 0.028348096159037838 0 0.037028920385024165 0.028404476493531422 0 0.03690817570810203 0.028508374094008547 0 0.036974088213144463 0.028348096159037838 0 0.03690817570810203 0.028508374094008547 0 0.036801010975573548 0.028545112232175162 0 0.036974088213144463 0.028348096159037838 0 0.036801010975573548 0.028545112232175162 0 0.036788629177109136 0.02844269952759294 0 0.036801010975573548 0.028545112232175162 0 0.03666651062707587 0.028585510148172868 0 0.036788629177109136 0.02844269952759294 0 0.036801010975573548 0.028545112232175162 0 0.036709657392077606 0.028690085450710473 0 0.036819965364890815 0.028654069588671012 0 0.036801010975573548 0.028545112232175162 0 0.036709657392077606 0.028690085450710473 0 0.03666651062707587 0.028585510148172868 0 0.03690817570810203 0.028508374094008547 0 0.036801010975573548 0.028545112232175162 0 0.036819965364890815 0.028654069588671012 0 0.036920947327563118 0.028625783774699858 0 0.03690817570810203 0.028508374094008547 0 0.036819965364890815 0.028654069588671012 0 0.036709657392077606 0.028690085450710473 0 0.03654313460892647 0.028654982636031064 0 0.03666651062707587 0.028585510148172868 0 0.03654313460892647 0.028654982636031064 0 0.03666651062707587 0.028585510148172868 0 0.036565692954185033 0.028603322897705338 0 0.034793865325036137 0.034237605208952963 0 0.035935617164168154 0.032977894782164292 0 0.036709657392077606 0.028690085450710473 0 0.03654313460892647 0.028654982636031064 0 0.036704195695385668 0.028885491274426113 0 0.038452644042615246 0.033008384423479739 0 0.038142100999771902 0.033214412077748383 0 0.036921934649896432 0.032478359882245109 0 0.037244891257421801 0.031117521932245228 0 0.038452644042615246 0.033008384423479739 0 0.036921934649896432 0.032478359882245109 0 0.036580775886214188 0.029909291540646147 0 0.034339684301925993 0.033975498654034993 0 0.033593223786217208 0.03321409039876274 0 0.034339684301925993 0.033975498654034993 0 0.036916534930638123 0.028741480500774422 0 0.036780938725144423 0.028753962062882756 0 0.036704195695385668 0.028885491274426113 0 0.030358731168076997 0.036681858455449474 0 0.030485694717898762 0.037706098449607942 0 0.031572112489242361 0.036978014547343632 0 0.036709657392077606 0.028690085450710473 0 0.036780938725144423 0.028753962062882756 0 0.036704195695385668 0.028885491274426113 0 0.036916534930638123 0.028741480500774422 0 0.036819965364890815 0.028654069588671012 0 0.036780938725144423 0.028753962062882756 0 0.036916534930638123 0.028741480500774422 0 0.036920947327563118 0.028625783774699858 0 0.036819965364890815 0.028654069588671012 0 0.036709657392077606 0.028690085450710473 0 0.036819965364890815 0.028654069588671012 0 0.036780938725144423 0.028753962062882756 0 0.030358731168076997 0.036681858455449474 0 0.031572112489242361 0.036978014547343632 0 0.030881846618472489 0.035987432379241117 0 0.031587293278226201 0.036237332774244249 0 0.031750022175376612 0.036737265174381105 0 0.030942247611250695 0.036027519425319884 0 0.034339684301925993 0.033975498654034993 0 0.031694091237193675 0.035492620585651696 0 0.031659184047041287 0.037038642455953404 0 0.031750022175376612 0.036737265174381105 0 0.030942247611250695 0.036027519425319884 0 0.035127923166741681 0.033862841827500489 0 0.035079522580123215 0.033895727754861285 0 0.035061435510233746 0.033818741570564095 0 0.034339684301925993 0.033975498654034993 0 0.034793865325036137 0.034237605208952963 0 0.031659184047041287 0.037038642455953404 0 0.031750022175376612 0.036737265174381105 0 0.031944171311194383 0.036847573365702421 0 0.031750022175376612 0.036737265174381105 0 0.031941178696506589 0.036849057334721963 0 0.031967131147429821 0.036398042786853886 0 0.034636774811314212 0.034256410281298631 0 0.034793865325036137 0.034237605208952963 0 0.034793865325036137 0.034237605208952963 0 0.034261101962173433 0.034787004525980048 0 0.031941178696506589 0.036849057334721963 0 0.032722107876583265 0.036329432939614402 0 0.031967131147429821 0.036398042786853886 0 0.031587293278226201 0.036237332774244249 0 0.031967131147429821 0.036398042786853886 0 0.031834385131529239 0.035835014750597305 0 0.032722107876583265 0.036329432939614402 0 0.031967131147429821 0.036398042786853886 0 0.031834385131529239 0.035835014750597305 0 0.031587293278226201 0.036237332774244249 0 0.031750022175376612 0.036737265174381105 0 0.031967131147429821 0.036398042786853886 0 0.032722107876583265 0.036329432939614402 0 0.031834385131529239 0.035835014750597305 0 0.03232800353173345 0.034999974076474573 0 0.034261101962173433 0.034787004525980048 0 0.032329469421956671 0.035000488650306631 0 0.030219163659715987 0.034999993241702602 0 0.031834385131529239 0.035835014750597305 0 0.03232800353173345 0.034999974076474573 0 0.030219163659715987 0.034999993241702602 0 0.031834385131529239 0.035835014750597305 0 0.030942247611250695 0.036027519425319884 0 0.031587293278226201 0.036237332774244249 0 0.031834385131529239 0.035835014750597305 0 0.030942247611250695 0.036027519425319884 0 0.032329076531489996 0.034999531609643017 0 0.034999753043688221 0.034999860807843834 0 0.034690849949590992 0.0349867355646599 0 0.034999753043688221 0.034999860807843834 0 0.035579036417468624 0.033351363952891941 0 0.034999434580329412 0.031284097841710851 0 0.034999753043688221 0.034999860807843834 0 0.034690849949590992 0.0349867355646599 0 0.035579036417468624 0.033351363952891941 0 0.034690849949590992 0.0349867355646599 0 0.03596408653402354 0.034386479314904815 0 0.035579036417468624 0.033351363952891941 0 0.034722537662105452 0.034938760805309388 0 0.034711118254975575 0.034885628070170732 0 0.032785411415135253 0.036357465488485008 0 0.032329076531489996 0.034999531609643017 0 0.033719536074600438 0.035724510947603594 0 0.032329076531489996 0.034999531609643017 0 0.034690849949590992 0.0349867355646599 0 0.033719536074600438 0.035724510947603594 0 0.034261101962173433 0.034787004525980048 0 0.034711118254975575 0.034885628070170732 0 0.034261101962173433 0.034787004525980048 0 0.035935617164168154 0.032977894782164292 0 0.03596408653402354 0.034386479314904815 0 0.036275501653774772 0.033491582196314776 0 0.035579036417468624 0.033351363952891941 0 0.036951409358333173 0.033757951713025203 0 0.036275501653774772 0.033491582196314776 0 0.036603846384711765 0.032498603789843386 0 0.036951409358333173 0.033757951713025203 0 0.03596408653402354 0.034386479314904815 0 0.036275501653774772 0.033491582196314776 0 0.036275501653774772 0.033491582196314776 0 0.035579036417468624 0.033351363952891941 0 0.036603846384711765 0.032498603789843386 0 0.035579036417468624 0.033351363952891941 0 0.035738614026779421 0.031920969575150358 0 0.034999434580329412 0.031284097841710851 0 0.035579036417468624 0.033351363952891941 0 0.035738614026779421 0.031920969575150358 0 0.036603846384711765 0.032498603789843386 0 0.035713154736855435 0.032057584180517698 0 0.035935617164168154 0.032977894782164292 0 0.035935617164168154 0.032977894782164292 0 0.036268588156882643 0.030726371932390143 0 0.037244891257421801 0.031117521932245228 0 0.036921934649896432 0.032478359882245109 0 0.036351690452989131 0.030393752383246514 0 0.035948484458004408 0.031815036965398891 0 0.036973508228914619 0.032424667199329724 0 0.036351690452989131 0.030393752383246514 0 0.035948484458004408 0.031815036965398891 0 0.034999960017662923 0.031283510290474874 0 0.036351690452989131 0.030393752383246514 0 0.035713154736855435 0.032057584180517698 0 0.035000347125896558 0.031283929477052122 0 0.036026589145471348 0.029070784637942555 0 0.034999940760445943 0.029219719399890116 0 0.036351690452989131 0.030393752383246514 0 0.034999960017662923 0.031283510290474874 0 0.034999940760445943 0.029219719399890116 0 0.036351690452989131 0.030393752383246514 0 0.036026589145471348 0.029070784637942555 0 0.034999940760445943 0.029219719399890116 0 0.035899972885230613 0.027973765499316121 0 0.036026589145471348 0.029070784637942555 0 0.036309522703746017 0.028326227446061333 0 0.035899972885230613 0.027973765499316121 0 0.036026589145471348 0.029070784637942555 0 0.036309522703746017 0.028326227446061333 0 0.036517965189695821 0.028464319417142114 0 0.03654313460892647 0.028654982636031064 0 0.036026589145471348 0.029070784637942555 0 0.036565692954185033 0.028603322897705338 0 0.037244891257421801 0.031117521932245228 0 0.036026589145471348 0.029070784637942555 0 0.036351690452989131 0.030393752383246514 0 0.036580775886214188 0.029909291540646147 0 0.036161006650357728 0.029130967828295686 0 0.036026589145471348 0.029070784637942555 0 0.036565692954185033 0.028603322897705338 0 0.036517965189695821 0.028464319417142114 0 0.03666651062707587 0.028585510148172868 0 0.036565692954185033 0.028603322897705338 0 0.036788629177109136 0.02844269952759294 0 0.036565692954185033 0.028603322897705338 0 0.036788629177109136 0.02844269952759294 0 0.036767268032619566 0.02830753790761565 0 0.036565692954185033 0.028603322897705338 0 0.036517965189695821 0.028464319417142114 0 0.036767268032619566 0.02830753790761565 0 0.036974088213144463 0.028348096159037838 0 0.036788629177109136 0.02844269952759294 0 0.036967881111020943 0.028192152352827852 0 0.036788629177109136 0.02844269952759294 0 0.036967881111020943 0.028192152352827852 0 0.036767268032619566 0.02830753790761565 0 0.037089090075792218 0.02795839875680407 0 0.036967881111020943 0.028192152352827852 0 0.036943000856550501 0.028025012305015591 0 0.036967881111020943 0.028192152352827852 0 0.036943000856550501 0.028025012305015591 0 0.036767268032619566 0.02830753790761565 0 0.036943000856550501 0.028025012305015591 0 0.036767268032619566 0.02830753790761565 0 0.036758216002955278 0.027967596720453233 0 0.037089090075792218 0.02795839875680407 0 0.036943000856550501 0.028025012305015591 0 0.037069425249321865 0.027695608571870728 0 0.036309522703746017 0.028326227446061333 0 0.036517965189695821 0.028464319417142114 0 0.036758216002955278 0.027967596720453233 0 0.036517965189695821 0.028464319417142114 0 0.036767268032619566 0.02830753790761565 0 0.036758216002955278 0.027967596720453233 0 0.036309522703746017 0.028326227446061333 0 0.036758216002955278 0.027967596720453233 0 0.036547959891743254 0.0275869524859946 0 0.036758216002955278 0.027967596720453233 0 0.037000457143714825 0.027325826081120889 0 0.036547959891743254 0.0275869524859946 0 0.036758216002955278 0.027967596720453233 0 0.037069425249321865 0.027695608571870728 0 0.037000457143714825 0.027325826081120889 0 0.03712544047590681 0.027491922020627377 0 0.037069425249321865 0.027695608571870728 0 0.037000457143714825 0.027325826081120889 0 0.036943000856550501 0.028025012305015591 0 0.036758216002955278 0.027967596720453233 0 0.037069425249321865 0.027695608571870728 0 0.037035875147046544 0.026625350205809542 0 0.037012763630123034 0.026970817578434728 0 0.037000457143714825 0.027325826081120889 0 0.037012763630123034 0.026970817578434728 0 0.03712544047590681 0.027491922020627377 0 0.037000457143714825 0.027325826081120889 0 0.037035875147046544 0.026625350205809542 0 0.037000457143714825 0.027325826081120889 0 0.036547959891743254 0.0275869524859946 0 0.037035875147046544 0.026625350205809542 0 0.036111552628788769 0.026690635420730923 0 0.036547959891743254 0.0275869524859946 0 0.036111552628788769 0.026690635420730923 0 0.034999962529138735 0.027158278713676688 0 0.035899972885230613 0.027973765499316121 0 0.034999940760445943 0.029219719399890116 0 0.034999962529138735 0.027158278713676688 0 0.035899972885230613 0.027973765499316121 0 0.036309522703746017 0.028326227446061333 0 0.035899972885230613 0.027973765499316121 0 0.036547959891743254 0.0275869524859946 0 0.036111552628788769 0.026690635420730923 0 0.035899972885230613 0.027973765499316121 0 0.036547959891743254 0.0275869524859946 0 0.009430564169078063 0.036355377309917565 0 0.0097579334392228941 0.035662357006310576 0 0.0095196077486411346 0.036252302889059659 0 0.012723500620511577 0.031988615166951048 0 0.01754775692234507 0.029776594246192781 0 0.009430564169078063 0.036355377309917565 0 0.0095196077486411346 0.036252302889059659 0 0.0093906647516993069 0.036311935882278087 0 0.009430564169078063 0.036355377309917565 0 0.00815908508731167 0.036671747898214875 0 0.0089961237302509014 0.036292832877062968 0 0.009430564169078063 0.036355377309917565 0 0.00815908508731167 0.036671747898214875 0 0.0081043423823865569 0.037212397588953013 0 0.009430564169078063 0.036355377309917565 0 0.0081043423823865569 0.037212397588953013 0 0.0084233689489155734 0.037452018137290127 0 0.0077502983952168472 0.037141775398959354 0 0.0081043423823865569 0.037212397588953013 0 0.0084233689489155734 0.037452018137290127 0 0.026220616353117121 0.021950879338969744 0 0.025126884693658754 0.021381637298518417 0 0.024699694158252662 0.024471304163582144 0 0.026220616353117121 0.021950879338969744 0 0.025126884693658754 0.021381637298518417 0 0.025408051475205393 0.019806980462023071 0 0.010878367686559778 0.036069917876635126 0 0.012723500620511577 0.031988615166951048 0 0.025126884693658754 0.021381637298518417 0 0.024075588045796053 0.021656618056359482 0 0.024699694158252662 0.024471304163582144 0 0.025126884693658754 0.021381637298518417 0 0.024075588045796053 0.021656618056359482 0 0.024282009728245943 0.020055269336857192 0 0.024075588045796053 0.021656618056359482 0 0.022901857823106053 0.020294975045139007 0 0.024282009728245943 0.020055269336857192 0 0.022940810696240981 0.02223453324533604 0 0.022901857823106053 0.020294975045139007 0 0.021123477608786221 0.021044381079482994 0 0.024075588045796053 0.021656618056359482 0 0.022940810696240981 0.02223453324533604 0 0.022901857823106053 0.020294975045139007 0 0.022533436261038913 0.023856457078249772 0 0.024699694158252662 0.024471304163582144 0 0.021921585171161793 0.025681128192832681 0 0.022940810696240981 0.02223453324533604 0 0.022533436261038913 0.023856457078249772 0 0.024699694158252662 0.024471304163582144 0 0.022940810696240981 0.02223453324533604 0 0.022533436261038913 0.023856457078249772 0 0.020969708092417938 0.023218653844735961 0 0.022533436261038913 0.023856457078249772 0 0.021921585171161793 0.025681128192832681 0 0.020969708092417938 0.023218653844735961 0 0.024075588045796053 0.021656618056359482 0 0.022940810696240981 0.02223453324533604 0 0.024699694158252662 0.024471304163582144 0 0.0095196077486411346 0.036252302889059659 0 0.0095619221935733523 0.036525299373176223 0 0.0094820531509256425 0.037040256206317339 0 0.01754775692234507 0.029776594246192781 0 0.016019863638750683 0.032698270554147799 0 0.0095196077486411346 0.036252302889059659 0 0.0095619221935733523 0.036525299373176223 0 0.0093906647516993069 0.036311935882278087 0 0.024699694158252662 0.024471304163582144 0 0.021921585171161793 0.025681128192832681 0 0.022796201325477456 0.028047344536033237 0 0.0094820531509256425 0.037040256206317339 0 0.0096801365663478252 0.036660016056208444 0 0.0096967963412856618 0.037854861617092214 0 0.0095619221935733523 0.036525299373176223 0 0.0094820531509256425 0.037040256206317339 0 0.0096801365663478252 0.036660016056208444 0 0.0095619221935733523 0.036525299373176223 0 0.0096801365663478252 0.036660016056208444 0 0.0093986040351561797 0.036321242523878916 0 0.0080604317872832818 0.038448495178516694 0 0.006604167278041518 0.037865932387462942 0 0.0069872498317174901 0.037896285990070208 0 0.0096801365663478252 0.036660016056208444 0 0.0093986040351561797 0.036321242523878916 0 0.0088330432391822006 0.035739264643717926 0 0.0080604317872832818 0.038448495178516694 0 0.0063285228015607445 0.037729253812808512 0 0.006604167278041518 0.037865932387462942 0 0.0087556969111567077 0.037417002824181332 0 0.0076768336724877696 0.036811284282295929 0 0.0095619221935733523 0.036525299373176223 0 0.0093986040351561797 0.036321242523878916 0 0.0093906647516993069 0.036311935882278087 0 0.0093986040351561797 0.036321242523878916 0 0.0091978553901173668 0.036168480002326212 0 0.0088330432391822006 0.035739264643717926 0 0.009430564169078063 0.036355377309917565 0 0.0093906647516993069 0.036311935882278087 0 0.0089961237302509014 0.036292832877062968 0 0.0093986040351561797 0.036321242523878916 0 0.0091978553901173668 0.036168480002326212 0 0.0093906647516993069 0.036311935882278087 0 0.0091978553901173668 0.036168480002326212 0 0.0093906647516993069 0.036311935882278087 0 0.0089961237302509014 0.036292832877062968 0 0.00815908508731167 0.036671747898214875 0 0.0089961237302509014 0.036292832877062968 0 0.0088330432391822006 0.035739264643717926 0 0.0063454016243682789 0.03759549036596347 0 0.0063285228015607445 0.037729253812808512 0 0.0066064699603609342 0.036171212069745599 0 0.0091978553901173668 0.036168480002326212 0 0.0089961237302509014 0.036292832877062968 0 0.0088330432391822006 0.035739264643717926 0 0.0063454016243682789 0.03759549036596347 0 0.0063285228015607445 0.037729253812808512 0 0.006604167278041518 0.037865932387462942 0 0.006604167278041518 0.037865932387462942 0 0.0063024239762958564 0.037859094271892907 0 0.0069872498317174901 0.037896285990070208 0 0.0063454016243682789 0.03759549036596347 0 0.006604167278041518 0.037865932387462942 0 0.0063091869555515793 0.037792260399855469 0 0.006604167278041518 0.037865932387462942 0 0.0063091869555515793 0.037792260399855469 0 0.0063024239762958564 0.037859094271892907 0 0.0063454016243682789 0.03759549036596347 0 0.0063091869555515793 0.037792260399855469 0 0.0060502724884879799 0.037843348658534323 0 0.0063091869555515793 0.037792260399855469 0 0.0060502724884879799 0.037843348658534323 0 0.0063024239762958564 0.037859094271892907 0 0.0063454016243682789 0.03759549036596347 0 0.0060502724884879799 0.037843348658534323 0 0.0058302276339101703 0.037942442047267495 0 0.0063454016243682789 0.03759549036596347 0 0.0061139370342181264 0.035186840598786587 0 0.0066064699603609342 0.036171212069745599 0 0.0060720553556315709 0.037148175695924809 0 0.0058634072676937068 0.036652048236987651 0 0.0061139370342181264 0.035186840598786587 0 0.0053602779841376343 0.035889641835177795 0 0.0044359515757370653 0.035271833497908536 0 0.0061139370342181264 0.035186840598786587 0 0.0053602779841376343 0.035889641835177795 0 0.0066064699603609342 0.036171212069745599 0 0.0053602779841376343 0.035889641835177795 0 0.0066064699603609342 0.036171212069745599 0 0.004906617250706187 0.037543319413753821 0 0.0076768336724877696 0.036811284282295929 0 0.0069666824012387246 0.03648877676909533 0 0.00815908508731167 0.036671747898214875 0 0.0088330432391822006 0.035739264643717926 0 0.0066064699603609342 0.036171212069745599 0 0.0044359515757370653 0.035271833497908536 0 0.0029388999113374222 0.035453437273175938 0 0.0033531233670869519 0.033591103308274868 0 0.0029388999113374222 0.035453437273175938 0 0.0033531233670869519 0.033591103308274868 0 0.0017402811281052879 0.034692203427738849 0 0.0029388999113374222 0.035453437273175938 0 0.0017402811281052879 0.034692203427738849 0 0.0015564154272484966 0.035780658500053256 0 0.0061139370342181264 0.035186840598786587 0 0.0044359515757370653 0.035271833497908536 0 0.0033531233670869519 0.033591103308274868 0 0.0058634072676937068 0.036652048236987651 0 0.0033654843871729961 0.03601969991771807 0 0.0053602779841376343 0.035889641835177795 0 0.004072461917885746 0.036204782406999883 0 0.004906617250706187 0.037543319413753821 0 0.0053602779841376343 0.035889641835177795 0 0.0044359515757370653 0.035271833497908536 0 0.004072461917885746 0.036204782406999883 0 0.0044359515757370653 0.035271833497908536 0 0.004072461917885746 0.036204782406999883 0 0.0029388999113374222 0.035453437273175938 0 0.0029388999113374222 0.035453437273175938 0 0.0022848495185808821 0.037340802722557548 0 0.0015564154272484966 0.035780658500053256 0 0.004072461917885746 0.036204782406999883 0 0.0029388999113374222 0.035453437273175938 0 0.0022848495185808821 0.037340802722557548 0 0.0022848495185808821 0.037340802722557548 0 0.004906617250706187 0.037543319413753821 0 0.0020834199021807875 0.040382130275516438 0 0.004072461917885746 0.036204782406999883 0 0.0022848495185808821 0.037340802722557548 0 0.004906617250706187 0.037543319413753821 0 0.004906617250706187 0.037543319413753821 0 0.0075992545824605457 0.03789981714166691 0 0.0056229461009476801 0.040706268413731338 0 0.00815908508731167 0.036671747898214875 0 0.0081043423823865569 0.037212397588953013 0 0.0075992545824605457 0.03789981714166691 0 0.00815908508731167 0.036671747898214875 0 0.0066064699603609342 0.036171212069745599 0 0.0075992545824605457 0.03789981714166691 0 0.0066064699603609342 0.036171212069745599 0 0.004906617250706187 0.037543319413753821 0 0.0075992545824605457 0.03789981714166691 0 0.0077502983952168472 0.037141775398959354 0 0.0081043423823865569 0.037212397588953013 0 0.0075992545824605457 0.03789981714166691 0 0.0077502983952168472 0.037141775398959354 0 0.0075992545824605457 0.03789981714166691 0 0.0073527976951058413 0.036203817929634681 0 0.0075992545824605457 0.03789981714166691 0 0.0073527976951058413 0.036203817929634681 0 0.009614046344341251 0.036210066977410388 0 0.0077010320083158454 0.037981068370906763 0 0.0075823864218668323 0.03834693217049745 0 0.009614046344341251 0.036210066977410388 0 0.0089445580790983494 0.034478211778571459 0 0.011530455272218432 0.033813300155800953 0 0.0073527976951058413 0.036203817929634681 0 0.009614046344341251 0.036210066977410388 0 0.0089445580790983494 0.034478211778571459 0 0.0073527976951058413 0.036203817929634681 0 0.0089445580790983494 0.034478211778571459 0 0.0073437312531393186 0.034457403418235208 0 0.004906617250706187 0.037543319413753821 0 0.0056229461009476801 0.040706268413731338 0 0.0020834199021807875 0.040382130275516438 0 0.0075823864218668323 0.03834693217049745 0 0.0071711917161115125 0.038041389015745213 0 0.0056229461009476801 0.040706268413731338 0 0.0020834199021807875 0.040382130275516438 0 0.003813449447869472 0.043269909717894593 0 0.0020834199021807875 0.040382130275516438 0 0.003813449447869472 0.043269909717894593 0 0.001277327817880193 0.043328618158319308 0 0.0071711917161115125 0.038041389015745213 0 -0.00063488964509458043 0.034275361818730088 0 0.003813449447869472 0.043269909717894593 0 0.0012499286165879458 0.045418605334612137 0 0.001277327817880193 0.043328618158319308 0 0.011530455272218432 0.033813300155800953 0 0.011497356558842911 0.031868028466189621 0 0.0095494676088712892 0.032381527473745654 0 0.011497356558842911 0.031868028466189621 0 0.0095494676088712892 0.032381527473745654 0 0.010103375510545893 0.030777164311191603 0 0.011530455272218432 0.033813300155800953 0 0.011497356558842911 0.031868028466189621 0 0.01327968362231894 0.031249675598777012 0 0.003813449447869472 0.043269909717894593 0 0.0018455920547732249 0.046133996927983416 0 0.0012499286165879458 0.045418605334612137 0 -0.00063488964509458043 0.034275361818730088 0 0.0014818085426122262 0.03808566384068221 0 0.0073437312531393186 0.034457403418235208 0 0.0078774800458146013 0.032999924460753602 0 0.006210255961406317 0.032437513027790396 0 0.0089445580790983494 0.034478211778571459 0 0.0073437312531393186 0.034457403418235208 0 0.0078774800458146013 0.032999924460753602 0 0.0089445580790983494 0.034478211778571459 0 0.011530455272218432 0.033813300155800953 0 0.0095494676088712892 0.032381527473745654 0 0.0089445580790983494 0.034478211778571459 0 0.0078774800458146013 0.032999924460753602 0 0.0095494676088712892 0.032381527473745654 0 0.0095494676088712892 0.032381527473745654 0 0.0088964836768370883 0.030902673774619058 0 0.0080809754202210028 0.031703149083065409 0 0.0095494676088712892 0.032381527473745654 0 0.010103375510545893 0.030777164311191603 0 0.0088964836768370883 0.030902673774619058 0 0.0088964836768370883 0.030902673774619058 0 0.0079823948022918079 0.030792993833323488 0 0.0080809754202210028 0.031703149083065409 0 0.0078774800458146013 0.032999924460753602 0 0.0095494676088712892 0.032381527473745654 0 0.0080809754202210028 0.031703149083065409 0 0.0078774800458146013 0.032999924460753602 0 0.0080809754202210028 0.031703149083065409 0 0.0071439900315649479 0.031873584848784053 0 0.0078774800458146013 0.032999924460753602 0 0.0071439900315649479 0.031873584848784053 0 0.006210255961406317 0.032437513027790396 0 0.0080809754202210028 0.031703149083065409 0 0.0071439900315649479 0.031873584848784053 0 0.0071999837116685627 0.031124946890348421 0 0.0079823948022918079 0.030792993833323488 0 0.0080809754202210028 0.031703149083065409 0 0.0071999837116685627 0.031124946890348421 0 0.0072999626384849135 0.030228879127987392 0 0.0079823948022918079 0.030792993833323488 0 0.0071999837116685627 0.031124946890348421 0 0.0063663960840285019 0.030319001364019459 0 0.0071999837116685627 0.031124946890348421 0 0.0055192890798989105 0.031284283550045096 0 0.0083924328528683957 0.027062066737512117 0 0.0094169341897867975 0.026513929433477343 0 0.0071439900315649479 0.031873584848784053 0 0.0071999837116685627 0.031124946890348421 0 0.0064538962041098494 0.031089880264033847 0 0.0094169341897867975 0.026513929433477343 0 0.014600469158000055 0.022927390937427836 0 0.0050943234203045442 0.0302559058941426 0 0.0055192890798989105 0.031284283550045096 0 0.0033827670631617389 0.031247288389135812 0 0.013137410279133262 0.023834103932317607 0 0.011849616147329335 0.023782924228120998 0 0.012759506573027091 0.025730730072114179 0 0.02645004775339431 0.015314035109439579 0 0.026980079657712566 0.016416909457067062 0 0.025685833383359207 0.016277604523974001 0 0.014600469158000055 0.022927390937427836 0 0.011953843834448035 0.026413821596275259 0 0.0071439900315649479 0.031873584848784053 0 0.0064538962041098494 0.031089880264033847 0 0.006210255961406317 0.032437513027790396 0 0.0094169341897867975 0.026513929433477343 0 0.011953843834448035 0.026413821596275259 0 0.02645004775339431 0.015314035109439579 0 0.025685833383359207 0.016277604523974001 0 0.024540882625236498 0.015201166245150374 0 0.014600469158000055 0.022927390937427836 0 0.021074438413114942 0.01598949109653601 0 0.025685833383359207 0.016277604523974001 0 0.025208585028572424 0.017218203480436484 0 0.024548614399741587 0.016382647542567734 0 0.025685833383359207 0.016277604523974001 0 0.026075021153629512 0.017362449468204255 0 0.025208585028572424 0.017218203480436484 0 0.026980079657712566 0.016416909457067062 0 0.025685833383359207 0.016277604523974001 0 0.026075021153629512 0.017362449468204255 0 0.026075021153629512 0.017362449468204255 0 0.025208585028572424 0.017218203480436484 0 0.025594932403516062 0.018289901227933589 0 0.0073437312531393186 0.034457403418235208 0 0.0064818211582586141 0.032343802349880643 0 0.0060390479045053444 0.035450928049650672 0 0.026980079657712566 0.016416909457067062 0 0.026075021153629512 0.017362449468204255 0 0.026728069206328555 0.018842804688356779 0 0.0098924155228481692 0.032851998225466778 0 0.011953843834448035 0.026413821596275259 0 0.011953843834448035 0.026413821596275259 0 0.015990407282535243 0.026329662806418339 0 0.0073527976951058413 0.036203817929634681 0 0.0073437312531393186 0.034457403418235208 0 0.0060390479045053444 0.035450928049650672 0 0.026075021153629512 0.017362449468204255 0 0.026728069206328555 0.018842804688356779 0 0.025594932403516062 0.018289901227933589 0 0.025208585028572424 0.017218203480436484 0 0.025594932403516062 0.018289901227933589 0 0.024557034367238016 0.018415097434081752 0 0.025594932403516062 0.018289901227933589 0 0.025408051475205393 0.019806980462023071 0 0.024557034367238016 0.018415097434081752 0 0.026728069206328555 0.018842804688356779 0 0.025594932403516062 0.018289901227933589 0 0.025408051475205393 0.019806980462023071 0 0.026220616353117121 0.021950879338969744 0 0.026728069206328555 0.018842804688356779 0 0.025408051475205393 0.019806980462023071 0 0.012723500620511577 0.031988615166951048 0 0.015990407282535243 0.026329662806418339 0 0.005707622258051351 0.037874816410566552 0 0.0073527976951058413 0.036203817929634681 0 0.0060390479045053444 0.035450928049650672 0 0.012723500620511577 0.031988615166951048 0 0.0062823937913824247 0.038044712093589159 0 0.0077502983952168472 0.037141775398959354 0 0.0084233689489155734 0.037452018137290127 0 0.0073527976951058413 0.036203817929634681 0 0.023569459875372071 0.019022836966000951 0 0.022901857823106053 0.020294975045139007 0 0.022625593073222944 0.018334982545591325 0 0.022901857823106053 0.020294975045139007 0 0.022625593073222944 0.018334982545591325 0 0.021664963749300305 0.019046607094187044 0 0.023569459875372071 0.019022836966000951 0 0.022901857823106053 0.020294975045139007 0 0.024282009728245943 0.020055269336857192 0 0.025408051475205393 0.019806980462023071 0 0.024282009728245943 0.020055269336857192 0 0.024557034367238016 0.018415097434081752 0 0.023569459875372071 0.019022836966000951 0 0.024282009728245943 0.020055269336857192 0 0.024557034367238016 0.018415097434081752 0 0.025126884693658754 0.021381637298518417 0 0.025408051475205393 0.019806980462023071 0 0.024282009728245943 0.020055269336857192 0 0.023569459875372071 0.019022836966000951 0 0.024557034367238016 0.018415097434081752 0 0.023405469978953677 0.017953577870036607 0 0.024557034367238016 0.018415097434081752 0 0.023405469978953677 0.017953577870036607 0 0.02383620912920827 0.017094834596627043 0 0.023569459875372071 0.019022836966000951 0 0.023405469978953677 0.017953577870036607 0 0.022625593073222944 0.018334982545591325 0 0.023405469978953677 0.017953577870036607 0 0.022625593073222944 0.018334982545591325 0 0.02271919767464587 0.017235934539579292 0 0.02271919767464587 0.017235934539579292 0 0.022911253596025357 0.01655767215291238 0 0.02383620912920827 0.017094834596627043 0 0.023405469978953677 0.017953577870036607 0 0.02271919767464587 0.017235934539579292 0 0.02383620912920827 0.017094834596627043 0 0.022911253596025357 0.01655767215291238 0 0.02383620912920827 0.017094834596627043 0 0.023524669816220353 0.016106257343488292 0 0.025208585028572424 0.017218203480436484 0 0.02383620912920827 0.017094834596627043 0 0.024548614399741587 0.016382647542567734 0 0.025208585028572424 0.017218203480436484 0 0.024557034367238016 0.018415097434081752 0 0.02383620912920827 0.017094834596627043 0 0.02383620912920827 0.017094834596627043 0 0.024548614399741587 0.016382647542567734 0 0.023524669816220353 0.016106257343488292 0 0.021074438413114942 0.01598949109653601 0 0.019804897086225862 0.013667321523291781 0 0.024242696187286267 0.015431935126902658 0 0.023524669816220353 0.016106257343488292 0 0.023197563367328842 0.015384465643657622 0 0.025685833383359207 0.016277604523974001 0 0.024548614399741587 0.016382647542567734 0 0.024540882625236498 0.015201166245150374 0 0.024548614399741587 0.016382647542567734 0 0.024540882625236498 0.015201166245150374 0 0.023524669816220353 0.016106257343488292 0 0.021074438413114942 0.01598949109653601 0 0.023153077896670329 0.015210131866479423 0 0.019804897086225862 0.013667321523291781 0 0.021003889317329088 0.011939413574388038 0 0.022725340652178856 0.015965433531538176 0 0.023197563367328842 0.015384465643657622 0 0.022141611583847955 0.015361256948619723 0 0.022911253596025357 0.01655767215291238 0 0.022725340652178856 0.015965433531538176 0 0.023524669816220353 0.016106257343488292 0 0.022725340652178856 0.015965433531538176 0 0.023524669816220353 0.016106257343488292 0 0.023197563367328842 0.015384465643657622 0 0.022911253596025357 0.01655767215291238 0 0.022725340652178856 0.015965433531538176 0 0.021884607085325775 0.016342054259737594 0 0.022725340652178856 0.015965433531538176 0 0.022141611583847955 0.015361256948619723 0 0.021884607085325775 0.016342054259737594 0 0.021003889317329088 0.011939413574388038 0 0.021965835661293124 0.014650256177703715 0 0.024200068194385704 0.010837480338634303 0 0.023493603757147711 0.013475037529795657 0 0.022807842752825477 0.011788664842734107 0 0.023045786285863658 0.010770140968859122 0 0.024200068194385704 0.010837480338634303 0 0.022807842752825477 0.011788664842734107 0 0.021843861425815608 0.011825284267409969 0 0.021003889317329088 0.011939413574388038 0 0.021965835661293124 0.014650256177703715 0 0.021899658348600824 0.015910232612277895 0 0.021884607085325775 0.016342054259737594 0 0.022114107843556094 0.017344523718343885 0 0.021896226631272251 0.016702534049783335 0 0.02271919767464587 0.017235934539579292 0 0.022911253596025357 0.01655767215291238 0 0.021884607085325775 0.016342054259737594 0 0.02271919767464587 0.017235934539579292 0 0.021884607085325775 0.016342054259737594 0 0.022114107843556094 0.017344523718343885 0 0.023493603757147711 0.013475037529795657 0 0.021054158069297311 0.014796001497414656 0 0.021677597406565073 0.012337409773955137 0 0.023493603757147711 0.013475037529795657 0 0.021054158069297311 0.014796001497414656 0 0.021896226631272251 0.016702534049783335 0 0.023493603757147711 0.013475037529795657 0 0.021677597406565073 0.012337409773955137 0 0.022807842752825477 0.011788664842734107 0 0.022064218056258793 0.010811945083070821 0 0.023045786285863658 0.010770140968859122 0 0.022807842752825477 0.011788664842734107 0 0.021180686555578927 0.010320261655157228 0 0.022064218056258793 0.010811945083070821 0 0.021677597406565073 0.012337409773955137 0 0.022064218056258793 0.010811945083070821 0 0.021677597406565073 0.012337409773955137 0 0.022807842752825477 0.011788664842734107 0 0.021180686555578927 0.010320261655157228 0 0.019979615683380067 0.01088737162016498 0 0.020084212776340038 0.013209272518577665 0 0.021180686555578927 0.010320261655157228 0 0.021677597406565073 0.012337409773955137 0 0.020084212776340038 0.013209272518577665 0 0.01937652626052988 0.0090293273936887571 0 0.019979615683380067 0.01088737162016498 0 0.018457426743792825 0.013106805861331436 0 0.019979615683380067 0.01088737162016498 0 0.018457426743792825 0.013106805861331436 0 0.020084212776340038 0.013209272518577665 0 0.018501080292623279 0.014879910384944666 0 0.020084212776340038 0.013209272518577665 0 0.019323762899552385 0.015998670454473275 0 0.018457426743792825 0.013106805861331436 0 0.018501080292623279 0.014879910384944666 0 0.020084212776340038 0.013209272518577665 0 0.021054158069297311 0.014796001497414656 0 0.021677597406565073 0.012337409773955137 0 0.020084212776340038 0.013209272518577665 0 0.021054158069297311 0.014796001497414656 0 0.020084212776340038 0.013209272518577665 0 0.019323762899552385 0.015998670454473275 0 0.021054158069297311 0.014796001497414656 0 0.019323762899552385 0.015998670454473275 0 0.020235642682058883 0.01723099809165932 0 0.019323762899552385 0.015998670454473275 0 0.019227122552574229 0.017309897797111801 0 0.020235642682058883 0.01723099809165932 0 0.019227122552574229 0.017309897797111801 0 0.020235642682058883 0.01723099809165932 0 0.019308719677534159 0.018236221363014365 0 0.019323762899552385 0.015998670454473275 0 0.017473747185223005 0.016399576794748565 0 0.018249979713851255 0.017805045295792982 0 0.018501080292623279 0.014879910384944666 0 0.019323762899552385 0.015998670454473275 0 0.017473747185223005 0.016399576794748565 0 0.019323762899552385 0.015998670454473275 0 0.019227122552574229 0.017309897797111801 0 0.018249979713851255 0.017805045295792982 0 0.017473747185223005 0.016399576794748565 0 0.018249979713851255 0.017805045295792982 0 0.01658531388808538 0.018067300894365482 0 0.018249979713851255 0.017805045295792982 0 0.017327444376849639 0.019273004306195725 0 0.01658531388808538 0.018067300894365482 0 0.018249979713851255 0.017805045295792982 0 0.018446579330189561 0.019379093927919477 0 0.019308719677534159 0.018236221363014365 0 0.018249979713851255 0.017805045295792982 0 0.018446579330189561 0.019379093927919477 0 0.017327444376849639 0.019273004306195725 0 0.019308719677534159 0.018236221363014365 0 0.019925184829880888 0.018765170900447402 0 0.01771954088330931 0.021684677425199219 0 0.020235642682058883 0.01723099809165932 0 0.019308719677534159 0.018236221363014365 0 0.019925184829880888 0.018765170900447402 0 0.019227122552574229 0.017309897797111801 0 0.018249979713851255 0.017805045295792982 0 0.019308719677534159 0.018236221363014365 0 0.020235642682058883 0.01723099809165932 0 0.019925184829880888 0.018765170900447402 0 0.021115006179237148 0.018063785044322538 0 0.019925184829880888 0.018765170900447402 0 0.020583109427748065 0.019501779416363378 0 0.021115006179237148 0.018063785044322538 0 0.019925184829880888 0.018765170900447402 0 0.020583109427748065 0.019501779416363378 0 0.019496037744615221 0.020956198875419385 0 0.020583109427748065 0.019501779416363378 0 0.021664963749300305 0.019046607094187044 0 0.021123477608786221 0.021044381079482994 0 0.022901857823106053 0.020294975045139007 0 0.021664963749300305 0.019046607094187044 0 0.021123477608786221 0.021044381079482994 0 0.020583109427748065 0.019501779416363378 0 0.021664963749300305 0.019046607094187044 0 0.021115006179237148 0.018063785044322538 0 0.022625593073222944 0.018334982545591325 0 0.021664963749300305 0.019046607094187044 0 0.022114107843556094 0.017344523718343885 0 0.021664963749300305 0.019046607094187044 0 0.022114107843556094 0.017344523718343885 0 0.021115006179237148 0.018063785044322538 0 0.022625593073222944 0.018334982545591325 0 0.02271919767464587 0.017235934539579292 0 0.022114107843556094 0.017344523718343885 0 0.022114107843556094 0.017344523718343885 0 0.021896226631272251 0.016702534049783335 0 0.021115006179237148 0.018063785044322538 0 0.021054158069297311 0.014796001497414656 0 0.020235642682058883 0.01723099809165932 0 0.021896226631272251 0.016702534049783335 0 0.020235642682058883 0.01723099809165932 0 0.021896226631272251 0.016702534049783335 0 0.021115006179237148 0.018063785044322538 0 0.01444963640348366 0.025223395371504701 0 0.013926580211532875 0.02696443105222145 0 0.012908365219485036 0.024643556910348842 0 0.011176387184432313 0.015084832836920782 0 0.012312991527059829 0.015603349236053915 0 0.012238310528679415 0.016949340802072346 0 0.016826359351761064 0.017764038411394102 0 0.013197591742590128 0.020632949625661683 0 0.021754434136704026 0.013311335888969031 0 0.021460877847139185 0.013935918028772313 0 0.022306256900646238 0.013654356293762493 0 0.011176387184432313 0.015084832836920782 0 0.013097568301868565 0.014486049870131024 0 0.012312991527059829 0.015603349236053915 0 0.016826359351761064 0.017764038411394102 0 0.017022417641868206 0.012637751371869335 0 0.017022417641868206 0.012637751371869335 0 0.01764106386913385 0.010734591235478673 0 0.017022417641868206 0.012637751371869335 0 0.014153117168797778 0.015683392991528475 0 0.013097568301868565 0.014486049870131024 0 0.012312991527059829 0.015603349236053915 0 0.013811843152861448 0.016488191599452681 0 0.012312991527059829 0.015603349236053915 0 0.013811843152861448 0.016488191599452681 0 0.012238310528679415 0.016949340802072346 0 0.012460805970231333 0.011583975544521282 0 0.013683838167182273 0.015255045191150216 0 0.01556814701734523 0.013299523071019882 0 0.013683838167182273 0.015255045191150216 0 0.01556814701734523 0.013299523071019882 0 0.016495934960268525 0.014922672130584855 0 0.01937652626052988 0.0090293273936887571 0 0.01556814701734523 0.013299523071019882 0 0.01322690823005023 0.010265277932902703 0 0.012460805970231333 0.011583975544521282 0 0.01556814701734523 0.013299523071019882 0 0.013866371363343191 0.011177916232358585 0 0.016076893085709261 0.011486135861846995 0 0.01764106386913385 0.010734591235478673 0 0.01937652626052988 0.0090293273936887571 0 0.018457426743792825 0.013106805861331436 0 0.01556814701734523 0.013299523071019882 0 0.018457426743792825 0.013106805861331436 0 0.01556814701734523 0.013299523071019882 0 0.016495934960268525 0.014922672130584855 0 0.018501080292623279 0.014879910384944666 0 0.017473747185223005 0.016399576794748565 0 0.016495934960268525 0.014922672130584855 0 0.018457426743792825 0.013106805861331436 0 0.018501080292623279 0.014879910384944666 0 0.016495934960268525 0.014922672130584855 0 0.017473747185223005 0.016399576794748565 0 0.016495934960268525 0.014922672130584855 0 0.015758910270782887 0.01666583461997629 0 0.017473747185223005 0.016399576794748565 0 0.015758910270782887 0.01666583461997629 0 0.01658531388808538 0.018067300894365482 0 0.017327444376849639 0.019273004306195725 0 0.01658531388808538 0.018067300894365482 0 0.015886260599915391 0.019604953717989364 0 0.01658531388808538 0.018067300894365482 0 0.015886260599915391 0.019604953717989364 0 0.014663839118664458 0.018659857399565587 0 0.015758910270782887 0.01666583461997629 0 0.01658531388808538 0.018067300894365482 0 0.014663839118664458 0.018659857399565587 0 0.014153117168797778 0.015683392991528475 0 0.014614209495510358 0.018149953237673964 0 0.013811843152861448 0.016488191599452681 0 0.014663839118664458 0.018659857399565587 0 0.013307342524997946 0.018971516048555102 0 0.013683838167182273 0.015255045191150216 0 0.016495934960268525 0.014922672130584855 0 0.015758910270782887 0.01666583461997629 0 0.013683838167182273 0.015255045191150216 0 0.015758910270782887 0.01666583461997629 0 0.014663839118664458 0.018659857399565587 0 0.013338216743083909 0.021181069004275164 0 0.013197591742590128 0.020632949625661683 0 0.013811843152861448 0.016488191599452681 0 0.013307342524997946 0.018971516048555102 0 0.012238310528679415 0.016949340802072346 0 0.013078515954830257 0.022993231369014395 0 0.013420681473769321 0.023304834215880629 0 0.012908365219485036 0.024643556910348842 0 0.013078515954830257 0.022993231369014395 0 0.013420681473769321 0.023304834215880629 0 0.013236582524435717 0.022937825046921996 0 0.01444963640348366 0.025223395371504701 0 0.013420681473769321 0.023304834215880629 0 0.012908365219485036 0.024643556910348842 0 0.012362735816319094 0.024353918108965741 0 0.012982365019994762 0.02428548979426428 0 0.012980390557860703 0.023175967056131456 0 0.012982365019994762 0.02428548979426428 0 0.013231286199993388 0.023324640799079924 0 0.012980390557860703 0.023175967056131456 0 0.013231286199993388 0.023324640799079924 0 0.012980390557860703 0.023175967056131456 0 0.013302500411886306 0.02263381101427011 0 0.013815798665981007 0.021709372382222251 0 0.013420681473769321 0.023304834215880629 0 0.013302500411886306 0.02263381101427011 0 0.013420681473769321 0.023304834215880629 0 0.013302500411886306 0.02263381101427011 0 0.013236582524435717 0.022937825046921996 0 0.013231286199993388 0.023324640799079924 0 0.013302500411886306 0.02263381101427011 0 0.013236582524435717 0.022937825046921996 0 0.013231286199993388 0.023324640799079924 0 0.013236582524435717 0.022937825046921996 0 0.013499676681573227 0.023241483933111727 0 0.013078515954830257 0.022993231369014395 0 0.013236582524435717 0.022937825046921996 0 0.013499676681573227 0.023241483933111727 0 0.013231286199993388 0.023324640799079924 0 0.013499676681573227 0.023241483933111727 0 0.01360920942308584 0.024119365995679098 0 0.012982365019994762 0.02428548979426428 0 0.013231286199993388 0.023324640799079924 0 0.01360920942308584 0.024119365995679098 0 0.013499676681573227 0.023241483933111727 0 0.01360920942308584 0.024119365995679098 0 0.014513506475136391 0.023438270490105051 0 0.01360920942308584 0.024119365995679098 0 0.014513506475136391 0.023438270490105051 0 0.014308138180051864 0.025232538916021501 0 0.014513506475136391 0.023438270490105051 0 0.015953978741252265 0.025105062417651897 0 0.014308138180051864 0.025232538916021501 0 0.013078515954830257 0.022993231369014395 0 0.013499676681573227 0.023241483933111727 0 0.014513506475136391 0.023438270490105051 0 0.015886260599915391 0.019604953717989364 0 0.014663839118664458 0.018659857399565587 0 0.014501811164003836 0.021732257509331106 0 0.014663839118664458 0.018659857399565587 0 0.013307342524997946 0.018971516048555102 0 0.014501811164003836 0.021732257509331106 0 0.013338216743083909 0.021181069004275164 0 0.014562825998590101 0.022831763169486059 0 0.014501811164003836 0.021732257509331106 0 0.016661347314680011 0.020602730773161392 0 0.016760113302995275 0.022485880519689746 0 0.015886260599915391 0.019604953717989364 0 0.014501811164003836 0.021732257509331106 0 0.016661347314680011 0.020602730773161392 0 0.017327444376849639 0.019273004306195725 0 0.015886260599915391 0.019604953717989364 0 0.016661347314680011 0.020602730773161392 0 0.014501811164003836 0.021732257509331106 0 0.016760113302995275 0.022485880519689746 0 0.015953978741252265 0.025105062417651897 0 0.014562825998590101 0.022831763169486059 0 0.015724179046423068 0.024686587595812381 0 0.016760113302995275 0.022485880519689746 0 0.015953978741252265 0.025105062417651897 0 0.017707242052629073 0.025835015504005493 0 0.015953978741252265 0.025105062417651897 0 0.01498047792876523 0.026095803280465645 0 0.014308138180051864 0.025232538916021501 0 0.015953978741252265 0.025105062417651897 0 0.01573989849807084 0.026725537272689961 0 0.01498047792876523 0.026095803280465645 0 0.015953978741252265 0.025105062417651897 0 0.01573989849807084 0.026725537272689961 0 0.017707242052629073 0.025835015504005493 0 0.01573989849807084 0.026725537272689961 0 0.017707242052629073 0.025835015504005493 0 0.015870928103172793 0.029133189127021945 0 0.01573989849807084 0.026725537272689961 0 0.014418747248715238 0.027236136972452557 0 0.015870928103172793 0.029133189127021945 0 0.01573989849807084 0.026725537272689961 0 0.014418747248715238 0.027236136972452557 0 0.01498047792876523 0.026095803280465645 0 0.014418747248715238 0.027236136972452557 0 0.013840455926407433 0.026298762053349793 0 0.01498047792876523 0.026095803280465645 0 0.014418747248715238 0.027236136972452557 0 0.013840455926407433 0.026298762053349793 0 0.01307056358767199 0.027497008016728972 0 0.013840455926407433 0.026298762053349793 0 0.01498047792876523 0.026095803280465645 0 0.014308138180051864 0.025232538916021501 0 0.012982365019994762 0.02428548979426428 0 0.01360920942308584 0.024119365995679098 0 0.013215726080253077 0.025603927889754918 0 0.013840455926407433 0.026298762053349793 0 0.014308138180051864 0.025232538916021501 0 0.013215726080253077 0.025603927889754918 0 0.01360920942308584 0.024119365995679098 0 0.014308138180051864 0.025232538916021501 0 0.013215726080253077 0.025603927889754918 0 0.013840455926407433 0.026298762053349793 0 0.013215726080253077 0.025603927889754918 0 0.01307056358767199 0.027497008016728972 0 0.013215726080253077 0.025603927889754918 0 0.01307056358767199 0.027497008016728972 0 0.01241982822897659 0.026668878582345148 0 0.01307056358767199 0.027497008016728972 0 0.01241982822897659 0.026668878582345148 0 0.012045133145027496 0.027715487012694232 0 0.01241982822897659 0.026668878582345148 0 0.01141316589862288 0.027224449523537798 0 0.012045133145027496 0.027715487012694232 0 0.01241982822897659 0.026668878582345148 0 0.01141316589862288 0.027224449523537798 0 0.011774687818780813 0.026250796033950592 0 0.01241982822897659 0.026668878582345148 0 0.011774687818780813 0.026250796033950592 0 0.012455149768980016 0.025392754057976093 0 0.011817848205971359 0.025216047347289668 0 0.011774687818780813 0.026250796033950592 0 0.012455149768980016 0.025392754057976093 0 0.013215726080253077 0.025603927889754918 0 0.01241982822897659 0.026668878582345148 0 0.012455149768980016 0.025392754057976093 0 0.012982365019994762 0.02428548979426428 0 0.013215726080253077 0.025603927889754918 0 0.012455149768980016 0.025392754057976093 0 0.012362735816319094 0.024353918108965741 0 0.012982365019994762 0.02428548979426428 0 0.012455149768980016 0.025392754057976093 0 0.012362735816319094 0.024353918108965741 0 0.011817848205971359 0.025216047347289668 0 0.012455149768980016 0.025392754057976093 0 0.019155945944755497 0.023017474885431124 0 0.019496037744615221 0.020956198875419385 0 0.016763923142049494 0.022901909074224035 0 0.019155945944755497 0.023017474885431124 0 0.016763923142049494 0.022901909074224035 0 0.017648942860404488 0.025405528219749042 0 0.019155945944755497 0.023017474885431124 0 0.017648942860404488 0.025405528219749042 0 0.019870843566615528 0.025066592519491063 0 0.019155945944755497 0.023017474885431124 0 0.020969708092417938 0.023218653844735961 0 0.019870843566615528 0.025066592519491063 0 0.021921585171161793 0.025681128192832681 0 0.020969708092417938 0.023218653844735961 0 0.019870843566615528 0.025066592519491063 0 0.019155945944755497 0.023017474885431124 0 0.020969708092417938 0.023218653844735961 0 0.021123477608786221 0.021044381079482994 0 0.022940810696240981 0.02223453324533604 0 0.020969708092417938 0.023218653844735961 0 0.021123477608786221 0.021044381079482994 0 0.020583109427748065 0.019501779416363378 0 0.021123477608786221 0.021044381079482994 0 0.019496037744615221 0.020956198875419385 0 0.019925184829880888 0.018765170900447402 0 0.019496037744615221 0.020956198875419385 0 0.016763923142049494 0.022901909074224035 0 0.019155945944755497 0.023017474885431124 0 0.021123477608786221 0.021044381079482994 0 0.019496037744615221 0.020956198875419385 0 0.019299646166239384 0.019569093554153601 0 0.018207853880638693 0.02282081879326453 0 0.019925184829880888 0.018765170900447402 0 0.01771954088330931 0.021684677425199219 0 0.019630394880323254 0.022414473393261407 0 0.019123648027242288 0.018871415080611742 0 0.018313359094448006 0.021708439663329214 0 0.018446579330189561 0.019379093927919477 0 0.019308719677534159 0.018236221363014365 0 0.018980347876242629 0.021678933557282148 0 0.018446579330189561 0.019379093927919477 0 0.017781467654810479 0.020582701510830581 0 0.018980347876242629 0.021678933557282148 0 0.016760113302995275 0.022485880519689746 0 0.017781467654810479 0.020582701510830581 0 0.018980347876242629 0.021678933557282148 0 0.018446579330189561 0.019379093927919477 0 0.017327444376849639 0.019273004306195725 0 0.017781467654810479 0.020582701510830581 0 0.017327444376849639 0.019273004306195725 0 0.016661347314680011 0.020602730773161392 0 0.017781467654810479 0.020582701510830581 0 0.016661347314680011 0.020602730773161392 0 0.016760113302995275 0.022485880519689746 0 0.017781467654810479 0.020582701510830581 0 0.01771954088330931 0.021684677425199219 0 0.018139198731236775 0.024051607776896303 0 0.016458151759340948 0.025726846809923334 0 0.016760113302995275 0.022485880519689746 0 0.018980347876242629 0.021678933557282148 0 0.017707242052629073 0.025835015504005493 0 0.018313359094448006 0.021708439663329214 0 0.017068860089884352 0.025739660960952877 0 0.01771954088330931 0.021684677425199219 0 0.019630394880323254 0.022414473393261407 0 0.018139198731236775 0.024051607776896303 0 0.019630394880323254 0.022414473393261407 0 0.018139198731236775 0.024051607776896303 0 0.019015824170529053 0.026539951061060808 0 0.018139198731236775 0.024051607776896303 0 0.016458151759340948 0.025726846809923334 0 0.019015824170529053 0.026539951061060808 0 0.018207853880638693 0.02282081879326453 0 0.016659770232734555 0.027552787638746412 0 0.016458151759340948 0.025726846809923334 0 0.017268283728363795 0.027855751021267645 0 0.015870928103172793 0.029133189127021945 0 0.017068860089884352 0.025739660960952877 0 0.016156843956321904 0.028527267457270581 0 0.016458151759340948 0.025726846809923334 0 0.017268283728363795 0.027855751021267645 0 0.019015824170529053 0.026539951061060808 0 0.014324253087658997 0.028213326467715089 0 0.019033063297032971 0.028726719522338719 0 0.015859740851852738 0.031374710551387346 0 0.014324253087658997 0.028213326467715089 0 0.017648942860404488 0.025405528219749042 0 0.019033063297032971 0.028726719522338719 0 0.017648942860404488 0.025405528219749042 0 0.019870843566615528 0.025066592519491063 0 0.019033063297032971 0.028726719522338719 0 0.016763923142049494 0.022901909074224035 0 0.014324253087658997 0.028213326467715089 0 0.017648942860404488 0.025405528219749042 0 0.021921585171161793 0.025681128192832681 0 0.019870843566615528 0.025066592519491063 0 0.019033063297032971 0.028726719522338719 0 0.021921585171161793 0.025681128192832681 0 0.022796201325477456 0.028047344536033237 0 0.019033063297032971 0.028726719522338719 0 0.022796201325477456 0.028047344536033237 0 0.019033063297032971 0.028726719522338719 0 0.018805687870943697 0.033172184191896555 0 0.016019863638750683 0.032698270554147799 0 0.014471034352306504 0.035378233242888364 0 0.0094820531509256425 0.037040256206317339 0 0.010165993390644964 0.038304953737935285 0 0.0096967963412856618 0.037854861617092214 0 0.010165993390644964 0.038304953737935285 0 0.0098216132186926663 0.037819522557561921 0 0.0096967963412856618 0.037854861617092214 0 0.010165993390644964 0.038304953737935285 0 0.0098216132186926663 0.037819522557561921 0 0.01063922911429574 0.037523290766722797 0 0.0098216132186926663 0.037819522557561921 0 0.01063922911429574 0.037523290766722797 0 0.0097870415297049099 0.037457005801991662 0 0.014471034352306504 0.035378233242888364 0 0.013203634747067509 0.036841952686687524 0 0.010165993390644964 0.038304953737935285 0 0.01063922911429574 0.037523290766722797 0 0.012694760102804436 0.037243016549857726 0 0.018805687870943697 0.033172184191896555 0 0.012093954469468808 0.035077230868669942 0 0.012694760102804436 0.037243016549857726 0 0.019033063297032971 0.028726719522338719 0 0.018805687870943697 0.033172184191896555 0 0.015859740851852738 0.031374710551387346 0 0.018805687870943697 0.033172184191896555 0 0.015859740851852738 0.031374710551387346 0 0.012093954469468808 0.035077230868669942 0 0.016659770232734555 0.027552787638746412 0 0.01525819566876695 0.032372937055765813 0 0.014324253087658997 0.028213326467715089 0 0.015859740851852738 0.031374710551387346 0 0.012093954469468808 0.035077230868669942 0 0.017268283728363795 0.027855751021267645 0 0.019015824170529053 0.026539951061060808 0 0.018074104415956232 0.029971945892821053 0 0.017268283728363795 0.027855751021267645 0 0.018074104415956232 0.029971945892821053 0 0.015870928103172793 0.029133189127021945 0 0.016063497323118774 0.031497231461585555 0 0.018074104415956232 0.029971945892821053 0 0.015870928103172793 0.029133189127021945 0 0.012093954469468808 0.035077230868669942 0 0.012335399612926335 0.037867896812327786 0 0.012694760102804436 0.037243016549857726 0 0.016063497323118774 0.031497231461585555 0 0.018074104415956232 0.029971945892821053 0 0.01671245805863086 0.03318070175958733 0 0.012335399612926335 0.037867896812327786 0 0.012694760102804436 0.037243016549857726 0 0.011665100570706695 0.037239774357028264 0 0.01525819566876695 0.032372937055765813 0 0.014441198137308854 0.035104734254682336 0 0.016063497323118774 0.031497231461585555 0 0.01671245805863086 0.03318070175958733 0 0.015121369602876751 0.033845244556434735 0 0.016063497323118774 0.031497231461585555 0 0.015121369602876751 0.033845244556434735 0 0.014705238868672506 0.032987807954070462 0 0.01671245805863086 0.03318070175958733 0 0.015121369602876751 0.033845244556434735 0 0.013459886831443517 0.035912679519655065 0 0.015121369602876751 0.033845244556434735 0 0.014705238868672506 0.032987807954070462 0 0.014292212784607294 0.03465371445041613 0 0.014441198137308854 0.035104734254682336 0 0.013901701493729966 0.03557363671069818 0 0.012335399612926335 0.037867896812327786 0 0.01205810646539774 0.036913202996295844 0 0.011258727840911916 0.037124174581103744 0 0.012335399612926335 0.037867896812327786 0 0.01205810646539774 0.036913202996295844 0 0.013459886831443517 0.035912679519655065 0 0.01205810646539774 0.036913202996295844 0 0.011258727840911916 0.037124174581103744 0 0.010802665542422228 0.036702299144715032 0 0.011258727840911916 0.037124174581103744 0 0.009823219986148499 0.036953835248381917 0 0.010481470633026976 0.037214556203782223 0 0.011258727840911916 0.037124174581103744 0 0.009823219986148499 0.036953835248381917 0 0.010802665542422228 0.036702299144715032 0 0.009823219986148499 0.036953835248381917 0 0.010481470633026976 0.037214556203782223 0 0.0096369747926951903 0.037196808664305588 0 0.010481470633026976 0.037214556203782223 0 0.0096369747926951903 0.037196808664305588 0 0.0097870415297049099 0.037457005801991662 0 0.01063922911429574 0.037523290766722797 0 0.010481470633026976 0.037214556203782223 0 0.0097870415297049099 0.037457005801991662 0 0.01063922911429574 0.037523290766722797 0 0.010481470633026976 0.037214556203782223 0 0.011665100570706695 0.037239774357028264 0 0.012335399612926335 0.037867896812327786 0 0.011258727840911916 0.037124174581103744 0 0.011665100570706695 0.037239774357028264 0 0.01063922911429574 0.037523290766722797 0 0.012694760102804436 0.037243016549857726 0 0.011665100570706695 0.037239774357028264 0 0.011258727840911916 0.037124174581103744 0 0.010481470633026976 0.037214556203782223 0 0.011665100570706695 0.037239774357028264 0 0.011569885447951025 0.029473867292509885 0 0.0124317978958633 0.030811649323328815 0 0.010965298254359684 0.031327711795306405 0 0.010623654829077102 0.02819709748164748 0 0.011569885447951025 0.029473867292509885 0 0.010965298254359684 0.031327711795306405 0 0.010623654829077102 0.02819709748164748 0 0.011569885447951025 0.029473867292509885 0 0.011530104820309075 0.028246534731858664 0 0.01141316589862288 0.027224449523537798 0 0.011530104820309075 0.028246534731858664 0 0.012045133145027496 0.027715487012694232 0 0.01307056358767199 0.027497008016728972 0 0.012045133145027496 0.027715487012694232 0 0.011992144343759418 0.02868627970036219 0 0.011530104820309075 0.028246534731858664 0 0.012045133145027496 0.027715487012694232 0 0.011992144343759418 0.02868627970036219 0 0.011569885447951025 0.029473867292509885 0 0.011530104820309075 0.028246534731858664 0 0.011992144343759418 0.02868627970036219 0 0.011569885447951025 0.029473867292509885 0 0.011992144343759418 0.02868627970036219 0 0.012733778778333637 0.029197960654358562 0 0.01307056358767199 0.027497008016728972 0 0.011992144343759418 0.02868627970036219 0 0.012733778778333637 0.029197960654358562 0 0.01307056358767199 0.027497008016728972 0 0.012733778778333637 0.029197960654358562 0 0.013946835460778861 0.028814447194847163 0 0.012733778778333637 0.029197960654358562 0 0.013316311848986207 0.030201647705400878 0 0.013946835460778861 0.028814447194847163 0 0.012733778778333637 0.029197960654358562 0 0.013316311848986207 0.030201647705400878 0 0.0124317978958633 0.030811649323328815 0 0.011569885447951025 0.029473867292509885 0 0.012733778778333637 0.029197960654358562 0 0.0124317978958633 0.030811649323328815 0 0.013316311848986207 0.030201647705400878 0 0.0124317978958633 0.030811649323328815 0 0.013410650736648532 0.031731027821383088 0 0.014272309377365133 0.030244941657228505 0 0.014903818301883889 0.031332499865585318 0 0.013410650736648532 0.031731027821383088 0 0.013316311848986207 0.030201647705400878 0 0.014272309377365133 0.030244941657228505 0 0.013410650736648532 0.031731027821383088 0 0.013316311848986207 0.030201647705400878 0 0.014272309377365133 0.030244941657228505 0 0.013946835460778861 0.028814447194847163 0 0.014418747248715238 0.027236136972452557 0 0.01307056358767199 0.027497008016728972 0 0.013946835460778861 0.028814447194847163 0 0.014418747248715238 0.027236136972452557 0 0.013946835460778861 0.028814447194847163 0 0.015870928103172793 0.029133189127021945 0 0.014272309377365133 0.030244941657228505 0 0.013946835460778861 0.028814447194847163 0 0.015870928103172793 0.029133189127021945 0 0.014272309377365133 0.030244941657228505 0 0.015870928103172793 0.029133189127021945 0 0.014903818301883889 0.031332499865585318 0 0.016063497323118774 0.031497231461585555 0 0.015870928103172793 0.029133189127021945 0 0.014903818301883889 0.031332499865585318 0 0.014903818301883889 0.031332499865585318 0 0.014705238868672506 0.032987807954070462 0 0.013838198168658026 0.033221897678396256 0 0.016063497323118774 0.031497231461585555 0 0.014903818301883889 0.031332499865585318 0 0.014705238868672506 0.032987807954070462 0 0.014705238868672506 0.032987807954070462 0 0.013838198168658026 0.033221897678396256 0 0.014292212784607294 0.03465371445041613 0 0.013838198168658026 0.033221897678396256 0 0.013693116223811686 0.034609209368847184 0 0.014292212784607294 0.03465371445041613 0 0.013838198168658026 0.033221897678396256 0 0.013038307374026449 0.033587780831936538 0 0.013693116223811686 0.034609209368847184 0 0.013838198168658026 0.033221897678396256 0 0.013410650736648532 0.031731027821383088 0 0.013038307374026449 0.033587780831936538 0 0.014903818301883889 0.031332499865585318 0 0.013838198168658026 0.033221897678396256 0 0.013410650736648532 0.031731027821383088 0 0.013410650736648532 0.031731027821383088 0 0.012377672769046329 0.032327034353644445 0 0.013038307374026449 0.033587780831936538 0 0.0124317978958633 0.030811649323328815 0 0.013410650736648532 0.031731027821383088 0 0.012377672769046329 0.032327034353644445 0 0.013038307374026449 0.033587780831936538 0 0.011905265913570263 0.034060821657249357 0 0.013161781145360346 0.034725440444424764 0 0.012377672769046329 0.032327034353644445 0 0.013038307374026449 0.033587780831936538 0 0.011905265913570263 0.034060821657249357 0 0.014495008635696881 0.034291615447261045 0 0.013521300974548987 0.033896861639528604 0 0.01371432450122358 0.03192374015242317 0 0.013254224733706136 0.034054735971682057 0 0.012400655305690423 0.031610759165869598 0 0.012377672769046329 0.032327034353644445 0 0.011905265913570263 0.034060821657249357 0 0.010965298254359684 0.031327711795306405 0 0.012916990398293257 0.03266008198079625 0 0.013521300974548987 0.033896861639528604 0 0.01371432450122358 0.03192374015242317 0 0.0124317978958633 0.030811649323328815 0 0.012377672769046329 0.032327034353644445 0 0.010965298254359684 0.031327711795306405 0 0.017576710386750197 0.038190823080900611 0 0.016795634013435395 0.038045128525754417 0 0.017141073697680833 0.036605440303574967 0 0.017622278900042837 0.038268713522135886 0 0.017177303020048201 0.036616571878992893 0 0.015735305375714426 0.036516475418271389 0 0.015571857002977895 0.035961140266140577 0 0.017576710386750197 0.038190823080900611 0 0.017454748577182048 0.039619933102352865 0 0.016795634013435395 0.038045128525754417 0 0.014495008635696881 0.034291615447261045 0 0.013521300974548987 0.033896861639528604 0 0.014375665385059428 0.035235752252319043 0 0.016733368295618768 0.036104584469268744 0 0.015735305375714426 0.036516475418271389 0 0.013254224733706136 0.034054735971682057 0 0.014079555373675992 0.035365868392658345 0 0.011905265913570263 0.034060821657249357 0 0.013161781145360346 0.034725440444424764 0 0.013253170529994146 0.035616454794081008 0 0.014495008635696881 0.034291615447261045 0 0.014375665385059428 0.035235752252319043 0 0.014909944246547034 0.035567330059267363 0 0.013161781145360346 0.034725440444424764 0 0.013253170529994146 0.035616454794081008 0 0.01371819467656654 0.035357719287353262 0 0.014375665385059428 0.035235752252319043 0 0.014909944246547034 0.035567330059267363 0 0.01493296598946153 0.035656115686893197 0 0.013253170529994146 0.035616454794081008 0 0.01371819467656654 0.035357719287353262 0 0.013965468692336024 0.035634740577982139 0 0.01371819467656654 0.035357719287353262 0 0.013796855618513517 0.035609674413101443 0 0.013965468692336024 0.035634740577982139 0 0.013161781145360346 0.034725440444424764 0 0.01371819467656654 0.035357719287353262 0 0.013693116223811686 0.034609209368847184 0 0.013038307374026449 0.033587780831936538 0 0.013161781145360346 0.034725440444424764 0 0.013693116223811686 0.034609209368847184 0 0.01371819467656654 0.035357719287353262 0 0.013693116223811686 0.034609209368847184 0 0.013944035735525336 0.035298878147616383 0 0.013693116223811686 0.034609209368847184 0 0.014292212784607294 0.03465371445041613 0 0.013944035735525336 0.035298878147616383 0 0.01371819467656654 0.035357719287353262 0 0.013944035735525336 0.035298878147616383 0 0.013796855618513517 0.035609674413101443 0 0.013944035735525336 0.035298878147616383 0 0.013796855618513517 0.035609674413101443 0 0.013459886831443517 0.035912679519655065 0 0.013796855618513517 0.035609674413101443 0 0.013869217297362312 0.03550077573983465 0 0.012891085196385391 0.035575658250711815 0 0.013796855618513517 0.035609674413101443 0 0.013869217297362312 0.03550077573983465 0 0.013965468692336024 0.035634740577982139 0 0.013869217297362312 0.03550077573983465 0 0.013609833235350073 0.034999682513467086 0 0.012891085196385391 0.035575658250711815 0 0.013869217297362312 0.03550077573983465 0 0.013609833235350073 0.034999682513467086 0 0.014847960133008981 0.035428617188762883 0 0.013609833235350073 0.034999682513467086 0 0.014847960133008981 0.035428617188762883 0 0.015503267490976476 0.03500002392174726 0 0.013869217297362312 0.03550077573983465 0 0.014847960133008981 0.035428617188762883 0 0.013965468692336024 0.035634740577982139 0 0.013253170529994146 0.035616454794081008 0 0.014847960133008981 0.035428617188762883 0 0.013965468692336024 0.035634740577982139 0 0.014079555373675992 0.035365868392658345 0 0.014508926549528078 0.035411542047991039 0 0.014909944246547034 0.035567330059267363 0 0.014847960133008981 0.035428617188762883 0 0.01493296598946153 0.035656115686893197 0 0.016167345759951806 0.036539442605186274 0 0.0155059426693742 0.03499998482779329 0 0.016744980931362636 0.03499998359491175 0 0.014847960133008981 0.035428617188762883 0 0.01493296598946153 0.035656115686893197 0 0.015503267490976476 0.03500002392174726 0 0.015571857002977895 0.035961140266140577 0 0.015505667571798869 0.035000338822719995 0 0.016745270875791238 0.035000639415434562 0 0.017177303020048201 0.036616571878992893 0 0.01822547693528705 0.036133218902525736 0 0.016745168140015247 0.03499999174618075 0 0.017211941479743424 0.036649390171372642 0 0.016167345759951806 0.036539442605186274 0 0.016744980931362636 0.03499998359491175 0 0.017141073697680833 0.036605440303574967 0 0.016795634013435395 0.038045128525754417 0 0.016167345759951806 0.036539442605186274 0 0.017141073697680833 0.036605440303574967 0 0.010576805507689037 0.036089490216496163 0 0.013459886831443517 0.035912679519655065 0 0.011269349717269006 0.035568832775826759 0 0.010576805507689037 0.036089490216496163 0 0.0091285018066401859 0.035806922847535609 0 0.0093726104278866081 0.036600944127242616 0 0.010576805507689037 0.036089490216496163 0 0.010802665542422228 0.036702299144715032 0 0.0093726104278866081 0.036600944127242616 0 0.009823219986148499 0.036953835248381917 0 0.010802665542422228 0.036702299144715032 0 0.0093726104278866081 0.036600944127242616 0 0.010576805507689037 0.036089490216496163 0 0.010802665542422228 0.036702299144715032 0 0.013459886831443517 0.035912679519655065 0 0.01205810646539774 0.036913202996295844 0 0.010802665542422228 0.036702299144715032 0 0.013459886831443517 0.035912679519655065 0 0.015121369602876751 0.033845244556434735 0 0.014292212784607294 0.03465371445041613 0 0.013459886831443517 0.035912679519655065 0 0.014292212784607294 0.03465371445041613 0 0.013944035735525336 0.035298878147616383 0 0.013459886831443517 0.035912679519655065 0 0.013796855618513517 0.035609674413101443 0 0.013459886831443517 0.035912679519655065 0 0.012891085196385391 0.035575658250711815 0 0.013459886831443517 0.035912679519655065 0 0.012891085196385391 0.035575658250711815 0 0.011269349717269006 0.035568832775826759 0 0.013609833235350073 0.034999682513467086 0 0.012891085196385391 0.035575658250711815 0 0.011713844893298053 0.034999381113578955 0 0.012891085196385391 0.035575658250711815 0 0.011713844893298053 0.034999381113578955 0 0.011269349717269006 0.035568832775826759 0 0.011713844893298053 0.034999381113578955 0 0.011269349717269006 0.035568832775826759 0 0.0098176244101952723 0.034999392074238023 0 0.010576805507689037 0.036089490216496163 0 0.011269349717269006 0.035568832775826759 0 0.0091285018066401859 0.035806922847535609 0 0.0098176244101952723 0.034999392074238023 0 0.0079211636223389253 0.034999549747892288 0 0.0091285018066401859 0.035806922847535609 0 0.011269349717269006 0.035568832775826759 0 0.0098176244101952723 0.034999392074238023 0 0.0091285018066401859 0.035806922847535609 0 0.0079211636223389253 0.034999549747892288 0 0.0071635941357860037 0.035719529053812669 0 0.0091285018066401859 0.035806922847535609 0 0.0079211636223389253 0.034999549747892288 0 0.0071635941357860037 0.035719529053812669 0 0.0060247827233595869 0.034999595488467913 0 0.0071635941357860037 0.035719529053812669 0 0.0062007133940163777 0.036455890689085974 0 0.0081328518877337493 0.036578791015697748 0 0.0071635941357860037 0.035719529053812669 0 0.0091285018066401859 0.035806922847535609 0 0.0081328518877337493 0.036578791015697748 0 0.0060247827233595869 0.034999595488467913 0 0.0051943152880904089 0.035803945913296616 0 0.0041284200773862422 0.034999716210110193 0 0.0071635941357860037 0.035719529053812669 0 0.0060247827233595869 0.034999595488467913 0 0.0051943152880904089 0.035803945913296616 0 0.0071635941357860037 0.035719529053812669 0 0.0051943152880904089 0.035803945913296616 0 0.0062007133940163777 0.036455890689085974 0 0.0051943152880904089 0.035803945913296616 0 0.0047867890783411856 0.036795686268845385 0 0.0062007133940163777 0.036455890689085974 0 0.0045648170147919174 0.036558534246450697 0 0.0054363612616937325 0.037337259744273973 0 0.0047867890783411856 0.036795686268845385 0 0.0062007133940163777 0.036455890689085974 0 0.0057586018275043605 0.037518438967451273 0 0.0062007133940163777 0.036455890689085974 0 0.0057586018275043605 0.037518438967451273 0 0.0081328518877337493 0.036578791015697748 0 0.0057586018275043605 0.037518438967451273 0 0.0081328518877337493 0.036578791015697748 0 0.0064342480632453049 0.038132800289658209 0 0.0057586018275043605 0.037518438967451273 0 0.0064342480632453049 0.038132800289658209 0 0.0051675774140886406 0.038247032074194297 0 0.0057586018275043605 0.037518438967451273 0 0.0051675774140886406 0.038247032074194297 0 0.0043300671204280234 0.037329781446390903 0 0.0043990256351235726 0.036152695647997078 0 0.0057586018275043605 0.037518438967451273 0 0.0043300671204280234 0.037329781446390903 0 0.0091285018066401859 0.035806922847535609 0 0.0081328518877337493 0.036578791015697748 0 0.0093726104278866081 0.036600944127242616 0 0.0081006160904517274 0.036626147569446474 0 0.0074307639003274193 0.03744645701297826 0 0.0081328518877337493 0.036578791015697748 0 0.0089411085870312029 0.036864183868390188 0 0.0087148662812345668 0.0369160743853226 0 0.0081328518877337493 0.036578791015697748 0 0.0087148662812345668 0.0369160743853226 0 0.008558429667236361 0.036874075008064486 0 0.009823219986148499 0.036953835248381917 0 0.0093726104278866081 0.036600944127242616 0 0.0089411085870312029 0.036864183868390188 0 0.0081328518877337493 0.036578791015697748 0 0.0093726104278866081 0.036600944127242616 0 0.0089411085870312029 0.036864183868390188 0 0.009823219986148499 0.036953835248381917 0 0.0089411085870312029 0.036864183868390188 0 0.0091088156445411853 0.037066854779257377 0 0.009823219986148499 0.036953835248381917 0 0.0091088156445411853 0.037066854779257377 0 0.0096369747926951903 0.037196808664305588 0 0.0091088156445411853 0.037066854779257377 0 0.0096369747926951903 0.037196808664305588 0 0.0091236441881068029 0.037297061939968006 0 0.0096369747926951903 0.037196808664305588 0 0.0091236441881068029 0.037297061939968006 0 0.0097870415297049099 0.037457005801991662 0 0.0091236441881068029 0.037297061939968006 0 0.008740339078945886 0.037173389439065611 0 0.0086389300934132784 0.037412273680556135 0 0.008740339078945886 0.037173389439065611 0 0.0085114161845265025 0.037274929491341452 0 0.0086389300934132784 0.037412273680556135 0 0.0091088156445411853 0.037066854779257377 0 0.0091236441881068029 0.037297061939968006 0 0.008740339078945886 0.037173389439065611 0 0.008740339078945886 0.037173389439065611 0 0.0087148662812345668 0.0369160743853226 0 0.0085417942442084869 0.037097932491447147 0 0.0091088156445411853 0.037066854779257377 0 0.008740339078945886 0.037173389439065611 0 0.0087148662812345668 0.0369160743853226 0 0.0089411085870312029 0.036864183868390188 0 0.0091088156445411853 0.037066854779257377 0 0.0087148662812345668 0.0369160743853226 0 0.008558429667236361 0.036874075008064486 0 0.0085417942442084869 0.037097932491447147 0 0.0082166798556963429 0.037254482641777269 0 0.0074307639003274193 0.03744645701297826 0 0.0059371080633203116 0.037475225685269453 0 0.0087148662812345668 0.0369160743853226 0 0.008558429667236361 0.036874075008064486 0 0.0085417942442084869 0.037097932491447147 0 0.0051675774140886406 0.038247032074194297 0 0.0051323401282869904 0.039638687057694882 0 0.0040408067811432509 0.03850383228008606 0 0.0064342480632453049 0.038132800289658209 0 0.0051675774140886406 0.038247032074194297 0 0.0051323401282869904 0.039638687057694882 0 0.0085417942442084869 0.037097932491447147 0 0.0082166798556963429 0.037254482641777269 0 0.0085114161845265025 0.037274929491341452 0 0.0082166798556963429 0.037254482641777269 0 0.0085114161845265025 0.037274929491341452 0 0.0084004394840026999 0.037444274280851508 0 0.008740339078945886 0.037173389439065611 0 0.0085417942442084869 0.037097932491447147 0 0.0085114161845265025 0.037274929491341452 0 0.0085114161845265025 0.037274929491341452 0 0.0084004394840026999 0.037444274280851508 0 0.0086389300934132784 0.037412273680556135 0 0.0084004394840026999 0.037444274280851508 0 0.0082399235958055088 0.037570342361182139 0 0.0086389300934132784 0.037412273680556135 0 0.0074560799161998955 0.037397653527312162 0 0.0079764400957815628 0.037601829301212697 0 0.0061078532881046971 0.035741322192690182 0 0.006192122464590495 0.037044167358961898 0 0.0050723249077752686 0.037248939146269304 0 0.0059371080633203116 0.037475225685269453 0 0.0055023779047385195 0.037220692922427093 0 0.0059371080633203116 0.037475225685269453 0 0.0074560799161998955 0.037397653527312162 0 0.0061078532881046971 0.035741322192690182 0 0.0070985344265572644 0.03673139544061111 0 0.006192122464590495 0.037044167358961898 0 0.0070985344265572644 0.03673139544061111 0 0.006192122464590495 0.037044167358961898 0 0.0065749035616139593 0.037607899754556057 0 0.006192122464590495 0.037044167358961898 0 0.0057413205797740572 0.037925673099366314 0 0.0050723249077752686 0.037248939146269304 0 0.006192122464590495 0.037044167358961898 0 0.0065749035616139593 0.037607899754556057 0 0.0057413205797740572 0.037925673099366314 0 0.0065749035616139593 0.037607899754556057 0 0.0063024239762958564 0.037859094271892907 0 0.0069872498317174901 0.037896285990070208 0 0.0060502724884879799 0.037843348658534323 0 0.0063024239762958564 0.037859094271892907 0 0.0057413205797740572 0.037925673099366314 0 0.0065749035616139593 0.037607899754556057 0 0.0063024239762958564 0.037859094271892907 0 0.0057413205797740572 0.037925673099366314 0 0.0070985344265572644 0.03673139544061111 0 0.0074008979594562133 0.037692293970422723 0 0.0082399235958055088 0.037570342361182139 0 0.0070985344265572644 0.03673139544061111 0 0.0065749035616139593 0.037607899754556057 0 0.0074008979594562133 0.037692293970422723 0 0.0080604317872832818 0.038448495178516694 0 0.0074008979594562133 0.037692293970422723 0 0.0082399235958055088 0.037570342361182139 0 0.0065749035616139593 0.037607899754556057 0 0.0074008979594562133 0.037692293970422723 0 0.0069872498317174901 0.037896285990070208 0 0.0080604317872832818 0.038448495178516694 0 0.0074008979594562133 0.037692293970422723 0 0.0069872498317174901 0.037896285990070208 0 0.0087556969111567077 0.037417002824181332 0 0.0093736571274929681 0.03765775239603953 0 0.0080604317872832818 0.038448495178516694 0 0.0082399235958055088 0.037570342361182139 0 0.0090038208462347707 0.037641912069184318 0 0.0080604317872832818 0.038448495178516694 0 0.0090038208462347707 0.037641912069184318 0 0.0096967963412856618 0.037854861617092214 0 0.0098216132186926663 0.037819522557561921 0 0.0090038208462347707 0.037641912069184318 0 0.0096967963412856618 0.037854861617092214 0 0.0098216132186926663 0.037819522557561921 0 0.0090038208462347707 0.037641912069184318 0 0.0092415140764154184 0.037547083944658527 0 0.0098216132186926663 0.037819522557561921 0 0.0097870415297049099 0.037457005801991662 0 0.0092415140764154184 0.037547083944658527 0 0.0091236441881068029 0.037297061939968006 0 0.0097870415297049099 0.037457005801991662 0 0.0092415140764154184 0.037547083944658527 0 0.0091236441881068029 0.037297061939968006 0 0.0092415140764154184 0.037547083944658527 0 0.0086389300934132784 0.037412273680556135 0 0.0082399235958055088 0.037570342361182139 0 0.0090038208462347707 0.037641912069184318 0 0.0086389300934132784 0.037412273680556135 0 0.0090038208462347707 0.037641912069184318 0 0.0092415140764154184 0.037547083944658527 0 0.0086389300934132784 0.037412273680556135 0 0.0031546006839493642 0.038025103299326818 0 0.0030677704842253257 0.037562821799429623 0 0.0026177121495472005 0.037920494457768392 0 0.0031546006839493642 0.038025103299326818 0 0.0030677704842253257 0.037562821799429623 0 0.0035019129343803385 0.037671526359089477 0 0.0030677704842253257 0.037562821799429623 0 0.0035019129343803385 0.037671526359089477 0 0.0035971980236824091 0.037362560217594661 0 0.0030677704842253257 0.037562821799429623 0 0.0026177121495472005 0.037920494457768392 0 0.0025981544972346767 0.037495668152071067 0 0.0022290832322338157 0.037764588735768254 0 0.0026177121495472005 0.037920494457768392 0 0.0025981544972346767 0.037495668152071067 0 0.0022290832322338157 0.037764588735768254 0 0.0021963427781156427 0.037410613914310907 0 0.0018715352976089975 0.037642460305524608 0 0.0022290832322338157 0.037764588735768254 0 0.0021963427781156427 0.037410613914310907 0 0.0025981544972346767 0.037495668152071067 0 0.0022290832322338157 0.037764588735768254 0 0.0022031572977174161 0.038162872675766721 0 0.0018981063031572297 0.037989818192627395 0 0.0022290832322338157 0.037764588735768254 0 0.0026177121495472005 0.037920494457768392 0 0.0022031572977174161 0.038162872675766721 0 0.0033654843871729961 0.03601969991771807 0 0.0010800349525306571 0.035877664096966237 0 0.0025574676415849947 0.03862679316088885 0 0.0022031572977174161 0.038162872675766721 0 0.0017549676749963586 0.038444642892008003 0 0.0026177121495472005 0.037920494457768392 0 0.0025574676415849947 0.03862679316088885 0 0.0022031572977174161 0.038162872675766721 0 0.0031546006839493642 0.038025103299326818 0 0.0025574676415849947 0.03862679316088885 0 0.0036726572059767731 0.038554693489128947 0 0.0033654843871729961 0.03601969991771807 0 0.0048034656353635229 0.03786764924531557 0 0.0058302276339101703 0.037942442047267495 0 0.0056810968653179588 0.037918687507270753 0 0.0058127530203141292 0.037922955716769416 0 0.0031546006839493642 0.038025103299326818 0 0.0026177121495472005 0.037920494457768392 0 0.0025574676415849947 0.03862679316088885 0 0.0058302276339101703 0.037942442047267495 0 0.0058127530203141292 0.037922955716769416 0 0.0057413205797740572 0.037925673099366314 0 0.0031546006839493642 0.038025103299326818 0 0.0036726572059767731 0.038554693489128947 0 0.0036959755479629764 0.03794019930311248 0 0.0036726572059767731 0.038554693489128947 0 0.0042853006898416974 0.037938142286711177 0 0.0036959755479629764 0.03794019930311248 0 0.0042853006898416974 0.037938142286711177 0 0.0057413205797740572 0.037925673099366314 0 0.0047521157940293695 0.037660730483556309 0 0.0060502724884879799 0.037843348658534323 0 0.0058302276339101703 0.037942442047267495 0 0.0057413205797740572 0.037925673099366314 0 0.0036726572059767731 0.038554693489128947 0 0.0042853006898416974 0.037938142286711177 0 0.0057413205797740572 0.037925673099366314 0 0.0048034656353635229 0.03786764924531557 0 0.0054617806056925493 0.037967914686793981 0 0.0057413205797740572 0.037925673099366314 0 0.0050723249077752686 0.037248939146269304 0 0.0047521157940293695 0.037660730483556309 0 0.00485879573490745 0.037065721721071053 0 0.0050723249077752686 0.037248939146269304 0 0.0043343115872922517 0.03715066500782746 0 0.0050723249077752686 0.037248939146269304 0 0.0047521157940293695 0.037660730483556309 0 0.0041464044633880148 0.037556065216111087 0 0.0050723249077752686 0.037248939146269304 0 0.0041464044633880148 0.037556065216111087 0 0.0043343115872922517 0.03715066500782746 0 0.0036959755479629764 0.03794019930311248 0 0.0035019129343803385 0.037671526359089477 0 0.0041464044633880148 0.037556065216111087 0 0.0031546006839493642 0.038025103299326818 0 0.0036959755479629764 0.03794019930311248 0 0.0035019129343803385 0.037671526359089477 0 0.0042853006898416974 0.037938142286711177 0 0.0036959755479629764 0.03794019930311248 0 0.0041464044633880148 0.037556065216111087 0 0.0042853006898416974 0.037938142286711177 0 0.0047521157940293695 0.037660730483556309 0 0.0041464044633880148 0.037556065216111087 0 0.0041464044633880148 0.037556065216111087 0 0.0035971980236824091 0.037362560217594661 0 0.0043343115872922517 0.03715066500782746 0 0.0035019129343803385 0.037671526359089477 0 0.0041464044633880148 0.037556065216111087 0 0.0035971980236824091 0.037362560217594661 0 0.0035971980236824091 0.037362560217594661 0 0.0037224959066534968 0.037069929073220341 0 0.0029875537783893877 0.037203306212285042 0 0.0037224959066534968 0.037069929073220341 0 0.0032239124464421946 0.036945400974293115 0 0.0029875537783893877 0.037203306212285042 0 0.0035971980236824091 0.037362560217594661 0 0.0037224959066534968 0.037069929073220341 0 0.0043343115872922517 0.03715066500782746 0 0.00485879573490745 0.037065721721071053 0 0.0043343115872922517 0.03715066500782746 0 0.0041290320733249003 0.036811163203419275 0 0.0037224959066534968 0.037069929073220341 0 0.0043343115872922517 0.03715066500782746 0 0.0041290320733249003 0.036811163203419275 0 0.0059371080633203116 0.037475225685269453 0 0.0043112638966248153 0.037532178423374425 0 0.0051675774140886406 0.038247032074194297 0 0.0040408067811432509 0.03850383228008606 0 0.0043300671204280234 0.037329781446390903 0 0.0037224959066534968 0.037069929073220341 0 0.0041290320733249003 0.036811163203419275 0 0.0032239124464421946 0.036945400974293115 0 0.0041290320733249003 0.036811163203419275 0 0.0032239124464421946 0.036945400974293115 0 0.0031707051162702376 0.036961425466687819 0 0.0043112638966248153 0.037532178423374425 0 0.0035956050785140629 0.037146968981930768 0 0.0032239124464421946 0.036945400974293115 0 0.0027936665416954487 0.036843252122862526 0 0.0031707051162702376 0.036961425466687819 0 0.0032239124464421946 0.036945400974293115 0 0.0029875537783893877 0.037203306212285042 0 0.0025255625265824051 0.036983911633733685 0 0.0027936665416954487 0.036843252122862526 0 0.0025255625265824051 0.036983911633733685 0 0.0023788229228154162 0.036610706948300348 0 0.0032239124464421946 0.036945400974293115 0 0.0027936665416954487 0.036843252122862526 0 0.0025255625265824051 0.036983911633733685 0 0.0029875537783893877 0.037203306212285042 0 0.0024741781778904559 0.037224748046979006 0 0.0025255625265824051 0.036983911633733685 0 0.0029875537783893877 0.037203306212285042 0 0.0025981544972346767 0.037495668152071067 0 0.0024741781778904559 0.037224748046979006 0 0.0030677704842253257 0.037562821799429623 0 0.0029875537783893877 0.037203306212285042 0 0.0025981544972346767 0.037495668152071067 0 0.0030677704842253257 0.037562821799429623 0 0.0035971980236824091 0.037362560217594661 0 0.0029875537783893877 0.037203306212285042 0 0.0021963427781156427 0.037410613914310907 0 0.0025981544972346767 0.037495668152071067 0 0.0024741781778904559 0.037224748046979006 0 0.0024741781778904559 0.037224748046979006 0 0.0020867598974873601 0.03706688750202216 0 0.0025255625265824051 0.036983911633733685 0 0.0021963427781156427 0.037410613914310907 0 0.0024741781778904559 0.037224748046979006 0 0.0020867598974873601 0.03706688750202216 0 0.0020867598974873601 0.03706688750202216 0 0.0025255625265824051 0.036983911633733685 0 0.0018946928722302883 0.036692732009288416 0 0.0025255625265824051 0.036983911633733685 0 0.0023788229228154162 0.036610706948300348 0 0.0018946928722302883 0.036692732009288416 0 0.0019502768425411251 0.036435974875448023 0 0.0023788229228154162 0.036610706948300348 0 0.0018946928722302883 0.036692732009288416 0 0.0019502768425411251 0.036435974875448023 0 0.0023788229228154162 0.036610706948300348 0 0.0022583287279245886 0.036342188978947212 0 0.0027936665416954487 0.036843252122862526 0 0.0026751091061415276 0.036583525317538501 0 0.0023788229228154162 0.036610706948300348 0 0.0027936665416954487 0.036843252122862526 0 0.0026751091061415276 0.036583525317538501 0 0.0031707051162702376 0.036961425466687819 0 0.0026751091061415276 0.036583525317538501 0 0.0023788229228154162 0.036610706948300348 0 0.0022583287279245886 0.036342188978947212 0 0.0026751091061415276 0.036583525317538501 0 0.0022583287279245886 0.036342188978947212 0 0.0024627879132727518 0.036150332499470229 0 0.0022583287279245886 0.036342188978947212 0 0.0024627879132727518 0.036150332499470229 0 0.0019672360152519683 0.035992389384443803 0 0.0022583287279245886 0.036342188978947212 0 0.0018789323800507641 0.036201583661562654 0 0.0019672360152519683 0.035992389384443803 0 0.0018789323800507641 0.036201583661562654 0 0.0016937016890910556 0.035955997840001655 0 0.0016699324747218218 0.036330277587777966 0 0.0018789323800507641 0.036201583661562654 0 0.0016937016890910556 0.035955997840001655 0 0.0019672360152519683 0.035992389384443803 0 0.0019502768425411251 0.036435974875448023 0 0.0018789323800507641 0.036201583661562654 0 0.0016699324747218218 0.036330277587777966 0 0.0019502768425411251 0.036435974875448023 0 0.0022583287279245886 0.036342188978947212 0 0.0018789323800507641 0.036201583661562654 0 0.0040408067811432509 0.03850383228008606 0 0.0043300671204280234 0.037329781446390903 0 0.0031707051162702376 0.036961425466687819 0 0.0043300671204280234 0.037329781446390903 0 0.0031707051162702376 0.036961425466687819 0 0.0032211988386153761 0.036321108988281475 0 0.0026751091061415276 0.036583525317538501 0 0.0031707051162702376 0.036961425466687819 0 0.0032211988386153761 0.036321108988281475 0 0.0026751091061415276 0.036583525317538501 0 0.0024627879132727518 0.036150332499470229 0 0.0032211988386153761 0.036321108988281475 0 0.0024627879132727518 0.036150332499470229 0 0.0032211988386153761 0.036321108988281475 0 0.0026844499404600733 0.035771736818914074 0 0.0043990256351235726 0.036152695647997078 0 0.0043300671204280234 0.037329781446390903 0 0.0032211988386153761 0.036321108988281475 0 0.0051943152880904089 0.035803945913296616 0 0.0047867890783411856 0.036795686268845385 0 0.0035224262636741237 0.036005335177444905 0 0.0043990256351235726 0.036152695647997078 0 0.0032211988386153761 0.036321108988281475 0 0.0032653851771080478 0.035484127534228624 0 0.0045648170147919174 0.036558534246450697 0 0.003396474400725439 0.035748460727793883 0 0.0032211988386153761 0.036321108988281475 0 0.0032653851771080478 0.035484127534228624 0 0.0026844499404600733 0.035771736818914074 0 0.003396474400725439 0.035748460727793883 0 0.0022324086669880776 0.035000228132554483 0 0.0035224262636741237 0.036005335177444905 0 0.0022319936531520345 0.03500001263755035 0 0.0041284200773862422 0.034999716210110193 0 0.0032653851771080478 0.035484127534228624 0 0.0026844499404600733 0.035771736818914074 0 0.0022312061364089478 0.03499948281679701 0 0.0051943152880904089 0.035803945913296616 0 0.0035224262636741237 0.036005335177444905 0 0.0041284200773862422 0.034999716210110193 0 0.0014785697942422977 0.035755444223697377 0 0.0016937016890910556 0.035955997840001655 0 0.0016699324747218218 0.036330277587777966 0 0.0016611346971646117 0.035733985641963152 0 0.0014643457086069012 0.035768744868656985 0 0.0016937016890910556 0.035955997840001655 0 0.0014643457086069012 0.035768744868656985 0 0.0013107723575534983 0.035755529018334932 0 0.0013837276797443224 0.035459513867775586 0 0.0016611346971646117 0.035733985641963152 0 0.0014643457086069012 0.035768744868656985 0 0.0013837276797443224 0.035459513867775586 0 0.0014643457086069012 0.035768744868656985 0 0.0014785697942422977 0.035755444223697377 0 0.0016937016890910556 0.035955997840001655 0 0.00060947242742819343 0.035918834413733822 0 0.00045987596195830039 0.035903623460464031 0 0.0016611346971646117 0.035733985641963152 0 0.0016937016890910556 0.035955997840001655 0 0.0019672360152519683 0.035992389384443803 0 0.0024627879132727518 0.036150332499470229 0 0.0019672360152519683 0.035992389384443803 0 0.0020496212052270569 0.035699549122871467 0 0.0024627879132727518 0.036150332499470229 0 0.0026844499404600733 0.035771736818914074 0 0.0020496212052270569 0.035699549122871467 0 0.0016611346971646117 0.035733985641963152 0 0.0019672360152519683 0.035992389384443803 0 0.0020496212052270569 0.035699549122871467 0 0.0016611346971646117 0.035733985641963152 0 0.0020496212052270569 0.035699549122871467 0 0.0013837276797443224 0.035459513867775586 0 0.0022312061364089478 0.03499948281679701 0 0.00067398890899631793 0.034999990952721882 0 0.0013837276797443224 0.035459513867775586 0 0.0026844499404600733 0.035771736818914074 0 0.0022312061364089478 0.03499948281679701 0 0.0020496212052270569 0.035699549122871467 0 0.0022312061364089478 0.03499948281679701 0 0.0020496212052270569 0.035699549122871467 0 0.0013837276797443224 0.035459513867775586 0 0.0013107723575534983 0.035755529018334932 0 0.00067398890899631793 0.034999990952721882 0 0.0013837276797443224 0.035459513867775586 0 0.00045987596195830039 0.035903623460464031 0 0.00067185956938486783 0.035000317564320524 0 0.00017068171855054695 0.03627391868433192 0 0.00067172621591634599 0.034999996924794267 0 -0.0010876902424774384 0.034999997107986382 0 0.00017068171855054695 0.03627391868433192 0 -0.0010876902424774384 0.034999997107986382 0 -0.0017309415802814038 0.035891166847491003 0 0.00045987596195830039 0.035903623460464031 0 -0.0018014644573552323 0.035837561303626704 0 -0.00010465033759265202 0.036220661016779787 0 -0.0016277101315908234 0.036992956542761829 0 -0.00075667774569225022 0.037854113710879364 0 -0.00010465033759265202 0.036220661016779787 0 -0.0016277101315908234 0.036992956542761829 0 -0.0017954337514458503 0.035870824804581092 0 -0.0016277101315908234 0.036992956542761829 0 -0.0017954337514458503 0.035870824804581092 0 -0.0027724513817428786 0.036783158427930202 0 -0.0010876902424774384 0.034999997107986382 0 -0.0017309415802814038 0.035891166847491003 0 -0.0028471245184730179 0.035000001171840968 0 -0.0017954337514458503 0.035870824804581092 0 -0.0035915491891799129 0.03548081222957112 0 -0.0034704008526021827 0.0363176225580948 0 -0.0018014644573552323 0.035837561303626704 0 -0.0036545394727660382 0.035488529235940515 0 -0.0017309415802814038 0.035891166847491003 0 -0.0028471245184730179 0.035000001171840968 0 -0.0036347263609626188 0.03550840314968938 0 -0.0028471245184730179 0.035000001171840968 0 -0.0036347263609626188 0.03550840314968938 0 -0.0046065387008634735 0.034999988367063833 0 -0.0035915491891799129 0.03548081222957112 0 -0.0043171294300643629 0.036095971619611728 0 -0.0034704008526021827 0.0363176225580948 0 -0.0034704008526021827 0.0363176225580948 0 -0.0041881760257853583 0.037023215626583526 0 -0.0027724513817428786 0.036783158427930202 0 -0.0030626975076430748 0.036591723555232207 0 -0.0032530513289512199 0.036766728465249164 0 -0.0043171294300643629 0.036095971619611728 0 -0.0034704008526021827 0.0363176225580948 0 -0.0041881760257853583 0.037023215626583526 0 -0.0017954337514458503 0.035870824804581092 0 -0.0034704008526021827 0.0363176225580948 0 -0.0027724513817428786 0.036783158427930202 0 -0.0016277101315908234 0.036992956542761829 0 -0.0027724513817428786 0.036783158427930202 0 -0.0027118661805215776 0.038205708581263459 0 -0.0040067706667764073 0.036948353260056133 0 -0.0027724513817428786 0.036783158427930202 0 -0.0027118661805215776 0.038205708581263459 0 -0.0030626975076430748 0.036591723555232207 0 -0.0011275036333945701 0.037020864598358981 0 -0.00056383482625818311 0.034769950589022276 0 -0.00030177679332417189 0.036171656317510188 0 0.00042443235021176164 0.035714010125496118 0 -0.00030177679332417189 0.036171656317510188 0 0.00042443235021176164 0.035714010125496118 0 0.00029046507020390357 0.036862929412068535 0 -0.0016277101315908234 0.036992956542761829 0 -0.0027118661805215776 0.038205708581263459 0 -0.00075667774569225022 0.037854113710879364 0 -0.0011275036333945701 0.037020864598358981 0 8.3372334550310659e-05 0.037495243568888399 0 -0.0027118661805215776 0.038205708581263459 0 -0.00075667774569225022 0.037854113710879364 0 -0.0013912221746554187 0.039465985338587105 0 0.00036909174836636366 0.037125064202719424 0 8.3372334550310659e-05 0.037495243568888399 0 0.0019502768425411251 0.036435974875448023 0 0.0018946928722302883 0.036692732009288416 0 0.0016699324747218218 0.036330277587777966 0 0.0018946928722302883 0.036692732009288416 0 0.0016699324747218218 0.036330277587777966 0 0.001495812753548919 0.036878462299349296 0 0.00045987596195830039 0.035903623460464031 0 0.00036909174836636366 0.037125064202719424 0 -0.0085813115471055496 0.036914905289062834 0 -0.0081013729832465926 0.03689841485004277 0 -0.0085329822004091022 0.036290416025065671 0 -0.0081013729832465926 0.03689841485004277 0 -0.0085329822004091022 0.036290416025065671 0 -0.0075040653885680699 0.03644680196031673 0 -0.0085329822004091022 0.036290416025065671 0 -0.0080037959650858803 0.035725482113161004 0 -0.0075040653885680699 0.03644680196031673 0 -0.0078554408525514392 0.034999972700252145 0 -0.0080037959650858803 0.035725482113161004 0 -0.0093448707435666682 0.034999992019265708 0 -0.0085329822004091022 0.036290416025065671 0 -0.0080037959650858803 0.035725482113161004 0 -0.0093448707435666682 0.034999992019265708 0 -0.0078554408525514392 0.034999972700252145 0 -0.0080037959650858803 0.035725482113161004 0 -0.0068618774488806546 0.035787141128027417 0 -0.0080037959650858803 0.035725482113161004 0 -0.0068618774488806546 0.035787141128027417 0 -0.0075040653885680699 0.03644680196031673 0 -0.0078554408525514392 0.034999972700252145 0 -0.0068618774488806546 0.035787141128027417 0 -0.0063661079007012811 0.03499995660240398 0 -0.0064495502934544379 0.036577884857565121 0 -0.0061030255240294038 0.037244850351054945 0 -0.0072938619129713951 0.037392838583223294 0 -0.0068618774488806546 0.035787141128027417 0 -0.0075040653885680699 0.03644680196031673 0 -0.0064495502934544379 0.036577884857565121 0 -0.0081013729832465926 0.03689841485004277 0 -0.0075040653885680699 0.03644680196031673 0 -0.0072938619129713951 0.037392838583223294 0 -0.0075040653885680699 0.03644680196031673 0 -0.0064495502934544379 0.036577884857565121 0 -0.0072938619129713951 0.037392838583223294 0 -0.0068618774488806546 0.035787141128027417 0 -0.0064495502934544379 0.036577884857565121 0 -0.0053549014766779745 0.035989927758750213 0 -0.0064495502934544379 0.036577884857565121 0 -0.0053549014766779745 0.035989927758750213 0 -0.0061003025940704059 0.037242890339017509 0 -0.0054412519065704596 0.036327911806799888 0 -0.0051522434006926014 0.036160521429973801 0 -0.0063659326958272148 0.034999976223160804 0 -0.0055334823208700867 0.035119187790072601 0 -0.0046065387008634735 0.034999988367063833 0 -0.0068618774488806546 0.035787141128027417 0 -0.0063661079007012811 0.03499995660240398 0 -0.0053549014766779745 0.035989927758750213 0 -0.0063653937643212274 0.035000381214725422 0 -0.0052014015688133805 0.035831291130370695 0 -0.0063659326958272148 0.034999976223160804 0 -0.0055334823208700867 0.035119187790072601 0 -0.0052804105019981515 0.03601599227101264 0 -0.0036545394727660382 0.035488529235940515 0 -0.0052049925434808249 0.035180303308329178 0 -0.0043171294300643629 0.036095971619611728 0 -0.0055334823208700867 0.035119187790072601 0 -0.0052804105019981515 0.03601599227101264 0 -0.0035915491891799129 0.03548081222957112 0 -0.0043171294300643629 0.036095971619611728 0 -0.0055334823208700867 0.035119187790072601 0 -0.0036347263609626188 0.03550840314968938 0 -0.0055334823208700867 0.035119187790072601 0 -0.0046065387008634735 0.034999988367063833 0 -0.0030626975076430748 0.036591723555232207 0 -0.0052014015688133805 0.035831291130370695 0 -0.0043048217973047746 0.037003035826945481 0 -0.0053549014766779745 0.035989927758750213 0 -0.0061003025940704059 0.037242890339017509 0 -0.0043171294300643629 0.036095971619611728 0 -0.0041881760257853583 0.037023215626583526 0 -0.0052804105019981515 0.03601599227101264 0 -0.0030626975076430748 0.036591723555232207 0 -0.0051522434006926014 0.036160521429973801 0 -0.00056383482625818311 0.034769950589022276 0 -0.001172170935774001 0.036047038805988349 0 -0.0017815060622204566 0.034932573028926814 0 -0.00056383482625818311 0.034769950589022276 0 -0.00030177679332417189 0.036171656317510188 0 -0.001172170935774001 0.036047038805988349 0 -0.0066925925490778559 0.038168563074641615 0 -0.0072684699827777295 0.037160202386514421 0 -0.0075839948599327779 0.037887715653179346 0 -0.0066925925490778559 0.038168563074641615 0 -0.0075839948599327779 0.037887715653179346 0 -0.0078077224930075007 0.038795415681198687 0 -0.0039778056886193127 0.037119232625958176 0 -0.0051522434006926014 0.036160521429973801 0 -0.0072684699827777295 0.037160202386514421 0 -0.0079724087646027304 0.037297564209654993 0 -0.0075839948599327779 0.037887715653179346 0 -0.0051522434006926014 0.036160521429973801 0 -0.0076308286554209112 0.037090770074124965 0 -0.0079724087646027304 0.037297564209654993 0 -0.0075839948599327779 0.037887715653179346 0 -0.0082948203019995153 0.038067738251194555 0 -0.0075839948599327779 0.037887715653179346 0 -0.0082948203019995153 0.038067738251194555 0 -0.0078077224930075007 0.038795415681198687 0 -0.0082948203019995153 0.038067738251194555 0 -0.0091314811517267634 0.037009447476017275 0 -0.0091315299152306788 0.037572536339111534 0 -0.0082948203019995153 0.038067738251194555 0 -0.0088541186415754865 0.038772969385528162 0 -0.0091220760272769097 0.038047150537490554 0 -0.0082948203019995153 0.038067738251194555 0 -0.0091315299152306788 0.037572536339111534 0 -0.0091220760272769097 0.038047150537490554 0 -0.0082948203019995153 0.038067738251194555 0 -0.0085381871371313454 0.037452184477461285 0 -0.0087348573502497931 0.03744925616245668 0 -0.0076308286554209112 0.037090770074124965 0 -0.0082194321266889376 0.037289470626815827 0 -0.0079724087646027304 0.037297564209654993 0 -0.0082948203019995153 0.038067738251194555 0 -0.0085381871371313454 0.037452184477461285 0 -0.0084232630647889158 0.037899385508111283 0 -0.0089616002592269733 0.03722699444006991 0 -0.0081013729832465926 0.03689841485004277 0 -0.0072938619129713951 0.037392838583223294 0 -0.0085381871371313454 0.037452184477461285 0 -0.0085813115471055496 0.036914905289062834 0 -0.0085381871371313454 0.037452184477461285 0 -0.0087348573502497931 0.03744925616245668 0 -0.0085813115471055496 0.036914905289062834 0 -0.0081013729832465926 0.03689841485004277 0 -0.0085381871371313454 0.037452184477461285 0 -0.0082948203019995153 0.038067738251194555 0 -0.0088541186415754865 0.038772969385528162 0 -0.0078077224930075007 0.038795415681198687 0 -0.0087971574587950054 0.03963181531144911 0 -0.0088541186415754865 0.038772969385528162 0 -0.0078077224930075007 0.038795415681198687 0 -0.0095260081296815527 0.035746363015807449 0 -0.0078764466167211018 0.03587378463957959 0 -0.0087971574587950054 0.03963181531144911 0 -0.0078077224930075007 0.038795415681198687 0 -0.0076613148069489623 0.039840256828060985 0 -0.0078077224930075007 0.038795415681198687 0 -0.0069683180093323364 0.039219860469583756 0 -0.0076613148069489623 0.039840256828060985 0 -0.0069683180093323364 0.039219860469583756 0 -0.0065914598502970247 0.040061664056981576 0 -0.0076613148069489623 0.039840256828060985 0 -0.0066925925490778559 0.038168563074641615 0 -0.0078077224930075007 0.038795415681198687 0 -0.0069683180093323364 0.039219860469583756 0 -0.0039778056886193127 0.037119232625958176 0 -0.003147302094638732 0.038414014979738342 0 -0.00030177679332417189 0.036171656317510188 0 -0.001172170935774001 0.036047038805988349 0 -0.00055250318853700445 0.037132441330868939 0 -0.0066925925490778559 0.038168563074641615 0 -0.0069683180093323364 0.039219860469583756 0 -0.0061062352938104384 0.039243401502448282 0 -0.0069683180093323364 0.039219860469583756 0 -0.0065914598502970247 0.040061664056981576 0 -0.0061062352938104384 0.039243401502448282 0 -0.005786931434709694 0.032023211222665666 0 -0.0042112908603728783 0.033120195134915056 0 -0.0052922560091516 0.034495476789396025 0 -0.005786931434709694 0.032023211222665666 0 -0.0074736414455292685 0.034134235120836597 0 -0.0052922560091516 0.034495476789396025 0 -0.005786931434709694 0.032023211222665666 0 -0.0074736414455292685 0.034134235120836597 0 -0.0082131906421105422 0.031812801564540791 0 -0.0063013859503897344 0.036061946565726019 0 -0.0078764466167211018 0.03587378463957959 0 -0.0082131906421105422 0.031812801564540791 0 -0.0093475454006906617 0.033320645756780835 0 -0.010217856847663791 0.032847965536842633 0 -0.0074736414455292685 0.034134235120836597 0 -0.0082131906421105422 0.031812801564540791 0 -0.0093475454006906617 0.033320645756780835 0 -0.0074736414455292685 0.034134235120836597 0 -0.0093475454006906617 0.033320645756780835 0 -0.0091245411782202631 0.034298822523314641 0 -0.0093475454006906617 0.033320645756780835 0 -0.0091245411782202631 0.034298822523314641 0 -0.010840279179525063 0.034107442917426185 0 -0.0093475454006906617 0.033320645756780835 0 -0.010840279179525063 0.034107442917426185 0 -0.011098947219692745 0.033801362446419861 0 -0.0093475454006906617 0.033320645756780835 0 -0.010217856847663791 0.032847965536842633 0 -0.011098947219692745 0.033801362446419861 0 -0.010360702851983605 0.031861872807513576 0 -0.010217856847663791 0.032847965536842633 0 -0.011541024101856092 0.032797948174807919 0 -0.010360702851983605 0.031861872807513576 0 -0.0082131906421105422 0.031812801564540791 0 -0.010217856847663791 0.032847965536842633 0 0.0012470803672650647 0.037074039326745863 0 0.0009377233792154814 0.037310443509771522 0 0.001370093919260236 0.037336111663250321 0 0.0012470803672650647 0.037074039326745863 0 0.001370093919260236 0.037336111663250321 0 0.0014994018914592725 0.037130657564990122 0 0.0012470803672650647 0.037074039326745863 0 0.0014994018914592725 0.037130657564990122 0 0.0015640450387041942 0.036944856028859739 0 0.0012470803672650647 0.037074039326745863 0 0.0009377233792154814 0.037310443509771522 0 0.00085839454834761629 0.036725424617902014 0 0.0009377233792154814 0.037310443509771522 0 0.0012898079991189547 0.037649424951349562 0 0.00090263219869272829 0.037847992311901037 0 0.0009377233792154814 0.037310443509771522 0 0.001370093919260236 0.037336111663250321 0 0.0012898079991189547 0.037649424951349562 0 0.001370093919260236 0.037336111663250321 0 0.001589096656352275 0.037530908051191303 0 0.0012898079991189547 0.037649424951349562 0 0.001589096656352275 0.037530908051191303 0 0.0018573137161800874 0.037332226944515698 0 0.0016199174134393886 0.037282610363399221 0 0.001370093919260236 0.037336111663250321 0 0.001589096656352275 0.037530908051191303 0 0.0016199174134393886 0.037282610363399221 0 0.0021963427781156427 0.037410613914310907 0 0.0018573137161800874 0.037332226944515698 0 0.0018715352976089975 0.037642460305524608 0 0.001589096656352275 0.037530908051191303 0 0.0018573137161800874 0.037332226944515698 0 0.0018715352976089975 0.037642460305524608 0 0.0021963427781156427 0.037410613914310907 0 0.0020867598974873601 0.03706688750202216 0 0.0018573137161800874 0.037332226944515698 0 0.0020867598974873601 0.03706688750202216 0 0.0018573137161800874 0.037332226944515698 0 0.0017499112334291554 0.037088266551647035 0 0.001370093919260236 0.037336111663250321 0 0.0016199174134393886 0.037282610363399221 0 0.0014994018914592725 0.037130657564990122 0 0.0018573137161800874 0.037332226944515698 0 0.0016199174134393886 0.037282610363399221 0 0.0017499112334291554 0.037088266551647035 0 0.0016199174134393886 0.037282610363399221 0 0.0017499112334291554 0.037088266551647035 0 0.0014994018914592725 0.037130657564990122 0 0.0015640450387041942 0.036944856028859739 0 0.0017554157258813903 0.036904418887136359 0 0.001495812753548919 0.036878462299349296 0 0.0018946928722302883 0.036692732009288416 0 0.0017554157258813903 0.036904418887136359 0 0.001495812753548919 0.036878462299349296 0 0.0017499112334291554 0.037088266551647035 0 0.0014994018914592725 0.037130657564990122 0 0.0015640450387041942 0.036944856028859739 0 0.0020867598974873601 0.03706688750202216 0 0.0018946928722302883 0.036692732009288416 0 0.0017554157258813903 0.036904418887136359 0 0.0017499112334291554 0.037088266551647035 0 0.0015640450387041942 0.036944856028859739 0 0.0017554157258813903 0.036904418887136359 0 0.0020867598974873601 0.03706688750202216 0 0.0017499112334291554 0.037088266551647035 0 0.0017554157258813903 0.036904418887136359 0 0.00042443235021176164 0.035714010125496118 0 0.0014028587367873691 0.036652683512204243 0 0.00085839454834761629 0.036725424617902014 0 0.0012470803672650647 0.037074039326745863 0 0.0014028587367873691 0.036652683512204243 0 0.00085839454834761629 0.036725424617902014 0 0.0012470803672650647 0.037074039326745863 0 0.0015640450387041942 0.036944856028859739 0 0.0014191116769927061 0.036803978932564436 0 0.00045215326294481485 0.03707030201873375 0 8.3372334550310659e-05 0.037495243568888399 0 0.00025244207806111304 0.037529588898317257 0 8.3372334550310659e-05 0.037495243568888399 0 0.00042443235021176164 0.035714010125496118 0 0.00085839454834761629 0.036725424617902014 0 0.00029046507020390357 0.036862929412068535 0 0.0009377233792154814 0.037310443509771522 0 0.00085839454834761629 0.036725424617902014 0 0.00029046507020390357 0.036862929412068535 0 -0.00030177679332417189 0.036171656317510188 0 0.00029046507020390357 0.036862929412068535 0 -0.00055250318853700445 0.037132441330868939 0 -0.00055250318853700445 0.037132441330868939 0 7.7766659471397928e-05 0.037424906945831379 0 4.2857266392426306e-05 0.038150607982808588 0 0.00029046507020390357 0.036862929412068535 0 -0.00055250318853700445 0.037132441330868939 0 7.7766659471397928e-05 0.037424906945831379 0 0.0009377233792154814 0.037310443509771522 0 0.00029046507020390357 0.036862929412068535 0 0.00053249173466933747 0.03754657790170101 0 0.00029046507020390357 0.036862929412068535 0 7.7766659471397928e-05 0.037424906945831379 0 0.00053249173466933747 0.03754657790170101 0 0.0009377233792154814 0.037310443509771522 0 0.00053249173466933747 0.03754657790170101 0 0.00090263219869272829 0.037847992311901037 0 7.7766659471397928e-05 0.037424906945831379 0 0.00053249173466933747 0.03754657790170101 0 4.2857266392426306e-05 0.038150607982808588 0 0.00053249173466933747 0.03754657790170101 0 4.2857266392426306e-05 0.038150607982808588 0 0.00090263219869272829 0.037847992311901037 0 -0.0031610805135287769 0.036827894455421367 0 -0.000255297836739206 0.035933391161941691 0 4.2857266392426306e-05 0.038150607982808588 0 0.0009343385963618586 0.038314548314696016 0 0.00090263219869272829 0.037847992311901037 0 -0.005786931434709694 0.032023211222665666 0 -0.0033523442247369787 0.032399225618472492 0 -0.0042112908603728783 0.033120195134915056 0 -0.003147302094638732 0.038414014979738342 0 -0.0031610805135287769 0.036827894455421367 0 -0.0063013859503897344 0.036061946565726019 0 -0.0031610805135287769 0.036827894455421367 0 -0.0065914598502970247 0.040061664056981576 0 -0.0061062352938104384 0.039243401502448282 0 -0.0055328810317451342 0.04029912632233712 0 -0.0031610805135287769 0.036827894455421367 0 -0.003459014239540942 0.035963007330374573 0 -0.0042112908603728783 0.033120195134915056 0 -0.0035036231691010513 0.033839583220454536 0 -0.0052922560091516 0.034495476789396025 0 -0.0042112908603728783 0.033120195134915056 0 -0.0035036231691010513 0.033839583220454536 0 -0.0030885060914132684 0.032859280321660446 0 -0.0033523442247369787 0.032399225618472492 0 -0.0042112908603728783 0.033120195134915056 0 -0.0030885060914132684 0.032859280321660446 0 -0.0033243733444837643 0.032413646506107965 0 -0.0030885060914132684 0.032859280321660446 0 -0.0013909956658830118 0.032865992933948887 0 -0.0022315585374637517 0.033341590328424368 0 -0.0030885060914132684 0.032859280321660446 0 -0.0013909956658830118 0.032865992933948887 0 -0.0035036231691010513 0.033839583220454536 0 -0.0022315585374637517 0.033341590328424368 0 -0.0030885060914132684 0.032859280321660446 0 -0.0035036231691010513 0.033839583220454536 0 -0.0022315585374637517 0.033341590328424368 0 -0.0025221251244275386 0.034197645723277659 0 -0.000255297836739206 0.035933391161941691 0 0.0010800349525306571 0.035877664096966237 0 -0.0022315585374637517 0.033341590328424368 0 -7.999274308752439e-05 0.034048023299391966 0 -0.0025221251244275386 0.034197645723277659 0 -0.0022315585374637517 0.033341590328424368 0 -0.0013909956658830118 0.032865992933948887 0 -7.999274308752439e-05 0.034048023299391966 0 -0.0013909956658830118 0.032865992933948887 0 -7.999274308752439e-05 0.034048023299391966 0 0.00051057785589169466 0.033346666098178983 0 0.0009343385963618586 0.038314548314696016 0 0.0015017942287540449 0.037967751688560307 0 0.0017549676749963586 0.038444642892008003 0 0.0009343385963618586 0.038314548314696016 0 0.00090263219869272829 0.037847992311901037 0 0.0015017942287540449 0.037967751688560307 0 0.0012898079991189547 0.037649424951349562 0 0.00090263219869272829 0.037847992311901037 0 0.0015017942287540449 0.037967751688560307 0 0.001589096656352275 0.037530908051191303 0 0.0012898079991189547 0.037649424951349562 0 0.0015017942287540449 0.037967751688560307 0 0.0022290832322338157 0.037764588735768254 0 0.0018715352976089975 0.037642460305524608 0 0.0018981063031572297 0.037989818192627395 0 0.001589096656352275 0.037530908051191303 0 0.0018715352976089975 0.037642460305524608 0 0.0015017942287540449 0.037967751688560307 0 0.0018715352976089975 0.037642460305524608 0 0.0015017942287540449 0.037967751688560307 0 0.0018981063031572297 0.037989818192627395 0 0.0015017942287540449 0.037967751688560307 0 0.0018981063031572297 0.037989818192627395 0 0.0017549676749963586 0.038444642892008003 0 0.0022031572977174161 0.038162872675766721 0 0.0018981063031572297 0.037989818192627395 0 0.0017549676749963586 0.038444642892008003 0 0.0033654843871729961 0.03601969991771807 0 0.00010324926116802876 0.034131454954856096 0 0.00246234269563103 0.033860747618079431 0 -7.999274308752439e-05 0.034048023299391966 0 0.00051057785589169466 0.033346666098178983 0 0.00039296408475884137 0.033689675935779879 0 0.0017402811281052879 0.034692203427738849 0 0.00039661824824556452 0.035497675246847042 0 0.0033531233670869519 0.033591103308274868 0 0.00039296408475884137 0.033689675935779879 0 0.0017402811281052879 0.034692203427738849 0 0.0017402811281052879 0.034692203427738849 0 0.0015564154272484966 0.035780658500053256 0 0.00039661824824556452 0.035497675246847042 0 0.00010324926116802876 0.034131454954856096 0 -0.002002833898771603 0.034158945278005455 0 0.00039296408475884137 0.033689675935779879 0 -0.00099123394387914759 0.035005628818444101 0 0.00039661824824556452 0.035497675246847042 0 0.00039296408475884137 0.033689675935779879 0 -0.00099123394387914759 0.035005628818444101 0 -0.0025221251244275386 0.034197645723277659 0 -0.0010572087585448112 0.036564745337972757 0 0.00039661824824556452 0.035497675246847042 0 0.00061340261481935925 0.036817930284259649 0 -0.00099123394387914759 0.035005628818444101 0 -0.0010572087585448112 0.036564745337972757 0 0.00039661824824556452 0.035497675246847042 0 -0.00099123394387914759 0.035005628818444101 0 -0.0010572087585448112 0.036564745337972757 0 -0.0023196679234311767 0.035448799705344584 0 0.0022848495185808821 0.037340802722557548 0 0.0015564154272484966 0.035780658500053256 0 0.00061340261481935925 0.036817930284259649 0 0.0015564154272484966 0.035780658500053256 0 0.00039661824824556452 0.035497675246847042 0 0.00061340261481935925 0.036817930284259649 0 0.0022848495185808821 0.037340802722557548 0 0.00061340261481935925 0.036817930284259649 0 -0.00036246364536009375 0.03852172982884481 0 0.0022848495185808821 0.037340802722557548 0 0.0020834199021807875 0.040382130275516438 0 -0.00036246364536009375 0.03852172982884481 0 -0.0010572087585448112 0.036564745337972757 0 0.00061340261481935925 0.036817930284259649 0 -0.00036246364536009375 0.03852172982884481 0 -0.0010572087585448112 0.036564745337972757 0 -0.00036246364536009375 0.03852172982884481 0 -0.0027038460080603737 0.037788879204314237 0 -0.0047466212247788504 0.036656371650747574 0 -0.0091347707725299553 0.03349584850510013 0 -0.0081521015630122377 0.037124151869444108 0 -0.0037928115885590957 0.038221907207133553 0 -0.0068135623966189447 0.036152278369996613 0 -0.0026243169014008891 0.039578538158093125 0 -0.0027038460080603737 0.037788879204314237 0 -0.0046275996609322304 0.038368640460674834 0 -0.00036246364536009375 0.03852172982884481 0 -0.0026243169014008891 0.039578538158093125 0 -0.0027038460080603737 0.037788879204314237 0 -0.0027038460080603737 0.037788879204314237 0 -0.0044528987812201435 0.037114636739989361 0 -0.0032202030906768688 0.036400791033273622 0 -0.0027038460080603737 0.037788879204314237 0 -0.0044528987812201435 0.037114636739989361 0 -0.0046275996609322304 0.038368640460674834 0 -0.0032202030906768688 0.036400791033273622 0 -0.0037714065559554858 0.035056151317390587 0 -0.0050305312384292889 0.035948063031984813 0 -0.0044528987812201435 0.037114636739989361 0 -0.0032202030906768688 0.036400791033273622 0 -0.0050305312384292889 0.035948063031984813 0 -0.0032202030906768688 0.036400791033273622 0 -0.0023196679234311767 0.035448799705344584 0 -0.0037714065559554858 0.035056151317390587 0 -0.0010572087585448112 0.036564745337972757 0 -0.0027038460080603737 0.037788879204314237 0 -0.0032202030906768688 0.036400791033273622 0 -0.0010572087585448112 0.036564745337972757 0 -0.0032202030906768688 0.036400791033273622 0 -0.0023196679234311767 0.035448799705344584 0 -0.00099123394387914759 0.035005628818444101 0 -0.0023196679234311767 0.035448799705344584 0 -0.0025221251244275386 0.034197645723277659 0 -0.0023196679234311767 0.035448799705344584 0 -0.0025221251244275386 0.034197645723277659 0 -0.0037714065559554858 0.035056151317390587 0 -0.0035036231691010513 0.033839583220454536 0 -0.0037714065559554858 0.035056151317390587 0 -0.0052922560091516 0.034495476789396025 0 -0.0035036231691010513 0.033839583220454536 0 -0.0025221251244275386 0.034197645723277659 0 -0.0037714065559554858 0.035056151317390587 0 -0.0037714065559554858 0.035056151317390587 0 -0.0052922560091516 0.034495476789396025 0 -0.0050305312384292889 0.035948063031984813 0 -0.0052922560091516 0.034495476789396025 0 -0.0066702429581469609 0.035467764102431881 0 -0.0050305312384292889 0.035948063031984813 0 -0.0074736414455292685 0.034134235120836597 0 -0.0052922560091516 0.034495476789396025 0 -0.0066702429581469609 0.035467764102431881 0 -0.0074736414455292685 0.034134235120836597 0 -0.0066702429581469609 0.035467764102431881 0 -0.0088106191082868816 0.0357009313194682 0 -0.0089507053208523618 0.035174686726839058 0 -0.010024256893247884 0.034739816026305353 0 -0.0066702429581469609 0.035467764102431881 0 -0.0067280294233725592 0.037056865291742618 0 -0.0088106191082868816 0.0357009313194682 0 -0.0044528987812201435 0.037114636739989361 0 -0.0067280294233725592 0.037056865291742618 0 -0.0050305312384292889 0.035948063031984813 0 -0.0066702429581469609 0.035467764102431881 0 -0.0067280294233725592 0.037056865291742618 0 -0.0050305312384292889 0.035948063031984813 0 -0.010840279179525063 0.034107442917426185 0 -0.010819845842713852 0.034207462077989852 0 -0.011265447608630711 0.034044875513319119 0 -0.0091245411782202631 0.034298822523314641 0 -0.010840279179525063 0.034107442917426185 0 -0.0088106191082868816 0.0357009313194682 0 -0.010702123998853784 0.034244092082045527 0 -0.010024256893247884 0.034739816026305353 0 -0.0074736414455292685 0.034134235120836597 0 -0.0091245411782202631 0.034298822523314641 0 -0.0088106191082868816 0.0357009313194682 0 -0.01162448462716296 0.033230357632679501 0 -0.011265447608630711 0.034044875513319119 0 -0.011452505746966494 0.03350001437057254 0 -0.011265447608630711 0.034044875513319119 0 -0.011094453857741745 0.033813961850697724 0 -0.011452505746966494 0.03350001437057254 0 -0.011289857518566848 0.034140866139926465 0 -0.011409649347034728 0.033195782956609445 0 -0.010819845842713852 0.034207462077989852 0 -0.011094453857741745 0.033813961850697724 0 -0.010833487402598931 0.033481428908100734 0 -0.010819845842713852 0.034207462077989852 0 -0.011265447608630711 0.034044875513319119 0 -0.011094453857741745 0.033813961850697724 0 -0.011094453857741745 0.033813961850697724 0 -0.010833487402598931 0.033481428908100734 0 -0.011452505746966494 0.03350001437057254 0 -0.010833487402598931 0.033481428908100734 0 -0.011452505746966494 0.03350001437057254 0 -0.011414846078526367 0.033166512731171126 0 -0.011452505746966494 0.03350001437057254 0 -0.011414846078526367 0.033166512731171126 0 -0.011732068636644942 0.033892566199652058 0 -0.010833487402598931 0.033481428908100734 0 -0.011414846078526367 0.033166512731171126 0 -0.010738364359984313 0.032628661141264545 0 -0.011409649347034728 0.033195782956609445 0 -0.011377408557342204 0.032075085971936722 0 -0.01162448462716296 0.033230357632679501 0 -0.0091347707725299553 0.03349584850510013 0 -0.011732068636644942 0.033892566199652058 0 -0.0089507053208523618 0.035174686726839058 0 -0.0068135623966189447 0.036152278369996613 0 -0.0044528987812201435 0.037114636739989361 0 -0.0067280294233725592 0.037056865291742618 0 -0.0046275996609322304 0.038368640460674834 0 -0.01162448462716296 0.033230357632679501 0 -0.011452505746966494 0.03350001437057254 0 -0.011732068636644942 0.033892566199652058 0 -0.011414846078526367 0.033166512731171126 0 -0.011732068636644942 0.033892566199652058 0 -0.011844112874175028 0.032900087833452586 0 -0.011867983132839318 0.034190250488647267 0 -0.011682204845652119 0.035548312167312787 0 -0.011732068636644942 0.033892566199652058 0 -0.012753674629289615 0.032293345864871592 0 -0.011844112874175028 0.032900087833452586 0 -0.0091347707725299553 0.03349584850510013 0 -0.011732068636644942 0.033892566199652058 0 -0.0081521015630122377 0.037124151869444108 0 -0.011732068636644942 0.033892566199652058 0 -0.010933639997936782 0.038654290837771381 0 -0.0081521015630122377 0.037124151869444108 0 -0.010933639997936782 0.038654290837771381 0 -0.0081521015630122377 0.037124151869444108 0 -0.007956046738763824 0.04061854681662163 0 -0.011844112874175028 0.032900087833452586 0 -0.01205149205724999 0.031807369936843306 0 -0.011529977804676232 0.032311538294323296 0 -0.012753674629289615 0.032293345864871592 0 -0.011844112874175028 0.032900087833452586 0 -0.01205149205724999 0.031807369936843306 0 -0.01205149205724999 0.031807369936843306 0 -0.012625851982627811 0.031425532882112292 0 -0.012123220062337531 0.03089553156473842 0 -0.012753674629289615 0.032293345864871592 0 -0.01205149205724999 0.031807369936843306 0 -0.012625851982627811 0.031425532882112292 0 -0.010933639997936782 0.038654290837771381 0 -0.0096816186755398041 0.042978362149857174 0 -0.007956046738763824 0.04061854681662163 0 -0.011682204845652119 0.035548312167312787 0 -0.011667519003807001 0.035061835053107122 0 -0.012753674629289615 0.032293345864871592 0 -0.012625851982627811 0.031425532882112292 0 -0.013103319081131297 0.03100418655846373 0 -0.012625851982627811 0.031425532882112292 0 -0.01313979852989053 0.031008307178210851 0 -0.012651676756484655 0.030925510387381141 0 -0.013029444338295643 0.033090873405372916 0 -0.011667519003807001 0.035061835053107122 0 -0.0096816186755398041 0.042978362149857174 0 -0.0068580408498491938 0.043030376870770472 0 -0.007956046738763824 0.04061854681662163 0 -0.011414846078526367 0.033166512731171126 0 -0.010738364359984313 0.032628661141264545 0 -0.011529977804676232 0.032311538294323296 0 -0.010738364359984313 0.032628661141264545 0 -0.011529977804676232 0.032311538294323296 0 -0.011546889433268223 0.031385612221815642 0 -0.011414846078526367 0.033166512731171126 0 -0.011844112874175028 0.032900087833452586 0 -0.011529977804676232 0.032311538294323296 0 -0.011546889433268223 0.031385612221815642 0 -0.011257443247485236 0.030878785607023802 0 -0.011485100114839232 0.030617042162432547 0 -0.01205149205724999 0.031807369936843306 0 -0.011546889433268223 0.031385612221815642 0 -0.012123220062337531 0.03089553156473842 0 -0.01205149205724999 0.031807369936843306 0 -0.011529977804676232 0.032311538294323296 0 -0.011546889433268223 0.031385612221815642 0 -0.011377408557342204 0.032075085971936722 0 -0.011333485654202337 0.031218730528739455 0 -0.010738364359984313 0.032628661141264545 0 -0.011546889433268223 0.031385612221815642 0 -0.011257443247485236 0.030878785607023802 0 -0.012035239129403885 0.031475756459258541 0 -0.011257443247485236 0.030878785607023802 0 -0.011608200751045347 0.030745667686862259 0 -0.011257443247485236 0.030878785607023802 0 -0.011069274628148688 0.03054233617976734 0 -0.011608200751045347 0.030745667686862259 0 -0.011257443247485236 0.030878785607023802 0 -0.011069274628148688 0.03054233617976734 0 -0.011485100114839232 0.030617042162432547 0 -0.011069274628148688 0.03054233617976734 0 -0.011485100114839232 0.030617042162432547 0 -0.011229137098576421 0.030020892575208256 0 -0.011546889433268223 0.031385612221815642 0 -0.011485100114839232 0.030617042162432547 0 -0.012123220062337531 0.03089553156473842 0 -0.011485100114839232 0.030617042162432547 0 -0.012123220062337531 0.03089553156473842 0 -0.012038088824113974 0.030042997126449433 0 -0.011688142097773061 0.029787478792270273 0 -0.011229137098576421 0.030020892575208256 0 -0.010637212068397624 0.028935054116132682 0 -0.011485100114839232 0.030617042162432547 0 -0.011688142097773061 0.029787478792270273 0 -0.012038088824113974 0.030042997126449433 0 -0.011688142097773061 0.029787478792270273 0 -0.012149045679238005 0.029426527631255115 0 -0.011721677692105265 0.028704095754656288 0 -0.011688142097773061 0.029787478792270273 0 -0.012038088824113974 0.030042997126449433 0 -0.012149045679238005 0.029426527631255115 0 -0.011485100114839232 0.030617042162432547 0 -0.011688142097773061 0.029787478792270273 0 -0.011229137098576421 0.030020892575208256 0 -0.011069274628148688 0.03054233617976734 0 -0.011689020131902027 0.030933082825454622 0 -0.01078839341321192 0.031778047082462693 0 -0.010990645618016003 0.030944772239663427 0 -0.012147017604481253 0.028036071481338048 0 -0.011069274628148688 0.03054233617976734 0 -0.011229137098576421 0.030020892575208256 0 -0.010637212068397624 0.028935054116132682 0 -0.012216354158909218 0.033891624642538518 0 -0.012842521527993362 0.031109612249778724 0 -0.014477793671819715 0.031782233410551336 0 -0.011667519003807001 0.035061835053107122 0 -0.013133891780137295 0.030183946364602487 0 -0.012760913179789871 0.030361689042145357 0 -0.01313979852989053 0.031008307178210851 0 -0.013466837245202605 0.029686217784967339 0 -0.012760913179789871 0.030361689042145357 0 -0.01313979852989053 0.031008307178210851 0 -0.012651676756484655 0.030925510387381141 0 -0.012760913179789871 0.030361689042145357 0 -0.012651676756484655 0.030925510387381141 0 -0.012123220062337531 0.03089553156473842 0 -0.012760913179789871 0.030361689042145357 0 -0.012123220062337531 0.03089553156473842 0 -0.012559841244815429 0.029261841550293419 0 -0.012625851982627811 0.031425532882112292 0 -0.012651676756484655 0.030925510387381141 0 -0.012123220062337531 0.03089553156473842 0 -0.012123220062337531 0.03089553156473842 0 -0.012038088824113974 0.030042997126449433 0 -0.012979479354358838 0.029376628773349203 0 -0.012226409609686392 0.030593536477509304 0 -0.012751472700193211 0.02927419489673112 0 -0.012038088824113974 0.030042997126449433 0 -0.012149045679238005 0.029426527631255115 0 -0.012979479354358838 0.029376628773349203 0 -0.012149045679238005 0.029426527631255115 0 -0.012979479354358838 0.029376628773349203 0 -0.01236655583688224 0.028908057531176919 0 -0.012760913179789871 0.030361689042145357 0 -0.012559841244815429 0.029261841550293419 0 -0.013466837245202605 0.029686217784967339 0 -0.012842521527993362 0.031109612249778724 0 -0.014477793671819715 0.031782233410551336 0 -0.014547337988311145 0.029902854037042747 0 -0.014477793671819715 0.031782233410551336 0 -0.014547337988311145 0.029902854037042747 0 -0.016607628482320017 0.029706914176596075 0 -0.0096816186755398041 0.042978362149857174 0 -0.0062344946175901779 0.045492355164888365 0 -0.0068580408498491938 0.043030376870770472 0 -0.011667519003807001 0.035061835053107122 0 -0.0099769242221847531 0.038465924913467016 0 -0.0062344946175901779 0.045492355164888365 0 -0.0068580408498491938 0.043030376870770472 0 -0.0047013786612519126 0.043885575910694821 0 -0.0068580408498491938 0.043030376870770472 0 -0.0047013786612519126 0.043885575910694821 0 -0.0058512140158971417 0.041945794781941409 0 -0.0062344946175901779 0.045492355164888365 0 -0.0047013786612519126 0.043885575910694821 0 -0.0035289174109911434 0.04532349601786427 0 -0.0047013786612519126 0.043885575910694821 0 -0.0021142521730971747 0.044000586005733693 0 -0.0030394487799942755 0.042177247617266996 0 -0.0047013786612519126 0.043885575910694821 0 -0.0035289174109911434 0.04532349601786427 0 -0.0021142521730971747 0.044000586005733693 0 -0.0047013786612519126 0.043885575910694821 0 -0.0058512140158971417 0.041945794781941409 0 -0.0030394487799942755 0.042177247617266996 0 -0.0035289174109911434 0.04532349601786427 0 -0.0013657970925684282 0.045699829435987972 0 -0.0033942846328777095 0.047463735249630573 0 -0.0099769242221847531 0.038465924913467016 0 -0.0094731963927313558 0.038092842457771378 0 -0.0062344946175901779 0.045492355164888365 0 -0.0035289174109911434 0.04532349601786427 0 -0.0033942846328777095 0.047463735249630573 0 -0.0013657970925684282 0.045699829435987972 0 -0.0033942846328777095 0.047463735249630573 0 -0.0013157728546315526 0.047221656537108719 0 -0.0013657970925684282 0.045699829435987972 0 0.00038251745507807556 0.046129450097968754 0 -0.0013157728546315526 0.047221656537108719 0 -0.0035289174109911434 0.04532349601786427 0 -0.0013657970925684282 0.045699829435987972 0 -0.0021142521730971747 0.044000586005733693 0 0.00096528494385127151 0.046083810034168754 0 0.00038251745507807556 0.046129450097968754 0 0.00064148679543219041 0.046792164896236027 0 0.00096528494385127151 0.046083810034168754 0 0.00038251745507807556 0.046129450097968754 0 0.0012499286165879458 0.045418605334612137 0 0.0014820810682958105 0.046046801923578365 0 0.00096528494385127151 0.046083810034168754 0 0.0012499286165879458 0.045418605334612137 0 -0.0013657970925684282 0.045699829435987972 0 0.00038251745507807556 0.046129450097968754 0 0.0003129016593723005 0.044913568236987243 0 -0.0013657970925684282 0.045699829435987972 0 0.0003129016593723005 0.044913568236987243 0 -0.00018995000514214705 0.044027759316420334 0 0.00038251745507807556 0.046129450097968754 0 0.0003129016593723005 0.044913568236987243 0 0.0012499286165879458 0.045418605334612137 0 0.0003129016593723005 0.044913568236987243 0 0.0012499286165879458 0.045418605334612137 0 0.001277327817880193 0.043328618158319308 0 0.0003129016593723005 0.044913568236987243 0 -0.00018995000514214705 0.044027759316420334 0 0.001277327817880193 0.043328618158319308 0 -0.00018995000514214705 0.044027759316420334 0 0.001277327817880193 0.043328618158319308 0 -0.00020047568747208217 0.042308311355637465 0 -0.0021142521730971747 0.044000586005733693 0 -0.00020047568747208217 0.042308311355637465 0 -0.0030394487799942755 0.042177247617266996 0 -0.0013657970925684282 0.045699829435987972 0 -0.00018995000514214705 0.044027759316420334 0 -0.0021142521730971747 0.044000586005733693 0 -0.00018995000514214705 0.044027759316420334 0 -0.0021142521730971747 0.044000586005733693 0 -0.00020047568747208217 0.042308311355637465 0 -0.00020047568747208217 0.042308311355637465 0 -0.0010819336180616166 0.040612624182601226 0 -0.0030394487799942755 0.042177247617266996 0 0.0020834199021807875 0.040382130275516438 0 -0.00020047568747208217 0.042308311355637465 0 -0.0010819336180616166 0.040612624182601226 0 0.0020834199021807875 0.040382130275516438 0 0.001277327817880193 0.043328618158319308 0 -0.00020047568747208217 0.042308311355637465 0 0.0020834199021807875 0.040382130275516438 0 -0.00036246364536009375 0.03852172982884481 0 -0.0010819336180616166 0.040612624182601226 0 -0.00036246364536009375 0.03852172982884481 0 -0.0026243169014008891 0.039578538158093125 0 -0.0010819336180616166 0.040612624182601226 0 -0.0047466212247788504 0.036656371650747574 0 -0.0010819336180616166 0.040612624182601226 0 -0.0051168281949221595 0.039961071698112957 0 -0.0037928115885590957 0.038221907207133553 0 -0.0016193057272713902 0.04003102688925788 0 -0.0047466212247788504 0.036656371650747574 0 -0.0051168281949221595 0.039961071698112957 0 -0.0081521015630122377 0.037124151869444108 0 -0.0051168281949221595 0.039961071698112957 0 -0.0081521015630122377 0.037124151869444108 0 -0.007956046738763824 0.04061854681662163 0 -0.0051168281949221595 0.039961071698112957 0 -0.007956046738763824 0.04061854681662163 0 -0.0058512140158971417 0.041945794781941409 0 -0.0068580408498491938 0.043030376870770472 0 -0.007956046738763824 0.04061854681662163 0 -0.0058512140158971417 0.041945794781941409 0 -0.0051168281949221595 0.039961071698112957 0 -0.0058512140158971417 0.041945794781941409 0 -0.0030394487799942755 0.042177247617266996 0 -0.0010819336180616166 0.040612624182601226 0 -0.0051168281949221595 0.039961071698112957 0 -0.0030394487799942755 0.042177247617266996 0 -0.011149132630268017 0.029996082968585469 0 -0.0094838584933997876 0.03047062595376232 0 -0.0097316758638126555 0.028845402394266459 0 -0.011149132630268017 0.029996082968585469 0 -0.0097316758638126555 0.028845402394266459 0 -0.011019021416022182 0.028753671627036841 0 -0.011149132630268017 0.029996082968585469 0 -0.011019021416022182 0.028753671627036841 0 -0.012115014760147893 0.028919636247071917 0 -0.0096039733746865197 0.031353960594400918 0 -0.0093954628145662879 0.031835240186636318 0 -0.010086201984882153 0.031761229866756752 0 -0.010503186227586524 0.030606043716912935 0 -0.0086341167712698872 0.031234458101871362 0 -0.0093954628145662879 0.031835240186636318 0 -0.0088597769999007158 0.031767954926394892 0 -0.0091074896083900049 0.032163676554293828 0 -0.0096039733746865197 0.031353960594400918 0 -0.0093954628145662879 0.031835240186636318 0 -0.0088597769999007158 0.031767954926394892 0 -0.013611962929875619 0.021626418468323087 0 -0.014067143324004621 0.021116556818248488 0 -0.014147583894784686 0.021508811769455204 0 -0.0094838584933997876 0.03047062595376232 0 -0.0088759710757936854 0.029962687039317645 0 -0.0080675716129518862 0.030921302038400836 0 -0.0086341167712698872 0.031234458101871362 0 -0.011273492656087406 0.028838465349635085 0 -0.011565031005749977 0.025769224168227488 0 -0.011273492656087406 0.028838465349635085 0 -0.013611962929875619 0.021626418468323087 0 -0.014147583894784686 0.021508811769455204 0 -0.014174603531245594 0.021897971729958974 0 -0.013611962929875619 0.021626418468323087 0 -0.013688130404909451 0.022087735881341018 0 -0.014174603531245594 0.021897971729958974 0 -0.0094838584933997876 0.03047062595376232 0 -0.0088759710757936854 0.029962687039317645 0 -0.0097316758638126555 0.028845402394266459 0 -0.013611962929875619 0.021626418468323087 0 -0.013688130404909451 0.022087735881341018 0 -0.013186548948412313 0.02217035254009931 0 -0.011565031005749977 0.025769224168227488 0 -0.011493330527790814 0.025528309834168362 0 -0.013581692742111511 0.022391609444870546 0 -0.013688130404909451 0.022087735881341018 0 -0.013186548948412313 0.02217035254009931 0 -0.013581692742111511 0.022391609444870546 0 -0.013275430620010378 0.022655162071639798 0 -0.013186548948412313 0.02217035254009931 0 -0.013688130404909451 0.022087735881341018 0 -0.014174603531245594 0.021897971729958974 0 -0.014052209643362323 0.022315733122586123 0 -0.013581692742111511 0.022391609444870546 0 -0.013688130404909451 0.022087735881341018 0 -0.014052209643362323 0.022315733122586123 0 -0.013581692742111511 0.022391609444870546 0 -0.013712008125399961 0.022689057368540669 0 -0.014052209643362323 0.022315733122586123 0 -0.013712008125399961 0.022689057368540669 0 -0.013275430620010378 0.022655162071639798 0 -0.013345325748144876 0.02284871760708708 0 -0.013581692742111511 0.022391609444870546 0 -0.013712008125399961 0.022689057368540669 0 -0.013275430620010378 0.022655162071639798 0 -0.013275430620010378 0.022655162071639798 0 -0.013186548948412313 0.02217035254009931 0 -0.012952407049602679 0.022769970326347606 0 -0.013275430620010378 0.022655162071639798 0 -0.012952407049602679 0.022769970326347606 0 -0.013046848753822447 0.023014161710176742 0 -0.011493330527790814 0.025528309834168362 0 -0.011850744306439301 0.025118079359069002 0 -0.0097316758638126555 0.028845402394266459 0 -0.011019021416022182 0.028753671627036841 0 -0.010619001870201874 0.027569899957208183 0 -0.011019021416022182 0.028753671627036841 0 -0.010619001870201874 0.027569899957208183 0 -0.0119889087911134 0.028122827808209423 0 -0.010619001870201874 0.027569899957208183 0 -0.0119889087911134 0.028122827808209423 0 -0.011634421349036542 0.025914657940131421 0 -0.0119889087911134 0.028122827808209423 0 -0.013242562987337156 0.027305154476146079 0 -0.011634421349036542 0.025914657940131421 0 -0.0119889087911134 0.028122827808209423 0 -0.013242562987337156 0.027305154476146079 0 -0.012991095333699078 0.028737685706803649 0 -0.013242562987337156 0.027305154476146079 0 -0.012991095333699078 0.028737685706803649 0 -0.013796265054719649 0.028165404357329209 0 -0.012991095333699078 0.028737685706803649 0 -0.012115014760147893 0.028919636247071917 0 -0.013291729801171555 0.029229161136535099 0 -0.012991095333699078 0.028737685706803649 0 -0.012699281766412059 0.029777216629923199 0 -0.013291729801171555 0.029229161136535099 0 -0.0119889087911134 0.028122827808209423 0 -0.012991095333699078 0.028737685706803649 0 -0.012115014760147893 0.028919636247071917 0 -0.011019021416022182 0.028753671627036841 0 -0.0119889087911134 0.028122827808209423 0 -0.012115014760147893 0.028919636247071917 0 -0.015972956927252088 0.027969689463462902 0 -0.017787566847459788 0.026084506635066378 0 -0.01503419263009686 0.026690189473986763 0 -0.013622275097288522 0.029123155995646213 0 -0.012147017604481253 0.028036071481338048 0 -0.013242562987337156 0.027305154476146079 0 -0.013796265054719649 0.028165404357329209 0 -0.01503419263009686 0.026690189473986763 0 -0.015972956927252088 0.027969689463462902 0 -0.013796265054719649 0.028165404357329209 0 -0.01503419263009686 0.026690189473986763 0 -0.012991095333699078 0.028737685706803649 0 -0.013796265054719649 0.028165404357329209 0 -0.012699281766412059 0.029777216629923199 0 -0.011949098195064923 0.030133233694211125 0 -0.011760603945767003 0.030118521591347112 0 -0.011689020131902027 0.030933082825454622 0 -0.012699281766412059 0.029777216629923199 0 -0.011892385370545636 0.030242389325852152 0 -0.012699281766412059 0.029777216629923199 0 -0.011892385370545636 0.030242389325852152 0 -0.013291729801171555 0.029229161136535099 0 -0.015972956927252088 0.027969689463462902 0 -0.013796265054719649 0.028165404357329209 0 -0.012699281766412059 0.029777216629923199 0 -0.013622275097288522 0.029123155995646213 0 -0.013044077086646438 0.029702460956252695 0 -0.011069274628148688 0.03054233617976734 0 -0.011892385370545636 0.030242389325852152 0 -0.011608200751045347 0.030745667686862259 0 -0.011069274628148688 0.03054233617976734 0 -0.011689020131902027 0.030933082825454622 0 -0.011892385370545636 0.030242389325852152 0 -0.011892385370545636 0.030242389325852152 0 -0.011608200751045347 0.030745667686862259 0 -0.011295524680813327 0.030867085744228383 0 -0.011608200751045347 0.030745667686862259 0 -0.011295524680813327 0.030867085744228383 0 -0.011425812454086085 0.031200003810128694 0 -0.011295524680813327 0.030867085744228383 0 -0.011425812454086085 0.031200003810128694 0 -0.010684353144088988 0.031277029225953892 0 -0.011892385370545636 0.030242389325852152 0 -0.011295524680813327 0.030867085744228383 0 -0.010390991859757946 0.030813568539074094 0 -0.011007157790570868 0.031714587968575021 0 -0.011425812454086085 0.031200003810128694 0 -0.010684353144088988 0.031277029225953892 0 -0.011007157790570868 0.031714587968575021 0 -0.010684353144088988 0.031277029225953892 0 -0.01050871414735793 0.031940139403893821 0 -0.011007157790570868 0.031714587968575021 0 -0.011425812454086085 0.031200003810128694 0 -0.011540621723384506 0.032068334742337806 0 -0.012035239129403885 0.031475756459258541 0 -0.011608200751045347 0.030745667686862259 0 -0.011425812454086085 0.031200003810128694 0 -0.012035239129403885 0.031475756459258541 0 -0.011425812454086085 0.031200003810128694 0 -0.011540621723384506 0.032068334742337806 0 -0.011149132630268017 0.029996082968585469 0 -0.012115014760147893 0.028919636247071917 0 -0.013291729801171555 0.029229161136535099 0 -0.010503186227586524 0.030606043716912935 0 -0.011760603945767003 0.030118521591347112 0 -0.0096039733746865197 0.031353960594400918 0 -0.010390991859757946 0.030813568539074094 0 -0.01022914137541152 0.03130387644168342 0 -0.011295524680813327 0.030867085744228383 0 -0.010390991859757946 0.030813568539074094 0 -0.010684353144088988 0.031277029225953892 0 -0.010390991859757946 0.030813568539074094 0 -0.010684353144088988 0.031277029225953892 0 -0.01022914137541152 0.03130387644168342 0 -0.010684353144088988 0.031277029225953892 0 -0.0098713345293845907 0.031900531859990665 0 -0.01050871414735793 0.031940139403893821 0 -0.010684353144088988 0.031277029225953892 0 -0.010086201984882153 0.031761229866756752 0 -0.01022914137541152 0.03130387644168342 0 -0.010534440457090278 0.031427191767979944 0 -0.010019936514711131 0.031825118043649556 0 -0.0096039733746865197 0.031353960594400918 0 -0.010086201984882153 0.031761229866756752 0 -0.01022914137541152 0.03130387644168342 0 -0.0098713345293845907 0.031900531859990665 0 -0.010244517842039089 0.032682564808468914 0 -0.0095176528432576648 0.032990195724862635 0 -0.010019936514711131 0.031825118043649556 0 -0.0094478756625652471 0.032318604067918907 0 -0.01050871414735793 0.031940139403893821 0 -0.010244517842039089 0.032682564808468914 0 -0.010827610687088384 0.032297833471227624 0 -0.0098713345293845907 0.031900531859990665 0 -0.01050871414735793 0.031940139403893821 0 -0.010244517842039089 0.032682564808468914 0 -0.010244517842039089 0.032682564808468914 0 -0.010866120200792606 0.033241126325716519 0 -0.0099758684717862253 0.033432703453806438 0 -0.010244517842039089 0.032682564808468914 0 -0.0099758684717862253 0.033432703453806438 0 -0.0095176528432576648 0.032990195724862635 0 -0.012103041979295232 0.03287565353699106 0 -0.012035239129403885 0.031475756459258541 0 -0.011540621723384506 0.032068334742337806 0 -0.011007157790570868 0.031714587968575021 0 -0.011540621723384506 0.032068334742337806 0 -0.010827610687088384 0.032297833471227624 0 -0.011007157790570868 0.031714587968575021 0 -0.01050871414735793 0.031940139403893821 0 -0.010827610687088384 0.032297833471227624 0 -0.010244517842039089 0.032682564808468914 0 -0.010827610687088384 0.032297833471227624 0 -0.010866120200792606 0.033241126325716519 0 -0.011540621723384506 0.032068334742337806 0 -0.010827610687088384 0.032297833471227624 0 -0.010866120200792606 0.033241126325716519 0 -0.012103041979295232 0.03287565353699106 0 -0.011540621723384506 0.032068334742337806 0 -0.010866120200792606 0.033241126325716519 0 -0.01181033499868306 0.034536840077143721 0 -0.012103041979295232 0.03287565353699106 0 -0.011388204779878909 0.033960185674415506 0 -0.012103041979295232 0.03287565353699106 0 -0.010866120200792606 0.033241126325716519 0 -0.011388204779878909 0.033960185674415506 0 -0.010866120200792606 0.033241126325716519 0 -0.011388204779878909 0.033960185674415506 0 -0.010548009478269631 0.034197027361534252 0 -0.011388204779878909 0.033960185674415506 0 -0.01168099946268413 0.034545697208394358 0 -0.010548009478269631 0.034197027361534252 0 -0.011844614141076954 0.034613966407031543 0 -0.011974438627544206 0.034678297091793493 0 -0.01168099946268413 0.034545697208394358 0 -0.013266118039664133 0.035263859856759998 0 -0.012312718897978225 0.0344686110103491 0 -0.01168099946268413 0.034545697208394358 0 -0.01157231080887351 0.034241525277520855 0 -0.012312718897978225 0.0344686110103491 0 -0.01181033499868306 0.034536840077143721 0 -0.01168099946268413 0.034545697208394358 0 -0.01157231080887351 0.034241525277520855 0 -0.01181033499868306 0.034536840077143721 0 -0.011388204779878909 0.033960185674415506 0 -0.01168099946268413 0.034545697208394358 0 -0.0099758684717862253 0.033432703453806438 0 -0.0096501868690377045 0.033941037494357298 0 -0.0092937023668394434 0.033435549065723769 0 -0.0099758684717862253 0.033432703453806438 0 -0.0092937023668394434 0.033435549065723769 0 -0.0095176528432576648 0.032990195724862635 0 -0.010866120200792606 0.033241126325716519 0 -0.0099758684717862253 0.033432703453806438 0 -0.010548009478269631 0.034197027361534252 0 -0.011974438627544206 0.034678297091793493 0 -0.011996211959203733 0.034686209336440628 0 -0.0099758684717862253 0.033432703453806438 0 -0.010548009478269631 0.034197027361534252 0 -0.0096501868690377045 0.033941037494357298 0 -0.013266118039664133 0.035263859856759998 0 -0.014331279987285884 0.0354136555283966 0 -0.014239790868821198 0.035091510546524686 0 -0.014331279987285884 0.0354136555283966 0 -0.014382407462805292 0.035683586848081712 0 -0.01436616196742012 0.035602932360189937 0 -0.011996211959203733 0.034686209336440628 0 -0.011767168382025198 0.034693631922448842 0 -0.0096501868690377045 0.033941037494357298 0 -0.0089602142150701659 0.033756281649205973 0 -0.0092937023668394434 0.033435549065723769 0 -0.0089602142150701659 0.033756281649205973 0 -0.0088702716018181412 0.033350465537974057 0 -0.0092937023668394434 0.033435549065723769 0 -0.0088702716018181412 0.033350465537974057 0 -0.0092937023668394434 0.033435549065723769 0 -0.0088584589300941576 0.032880605255403046 0 -0.0092937023668394434 0.033435549065723769 0 -0.0095176528432576648 0.032990195724862635 0 -0.0088584589300941576 0.032880605255403046 0 -0.0095176528432576648 0.032990195724862635 0 -0.0088584589300941576 0.032880605255403046 0 -0.0093003247171737167 0.032444837776167502 0 -0.0089562632672796662 0.032747928861329552 0 -0.0094478756625652471 0.032318604067918907 0 -0.0090820655867127828 0.032648902190157814 0 -0.0091074896083900049 0.032163676554293828 0 -0.0095798303940556225 0.03221239105676147 0 -0.0093954628145662879 0.031835240186636318 0 -0.0091074896083900049 0.032163676554293828 0 -0.0095798303940556225 0.03221239105676147 0 -0.0098713345293845907 0.031900531859990665 0 -0.0095176528432576648 0.032990195724862635 0 -0.0093003247171737167 0.032444837776167502 0 -0.0093954628145662879 0.031835240186636318 0 -0.010086201984882153 0.031761229866756752 0 -0.0095798303940556225 0.03221239105676147 0 -0.0086284532239105944 0.03236449140900232 0 -0.0082203489262464291 0.032683564118879863 0 -0.0081294328604400307 0.03213401523320196 0 -0.0088597769999007158 0.031767954926394892 0 -0.0086284532239105944 0.03236449140900232 0 -0.0081294328604400307 0.03213401523320196 0 -0.0088597769999007158 0.031767954926394892 0 -0.0091074896083900049 0.032163676554293828 0 -0.0086284532239105944 0.03236449140900232 0 -0.0090820655867127828 0.032648902190157814 0 -0.0091074896083900049 0.032163676554293828 0 -0.0086284532239105944 0.03236449140900232 0 -0.0090820655867127828 0.032648902190157814 0 -0.0086284532239105944 0.03236449140900232 0 -0.0085407733115763825 0.033096662920171792 0 -0.0089562632672796662 0.032747928861329552 0 -0.0086207512517660189 0.033011696437586953 0 -0.0086284532239105944 0.03236449140900232 0 -0.0082203489262464291 0.032683564118879863 0 -0.0085407733115763825 0.033096662920171792 0 -0.0082203489262464291 0.032683564118879863 0 -0.0085407733115763825 0.033096662920171792 0 -0.0080787069346979004 0.03313139227740438 0 -0.0085407733115763825 0.033096662920171792 0 -0.0083485525746564548 0.033374262984991673 0 -0.0080787069346979004 0.03313139227740438 0 -0.0085407733115763825 0.033096662920171792 0 -0.0086327823711437063 0.033464202011407519 0 -0.0083485525746564548 0.033374262984991673 0 -0.0088702716018181412 0.033350465537974057 0 -0.0085407733115763825 0.033096662920171792 0 -0.0086327823711437063 0.033464202011407519 0 -0.0088702716018181412 0.033350465537974057 0 -0.0088584589300941576 0.032880605255403046 0 -0.0085407733115763825 0.033096662920171792 0 -0.0089602142150701659 0.033756281649205973 0 -0.0088702716018181412 0.033350465537974057 0 -0.0086327823711437063 0.033464202011407519 0 -0.014382407462805292 0.035683586848081712 0 -0.014531325479490478 0.035718519171091472 0 -0.014431731691779054 0.035696153659993089 0 -0.011767168382025198 0.034693631922448842 0 -0.011056984305836926 0.034622025494961219 0 -0.0089602142150701659 0.033756281649205973 0 -0.0086327823711437063 0.033464202011407519 0 -0.0083913343873663632 0.033682880804421292 0 -0.0083485525746564548 0.033374262984991673 0 -0.0083913343873663632 0.033682880804421292 0 -0.0080895800069620116 0.033460464018545709 0 -0.0086327823711437063 0.033464202011407519 0 -0.0083485525746564548 0.033374262984991673 0 -0.0083913343873663632 0.033682880804421292 0 -0.014531325479490478 0.035718519171091472 0 -0.014512245803223037 0.035586218055693293 0 -0.014633103518464878 0.035624153759640509 0 -0.014541537226475922 0.035931607496107458 0 -0.01486702941216762 0.036140548648394714 0 -0.014656570976630406 0.036038786163378925 0 -0.014633794597308607 0.035782357012922636 0 -0.01506214815249376 0.035992451605637181 0 -0.014512245803223037 0.035586218055693293 0 -0.014633103518464878 0.035624153759640509 0 -0.014637020693493288 0.0355600776748808 0 -0.014512245803223037 0.035586218055693293 0 -0.014631301741967284 0.035457450715381138 0 -0.014637020693493288 0.0355600776748808 0 -0.014542459515966418 0.035955007172271736 0 -0.01448511766677732 0.035854378533630535 0 -0.014435327711087721 0.035880542847052693 0 -0.014542459515966418 0.035955007172271736 0 -0.01448511766677732 0.035854378533630535 0 -0.014656570976630406 0.036038786163378925 0 -0.014541537226475922 0.035931607496107458 0 -0.01448511766677732 0.035854378533630535 0 -0.014656570976630406 0.036038786163378925 0 -0.014531325479490478 0.035718519171091472 0 -0.014512245803223037 0.035586218055693293 0 -0.014431731691779054 0.035696153659993089 0 -0.01448511766677732 0.035854378533630535 0 -0.014431731691779054 0.035696153659993089 0 -0.01441783082469218 0.035704718933404066 0 -0.014633794597308607 0.035782357012922636 0 -0.014522698876225608 0.035733498738904405 0 -0.014541537226475922 0.035931607496107458 0 -0.01448511766677732 0.035854378533630535 0 -0.014431731691779054 0.035696153659993089 0 -0.014382407462805292 0.035683586848081712 0 -0.014431731691779054 0.035696153659993089 0 -0.01441783082469218 0.035704718933404066 0 -0.014382407462805292 0.035683586848081712 0 -0.01436616196742012 0.035602932360189937 0 -0.01441783082469218 0.035704718933404066 0 -0.01436616196742012 0.035602932360189937 0 -0.014305059776323315 0.035486592668560316 0 -0.014405859898937159 0.035730756633512217 0 -0.01436616196742012 0.035602932360189937 0 -0.01441783082469218 0.035704718933404066 0 -0.014405859898937159 0.035730756633512217 0 -0.01448511766677732 0.035854378533630535 0 -0.01441783082469218 0.035704718933404066 0 -0.014405859898937159 0.035730756633512217 0 -0.014331279987285884 0.0354136555283966 0 -0.01436616196742012 0.035602932360189937 0 -0.014305059776323315 0.035486592668560316 0 -0.014305059776323315 0.035486592668560316 0 -0.014206980127859417 0.035635807137342504 0 -0.014212858553120572 0.03527661348543211 0 -0.014305059776323315 0.035486592668560316 0 -0.014294588187168838 0.03575516801354691 0 -0.014349461274585583 0.03572132370495848 0 -0.014305059776323315 0.035486592668560316 0 -0.014294588187168838 0.03575516801354691 0 -0.014206980127859417 0.035635807137342504 0 -0.014305059776323315 0.035486592668560316 0 -0.014405859898937159 0.035730756633512217 0 -0.014349461274585583 0.03572132370495848 0 -0.014405859898937159 0.035730756633512217 0 -0.014349461274585583 0.03572132370495848 0 -0.014435327711087721 0.035880542847052693 0 -0.01448511766677732 0.035854378533630535 0 -0.014405859898937159 0.035730756633512217 0 -0.014435327711087721 0.035880542847052693 0 -0.014294588187168838 0.03575516801354691 0 -0.014349461274585583 0.03572132370495848 0 -0.014435327711087721 0.035880542847052693 0 -0.014435327711087721 0.035880542847052693 0 -0.014388256615754628 0.035999652446890185 0 -0.014590254338273432 0.036053870372532326 0 -0.014294588187168838 0.03575516801354691 0 -0.014435327711087721 0.035880542847052693 0 -0.014388256615754628 0.035999652446890185 0 -0.014388256615754628 0.035999652446890185 0 -0.014533967862258435 0.036087216478618622 0 -0.014590254338273432 0.036053870372532326 0 -0.014206980127859417 0.035635807137342504 0 -0.014251979214056246 0.035914121248000953 0 -0.01416230714817907 0.035854378547130701 0 -0.014294588187168838 0.03575516801354691 0 -0.014388256615754628 0.035999652446890185 0 -0.014251979214056246 0.035914121248000953 0 -0.014294588187168838 0.03575516801354691 0 -0.014206980127859417 0.035635807137342504 0 -0.014251979214056246 0.035914121248000953 0 -0.014388256615754628 0.035999652446890185 0 -0.014251979214056246 0.035914121248000953 0 -0.014236290552889001 0.03609972111771248 0 -0.014251979214056246 0.035914121248000953 0 -0.014187580173108977 0.035993202782663644 0 -0.014236290552889001 0.03609972111771248 0 -0.014187580173108977 0.035993202782663644 0 -0.01416230714817907 0.035854378547130701 0 -0.014123276889503695 0.036089904129503941 0 -0.014251979214056246 0.035914121248000953 0 -0.014187580173108977 0.035993202782663644 0 -0.01416230714817907 0.035854378547130701 0 -0.014236290552889001 0.03609972111771248 0 -0.014035912755043742 0.036202814710350653 0 -0.014357951232813543 0.036202362017455171 0 -0.014187580173108977 0.035993202782663644 0 -0.014236290552889001 0.03609972111771248 0 -0.014123276889503695 0.036089904129503941 0 -0.014236290552889001 0.03609972111771248 0 -0.014123276889503695 0.036089904129503941 0 -0.014035912755043742 0.036202814710350653 0 -0.014236290552889001 0.03609972111771248 0 -0.014470605963136273 0.036132750760085271 0 -0.014357951232813543 0.036202362017455171 0 -0.014388256615754628 0.035999652446890185 0 -0.014533967862258435 0.036087216478618622 0 -0.014470605963136273 0.036132750760085271 0 -0.014533967862258435 0.036087216478618622 0 -0.014470605963136273 0.036132750760085271 0 -0.014712073856243773 0.036140396344601082 0 -0.014388256615754628 0.035999652446890185 0 -0.014236290552889001 0.03609972111771248 0 -0.014470605963136273 0.036132750760085271 0 -0.014470605963136273 0.036132750760085271 0 -0.014712073856243773 0.036140396344601082 0 -0.014644482169309792 0.036170942690908793 0 -0.014533967862258435 0.036087216478618622 0 -0.014712073856243773 0.036140396344601082 0 -0.014590254338273432 0.036053870372532326 0 -0.014712073856243773 0.036140396344601082 0 -0.015021795632197811 0.03615067253414303 0 -0.014812143272479011 0.036120215938992686 0 -0.014712073856243773 0.036140396344601082 0 -0.014812143272479011 0.036120215938992686 0 -0.014590254338273432 0.036053870372532326 0 -0.014712073856243773 0.036140396344601082 0 -0.015021795632197811 0.03615067253414303 0 -0.01496517943969485 0.036161306173373778 0 -0.015021795632197811 0.03615067253414303 0 -0.015033002569876079 0.036145094477784127 0 -0.015219266256218254 0.036139923997144864 0 -0.015021795632197811 0.03615067253414303 0 -0.015033002569876079 0.036145094477784127 0 -0.014812143272479011 0.036120215938992686 0 -0.015033002569876079 0.036145094477784127 0 -0.014812143272479011 0.036120215938992686 0 -0.01486702941216762 0.036140548648394714 0 -0.014812143272479011 0.036120215938992686 0 -0.01486702941216762 0.036140548648394714 0 -0.014656570976630406 0.036038786163378925 0 -0.014542459515966418 0.035955007172271736 0 -0.014656570976630406 0.036038786163378925 0 -0.014590254338273432 0.036053870372532326 0 -0.014542459515966418 0.035955007172271736 0 -0.014435327711087721 0.035880542847052693 0 -0.014590254338273432 0.036053870372532326 0 -0.014812143272479011 0.036120215938992686 0 -0.014656570976630406 0.036038786163378925 0 -0.014590254338273432 0.036053870372532326 0 -0.010217856847663791 0.032847965536842633 0 -0.011541024101856092 0.032797948174807919 0 -0.011098947219692745 0.033801362446419861 0 -0.011541024101856092 0.032797948174807919 0 -0.011098947219692745 0.033801362446419861 0 -0.012010114492674447 0.033827245883083341 0 -0.011098947219692745 0.033801362446419861 0 -0.01157231080887351 0.034241525277520855 0 -0.012010114492674447 0.033827245883083341 0 -0.010840279179525063 0.034107442917426185 0 -0.010819845842713852 0.034207462077989852 0 -0.011098947219692745 0.033801362446419861 0 -0.01181033499868306 0.034536840077143721 0 -0.011098947219692745 0.033801362446419861 0 -0.01157231080887351 0.034241525277520855 0 -0.011289857518566848 0.034140866139926465 0 -0.011209387679767348 0.03384374958850745 0 -0.01157231080887351 0.034241525277520855 0 -0.012010114492674447 0.033827245883083341 0 -0.012312718897978225 0.0344686110103491 0 -0.013266118039664133 0.035263859856759998 0 -0.012312718897978225 0.0344686110103491 0 -0.012974250389696563 0.034394629659865804 0 -0.012010114492674447 0.033827245883083341 0 -0.012312718897978225 0.0344686110103491 0 -0.012974250389696563 0.034394629659865804 0 -0.011541024101856092 0.032797948174807919 0 -0.012727986921276531 0.033408861471239282 0 -0.012181866818397844 0.031792259351159341 0 -0.011541024101856092 0.032797948174807919 0 -0.012010114492674447 0.033827245883083341 0 -0.012727986921276531 0.033408861471239282 0 -0.012010114492674447 0.033827245883083341 0 -0.012974250389696563 0.034394629659865804 0 -0.012727986921276531 0.033408861471239282 0 -0.012727986921276531 0.033408861471239282 0 -0.014114271312341343 0.034603105379514096 0 -0.014148837754352302 0.032776146192689384 0 -0.013944068846538505 0.034484435657697633 0 -0.013727865705055301 0.03426032625517917 0 -0.012974250389696563 0.034394629659865804 0 -0.012727986921276531 0.033408861471239282 0 -0.014114271312341343 0.034603105379514096 0 -0.014114271312341343 0.034603105379514096 0 -0.014192070164705898 0.035478797569339471 0 -0.014507746551905037 0.035532908373858453 0 -0.013266118039664133 0.035263859856759998 0 -0.012974250389696563 0.034394629659865804 0 -0.014114271312341343 0.034603105379514096 0 -0.013266118039664133 0.035263859856759998 0 -0.014114271312341343 0.034603105379514096 0 -0.014239790868821198 0.035091510546524686 0 -0.014114271312341343 0.034603105379514096 0 -0.014239790868821198 0.035091510546524686 0 -0.014212858553120572 0.03527661348543211 0 -0.014305059776323315 0.035486592668560316 0 -0.014239790868821198 0.035091510546524686 0 -0.014212858553120572 0.03527661348543211 0 -0.014331279987285884 0.0354136555283966 0 -0.014305059776323315 0.035486592668560316 0 -0.014239790868821198 0.035091510546524686 0 -0.014114271312341343 0.034603105379514096 0 -0.014212858553120572 0.03527661348543211 0 -0.014192070164705898 0.035478797569339471 0 -0.014206980127859417 0.035635807137342504 0 -0.014212858553120572 0.03527661348543211 0 -0.014192070164705898 0.035478797569339471 0 -0.014206980127859417 0.035635807137342504 0 -0.014192070164705898 0.035478797569339471 0 -0.01416230714817907 0.035854378547130701 0 -0.014192070164705898 0.035478797569339471 0 -0.014227849170148747 0.035820989014012858 0 -0.01416230714817907 0.035854378547130701 0 -0.014192070164705898 0.035478797569339471 0 -0.014227849170148747 0.035820989014012858 0 -0.014507746551905037 0.035532908373858453 0 -0.014227849170148747 0.035820989014012858 0 -0.014116730488508379 0.036161469892295843 0 -0.014470446393691929 0.036082786618446681 0 -0.014227849170148747 0.035820989014012858 0 -0.014140057245419602 0.036016251168687667 0 -0.014116730488508379 0.036161469892295843 0 -0.014227849170148747 0.035820989014012858 0 -0.014140057245419602 0.036016251168687667 0 -0.01416230714817907 0.035854378547130701 0 -0.014140057245419602 0.036016251168687667 0 -0.01416230714817907 0.035854378547130701 0 -0.014123276889503695 0.036089904129503941 0 -0.014041321462530884 0.036186092649303753 0 -0.014116730488508379 0.036161469892295843 0 -0.013524928156817311 0.036240861910629654 0 -0.014140057245419602 0.036016251168687667 0 -0.014123276889503695 0.036089904129503941 0 -0.014041321462530884 0.036186092649303753 0 -0.014123276889503695 0.036089904129503941 0 -0.014041321462530884 0.036186092649303753 0 -0.014035912755043742 0.036202814710350653 0 -0.014140057245419602 0.036016251168687667 0 -0.014041321462530884 0.036186092649303753 0 -0.014116730488508379 0.036161469892295843 0 -0.014116730488508379 0.036161469892295843 0 -0.014034383253499297 0.036186762489258235 0 -0.013524928156817311 0.036240861910629654 0 -0.011322919198994284 0.039079917184417418 0 -0.010522803959313248 0.038554154616465844 0 -0.011248076634277389 0.037744313268728402 0 -0.012719860753780525 0.036088621322312303 0 -0.012367263039621497 0.037082190026314847 0 -0.013394183522936946 0.035988857242369277 0 -0.012719860753780525 0.036088621322312303 0 -0.014067611776268999 0.03143932667378669 0 -0.014148837754352302 0.032776146192689384 0 -0.012181866818397844 0.031792259351159341 0 -0.014227849170148747 0.035820989014012858 0 -0.014470446393691929 0.036082786618446681 0 -0.014507746551905037 0.035532908373858453 0 -0.012719860753780525 0.036088621322312303 0 -0.013727865705055301 0.03426032625517917 0 -0.012719860753780525 0.036088621322312303 0 -0.011138443343260428 0.035648854356277605 0 -0.012727986921276531 0.033408861471239282 0 -0.014148837754352302 0.032776146192689384 0 -0.012181866818397844 0.031792259351159341 0 -0.010055188537064571 0.039385556891680829 0 -0.010522803959313248 0.038554154616465844 0 -0.0096867526034724247 0.038338587089071535 0 -0.011322919198994284 0.039079917184417418 0 -0.010055188537064571 0.039385556891680829 0 -0.010522803959313248 0.038554154616465844 0 -0.0088541186415754865 0.038772969385528162 0 -0.010055188537064571 0.039385556891680829 0 -0.0096867526034724247 0.038338587089071535 0 -0.0088541186415754865 0.038772969385528162 0 -0.0091220760272769097 0.038047150537490554 0 -0.0096867526034724247 0.038338587089071535 0 -0.0087971574587950054 0.03963181531144911 0 -0.0088541186415754865 0.038772969385528162 0 -0.010055188537064571 0.039385556891680829 0 -0.010360702851983605 0.031861872807513576 0 -0.011541024101856092 0.032797948174807919 0 -0.012181866818397844 0.031792259351159341 0 -0.0095260081296815527 0.035746363015807449 0 -0.011138443343260428 0.035648854356277605 0 -0.0091314811517267634 0.037009447476017275 0 -0.0097440165164914133 0.03695189025852498 0 -0.0094357683278963028 0.037232567342726307 0 -0.0097440165164914133 0.03695189025852498 0 -0.0094357683278963028 0.037232567342726307 0 -0.0096373377172039622 0.037546348656895961 0 -0.0097440165164914133 0.03695189025852498 0 -0.0096373377172039622 0.037546348656895961 0 -0.010317598802074135 0.037087559063652305 0 -0.0091314811517267634 0.037009447476017275 0 -0.0094357683278963028 0.037232567342726307 0 -0.0091315299152306788 0.037572536339111534 0 -0.0094357683278963028 0.037232567342726307 0 -0.0091315299152306788 0.037572536339111534 0 -0.0096373377172039622 0.037546348656895961 0 -0.0091315299152306788 0.037572536339111534 0 -0.0091220760272769097 0.038047150537490554 0 -0.0096373377172039622 0.037546348656895961 0 -0.0091220760272769097 0.038047150537490554 0 -0.0096867526034724247 0.038338587089071535 0 -0.0096373377172039622 0.037546348656895961 0 -0.0096867526034724247 0.038338587089071535 0 -0.0096373377172039622 0.037546348656895961 0 -0.010285259181365801 0.03785430138440183 0 -0.010522803959313248 0.038554154616465844 0 -0.010285259181365801 0.03785430138440183 0 -0.011248076634277389 0.037744313268728402 0 -0.010285259181365801 0.03785430138440183 0 -0.010317598802074135 0.037087559063652305 0 -0.011248076634277389 0.037744313268728402 0 -0.010522803959313248 0.038554154616465844 0 -0.0096867526034724247 0.038338587089071535 0 -0.010285259181365801 0.03785430138440183 0 -0.0096373377172039622 0.037546348656895961 0 -0.010285259181365801 0.03785430138440183 0 -0.010317598802074135 0.037087559063652305 0 -0.010317598802074135 0.037087559063652305 0 -0.011248076634277389 0.037744313268728402 0 -0.011221566495103186 0.036408092677031101 0 -0.013524928156817311 0.036240861910629654 0 -0.013349372142217084 0.036041616947986146 0 -0.012640736092384934 0.035957612030410195 0 -0.012367263039621497 0.037082190026314847 0 -0.011878110964538491 0.035999481783194211 0 -0.014041321462530884 0.036186092649303753 0 -0.013524928156817311 0.036240861910629654 0 -0.014035912755043742 0.036202814710350653 0 -0.013524928156817311 0.036240861910629654 0 -0.014035912755043742 0.036202814710350653 0 -0.013932640258182442 0.03618456401322924 0 -0.013524928156817311 0.036240861910629654 0 -0.013349372142217084 0.036041616947986146 0 -0.013932640258182442 0.03618456401322924 0 -0.013349372142217084 0.036041616947986146 0 -0.012943110621218907 0.035659796190714049 0 -0.012640736092384934 0.035957612030410195 0 -0.013349372142217084 0.036041616947986146 0 -0.012943110621218907 0.035659796190714049 0 -0.014002838005633749 0.035831886114263065 0 -0.012943110621218907 0.035659796190714049 0 -0.011292401559670689 0.034999823910805555 0 -0.013341896484403355 0.034999645398755018 0 -0.011289757174665132 0.034999876834034042 0 -0.011221566495103186 0.036408092677031101 0 -0.010834873243060116 0.035000064334409414 0 -0.012943110621218907 0.035659796190714049 0 -0.011292401559670689 0.034999823910805555 0 -0.012640736092384934 0.035957612030410195 0 -0.011290830917345058 0.035000172203091234 0 -0.011878110964538491 0.035999481783194211 0 -0.010317598802074135 0.037087559063652305 0 -0.011221566495103186 0.036408092677031101 0 -0.0099657653117070123 0.0360191340380158 0 -0.0097440165164914133 0.03695189025852498 0 -0.010317598802074135 0.037087559063652305 0 -0.0099657653117070123 0.0360191340380158 0 -0.010833923289965918 0.035000471790157681 0 -0.0098735923466368846 0.036139921520548998 0 -0.010834313975259583 0.034999993328540223 0 -0.0093448707435666682 0.034999992019265708 0 -0.0097752737784929846 0.036275677260534309 0 -0.011221566495103186 0.036408092677031101 0 -0.010834873243060116 0.035000064334409414 0 -0.0099657653117070123 0.0360191340380158 0 -0.0085329822004091022 0.036290416025065671 0 -0.0093448707435666682 0.034999992019265708 0 -0.0097752737784929846 0.036275677260534309 0 -0.0089616002592269733 0.03722699444006991 0 -0.0098735923466368846 0.036139921520548998 0 -0.0091314811517267634 0.037009447476017275 0 -0.0097440165164914133 0.03695189025852498 0 -0.0099657653117070123 0.0360191340380158 0 -0.0085813115471055496 0.036914905289062834 0 -0.0085329822004091022 0.036290416025065671 0 -0.0097752737784929846 0.036275677260534309 0 -0.0085813115471055496 0.036914905289062834 0 -0.0087348573502497931 0.03744925616245668 0 -0.0097752737784929846 0.036275677260534309 0 -0.015257735130681946 0.036052872124899445 0 -0.014769298540191227 0.036154026163855706 0 -0.014572484445555357 0.036104903506757033 0 -0.015257735130681946 0.036052872124899445 0 -0.014572484445555357 0.036104903506757033 0 -0.015438154215818123 0.035767398610687347 0 -0.015257735130681946 0.036052872124899445 0 -0.015325141021631917 0.03613516867977469 0 -0.016248671507146449 0.035856199996485524 0 -0.015257735130681946 0.036052872124899445 0 -0.015325141021631917 0.03613516867977469 0 -0.01496517943969485 0.036161306173373778 0 -0.015021795632197811 0.03615067253414303 0 -0.015325141021631917 0.03613516867977469 0 -0.015219266256218254 0.036139923997144864 0 -0.015021795632197811 0.03615067253414303 0 -0.015325141021631917 0.03613516867977469 0 -0.01496517943969485 0.036161306173373778 0 -0.015257735130681946 0.036052872124899445 0 -0.01496517943969485 0.036161306173373778 0 -0.014769298540191227 0.036154026163855706 0 -0.01496517943969485 0.036161306173373778 0 -0.014769298540191227 0.036154026163855706 0 -0.014644482169309792 0.036170942690908793 0 -0.014712073856243773 0.036140396344601082 0 -0.01496517943969485 0.036161306173373778 0 -0.014644482169309792 0.036170942690908793 0 -0.014769298540191227 0.036154026163855706 0 -0.014357951232813543 0.036202362017455171 0 -0.014572484445555357 0.036104903506757033 0 -0.014470605963136273 0.036132750760085271 0 -0.014644482169309792 0.036170942690908793 0 -0.014357951232813543 0.036202362017455171 0 -0.014769298540191227 0.036154026163855706 0 -0.014644482169309792 0.036170942690908793 0 -0.014357951232813543 0.036202362017455171 0 -0.014035912755043742 0.036202814710350653 0 -0.014357951232813543 0.036202362017455171 0 -0.013932640258182442 0.03618456401322924 0 -0.013349372142217084 0.036041616947986146 0 -0.013932640258182442 0.03618456401322924 0 -0.014002838005633749 0.035831886114263065 0 -0.014357951232813543 0.036202362017455171 0 -0.013932640258182442 0.03618456401322924 0 -0.014572484445555357 0.036104903506757033 0 -0.013932640258182442 0.03618456401322924 0 -0.014572484445555357 0.036104903506757033 0 -0.014002838005633749 0.035831886114263065 0 -0.014572484445555357 0.036104903506757033 0 -0.014002838005633749 0.035831886114263065 0 -0.015438154215818123 0.035767398610687347 0 -0.012943110621218907 0.035659796190714049 0 -0.014002838005633749 0.035831886114263065 0 -0.013341896484403355 0.034999645398755018 0 -0.014002838005633749 0.035831886114263065 0 -0.013341896484403355 0.034999645398755018 0 -0.015393196652086083 0.034999579674423249 0 -0.014002838005633749 0.035831886114263065 0 -0.015393196652086083 0.034999579674423249 0 -0.015438154215818123 0.035767398610687347 0 -0.015393196652086083 0.034999579674423249 0 -0.015438154215818123 0.035767398610687347 0 -0.017441206151870142 0.034999982085190673 0 -0.015257735130681946 0.036052872124899445 0 -0.015438154215818123 0.035767398610687347 0 -0.016248671507146449 0.035856199996485524 0 -0.015438154215818123 0.035767398610687347 0 -0.017441206151870142 0.034999982085190673 0 -0.016248671507146449 0.035856199996485524 0 -0.017444546225405356 0.034999987214811422 0 -0.017969630248829898 0.035555668640322842 0 -0.019019603351694642 0.034999939104007435 0 -0.017444546225405356 0.034999987214811422 0 -0.017969630248829898 0.035555668640322842 0 -0.017919986366410907 0.036713517597428101 0 -0.017443945092390917 0.03500026542793927 0 -0.017136254561240172 0.036080645370149336 0 -0.017969630248829898 0.035555668640322842 0 -0.019066248213485629 0.036115060464772267 0 -0.018528210347626944 0.036307627697758665 0 -0.017969630248829898 0.035555668640322842 0 -0.019019603351694642 0.034999939104007435 0 -0.019066248213485629 0.036115060464772267 0 -0.019019603351694642 0.034999939104007435 0 -0.019066248213485629 0.036115060464772267 0 -0.019937251840323984 0.035687897065304258 0 -0.019066248213485629 0.036115060464772267 0 -0.020057128776313486 0.036641521572428129 0 -0.019937251840323984 0.035687897065304258 0 -0.019066248213485629 0.036115060464772267 0 -0.018769520726703282 0.036640492894780573 0 -0.018528210347626944 0.036307627697758665 0 -0.019066248213485629 0.036115060464772267 0 -0.018769520726703282 0.036640492894780573 0 -0.019335119924248249 0.036862909293547221 0 -0.018769520726703282 0.036640492894780573 0 -0.019335119924248249 0.036862909293547221 0 -0.018966845410526643 0.037289197711491466 0 -0.019066248213485629 0.036115060464772267 0 -0.019335119924248249 0.036862909293547221 0 -0.020057128776313486 0.036641521572428129 0 -0.018006418261916683 0.035858361617657548 0 -0.018061165612831588 0.036996894607267045 0 -0.017969630248829898 0.035555668640322842 0 -0.017919986366410907 0.036713517597428101 0 -0.018142437554682693 0.036980919475195911 0 -0.017969630248829898 0.035555668640322842 0 -0.018528210347626944 0.036307627697758665 0 -0.018312198057014006 0.036910177699023779 0 -0.018769520726703282 0.036640492894780573 0 -0.018528210347626944 0.036307627697758665 0 -0.018312198057014006 0.036910177699023779 0 -0.018769520726703282 0.036640492894780573 0 -0.018312198057014006 0.036910177699023779 0 -0.018966845410526643 0.037289197711491466 0 -0.018312198057014006 0.036910177699023779 0 -0.018966845410526643 0.037289197711491466 0 -0.018486235806173212 0.038252163687416692 0 -0.015325141021631917 0.03613516867977469 0 -0.016248671507146449 0.035856199996485524 0 -0.01546998724596072 0.03611130491979362 0 -0.017136254561240172 0.036080645370149336 0 -0.017400115864614034 0.037380402977021561 0 -0.018061165612831588 0.036996894607267045 0 -0.017400115864614034 0.037380402977021561 0 -0.017919986366410907 0.036713517597428101 0 -0.018142437554682693 0.036980919475195911 0 -0.018290667011410727 0.038350436166758144 0 -0.019335119924248249 0.036862909293547221 0 -0.019926791104027376 0.03781415726363186 0 -0.020057128776313486 0.036641521572428129 0 -0.019335119924248249 0.036862909293547221 0 -0.018966845410526643 0.037289197711491466 0 -0.019926791104027376 0.03781415726363186 0 -0.018966845410526643 0.037289197711491466 0 -0.018486235806173212 0.038252163687416692 0 -0.019926791104027376 0.03781415726363186 0 -0.019559530668255984 0.037894556136017221 0 -0.017582108798122494 0.037512040207555435 0 -0.019926791104027376 0.03781415726363186 0 -0.019459561216979157 0.038623413973266033 0 -0.020046778141981428 0.038455191657512336 0 -0.018486235806173212 0.038252163687416692 0 -0.019926791104027376 0.03781415726363186 0 -0.018736451763648736 0.039393028253343398 0 -0.017400115864614034 0.037380402977021561 0 -0.016843600057063913 0.036973202079831763 0 -0.015325141021631917 0.03613516867977469 0 -0.01546998724596072 0.03611130491979362 0 -0.015219266256218254 0.036139923997144864 0 -0.01546998724596072 0.03611130491979362 0 -0.015209235679971051 0.036169202001856117 0 -0.015219266256218254 0.036139923997144864 0 -0.017400115864614034 0.037380402977021561 0 -0.017582108798122494 0.037512040207555435 0 -0.020925101337735941 0.037958599679983294 0 -0.021407657766366234 0.038148343811979485 0 -0.021021218608796514 0.038610172083773923 0 -0.020925101337735941 0.037958599679983294 0 -0.020490220497613173 0.038341891247840841 0 -0.021021218608796514 0.038610172083773923 0 -0.020490220497613173 0.038341891247840841 0 -0.019926791104027376 0.03781415726363186 0 -0.020046778141981428 0.038455191657512336 0 -0.020925101337735941 0.037958599679983294 0 -0.020490220497613173 0.038341891247840841 0 -0.019926791104027376 0.03781415726363186 0 -0.019926791104027376 0.03781415726363186 0 -0.020854400440101447 0.037166355191895165 0 -0.020057128776313486 0.036641521572428129 0 -0.020925101337735941 0.037958599679983294 0 -0.019926791104027376 0.03781415726363186 0 -0.020854400440101447 0.037166355191895165 0 -0.021118140047031556 0.037264807199798203 0 -0.021982994490345704 0.037561984385987901 0 -0.020925101337735941 0.037958599679983294 0 -0.020854400440101447 0.037166355191895165 0 -0.021621631274303995 0.037502057334284356 0 -0.020854400440101447 0.037166355191895165 0 -0.021459158678059798 0.036046733651486876 0 -0.022340609769818089 0.03772367123384434 0 -0.020854400440101447 0.037166355191895165 0 -0.021459158678059798 0.036046733651486876 0 -0.020057128776313486 0.036641521572428129 0 -0.021459158678059798 0.036046733651486876 0 -0.020057128776313486 0.036641521572428129 0 -0.019937251840323984 0.035687897065304258 0 -0.021459158678059798 0.036046733651486876 0 -0.020594779737221968 0.035000005623946902 0 -0.019937251840323984 0.035687897065304258 0 -0.019019603351694642 0.034999939104007435 0 -0.020594779737221968 0.035000005623946902 0 -0.019937251840323984 0.035687897065304258 0 -0.021459158678059798 0.036046733651486876 0 -0.020594779737221968 0.035000005623946902 0 -0.022169695640977326 0.034999805746215223 0 -0.021459158678059798 0.036046733651486876 0 -0.022169695640977326 0.034999805746215223 0 -0.022767375438174118 0.035839015693940934 0 -0.022170598427910734 0.035000225285374414 0 -0.023673057214758798 0.035563340321628105 0 -0.022169695640977326 0.034999805746215223 0 -0.022767375438174118 0.035839015693940934 0 -0.023623398099024924 0.035503957608828837 0 -0.022169949213276863 0.034999996378458652 0 -0.024048250041453573 0.035000000439017631 0 -0.023692787388793865 0.035621960610230645 0 -0.022767375438174118 0.035839015693940934 0 -0.023623398099024924 0.035503957608828837 0 -0.023454195483421977 0.036259667691313828 0 -0.022767375438174118 0.035839015693940934 0 -0.023454195483421977 0.036259667691313828 0 -0.022785112260977538 0.03656509370584482 0 -0.023454195483421977 0.036259667691313828 0 -0.023739315725702481 0.037041705642209252 0 -0.022785112260977538 0.03656509370584482 0 -0.021459158678059798 0.036046733651486876 0 -0.022767375438174118 0.035839015693940934 0 -0.022785112260977538 0.03656509370584482 0 -0.021459158678059798 0.036046733651486876 0 -0.022785112260977538 0.03656509370584482 0 -0.022340609769818089 0.03772367123384434 0 -0.025926694438120124 0.034999932128552444 0 -0.026212468975379755 0.036016910605411373 0 -0.025243242498566635 0.036220485134142895 0 -0.024048250041453573 0.035000000439017631 0 -0.023692787388793865 0.035621960610230645 0 -0.025243242498566635 0.036220485134142895 0 -0.023623398099024924 0.035503957608828837 0 -0.023454195483421977 0.036259667691313828 0 -0.025206153218909094 0.036060845089949257 0 -0.024048250041453573 0.035000000439017631 0 -0.025926694438120124 0.034999932128552444 0 -0.025243242498566635 0.036220485134142895 0 -0.023673057214758798 0.035563340321628105 0 -0.025255050551663653 0.036144574781500773 0 -0.023454195483421977 0.036259667691313828 0 -0.023739315725702481 0.037041705642209252 0 -0.025206153218909094 0.036060845089949257 0 -0.023739315725702481 0.037041705642209252 0 -0.025206153218909094 0.036060845089949257 0 -0.025061237314583276 0.037535533044004227 0 -0.025255050551663653 0.036144574781500773 0 -0.02645262944765309 0.036579790247599712 0 -0.025206153218909094 0.036060845089949257 0 -0.026189767200618184 0.037105962956791506 0 -0.02682916496809459 0.036668771169613409 0 -0.026212468975379755 0.036016910605411373 0 -0.025243242498566635 0.036220485134142895 0 -0.02682916496809459 0.036668771169613409 0 -0.025206153218909094 0.036060845089949257 0 -0.026189767200618184 0.037105962956791506 0 -0.025061237314583276 0.037535533044004227 0 -0.026144005066231404 0.037911107909568281 0 -0.025061237314583276 0.037535533044004227 0 -0.025328854705379603 0.038832789629715626 0 -0.026144005066231404 0.037911107909568281 0 -0.026189767200618184 0.037105962956791506 0 -0.025061237314583276 0.037535533044004227 0 -0.023739315725702481 0.037041705642209252 0 -0.025061237314583276 0.037535533044004227 0 -0.023813473328527925 0.038274104935089343 0 -0.022690224484069346 0.038246529149104661 0 -0.02326130058908274 0.038078341239007538 0 -0.022426633810678338 0.03778688697089163 0 -0.025951389091476634 0.037518564189308296 0 -0.023126172280823368 0.037770999042227998 0 -0.025061237314583276 0.037535533044004227 0 -0.025328854705379603 0.038832789629715626 0 -0.023813473328527925 0.038274104935089343 0 -0.02797634592679302 0.037119922701538133 0 -0.027721929832062776 0.036659806415106785 0 -0.027255405648632079 0.036869527894011843 0 -0.027158236321529264 0.037018201732403763 0 -0.027298269437725078 0.036940769003436243 0 -0.027158510431371803 0.036987138915491928 0 -0.025951389091476634 0.037518564189308296 0 -0.027164806539333921 0.037424909687054038 0 -0.027298269437725078 0.036940769003436243 0 -0.027255405648632079 0.036869527894011843 0 -0.027158510431371803 0.036987138915491928 0 -0.026544854683556773 0.037324241096641439 0 -0.025951389091476634 0.037518564189308296 0 -0.023739315725702481 0.037041705642209252 0 -0.022340609769818089 0.03772367123384434 0 -0.023813473328527925 0.038274104935089343 0 -0.021982994490345704 0.037561984385987901 0 -0.023126172280823368 0.037770999042227998 0 -0.023739315725702481 0.037041705642209252 0 -0.022785112260977538 0.03656509370584482 0 -0.022340609769818089 0.03772367123384434 0 -0.022690224484069346 0.038246529149104661 0 -0.022426633810678338 0.03778688697089163 0 -0.022198849420037921 0.038404523092316269 0 -0.022426633810678338 0.03778688697089163 0 -0.021840812015359923 0.03805072833120738 0 -0.022198849420037921 0.038404523092316269 0 -0.021621631274303995 0.037502057334284356 0 -0.022426633810678338 0.03778688697089163 0 -0.021840812015359923 0.03805072833120738 0 -0.021621631274303995 0.037502057334284356 0 -0.021840812015359923 0.03805072833120738 0 -0.021407657766366234 0.038148343811979485 0 -0.021840812015359923 0.03805072833120738 0 -0.021407657766366234 0.038148343811979485 0 -0.021632955746839915 0.038610413524727084 0 -0.020925101337735941 0.037958599679983294 0 -0.021621631274303995 0.037502057334284356 0 -0.021407657766366234 0.038148343811979485 0 -0.021407657766366234 0.038148343811979485 0 -0.021632955746839915 0.038610413524727084 0 -0.021021218608796514 0.038610172083773923 0 -0.021632955746839915 0.038610413524727084 0 -0.021342902595772605 0.039036465713852622 0 -0.021666009083987425 0.039100714415897977 0 -0.021632955746839915 0.038610413524727084 0 -0.021342902595772605 0.039036465713852622 0 -0.021021218608796514 0.038610172083773923 0 -0.021632955746839915 0.038610413524727084 0 -0.021968339922293412 0.038982263279195691 0 -0.021666009083987425 0.039100714415897977 0 -0.021840812015359923 0.03805072833120738 0 -0.021632955746839915 0.038610413524727084 0 -0.022198849420037921 0.038404523092316269 0 -0.022198849420037921 0.038404523092316269 0 -0.021968339922293412 0.038982263279195691 0 -0.022601674414610022 0.038812631947755659 0 -0.022690224484069346 0.038246529149104661 0 -0.022198849420037921 0.038404523092316269 0 -0.022601674414610022 0.038812631947755659 0 -0.021632955746839915 0.038610413524727084 0 -0.022198849420037921 0.038404523092316269 0 -0.021968339922293412 0.038982263279195691 0 -0.029093774570985033 0.035532747059580011 0 -0.028681958802493281 0.036190718296446482 0 -0.028672526074855986 0.035666302994164623 0 -0.021968339922293412 0.038982263279195691 0 -0.021946922342507787 0.039517563433238166 0 -0.022601674414610022 0.038812631947755659 0 -0.025446571557279654 0.036781070112035283 0 -0.025533714437486303 0.037552255610779524 0 -0.021968339922293412 0.038982263279195691 0 -0.021946922342507787 0.039517563433238166 0 -0.021763918902808457 0.03944845424686852 0 -0.025446571557279654 0.036781070112035283 0 -0.024906017905600972 0.036806856672202209 0 -0.021937201493548275 0.039507975896344673 0 -0.021763918902808457 0.03944845424686852 0 -0.021550223419680391 0.039528884133194143 0 -0.021763918902808457 0.03944845424686852 0 -0.021514151741904207 0.039303999823012428 0 -0.021666009083987425 0.039100714415897977 0 -0.021763918902808457 0.03944845424686852 0 -0.021514151741904207 0.039303999823012428 0 -0.021550223419680391 0.039528884133194143 0 -0.021514151741904207 0.039303999823012428 0 -0.021342902595772605 0.039036465713852622 0 -0.021248196249147963 0.039403441627653149 0 -0.021514151741904207 0.039303999823012428 0 -0.021550223419680391 0.039528884133194143 0 -0.021248196249147963 0.039403441627653149 0 -0.021514151741904207 0.039303999823012428 0 -0.021342902595772605 0.039036465713852622 0 -0.021666009083987425 0.039100714415897977 0 -0.021968339922293412 0.038982263279195691 0 -0.021763918902808457 0.03944845424686852 0 -0.021666009083987425 0.039100714415897977 0 -0.02797634592679302 0.037119922701538133 0 -0.027721929832062776 0.036659806415106785 0 -0.028085345844664551 0.036340902812442705 0 -0.027533617368720502 0.036253897474349414 0 -0.027721929832062776 0.036659806415106785 0 -0.027255405648632079 0.036869527894011843 0 -0.027533617368720502 0.036253897474349414 0 -0.027721929832062776 0.036659806415106785 0 -0.028085345844664551 0.036340902812442705 0 -0.025951389091476634 0.037518564189308296 0 -0.025533714437486303 0.037552255610779524 0 -0.022690224484069346 0.038246529149104661 0 -0.02326130058908274 0.038078341239007538 0 -0.022601674414610022 0.038812631947755659 0 -0.02797634592679302 0.037119922701538133 0 -0.028085345844664551 0.036340902812442705 0 -0.028681958802493281 0.036190718296446482 0 -0.028085345844664551 0.036340902812442705 0 -0.028681958802493281 0.036190718296446482 0 -0.028343795645349609 0.035577431183038827 0 -0.028681958802493281 0.036190718296446482 0 -0.028672526074855986 0.035666302994164623 0 -0.028343795645349609 0.035577431183038827 0 -0.028672526074855986 0.035666302994164623 0 -0.028343795645349609 0.035577431183038827 0 -0.028601280741608889 0.035421148699741521 0 -0.027533617368720502 0.036253897474349414 0 -0.028085345844664551 0.036340902812442705 0 -0.028343795645349609 0.035577431183038827 0 -0.028435458687632857 0.035392422569313749 0 -0.028343795645349609 0.035577431183038827 0 -0.0284240833178361 0.035498676295823227 0 -0.028060462190544352 0.035872401875262395 0 -0.028251607215511353 0.035652862513403064 0 -0.028444911480585911 0.035509599489589233 0 -0.028383328454016768 0.035509730821129619 0 -0.028521320151292325 0.035572711290353602 0 -0.028343795645349609 0.035577431183038827 0 -0.0284240833178361 0.035498676295823227 0 -0.028385172292555945 0.035467281344653351 0 -0.0284240833178361 0.035498676295823227 0 -0.028444911480585911 0.035509599489589233 0 -0.028385172292555945 0.035467281344653351 0 -0.028949062446611565 0.033546140446945906 0 -0.030425426438093175 0.032690442606715005 0 -0.030159849514864261 0.033265194448083187 0 -0.029030470973325249 0.032838461189733957 0 -0.028401771877047385 0.033557838889548837 0 -0.030425426438093175 0.032690442606715005 0 -0.031440636738408911 0.030191784422363078 0 -0.030425426438093175 0.032690442606715005 0 -0.028694694793607763 0.034559195195032304 0 -0.028343795645349609 0.035577431183038827 0 -0.028385172292555945 0.035467281344653351 0 -0.028601280741608889 0.035421148699741521 0 -0.034290742133102868 0.02578753414301968 0 -0.032990564470270177 0.025945856940189551 0 -0.033665766908917531 0.026756541995311887 0 -0.030425426438093175 0.032690442606715005 0 -0.031824011463546763 0.031252197449569939 0 -0.034290742133102868 0.02578753414301968 0 -0.03536082880429435 0.026264427722113039 0 -0.034900507061904236 0.027040877865661381 0 -0.034290742133102868 0.02578753414301968 0 -0.034900507061904236 0.027040877865661381 0 -0.033665766908917531 0.026756541995311887 0 -0.021937201493548275 0.039507975896344673 0 -0.021550223419680391 0.039528884133194143 0 -0.021270634158995761 0.039798807775552489 0 -0.027902400440012711 0.032419628772490022 0 -0.028401771877047385 0.033557838889548837 0 -0.026648297544286777 0.033846674291337919 0 -0.025446571557279654 0.036781070112035283 0 -0.025825306749650143 0.032835990443682385 0 -0.021937201493548275 0.039507975896344673 0 -0.021239584020604597 0.040255480343440952 0 -0.021270634158995761 0.039798807775552489 0 -0.021550223419680391 0.039528884133194143 0 -0.021270634158995761 0.039798807775552489 0 -0.021248196249147963 0.039403441627653149 0 -0.027902400440012711 0.032419628772490022 0 -0.029030470973325249 0.032838461189733957 0 -0.028401771877047385 0.033557838889548837 0 -0.025446571557279654 0.036781070112035283 0 -0.028694694793607763 0.034559195195032304 0 -0.029093774570985033 0.035532747059580011 0 -0.028672526074855986 0.035666302994164623 0 -0.028601280741608889 0.035421148699741521 0 -0.032990564470270177 0.025945856940189551 0 -0.032531238930408032 0.026947886554727754 0 -0.033665766908917531 0.026756541995311887 0 -0.032990564470270177 0.025945856940189551 0 -0.031667260031008233 0.02615169218832648 0 -0.032531238930408032 0.026947886554727754 0 -0.031440636738408911 0.030191784422363078 0 -0.025825306749650143 0.032835990443682385 0 -0.023877251395260552 0.031149438467973793 0 -0.022556460032607407 0.031362532774923471 0 -0.022930177560445707 0.032202840708351783 0 -0.025825306749650143 0.032835990443682385 0 -0.021397786740644055 0.035040592501216911 0 -0.025825306749650143 0.032835990443682385 0 -0.026800178112468851 0.029159907290208103 0 -0.021239584020604597 0.040255480343440952 0 -0.020540700737237148 0.03988347802715831 0 -0.020561110124856681 0.040359505252020478 0 -0.021270634158995761 0.039798807775552489 0 -0.020864145774752884 0.039528806053705186 0 -0.020540700737237148 0.03988347802715831 0 -0.021239584020604597 0.040255480343440952 0 -0.021270634158995761 0.039798807775552489 0 -0.020540700737237148 0.03988347802715831 0 -0.021270634158995761 0.039798807775552489 0 -0.020864145774752884 0.039528806053705186 0 -0.021248196249147963 0.039403441627653149 0 -0.020540700737237148 0.03988347802715831 0 -0.019680252576472282 0.039533581824454683 0 -0.0203852790765243 0.039312495558619605 0 -0.020864145774752884 0.039528806053705186 0 -0.020540700737237148 0.03988347802715831 0 -0.0203852790765243 0.039312495558619605 0 -0.021397786740644055 0.035040592501216911 0 -0.019125148274344885 0.035044166131090709 0 -0.020540700737237148 0.03988347802715831 0 -0.020561110124856681 0.040359505252020478 0 -0.019904693384484959 0.040456298944960202 0 -0.022556460032607407 0.031362532774923471 0 -0.021838543102659494 0.031700734817561152 0 -0.021227328973391305 0.031593462441267539 0 -0.022335868969684373 0.031897497050826347 0 -0.022556460032607407 0.031362532774923471 0 -0.022930177560445707 0.032202840708351783 0 -0.022335868969684373 0.031897497050826347 0 -0.022556460032607407 0.031362532774923471 0 -0.021838543102659494 0.031700734817561152 0 -0.021838543102659494 0.031700734817561152 0 -0.021227328973391305 0.031593462441267539 0 -0.021260748927753464 0.031750245071101947 0 -0.017680786456246943 0.033041408160904034 0 -0.018270060908894641 0.032999037000224093 0 -0.017601039789465891 0.032670687699922721 0 -0.021838543102659494 0.031700734817561152 0 -0.021289682139492085 0.031743044345019428 0 -0.021367110269993505 0.032076372552118898 0 -0.014831236389154331 0.035672067275960541 0 -0.014753204667869894 0.035616587072137489 0 -0.014773337807928605 0.035557689392661671 0 -0.019125148274344885 0.035044166131090709 0 -0.016879712712817293 0.035783254943867256 0 -0.020003377915694034 0.033445911101365022 0 -0.018758116232417379 0.033782253261376155 0 -0.018758116232417379 0.033782253261376155 0 -0.019106921412295731 0.032299371913282575 0 -0.014831236389154331 0.035672067275960541 0 -0.014836151221174624 0.035686150468553633 0 -0.014772007830178837 0.035693623175858842 0 -0.019125148274344885 0.035044166131090709 0 -0.018758116232417379 0.033782253261376155 0 -0.014831236389154331 0.035672067275960541 0 -0.014760377005402718 0.035683694051633692 0 -0.014739609703714964 0.035652087581679356 0 -0.014831236389154331 0.035672067275960541 0 -0.014772007830178837 0.035693623175858842 0 -0.014760377005402718 0.035683694051633692 0 -0.018758116232417379 0.033782253261376155 0 -0.014249790591599927 0.033018576673420647 0 -0.014249790591599927 0.033018576673420647 0 -0.014303859038950612 0.033104749636567635 0 -0.014831236389154331 0.035672067275960541 0 -0.014753204667869894 0.035616587072137489 0 -0.014739609703714964 0.035652087581679356 0 -0.014531325479490478 0.035718519171091472 0 -0.014771322324357652 0.035696264166602217 0 -0.014691999342228628 0.035666658270430918 0 -0.011056984305836926 0.034622025494961219 0 -0.014249790591599927 0.033018576673420647 0 -0.014531325479490478 0.035718519171091472 0 -0.014691999342228628 0.035666658270430918 0 -0.014633103518464878 0.035624153759640509 0 -0.014760377005402718 0.035683694051633692 0 -0.014691999342228628 0.035666658270430918 0 -0.014739609703714964 0.035652087581679356 0 -0.014771322324357652 0.035696264166602217 0 -0.014760377005402718 0.035683694051633692 0 -0.014691999342228628 0.035666658270430918 0 -0.014691999342228628 0.035666658270430918 0 -0.014716061522850399 0.035628118572080925 0 -0.014739609703714964 0.035652087581679356 0 -0.014753204667869894 0.035616587072137489 0 -0.014716061522850399 0.035628118572080925 0 -0.014739609703714964 0.035652087581679356 0 -0.014753204667869894 0.035616587072137489 0 -0.014725267958228698 0.035605317258249877 0 -0.014737932055451064 0.035581755174075379 0 -0.014753204667869894 0.035616587072137489 0 -0.014716061522850399 0.035628118572080925 0 -0.014725267958228698 0.035605317258249877 0 -0.014716061522850399 0.035628118572080925 0 -0.014725267958228698 0.035605317258249877 0 -0.014693420109864486 0.035594768002528872 0 -0.014716061522850399 0.035628118572080925 0 -0.014633103518464878 0.035624153759640509 0 -0.014693420109864486 0.035594768002528872 0 -0.014691999342228628 0.035666658270430918 0 -0.014716061522850399 0.035628118572080925 0 -0.014633103518464878 0.035624153759640509 0 -0.014721380637004667 0.035512768811057242 0 -0.014753152389976151 0.035555010742538334 0 -0.014738949404979537 0.035443512556308385 0 -0.015335607789075249 0.035480909935393774 0 -0.015889790138876789 0.035846302849646662 0 -0.014633103518464878 0.035624153759640509 0 -0.014637020693493288 0.0355600776748808 0 -0.014693420109864486 0.035594768002528872 0 -0.014637020693493288 0.0355600776748808 0 -0.014705371637476407 0.035554832114481169 0 -0.014693420109864486 0.035594768002528872 0 -0.014705371637476407 0.035554832114481169 0 -0.014693420109864486 0.035594768002528872 0 -0.014737932055451064 0.035581755174075379 0 -0.014725267958228698 0.035605317258249877 0 -0.014693420109864486 0.035594768002528872 0 -0.014737932055451064 0.035581755174075379 0 -0.014705371637476407 0.035554832114481169 0 -0.014737932055451064 0.035581755174075379 0 -0.014753152389976151 0.035555010742538334 0 -0.014705371637476407 0.035554832114481169 0 -0.014721380637004667 0.035512768811057242 0 -0.014753152389976151 0.035555010742538334 0 -0.014721380637004667 0.035512768811057242 0 -0.014683428151113863 0.035516189374166895 0 -0.014701260388425742 0.035465828605932746 0 -0.014705371637476407 0.035554832114481169 0 -0.014721380637004667 0.035512768811057242 0 -0.014683428151113863 0.035516189374166895 0 -0.014637020693493288 0.0355600776748808 0 -0.014705371637476407 0.035554832114481169 0 -0.014683428151113863 0.035516189374166895 0 -0.014631301741967284 0.035457450715381138 0 -0.014637020693493288 0.0355600776748808 0 -0.014683428151113863 0.035516189374166895 0 -0.017818148207484896 0.036644086047910314 0 -0.017843089237885228 0.036401234421577902 0 -0.017961923418256181 0.036871170118956104 0 -0.017713603394305551 0.035929202990396494 0 -0.017818148207484896 0.036644086047910314 0 -0.017843089237885228 0.036401234421577902 0 -0.014753152389976151 0.035555010742538334 0 -0.014773337807928605 0.035557689392661671 0 -0.014758731191733215 0.035488172391488437 0 -0.019125148274344885 0.035044166131090709 0 -0.018845585751309138 0.038512511674657239 0 -0.016879712712817293 0.035783254943867256 0 -0.015889790138876789 0.035846302849646662 0 -0.020540700737237148 0.03988347802715831 0 -0.019904693384484959 0.040456298944960202 0 -0.019680252576472282 0.039533581824454683 0 -0.014753204667869894 0.035616587072137489 0 -0.014737932055451064 0.035581755174075379 0 -0.014773337807928605 0.035557689392661671 0 -0.014737932055451064 0.035581755174075379 0 -0.014753152389976151 0.035555010742538334 0 -0.014773337807928605 0.035557689392661671 0 -0.017818148207484896 0.036644086047910314 0 -0.017961923418256181 0.036871170118956104 0 -0.017939488871877268 0.037345012343770807 0 -0.018845585751309138 0.038512511674657239 0 -0.017582108798122494 0.037512040207555435 0 -0.019680252576472282 0.039533581824454683 0 -0.020010067524958396 0.038948359916278735 0 -0.0203852790765243 0.039312495558619605 0 -0.019680252576472282 0.039533581824454683 0 -0.020010067524958396 0.038948359916278735 0 -0.019459561216979157 0.038623413973266033 0 -0.014631301741967284 0.035457450715381138 0 -0.014731234709933283 0.035405634490077754 0 -0.014739609310894864 0.035350856248412069 0 -0.01506214815249376 0.035992451605637181 0 -0.016843600057063913 0.036973202079831763 0 -0.014631301741967284 0.035457450715381138 0 -0.014683428151113863 0.035516189374166895 0 -0.014701260388425742 0.035465828605932746 0 -0.014631301741967284 0.035457450715381138 0 -0.014701260388425742 0.035465828605932746 0 -0.014731234709933283 0.035405634490077754 0 -0.014721380637004667 0.035512768811057242 0 -0.014701260388425742 0.035465828605932746 0 -0.014738949404979537 0.035443512556308385 0 -0.014742774043431097 0.035446849398156677 0 -0.014731234709933283 0.035405634490077754 0 -0.014739609310894864 0.035350856248412069 0 -0.014701260388425742 0.035465828605932746 0 -0.014738949404979537 0.035443512556308385 0 -0.014731234709933283 0.035405634490077754 0 -0.015889790138876789 0.035846302849646662 0 -0.016843600057063913 0.036973202079831763 0 -0.015889790138876789 0.035846302849646662 0 -0.01571285579243175 0.035626494218112065 0 -0.015033002569876079 0.036145094477784127 0 -0.01486702941216762 0.036140548648394714 0 -0.015209235679971051 0.036169202001856117 0 -0.01715863112975128 0.037430139666590916 0 -0.017134838772203186 0.037217871400439306 0 -0.017116074468173773 0.037243175833358191 0 -0.017961923418256181 0.036871170118956104 0 -0.017988210067283329 0.037282554296828425 0 -0.017939488871877268 0.037345012343770807 0 -0.016843600057063913 0.036973202079831763 0 -0.017582108798122494 0.037512040207555435 0 -0.015033002569876079 0.036145094477784127 0 -0.015209235679971051 0.036169202001856117 0 -0.015219266256218254 0.036139923997144864 0 -0.020010067524958396 0.038948359916278735 0 -0.019459561216979157 0.038623413973266033 0 -0.020046778141981428 0.038455191657512336 0 -0.020010067524958396 0.038948359916278735 0 -0.020046778141981428 0.038455191657512336 0 -0.020511135473003803 0.038832684291278299 0 -0.020490220497613173 0.038341891247840841 0 -0.020046778141981428 0.038455191657512336 0 -0.020511135473003803 0.038832684291278299 0 -0.020490220497613173 0.038341891247840841 0 -0.020511135473003803 0.038832684291278299 0 -0.021021218608796514 0.038610172083773923 0 -0.021342902595772605 0.039036465713852622 0 -0.021021218608796514 0.038610172083773923 0 -0.020893623079761472 0.039123363110451885 0 -0.020511135473003803 0.038832684291278299 0 -0.021021218608796514 0.038610172083773923 0 -0.020893623079761472 0.039123363110451885 0 -0.021342902595772605 0.039036465713852622 0 -0.020893623079761472 0.039123363110451885 0 -0.021248196249147963 0.039403441627653149 0 -0.020864145774752884 0.039528806053705186 0 -0.020893623079761472 0.039123363110451885 0 -0.021248196249147963 0.039403441627653149 0 -0.020864145774752884 0.039528806053705186 0 -0.020893623079761472 0.039123363110451885 0 -0.0203852790765243 0.039312495558619605 0 -0.020010067524958396 0.038948359916278735 0 -0.020511135473003803 0.038832684291278299 0 -0.0203852790765243 0.039312495558619605 0 -0.020511135473003803 0.038832684291278299 0 -0.020893623079761472 0.039123363110451885 0 -0.0203852790765243 0.039312495558619605 0 -0.034994631645660475 0.034998139082990931 0 -0.034150115940359341 0.033707535096873117 0 -0.035097889576334161 0.030804923621169027 0 -0.034994631645660475 0.034998139082990931 0 -0.034999440096995675 0.029229265245812389 0 -0.035097889576334161 0.030804923621169027 0 -0.034150115940359341 0.033707535096873117 0 -0.03481246052412524 0.032086209636029844 0 -0.035097889576334161 0.030804923621169027 0 -0.034674878471651363 0.031318926745638784 0 -0.034838013129838259 0.030230649672804505 0 -0.034994631645660475 0.034998139082990931 0 -0.034150115940359341 0.033707535096873117 0 -0.031262420655511734 0.034997428735007996 0 -0.034150115940359341 0.033707535096873117 0 -0.033345419234788835 0.033738817563485311 0 -0.034232404068667649 0.032494592659636605 0 -0.034150115940359341 0.033707535096873117 0 -0.031262420655511734 0.034997428735007996 0 -0.033345419234788835 0.033738817563485311 0 -0.031250579403550971 0.034999755672135834 0 -0.032483792831720107 0.034765972680130507 0 -0.031262420655511734 0.034997428735007996 0 -0.033345419234788835 0.033738817563485311 0 -0.035138851639119444 0.033638010084852239 0 -0.033345419234788835 0.033738817563485311 0 -0.034232404068667649 0.032494592659636605 0 -0.035138851639119444 0.033638010084852239 0 -0.034232404068667649 0.032494592659636605 0 -0.034923417917043419 0.030677472506523341 0 -0.035508591789582211 0.031783586790861303 0 -0.034627381500138728 0.032029167681498133 0 -0.034674878471651363 0.031318926745638784 0 -0.034150115940359341 0.033707535096873117 0 -0.034232404068667649 0.032494592659636605 0 -0.03481246052412524 0.032086209636029844 0 -0.034377372576983568 0.030586087289245837 0 -0.034923417917043419 0.030677472506523341 0 -0.034848831305010437 0.029815669255196419 0 -0.034232404068667649 0.032494592659636605 0 -0.034377372576983568 0.030586087289245837 0 -0.034923417917043419 0.030677472506523341 0 -0.034923417917043419 0.030677472506523341 0 -0.036457431643340504 0.030506696663067389 0 -0.035508591789582211 0.031783586790861303 0 -0.034923417917043419 0.030677472506523341 0 -0.036457431643340504 0.030506696663067389 0 -0.03524187249233942 0.029740913894079585 0 -0.036457431643340504 0.030506696663067389 0 -0.036902875506437463 0.031666586545912714 0 -0.035508591789582211 0.031783586790861303 0 -0.032860364231343663 0.034342777545105029 0 -0.030609044348505525 0.034087752845295957 0 -0.036457431643340504 0.030506696663067389 0 -0.036902875506437463 0.031666586545912714 0 -0.037800376702753553 0.029894923404376762 0 -0.029099212373924516 0.037617202029484854 0 -0.028857756937091718 0.037235990820453681 0 -0.030126051335900433 0.036424366903564147 0 -0.029099212373924516 0.037617202029484854 0 -0.028857756937091718 0.037235990820453681 0 -0.028448531615621393 0.037727139763800037 0 -0.034232404068667649 0.032494592659636605 0 -0.035508591789582211 0.031783586790861303 0 -0.035138851639119444 0.033638010084852239 0 -0.036902875506437463 0.031666586545912714 0 -0.035508591789582211 0.031783586790861303 0 -0.035138851639119444 0.033638010084852239 0 -0.032860364231343663 0.034342777545105029 0 -0.032483792831720107 0.034765972680130507 0 -0.031249379282073265 0.034999987643570971 0 -0.030126051335900433 0.036424366903564147 0 -0.02952710908144834 0.034999962172117094 0 -0.02952710908144834 0.034999962172117094 0 -0.028871409555956563 0.036053857326998888 0 -0.027805104551328237 0.034999982267826954 0 -0.030126051335900433 0.036424366903564147 0 -0.02952710908144834 0.034999962172117094 0 -0.028871409555956563 0.036053857326998888 0 -0.028857756937091718 0.037235990820453681 0 -0.030126051335900433 0.036424366903564147 0 -0.028871409555956563 0.036053857326998888 0 -0.028857756937091718 0.037235990820453681 0 -0.028871409555956563 0.036053857326998888 0 -0.028015137536321618 0.036503980600343038 0 -0.027602298484789987 0.03654527966337396 0 -0.026982198741193453 0.036322969289080083 0 -0.027185093408240369 0.03685481540800474 0 -0.027602298484789987 0.03654527966337396 0 -0.027804606564983105 0.035000113629670572 0 -0.027099167673423397 0.035830961899552656 0 -0.028871409555956563 0.036053857326998888 0 -0.028015137536321618 0.036503980600343038 0 -0.027805104551328237 0.034999982267826954 0 -0.02789081319616752 0.036455071262741084 0 -0.027804875423945215 0.035000569893180358 0 -0.025926694438120124 0.034999932128552444 0 -0.027804606564983105 0.035000113629670572 0 -0.027099167673423397 0.035830961899552656 0 -0.025926694438120124 0.034999932128552444 0 -0.026212468975379755 0.036016910605411373 0 -0.027099167673423397 0.035830961899552656 0 -0.026212468975379755 0.036016910605411373 0 -0.026982198741193453 0.036322969289080083 0 -0.02682916496809459 0.036668771169613409 0 -0.026212468975379755 0.036016910605411373 0 -0.027099167673423397 0.035830961899552656 0 -0.026982198741193453 0.036322969289080083 0 -0.027602298484789987 0.03654527966337396 0 -0.027099167673423397 0.035830961899552656 0 -0.026982198741193453 0.036322969289080083 0 -0.026982198741193453 0.036322969289080083 0 -0.02682916496809459 0.036668771169613409 0 -0.027185093408240369 0.03685481540800474 0 -0.02697938407312158 0.036881431199814033 0 -0.02682916496809459 0.036668771169613409 0 -0.027185093408240369 0.03685481540800474 0 -0.026189767200618184 0.037105962956791506 0 -0.02697938407312158 0.036881431199814033 0 -0.02682916496809459 0.036668771169613409 0 -0.026144005066231404 0.037911107909568281 0 -0.026189767200618184 0.037105962956791506 0 -0.02697938407312158 0.036881431199814033 0 -0.026544854683556773 0.037324241096641439 0 -0.026848777304876992 0.037034243701915368 0 -0.027158236321529264 0.037018201732403763 0 -0.027133485186840962 0.037018315396455698 0 -0.027158510431371803 0.036987138915491928 0 -0.027158236321529264 0.037018201732403763 0 -0.02697938407312158 0.036881431199814033 0 -0.027133485186840962 0.037018315396455698 0 -0.02697938407312158 0.036881431199814033 0 -0.027133485186840962 0.037018315396455698 0 -0.027185093408240369 0.03685481540800474 0 -0.028857756937091718 0.037235990820453681 0 -0.028015137536321618 0.036503980600343038 0 -0.028126950927843855 0.037949592206360752 0 -0.02789081319616752 0.036455071262741084 0 -0.028424421080536749 0.037007460225022985 0 -0.027602298484789987 0.03654527966337396 0 -0.027185093408240369 0.03685481540800474 0 -0.027290382856980041 0.037090373040388085 0 -0.028497016980498127 0.03724011407529005 0 -0.028424421080536749 0.037007460225022985 0 -0.027133485186840962 0.037018315396455698 0 -0.027185093408240369 0.03685481540800474 0 -0.027290382856980041 0.037090373040388085 0 -0.029099212373924516 0.037617202029484854 0 -0.028448531615621393 0.037727139763800037 0 -0.028490933525903407 0.038366958217550505 0 -0.028424421080536749 0.037007460225022985 0 -0.030609044348505525 0.034087752845295957 0 -0.028567251233479876 0.035291995377085029 0 -0.028513319062502603 0.03533064675646385 0 -0.028570742140015322 0.035344291706914256 0 -0.028424421080536749 0.037007460225022985 0 -0.028004299883773627 0.036225724365006581 0 -0.027133485186840962 0.037018315396455698 0 -0.027064304050959168 0.036950705053792873 0 -0.027158510431371803 0.036987138915491928 0 -0.027133485186840962 0.037018315396455698 0 -0.027290382856980041 0.037090373040388085 0 -0.027064304050959168 0.036950705053792873 0 -0.027064304050959168 0.036950705053792873 0 -0.027255405648632079 0.036869527894011843 0 -0.027158510431371803 0.036987138915491928 0 -0.02851153877888524 0.03537488571378386 0 -0.028570742140015322 0.035344291706914256 0 -0.028512973875279353 0.035432333666022962 0 -0.028435458687632857 0.035392422569313749 0 -0.028513319062502603 0.03533064675646385 0 -0.02851153877888524 0.03537488571378386 0 -0.027533617368720502 0.036253897474349414 0 -0.027064304050959168 0.036950705053792873 0 -0.027255405648632079 0.036869527894011843 0 -0.028060462190544352 0.035872401875262395 0 -0.028004299883773627 0.036225724365006581 0 -0.028513319062502603 0.03533064675646385 0 -0.02851153877888524 0.03537488571378386 0 -0.028570742140015322 0.035344291706914256 0 -0.030609044348505525 0.034087752845295957 0 -0.028297733097829895 0.03594034870187484 0 -0.030609044348505525 0.034087752845295957 0 -0.032799812665450581 0.031809779943413212 0 -0.028685105028293002 0.035182439426658108 0 -0.028669183866342096 0.035447540507923606 0 -0.028512973875279353 0.035432333666022962 0 -0.028435458687632857 0.035392422569313749 0 -0.02851153877888524 0.03537488571378386 0 -0.028512973875279353 0.035432333666022962 0 -0.028435458687632857 0.035392422569313749 0 -0.0284240833178361 0.035498676295823227 0 -0.028512973875279353 0.035432333666022962 0 -0.0284240833178361 0.035498676295823227 0 -0.028444911480585911 0.035509599489589233 0 -0.028527587444599448 0.035503167073347837 0 -0.028669183866342096 0.035447540507923606 0 -0.028512973875279353 0.035432333666022962 0 -0.028527587444599448 0.035503167073347837 0 -0.0284240833178361 0.035498676295823227 0 -0.028512973875279353 0.035432333666022962 0 -0.028527587444599448 0.035503167073347837 0 -0.028444911480585911 0.035509599489589233 0 -0.028527587444599448 0.035503167073347837 0 -0.028521320151292325 0.035572711290353602 0 -0.028527587444599448 0.035503167073347837 0 -0.028521320151292325 0.035572711290353602 0 -0.028680151286675126 0.035609156789175964 0 -0.031824011463546763 0.031252197449569939 0 -0.032337174856483464 0.031101601908710433 0 -0.03536082880429435 0.026264427722113039 0 -0.036369566227187781 0.026878215812144963 0 -0.036001300528175177 0.027205031200800204 0 -0.032337174856483464 0.031101601908710433 0 -0.032876961840835363 0.031020055674023141 0 -0.036396338766140388 0.026963727309732892 0 -0.036395201864040772 0.027055749413284324 0 -0.036638349519503406 0.027192377967447914 0 -0.032337174856483464 0.031101601908710433 0 -0.032411966018679177 0.030780232804709234 0 -0.028669183866342096 0.035447540507923606 0 -0.028527587444599448 0.035503167073347837 0 -0.028680151286675126 0.035609156789175964 0 -0.032799812665450581 0.031809779943413212 0 -0.032337174856483464 0.031101601908710433 0 -0.037360826635857811 0.028310181012661046 0 -0.036554547926530429 0.027549404997889278 0 -0.036378136267645321 0.028260828476214857 0 -0.037360826635857811 0.028310181012661046 0 -0.036854991746285072 0.027283845757789801 0 -0.036554547926530429 0.027549404997889278 0 -0.036554547926530429 0.027549404997889278 0 -0.036426601081423662 0.027325287500243881 0 -0.036516524193252652 0.027308295541761386 0 -0.036554547926530429 0.027549404997889278 0 -0.036638349519503406 0.027192377967447914 0 -0.036516524193252652 0.027308295541761386 0 -0.036854991746285072 0.027283845757789801 0 -0.036554547926530429 0.027549404997889278 0 -0.036638349519503406 0.027192377967447914 0 -0.036554547926530429 0.027549404997889278 0 -0.036180083728083151 0.0276864113051574 0 -0.036426601081423662 0.027325287500243881 0 -0.036554547926530429 0.027549404997889278 0 -0.036378136267645321 0.028260828476214857 0 -0.036180083728083151 0.0276864113051574 0 -0.036378136267645321 0.028260828476214857 0 -0.036708301531377954 0.029138118371211021 0 -0.035782912366955438 0.029077730165335488 0 -0.037800376702753553 0.029894923404376762 0 -0.037360826635857811 0.028310181012661046 0 -0.036708301531377954 0.029138118371211021 0 -0.037360826635857811 0.028310181012661046 0 -0.036378136267645321 0.028260828476214857 0 -0.036708301531377954 0.029138118371211021 0 -0.036457431643340504 0.030506696663067389 0 -0.037800376702753553 0.029894923404376762 0 -0.036708301531377954 0.029138118371211021 0 -0.036399625627003017 0.030286015398314495 0 -0.035678216825428211 0.02945208511423425 0 -0.036457431643340504 0.030506696663067389 0 -0.036708301531377954 0.029138118371211021 0 -0.035782912366955438 0.029077730165335488 0 -0.034923417917043419 0.030677472506523341 0 -0.03524187249233942 0.029740913894079585 0 -0.034848831305010437 0.029815669255196419 0 -0.03524187249233942 0.029740913894079585 0 -0.034848831305010437 0.029815669255196419 0 -0.035232031398001067 0.0290853666981742 0 -0.035678216825428211 0.02945208511423425 0 -0.035362138999277141 0.028599863493588916 0 -0.035782912366955438 0.029077730165335488 0 -0.035583276963741951 0.028240750303020794 0 -0.035916374427175254 0.028151522271964467 0 -0.036378136267645321 0.028260828476214857 0 -0.035782912366955438 0.029077730165335488 0 -0.035916374427175254 0.028151522271964467 0 -0.036378136267645321 0.028260828476214857 0 -0.035916374427175254 0.028151522271964467 0 -0.036180083728083151 0.0276864113051574 0 -0.035916374427175254 0.028151522271964467 0 -0.036180083728083151 0.0276864113051574 0 -0.035801118361943496 0.027677131438611897 0 -0.036180083728083151 0.0276864113051574 0 -0.036068381470553308 0.027356349489644757 0 -0.036426601081423662 0.027325287500243881 0 -0.036180083728083151 0.0276864113051574 0 -0.035801118361943496 0.027677131438611897 0 -0.036068381470553308 0.027356349489644757 0 -0.035801118361943496 0.027677131438611897 0 -0.035649138032074638 0.026954334959807161 0 -0.036068381470553308 0.027356349489644757 0 -0.035583276963741951 0.028240750303020794 0 -0.035916374427175254 0.028151522271964467 0 -0.035801118361943496 0.027677131438611897 0 -0.035362138999277141 0.028599863493588916 0 -0.035200458568896413 0.027995713435651003 0 -0.035583276963741951 0.028240750303020794 0 -0.035801118361943496 0.027677131438611897 0 -0.035383270980931796 0.027734168325934321 0 -0.035801118361943496 0.027677131438611897 0 -0.035383270980931796 0.027734168325934321 0 -0.035649138032074638 0.026954334959807161 0 -0.034999642327987461 0.026325204079172982 0 -0.035383270980931796 0.027734168325934321 0 -0.035649138032074638 0.026954334959807161 0 -0.034999642327987461 0.026325204079172982 0 -0.03499966567743492 0.027773718098117219 0 -0.035383270980931796 0.027734168325934321 0 -0.03499966567743492 0.027773718098117219 0 -0.035383270980931796 0.027734168325934321 0 -0.034998968613534596 0.029223537820242649 0 -0.035232031398001067 0.0290853666981742 0 -0.034998968613534596 0.029223537820242649 0 -0.034756952377547196 0.029673158090579958 0 -0.035232031398001067 0.0290853666981742 0 -0.035383270980931796 0.027734168325934321 0 -0.034998968613534596 0.029223537820242649 0 -0.034848831305010437 0.029815669255196419 0 -0.035232031398001067 0.0290853666981742 0 -0.034756952377547196 0.029673158090579958 0 -0.034377372576983568 0.030586087289245837 0 -0.034848831305010437 0.029815669255196419 0 -0.034756952377547196 0.029673158090579958 0 -0.034999618668706912 0.029225119685587792 0 -0.034838013129838259 0.030230649672804505 0 -0.034999952310006556 0.022550721079223051 0 -0.036690649186622445 0.023487945159052975 0 -0.036236835399048491 0.021651883748470272 0 -0.036690649186622445 0.023487945159052975 0 -0.037508560253324837 0.022184443551622579 0 -0.036236835399048491 0.021651883748470272 0 -0.034999952310006556 0.022550721079223051 0 -0.036690649186622445 0.023487945159052975 0 -0.034999942612669664 0.024436622376318527 0 -0.034999973026630195 0.02632261785724917 0 -0.034999942612669664 0.024436622376318527 0 -0.036689482723996976 0.025438317903523668 0 -0.035000263187196873 0.026322905397577173 0 -0.036069052821821372 0.026177722544190991 0 -0.036690649186622445 0.023487945159052975 0 -0.034999942612669664 0.024436622376318527 0 -0.036689482723996976 0.025438317903523668 0 -0.036690649186622445 0.023487945159052975 0 -0.036689482723996976 0.025438317903523668 0 -0.038306694461298522 0.024538231749889845 0 -0.036069052821821372 0.026177722544190991 0 -0.037179944193258603 0.025864961350588234 0 -0.035649138032074638 0.026954334959807161 0 -0.036068381470553308 0.027356349489644757 0 -0.036175942665147585 0.02715346707117364 0 -0.036068381470553308 0.027356349489644757 0 -0.036175942665147585 0.02715346707117364 0 -0.036426601081423662 0.027325287500243881 0 -0.038306694461298522 0.024538231749889845 0 -0.038268905624579186 0.023184940213269434 0 -0.039820763403480237 0.023592496715020693 0 -0.036690649186622445 0.023487945159052975 0 -0.038306694461298522 0.024538231749889845 0 -0.038268905624579186 0.023184940213269434 0 -0.036690649186622445 0.023487945159052975 0 -0.038268905624579186 0.023184940213269434 0 -0.037508560253324837 0.022184443551622579 0 -0.038268905624579186 0.023184940213269434 0 -0.037508560253324837 0.022184443551622579 0 -0.039138629038063658 0.022228833279398844 0 -0.037508560253324837 0.022184443551622579 0 -0.039138629038063658 0.022228833279398844 0 -0.038399219894315786 0.021241282017027456 0 -0.039138629038063658 0.022228833279398844 0 -0.040519166138532722 0.022019324917869176 0 -0.040024772414561559 0.020929558353120735 0 -0.040519166138532722 0.022019324917869176 0 -0.039820763403480237 0.023592496715020693 0 -0.041044137104303401 0.022599545902914013 0 -0.038063609070246036 0.025583906328317991 0 -0.038395256484802714 0.02544381522365927 0 -0.038268905624579186 0.023184940213269434 0 -0.039138629038063658 0.022228833279398844 0 -0.039820763403480237 0.023592496715020693 0 -0.039138629038063658 0.022228833279398844 0 -0.040519166138532722 0.022019324917869176 0 -0.039820763403480237 0.023592496715020693 0 -0.036175942665147585 0.02715346707117364 0 -0.036555629938777146 0.027502781855494408 0 -0.036426601081423662 0.027325287500243881 0 -0.037179944193258603 0.025864961350588234 0 -0.038063609070246036 0.025583906328317991 0 -0.036426601081423662 0.027325287500243881 0 -0.036516524193252652 0.027308295541761386 0 -0.036458438404610938 0.027383977261424382 0 -0.036487025811376091 0.027245005699346927 0 -0.036516524193252652 0.027308295541761386 0 -0.036458438404610938 0.027383977261424382 0 -0.036638349519503406 0.027192377967447914 0 -0.036487025811376091 0.027245005699346927 0 -0.036516524193252652 0.027308295541761386 0 -0.036395201864040772 0.027055749413284324 0 -0.036638349519503406 0.027192377967447914 0 -0.036487025811376091 0.027245005699346927 0 -0.036487025811376091 0.027245005699346927 0 -0.036458438404610938 0.027383977261424382 0 -0.036338293227117159 0.027233197744675211 0 -0.036555629938777146 0.027502781855494408 0 -0.036458438404610938 0.027383977261424382 0 -0.036129302304527447 0.027682349808797444 0 -0.036555629938777146 0.027502781855494408 0 -0.036426601081423662 0.027325287500243881 0 -0.036458438404610938 0.027383977261424382 0 -0.036555629938777146 0.027502781855494408 0 -0.036129302304527447 0.027682349808797444 0 -0.036043974256751113 0.028299158053971801 0 -0.036129302304527447 0.027682349808797444 0 -0.035634178228167224 0.027684342732155906 0 -0.036043974256751113 0.028299158053971801 0 -0.036129302304527447 0.027682349808797444 0 -0.036001300528175177 0.027205031200800204 0 -0.035634178228167224 0.027684342732155906 0 -0.036458438404610938 0.027383977261424382 0 -0.036001300528175177 0.027205031200800204 0 -0.036338293227117159 0.027233197744675211 0 -0.036458438404610938 0.027383977261424382 0 -0.036129302304527447 0.027682349808797444 0 -0.036001300528175177 0.027205031200800204 0 -0.036395201864040772 0.027055749413284324 0 -0.036001300528175177 0.027205031200800204 0 -0.036338293227117159 0.027233197744675211 0 -0.036369566227187781 0.026878215812144963 0 -0.036395201864040772 0.027055749413284324 0 -0.036001300528175177 0.027205031200800204 0 -0.036395201864040772 0.027055749413284324 0 -0.036487025811376091 0.027245005699346927 0 -0.036338293227117159 0.027233197744675211 0 -0.03536082880429435 0.026264427722113039 0 -0.036001300528175177 0.027205031200800204 0 -0.034900507061904236 0.027040877865661381 0 -0.036001300528175177 0.027205031200800204 0 -0.035634178228167224 0.027684342732155906 0 -0.034900507061904236 0.027040877865661381 0 -0.035634178228167224 0.027684342732155906 0 -0.036043974256751113 0.028299158053971801 0 -0.034901909168387757 0.028090997477713278 0 -0.035634178228167224 0.027684342732155906 0 -0.034900507061904236 0.027040877865661381 0 -0.034901909168387757 0.028090997477713278 0 -0.038395256484802714 0.02544381522365927 0 -0.038021070917411019 0.025390249530926098 0 -0.036043974256751113 0.028299158053971801 0 -0.034901909168387757 0.028090997477713278 0 -0.034860938163896051 0.02901255886596674 0 -0.040519166138532722 0.022019324917869176 0 -0.041044137104303401 0.022599545902914013 0 -0.04145928070482105 0.021495228643499623 0 -0.041044137104303401 0.022599545902914013 0 -0.04145928070482105 0.021495228643499623 0 -0.04142542035089123 0.021736290445040652 0 -0.04145928070482105 0.021495228643499623 0 -0.04142542035089123 0.021736290445040652 0 -0.041259384318005701 0.021689631398430925 0 -0.04145928070482105 0.021495228643499623 0 -0.041321075708892804 0.022072688963884115 0 -0.041259384318005701 0.021689631398430925 0 -0.040519166138532722 0.022019324917869176 0 -0.04145928070482105 0.021495228643499623 0 -0.040024772414561559 0.020929558353120735 0 -0.04145928070482105 0.021495228643499623 0 -0.041186250816952777 0.020365496671757057 0 -0.040024772414561559 0.020929558353120735 0 -0.041186250816952777 0.020365496671757057 0 -0.041170420571156573 0.019406078833661147 0 -0.040453864479921976 0.019930268291107115 0 -0.041186250816952777 0.020365496671757057 0 -0.042541233759499197 0.020261427981955554 0 -0.041834376041826847 0.01967994526411971 0 -0.04145928070482105 0.021495228643499623 0 -0.041186250816952777 0.020365496671757057 0 -0.042541233759499197 0.020261427981955554 0 -0.041459316938325934 0.021319254718582543 0 -0.04134099006558186 0.020934298768544322 0 -0.042541233759499197 0.020261427981955554 0 -0.042442778566735659 0.019360756462395178 0 -0.041834376041826847 0.01967994526411971 0 -0.042442778566735659 0.019360756462395178 0 -0.041834376041826847 0.01967994526411971 0 -0.041845461070124199 0.019039934760832305 0 -0.042442778566735659 0.019360756462395178 0 -0.041845461070124199 0.019039934760832305 0 -0.042413899564931752 0.018683547388671975 0 -0.041845461070124199 0.019039934760832305 0 -0.042413899564931752 0.018683547388671975 0 -0.041776132114950952 0.018204001362259352 0 -0.042413899564931752 0.018683547388671975 0 -0.041776132114950952 0.018204001362259352 0 -0.042608584599275058 0.017743120403152398 0 -0.041083497941714356 0.017825726601490937 0 -0.04111903839509664 0.018664390941306241 0 -0.04021436325016637 0.018142397629264909 0 -0.041776132114950952 0.018204001362259352 0 -0.041083497941714356 0.017825726601490937 0 -0.041563312410655875 0.017301517568810463 0 -0.041776132114950952 0.018204001362259352 0 -0.041083497941714356 0.017825726601490937 0 -0.04111903839509664 0.018664390941306241 0 -0.041845461070124199 0.019039934760832305 0 -0.041776132114950952 0.018204001362259352 0 -0.04111903839509664 0.018664390941306241 0 -0.04111903839509664 0.018664390941306241 0 -0.041170420571156573 0.019406078833661147 0 -0.040467924339441748 0.019115518936174653 0 -0.041845461070124199 0.019039934760832305 0 -0.04111903839509664 0.018664390941306241 0 -0.041170420571156573 0.019406078833661147 0 -0.041186250816952777 0.020365496671757057 0 -0.041834376041826847 0.01967994526411971 0 -0.041170420571156573 0.019406078833661147 0 -0.041834376041826847 0.01967994526411971 0 -0.041845461070124199 0.019039934760832305 0 -0.041170420571156573 0.019406078833661147 0 -0.041170420571156573 0.019406078833661147 0 -0.040467924339441748 0.019115518936174653 0 -0.040453864479921976 0.019930268291107115 0 -0.040467924339441748 0.019115518936174653 0 -0.04021436325016637 0.018142397629264909 0 -0.039581837322471891 0.019316645026318899 0 -0.040467924339441748 0.019115518936174653 0 -0.039581837322471891 0.019316645026318899 0 -0.040453864479921976 0.019930268291107115 0 -0.04111903839509664 0.018664390941306241 0 -0.040467924339441748 0.019115518936174653 0 -0.04021436325016637 0.018142397629264909 0 -0.041083497941714356 0.017825726601490937 0 -0.04021436325016637 0.018142397629264909 0 -0.040459079948853699 0.017505389213987296 0 -0.04021436325016637 0.018142397629264909 0 -0.039148714662868567 0.018046647107261404 0 -0.039779787221198987 0.017438221080565645 0 -0.04021436325016637 0.018142397629264909 0 -0.039148714662868567 0.018046647107261404 0 -0.039581837322471891 0.019316645026318899 0 -0.039148714662868567 0.018046647107261404 0 -0.039581837322471891 0.019316645026318899 0 -0.038276830337459052 0.018823183865104114 0 -0.039581837322471891 0.019316645026318899 0 -0.040024772414561559 0.020929558353120735 0 -0.038607114833484842 0.020007182934209472 0 -0.040024772414561559 0.020929558353120735 0 -0.038399219894315786 0.021241282017027456 0 -0.038607114833484842 0.020007182934209472 0 -0.041186250816952777 0.020365496671757057 0 -0.040453864479921976 0.019930268291107115 0 -0.040024772414561559 0.020929558353120735 0 -0.039581837322471891 0.019316645026318899 0 -0.040453864479921976 0.019930268291107115 0 -0.040024772414561559 0.020929558353120735 0 -0.039138629038063658 0.022228833279398844 0 -0.040024772414561559 0.020929558353120735 0 -0.038399219894315786 0.021241282017027456 0 -0.037508560253324837 0.022184443551622579 0 -0.038399219894315786 0.021241282017027456 0 -0.037199737967202322 0.020209529212848295 0 -0.038399219894315786 0.021241282017027456 0 -0.037199737967202322 0.020209529212848295 0 -0.038607114833484842 0.020007182934209472 0 -0.039581837322471891 0.019316645026318899 0 -0.038607114833484842 0.020007182934209472 0 -0.038276830337459052 0.018823183865104114 0 -0.037199737967202322 0.020209529212848295 0 -0.038607114833484842 0.020007182934209472 0 -0.038276830337459052 0.018823183865104114 0 -0.039148714662868567 0.018046647107261404 0 -0.038276830337459052 0.018823183865104114 0 -0.03810747955743838 0.01733116103391508 0 -0.038276830337459052 0.018823183865104114 0 -0.037120283307811711 0.018206584482449838 0 -0.03810747955743838 0.01733116103391508 0 -0.037199737967202322 0.020209529212848295 0 -0.038276830337459052 0.018823183865104114 0 -0.037120283307811711 0.018206584482449838 0 -0.037199737967202322 0.020209529212848295 0 -0.037120283307811711 0.018206584482449838 0 -0.036251000247424663 0.019083765879451091 0 -0.037120283307811711 0.018206584482449838 0 -0.036251000247424663 0.019083765879451091 0 -0.036011357569029678 0.017740593317797801 0 -0.037120283307811711 0.018206584482449838 0 -0.036011357569029678 0.017740593317797801 0 -0.03668235009973056 0.016882201129326969 0 -0.036011357569029678 0.017740593317797801 0 -0.034999936075591091 0.01877892779021214 0 -0.034999956644274133 0.016893033986509261 0 -0.036251000247424663 0.019083765879451091 0 -0.036011357569029678 0.017740593317797801 0 -0.034999936075591091 0.01877892779021214 0 -0.036251000247424663 0.019083765879451091 0 -0.034999936075591091 0.01877892779021214 0 -0.034999968001166511 0.020664815658513833 0 -0.037199737967202322 0.020209529212848295 0 -0.036251000247424663 0.019083765879451091 0 -0.034999968001166511 0.020664815658513833 0 -0.037199737967202322 0.020209529212848295 0 -0.034999968001166511 0.020664815658513833 0 -0.036236835399048491 0.021651883748470272 0 -0.037508560253324837 0.022184443551622579 0 -0.037199737967202322 0.020209529212848295 0 -0.036236835399048491 0.021651883748470272 0 -0.034999952310006556 0.022550721079223051 0 -0.034999968001166511 0.020664815658513833 0 -0.036236835399048491 0.021651883748470272 0 -0.028242778530366913 0.027253288229097134 0 -0.030081910329565507 0.027209234176634352 0 -0.027775508633283992 0.024614264984814289 0 -0.028242778530366913 0.027253288229097134 0 -0.027944057583653172 0.027938795205136358 0 -0.0272558920718847 0.025196831235558829 0 -0.021114288174065302 0.026262873232285436 0 -0.019441736052213002 0.029516635042892155 0 -0.021114288174065302 0.026262873232285436 0 -0.025600265077955004 0.025657044971059705 0 -0.028242778530366913 0.027253288229097134 0 -0.027944057583653172 0.027938795205136358 0 -0.029204581084319673 0.027493053676462594 0 -0.028112356341931408 0.02788842892553486 0 -0.029204581084319673 0.027493053676462594 0 -0.029254290914258147 0.028546945675090658 0 -0.031333057278141889 0.028650003880022527 0 -0.031235941237859954 0.027994457021161091 0 -0.031919581813974252 0.028133155803599701 0 -0.030081910329565507 0.027209234176634352 0 -0.029204581084319673 0.027493053676462594 0 -0.0301471656712262 0.028415115546592051 0 -0.028242778530366913 0.027253288229097134 0 -0.030081910329565507 0.027209234176634352 0 -0.029204581084319673 0.027493053676462594 0 -0.029254290914258147 0.028546945675090658 0 -0.0301471656712262 0.028415115546592051 0 -0.030271523896281516 0.029206856384910038 0 -0.0301471656712262 0.028415115546592051 0 -0.030271523896281516 0.029206856384910038 0 -0.032143358565812213 0.029766390953679674 0 -0.030081910329565507 0.027209234176634352 0 -0.0301471656712262 0.028415115546592051 0 -0.032143358565812213 0.029766390953679674 0 -0.029204581084319673 0.027493053676462594 0 -0.029254290914258147 0.028546945675090658 0 -0.0301471656712262 0.028415115546592051 0 -0.030271523896281516 0.029206856384910038 0 -0.028564502851725716 0.029736948906274829 0 -0.030192851806583727 0.030152476040332631 0 -0.029254290914258147 0.028546945675090658 0 -0.030271523896281516 0.029206856384910038 0 -0.028564502851725716 0.029736948906274829 0 -0.015192904898310053 0.020738667592842226 0 -0.014965167447512924 0.021101682001383914 0 -0.015298310696576251 0.021221074833168818 0 -0.028112356341931408 0.02788842892553486 0 -0.029254290914258147 0.028546945675090658 0 -0.028564502851725716 0.029736948906274829 0 -0.021114288174065302 0.026262873232285436 0 -0.023112656357521362 0.025217950270288395 0 -0.021114288174065302 0.026262873232285436 0 -0.015376690227968635 0.026351618729536841 0 -0.015192904898310053 0.020738667592842226 0 -0.014965167447512924 0.021101682001383914 0 -0.014621284985079211 0.020917951869086602 0 -0.014965167447512924 0.021101682001383914 0 -0.014621284985079211 0.020917951869086602 0 -0.014749747587689812 0.021355792525768906 0 -0.014621284985079211 0.020917951869086602 0 -0.014415008370695988 0.021277993233869578 0 -0.014749747587689812 0.021355792525768906 0 -0.015376690227968635 0.026351618729536841 0 -0.011273492656087406 0.028838465349635085 0 -0.014621284985079211 0.020917951869086602 0 -0.014067143324004621 0.021116556818248488 0 -0.014415008370695988 0.021277993233869578 0 -0.015474735497012487 0.029802070185213008 0 -0.013389499110118273 0.030523500122949767 0 -0.015189799432881811 0.028509795989873726 0 -0.011273492656087406 0.028838465349635085 0 -0.011465042654934348 0.031438705280305422 0 -0.0082203489262464291 0.032683564118879863 0 -0.0077844776825671692 0.032665536354974704 0 -0.0080787069346979004 0.03313139227740438 0 -0.0082203489262464291 0.032683564118879863 0 -0.0081294328604400307 0.03213401523320196 0 -0.0077844776825671692 0.032665536354974704 0 -0.017535312473853676 0.029070029787151449 0 -0.015474735497012487 0.029802070185213008 0 -0.015189799432881811 0.028509795989873726 0 -0.011465042654934348 0.031438705280305422 0 -0.019441736052213002 0.029516635042892155 0 -0.017535312473853676 0.029070029787151449 0 -0.015189799432881811 0.028509795989873726 0 -0.016966080957228947 0.026505705267827074 0 -0.0077844776825671692 0.032665536354974704 0 -0.007760035589718388 0.033107841750318542 0 -0.007493048436517635 0.033112147365626052 0 -0.007760035589718388 0.033107841750318542 0 -0.0075611449251549471 0.033408245988287122 0 -0.007493048436517635 0.033112147365626052 0 -0.018744652940613515 0.030789200492213373 0 -0.019441736052213002 0.029516635042892155 0 -0.0077844776825671692 0.032665536354974704 0 -0.007760035589718388 0.033107841750318542 0 -0.0080787069346979004 0.03313139227740438 0 -0.007760035589718388 0.033107841750318542 0 -0.0080787069346979004 0.03313139227740438 0 -0.0078303031169886742 0.033413360366418315 0 -0.0083913343873663632 0.033682880804421292 0 -0.0077952666819927699 0.033692001174437471 0 -0.0080895800069620116 0.033460464018545709 0 -0.0083485525746564548 0.033374262984991673 0 -0.0080787069346979004 0.03313139227740438 0 -0.0080895800069620116 0.033460464018545709 0 -0.0080787069346979004 0.03313139227740438 0 -0.0080895800069620116 0.033460464018545709 0 -0.0078303031169886742 0.033413360366418315 0 -0.0077952666819927699 0.033692001174437471 0 -0.0080895800069620116 0.033460464018545709 0 -0.0078303031169886742 0.033413360366418315 0 -0.019716755832350243 0.031201347186096844 0 -0.019434405644984568 0.030867421282872575 0 -0.019098107613275433 0.02839662486772369 0 -0.019359366123293666 0.03080005685501061 0 -0.019164454485501546 0.030566001322145545 0 -0.019627222852777518 0.03206657512208793 0 -0.018744652940613515 0.030789200492213373 0 -0.019964623606885858 0.030711103251792316 0 -0.007760035589718388 0.033107841750318542 0 -0.0075611449251549471 0.033408245988287122 0 -0.0078303031169886742 0.033413360366418315 0 -0.0077952666819927699 0.033692001174437471 0 -0.0075611449251549471 0.033408245988287122 0 -0.0078303031169886742 0.033413360366418315 0 -0.018744652940613515 0.030789200492213373 0 -0.019106921412295731 0.032299371913282575 0 -0.018270060908894641 0.032999037000224093 0 -0.017464176653098764 0.032022372242946663 0 -0.017601039789465891 0.032670687699922721 0 -0.014249790591599927 0.033018576673420647 0 -0.018744652940613515 0.030789200492213373 0 -0.019964623606885858 0.030711103251792316 0 -0.019106921412295731 0.032299371913282575 0 -0.021838543102659494 0.031700734817561152 0 -0.021367110269993505 0.032076372552118898 0 -0.022019397535665855 0.032318649517007199 0 -0.030391217920216842 0.0275909315575226 0 -0.031296546710831263 0.027603572838194666 0 -0.031027395379327541 0.026870572308214935 0 -0.021598903680742961 0.032767893651525486 0 -0.021367110269993505 0.032076372552118898 0 -0.022019397535665855 0.032318649517007199 0 -0.022335868969684373 0.031897497050826347 0 -0.021838543102659494 0.031700734817561152 0 -0.022019397535665855 0.032318649517007199 0 -0.022335868969684373 0.031897497050826347 0 -0.022019397535665855 0.032318649517007199 0 -0.022930177560445707 0.032202840708351783 0 -0.022019397535665855 0.032318649517007199 0 -0.022001346829455027 0.033233946106140749 0 -0.022930177560445707 0.032202840708351783 0 -0.02342712535411556 0.028967391615371194 0 -0.026800178112468851 0.029159907290208103 0 -0.021598903680742961 0.032767893651525486 0 -0.022019397535665855 0.032318649517007199 0 -0.022001346829455027 0.033233946106140749 0 -0.019964623606885858 0.030711103251792316 0 -0.02342712535411556 0.028967391615371194 0 -0.019964623606885858 0.030711103251792316 0 -0.021620222667722032 0.028747333400543439 0 -0.025402192594138576 0.02730519490711834 0 -0.021620222667722032 0.028747333400543439 0 -0.028242778530366913 0.027253288229097134 0 -0.027428520866550503 0.024993893948900971 0 -0.0272558920718847 0.025196831235558829 0 -0.019434405644984568 0.030867421282872575 0 -0.018769420211422513 0.028776119547634451 0 -0.019098107613275433 0.02839662486772369 0 -0.030517818524253375 0.028415157583762101 0 -0.02342712535411556 0.028967391615371194 0 -0.020935385371614209 0.030463794721124659 0 -0.020480772939210759 0.029024464708478838 0 -0.020096872398893555 0.029467805166428548 0 -0.028242778530366913 0.027253288229097134 0 -0.027472663436185658 0.024965528943962107 0 -0.027775508633283992 0.024614264984814289 0 -0.021620222667722032 0.028747333400543439 0 -0.02342712535411556 0.028967391615371194 0 -0.021620222667722032 0.028747333400543439 0 -0.019441736052213002 0.029516635042892155 0 -0.031296546710831263 0.027603572838194666 0 -0.031810551274110185 0.027226542645369129 0 -0.031919581813974252 0.028133155803599701 0 -0.030391217920216842 0.0275909315575226 0 -0.031235941237859954 0.027994457021161091 0 -0.031296546710831263 0.027603572838194666 0 -0.031333057278141889 0.028650003880022527 0 -0.030391217920216842 0.0275909315575226 0 -0.031235941237859954 0.027994457021161091 0 -0.031235941237859954 0.027994457021161091 0 -0.031296546710831263 0.027603572838194666 0 -0.031919581813974252 0.028133155803599701 0 -0.031667260031008233 0.02615169218832648 0 -0.031027395379327541 0.026870572308214935 0 -0.031810551274110185 0.027226542645369129 0 -0.031296546710831263 0.027603572838194666 0 -0.031027395379327541 0.026870572308214935 0 -0.031810551274110185 0.027226542645369129 0 -0.031667260031008233 0.02615169218832648 0 -0.031810551274110185 0.027226542645369129 0 -0.032531238930408032 0.026947886554727754 0 -0.031810551274110185 0.027226542645369129 0 -0.032531238930408032 0.026947886554727754 0 -0.032414913970546681 0.02763724708033246 0 -0.032531238930408032 0.026947886554727754 0 -0.033245815694431968 0.027589990648336876 0 -0.032414913970546681 0.02763724708033246 0 -0.032531238930408032 0.026947886554727754 0 -0.033245815694431968 0.027589990648336876 0 -0.033665766908917531 0.026756541995311887 0 -0.033245815694431968 0.027589990648336876 0 -0.033779392339019498 0.028448844481097975 0 -0.032750802122619105 0.028346150324267953 0 -0.033245815694431968 0.027589990648336876 0 -0.032414913970546681 0.02763724708033246 0 -0.032750802122619105 0.028346150324267953 0 -0.031919581813974252 0.028133155803599701 0 -0.032414913970546681 0.02763724708033246 0 -0.032750802122619105 0.028346150324267953 0 -0.031810551274110185 0.027226542645369129 0 -0.031919581813974252 0.028133155803599701 0 -0.032414913970546681 0.02763724708033246 0 -0.034900507061904236 0.027040877865661381 0 -0.033665766908917531 0.026756541995311887 0 -0.034137595010816202 0.027535130142122024 0 -0.033245815694431968 0.027589990648336876 0 -0.033665766908917531 0.026756541995311887 0 -0.034137595010816202 0.027535130142122024 0 -0.033245815694431968 0.027589990648336876 0 -0.034137595010816202 0.027535130142122024 0 -0.033779392339019498 0.028448844481097975 0 -0.034137595010816202 0.027535130142122024 0 -0.034901909168387757 0.028090997477713278 0 -0.033779392339019498 0.028448844481097975 0 -0.034900507061904236 0.027040877865661381 0 -0.034137595010816202 0.027535130142122024 0 -0.034901909168387757 0.028090997477713278 0 -0.034901909168387757 0.028090997477713278 0 -0.033779392339019498 0.028448844481097975 0 -0.034860938163896051 0.02901255886596674 0 -0.040500067390180118 0.021278156332648884 0 -0.04142542035089123 0.021736290445040652 0 -0.040978721879088964 0.021657130651102502 0 -0.036886977068546337 0.025529780267924927 0 -0.038021070917411019 0.025390249530926098 0 -0.033779392339019498 0.028448844481097975 0 -0.033566552864170443 0.029614043424956965 0 -0.034860938163896051 0.02901255886596674 0 -0.04142542035089123 0.021736290445040652 0 -0.041259384318005701 0.021689631398430925 0 -0.040978721879088964 0.021657130651102502 0 -0.031919581813974252 0.028133155803599701 0 -0.032190803132057327 0.028820941354317488 0 -0.032750802122619105 0.028346150324267953 0 -0.031333057278141889 0.028650003880022527 0 -0.031919581813974252 0.028133155803599701 0 -0.032190803132057327 0.028820941354317488 0 -0.033779392339019498 0.028448844481097975 0 -0.032750802122619105 0.028346150324267953 0 -0.032889153605604356 0.029027600745754906 0 -0.032190803132057327 0.028820941354317488 0 -0.032750802122619105 0.028346150324267953 0 -0.032889153605604356 0.029027600745754906 0 -0.033566552864170443 0.029614043424956965 0 -0.032889153605604356 0.029027600745754906 0 -0.032143358565812213 0.029766390953679674 0 -0.033779392339019498 0.028448844481097975 0 -0.033566552864170443 0.029614043424956965 0 -0.032889153605604356 0.029027600745754906 0 -0.032190803132057327 0.028820941354317488 0 -0.032889153605604356 0.029027600745754906 0 -0.032143358565812213 0.029766390953679674 0 -0.030517818524253375 0.028415157583762101 0 -0.031849086539232317 0.029456054530085575 0 -0.030271523896281516 0.029206856384910038 0 -0.032143358565812213 0.029766390953679674 0 -0.031147503692247048 0.029882803383913966 0 -0.031333057278141889 0.028650003880022527 0 -0.032190803132057327 0.028820941354317488 0 -0.032143358565812213 0.029766390953679674 0 -0.032143358565812213 0.029766390953679674 0 -0.031933109498412347 0.030401097036307351 0 -0.031147503692247048 0.029882803383913966 0 -0.031933109498412347 0.030401097036307351 0 -0.031147503692247048 0.029882803383913966 0 -0.030192851806583727 0.030152476040332631 0 -0.040500067390180118 0.021278156332648884 0 -0.038459143136072307 0.021790734992493385 0 -0.040496801473929721 0.021898955840191209 0 -0.038459143136072307 0.021790734992493385 0 -0.038492817314694734 0.022482476151335456 0 -0.040496801473929721 0.021898955840191209 0 -0.033566552864170443 0.029614043424956965 0 -0.032143358565812213 0.029766390953679674 0 -0.031933109498412347 0.030401097036307351 0 -0.040242804692544966 0.0216923529682959 0 -0.039973874258407031 0.021953264710902129 0 -0.036886977068546337 0.025529780267924927 0 -0.035321356453028495 0.025604141845864615 0 -0.0399659613911066 0.021828992594684217 0 -0.04022564447158878 0.021950649217197762 0 -0.040496801473929721 0.021898955840191209 0 -0.04022564447158878 0.021950649217197762 0 -0.040385481116469703 0.021963274862471918 0 -0.040496801473929721 0.021898955840191209 0 -0.04022564447158878 0.021950649217197762 0 -0.040385481116469703 0.021963274862471918 0 -0.040373959206690999 0.022047719879081235 0 -0.040385481116469703 0.021963274862471918 0 -0.040373959206690999 0.022047719879081235 0 -0.040489649488775051 0.021947520387360319 0 -0.04022564447158878 0.021950649217197762 0 -0.040373959206690999 0.022047719879081235 0 -0.040245257849902003 0.022148051617419177 0 -0.04022564447158878 0.021950649217197762 0 -0.040041031612753915 0.022025432895843931 0 -0.040245257849902003 0.022148051617419177 0 -0.040041031612753915 0.022025432895843931 0 -0.039876017208320048 0.021966322600323284 0 -0.03978506880473065 0.022111741019312518 0 -0.0399659613911066 0.021828992594684217 0 -0.039876017208320048 0.021966322600323284 0 -0.040027004245409149 0.021941859026505924 0 -0.04022564447158878 0.021950649217197762 0 -0.040041031612753915 0.022025432895843931 0 -0.040027004245409149 0.021941859026505924 0 -0.0399659613911066 0.021828992594684217 0 -0.04022564447158878 0.021950649217197762 0 -0.040027004245409149 0.021941859026505924 0 -0.040041031612753915 0.022025432895843931 0 -0.039876017208320048 0.021966322600323284 0 -0.040027004245409149 0.021941859026505924 0 -0.041259384318005701 0.021689631398430925 0 -0.040982719465004799 0.021852039185937481 0 -0.040978721879088964 0.021657130651102502 0 -0.041259384318005701 0.021689631398430925 0 -0.040982719465004799 0.021852039185937481 0 -0.041131577520348073 0.021949256703749063 0 -0.040754747276874198 0.021880643873798809 0 -0.040978721879088964 0.021657130651102502 0 -0.040496801473929721 0.021898955840191209 0 -0.040754747276874198 0.021880643873798809 0 -0.040489649488775051 0.021947520387360319 0 -0.040843715580479736 0.022022129393855599 0 -0.040982719465004799 0.021852039185937481 0 -0.040754747276874198 0.021880643873798809 0 -0.040978721879088964 0.021657130651102502 0 -0.040982719465004799 0.021852039185937481 0 -0.040754747276874198 0.021880643873798809 0 -0.040843715580479736 0.022022129393855599 0 -0.040500067390180118 0.021278156332648884 0 -0.040978721879088964 0.021657130651102502 0 -0.040496801473929721 0.021898955840191209 0 -0.040754747276874198 0.021880643873798809 0 -0.040496801473929721 0.021898955840191209 0 -0.040489649488775051 0.021947520387360319 0 -0.040385481116469703 0.021963274862471918 0 -0.040496801473929721 0.021898955840191209 0 -0.040489649488775051 0.021947520387360319 0 -0.040489649488775051 0.021947520387360319 0 -0.040843715580479736 0.022022129393855599 0 -0.04088076590902489 0.022303633769332323 0 -0.040373959206690999 0.022047719879081235 0 -0.040489649488775051 0.021947520387360319 0 -0.040540951178846776 0.022124829682815463 0 -0.040373959206690999 0.022047719879081235 0 -0.040540951178846776 0.022124829682815463 0 -0.040245257849902003 0.022148051617419177 0 -0.040935786569670847 0.021885947523099119 0 -0.040820295305663105 0.020593564423083799 0 -0.040843715580479736 0.022022129393855599 0 -0.040976178133248005 0.022149458151288916 0 -0.04088076590902489 0.022303633769332323 0 -0.04065122253466328 0.021015880938067895 0 -0.040820295305663105 0.020593564423083799 0 -0.041321075708892804 0.022072688963884115 0 -0.041259384318005701 0.021689631398430925 0 -0.041131577520348073 0.021949256703749063 0 -0.041321075708892804 0.022072688963884115 0 -0.040976178133248005 0.022149458151288916 0 -0.041030495148358617 0.022472167972672534 0 -0.040983622411546849 0.021999608107641063 0 -0.040976178133248005 0.022149458151288916 0 -0.041131577520348073 0.021949256703749063 0 -0.040982719465004799 0.021852039185937481 0 -0.040983622411546849 0.021999608107641063 0 -0.041131577520348073 0.021949256703749063 0 -0.040982719465004799 0.021852039185937481 0 -0.040843715580479736 0.022022129393855599 0 -0.040983622411546849 0.021999608107641063 0 -0.040843715580479736 0.022022129393855599 0 -0.040983622411546849 0.021999608107641063 0 -0.040976178133248005 0.022149458151288916 0 -0.041321075708892804 0.022072688963884115 0 -0.040976178133248005 0.022149458151288916 0 -0.041131577520348073 0.021949256703749063 0 -0.04134099006558186 0.020934298768544322 0 -0.040826475495893841 0.017261602947028682 0 -0.042541233759499197 0.020261427981955554 0 -0.042442778566735659 0.019360756462395178 0 -0.04340579143053723 0.019078574502996007 0 -0.040976178133248005 0.022149458151288916 0 -0.041030495148358617 0.022472167972672534 0 -0.040893819557785871 0.022256426093134676 0 -0.042442778566735659 0.019360756462395178 0 -0.042413899564931752 0.018683547388671975 0 -0.04340579143053723 0.019078574502996007 0 -0.040826475495893841 0.017261602947028682 0 -0.040820295305663105 0.020593564423083799 0 -0.040820295305663105 0.020593564423083799 0 -0.041467787531981888 0.017861949370265185 0 -0.039131602074208009 0.014891254096306228 0 -0.040238035220105675 0.016707408398768692 0 -0.042733012958047552 0.013288711116543695 0 -0.040540951178846776 0.022124829682815463 0 -0.040245257849902003 0.022148051617419177 0 -0.040279895934245677 0.022387754168500629 0 -0.040826475495893841 0.017261602947028682 0 -0.042200881862826195 0.011413221720321559 0 -0.039131602074208009 0.014891254096306228 0 -0.041488168614395395 0.011677849309420568 0 -0.042733012958047552 0.013288711116543695 0 -0.040189762165701789 0.013589454842065708 0 -0.042041248788182085 0.011049726824410525 0 -0.040323998814042597 0.010321038143945891 0 -0.042413899564931752 0.018683547388671975 0 -0.04340579143053723 0.019078574502996007 0 -0.042608584599275058 0.017743120403152398 0 -0.040189762165701789 0.013589454842065708 0 -0.040323998814042597 0.010321038143945891 0 -0.038537409504352499 0.010864763452547416 0 -0.040826475495893841 0.017261602947028682 0 -0.040436719772571031 0.014386063087704419 0 -0.040041031612753915 0.022025432895843931 0 -0.039943370415821057 0.022326404479936082 0 -0.040245257849902003 0.022148051617419177 0 -0.040041031612753915 0.022025432895843931 0 -0.039943370415821057 0.022326404479936082 0 -0.03978506880473065 0.022111741019312518 0 -0.039943370415821057 0.022326404479936082 0 -0.040245257849902003 0.022148051617419177 0 -0.040279895934245677 0.022387754168500629 0 -0.041467787531981888 0.017861949370265185 0 -0.04227580156261912 0.014845833721168884 0 -0.039943370415821057 0.022326404479936082 0 -0.040279895934245677 0.022387754168500629 0 -0.039978923356080574 0.022627206369320915 0 -0.041488168614395395 0.011677849309420568 0 -0.042733012958047552 0.013288711116543695 0 -0.045077415495932117 0.0099296928948598567 0 -0.039943370415821057 0.022326404479936082 0 -0.039689264066131533 0.022586839103612796 0 -0.039978923356080574 0.022627206369320915 0 -0.027636884138939912 0.022114908357226373 0 -0.028262809538610684 0.023196714310739327 0 -0.015181123820466774 0.022582089225789928 0 -0.015515842388627018 0.022184828731401124 0 -0.01572781649294273 0.022807262817554786 0 -0.039943370415821057 0.022326404479936082 0 -0.039600900302590419 0.022295238998327381 0 -0.039689264066131533 0.022586839103612796 0 -0.015181123820466774 0.022582089225789928 0 -0.014996235495146589 0.022284819770411968 0 -0.015515842388627018 0.022184828731401124 0 -0.015181123820466774 0.022582089225789928 0 -0.014996235495146589 0.022284819770411968 0 -0.014793040390792279 0.022642557892532732 0 -0.014996235495146589 0.022284819770411968 0 -0.015082925395889348 0.021941713824189121 0 -0.015515842388627018 0.022184828731401124 0 -0.015082925395889348 0.021941713824189121 0 -0.015515842388627018 0.022184828731401124 0 -0.015385688505666753 0.021532626530258839 0 -0.014996235495146589 0.022284819770411968 0 -0.015082925395889348 0.021941713824189121 0 -0.014741167000734483 0.022083719289544036 0 -0.039943370415821057 0.022326404479936082 0 -0.039600900302590419 0.022295238998327381 0 -0.03978506880473065 0.022111741019312518 0 -0.039600900302590419 0.022295238998327381 0 -0.03978506880473065 0.022111741019312518 0 -0.039457183124163714 0.021912584359617009 0 -0.027636884138939912 0.022114908357226373 0 -0.027864790238467153 0.02197823309718407 0 -0.040242804692544966 0.0216923529682959 0 -0.027864790238467153 0.02197823309718407 0 -0.039876017208320048 0.021966322600323284 0 -0.03978506880473065 0.022111741019312518 0 -0.039457183124163714 0.021912584359617009 0 -0.0399659613911066 0.021828992594684217 0 -0.039876017208320048 0.021966322600323284 0 -0.039457183124163714 0.021912584359617009 0 -0.038492817314694734 0.022482476151335456 0 -0.035659842259680691 0.02304675849564659 0 -0.035600858711838115 0.022769677444687567 0 -0.015082925395889348 0.021941713824189121 0 -0.015014470518795715 0.021601862683648509 0 -0.015385688505666753 0.021532626530258839 0 -0.015082925395889348 0.021941713824189121 0 -0.015014470518795715 0.021601862683648509 0 -0.014752291265345174 0.021667243229223594 0 -0.019469967176411206 0.023357475084928116 0 -0.027419058319226502 0.023505904063309789 0 -0.015061597697626921 0.021852523040949902 0 -0.015430441739451808 0.021712080693449463 0 -0.015057404874562258 0.02147030173254183 0 -0.020660387717924628 0.023764275848982965 0 -0.027586327590851382 0.022360062488017689 0 -0.027261616141949718 0.020893951707677817 0 -0.019469967176411206 0.023357475084928116 0 -0.027864790238467153 0.02197823309718407 0 -0.027864790238467153 0.02197823309718407 0 -0.027419058319226502 0.023505904063309789 0 -0.027419058319226502 0.023505904063309789 0 -0.023112656357521362 0.025217950270288395 0 -0.015430441739451808 0.021712080693449463 0 -0.015057404874562258 0.02147030173254183 0 -0.015298310696576251 0.021221074833168818 0 -0.02900053489676024 0.031619234516980954 0 -0.028564502851725716 0.029736948906274829 0 -0.030192851806583727 0.030152476040332631 0 -0.014965167447512924 0.021101682001383914 0 -0.015057404874562258 0.02147030173254183 0 -0.015298310696576251 0.021221074833168818 0 -0.031933109498412347 0.030401097036307351 0 -0.02900053489676024 0.031619234516980954 0 -0.030192851806583727 0.030152476040332631 0 -0.038459143136072307 0.021790734992493385 0 -0.038492817314694734 0.022482476151335456 0 -0.035600858711838115 0.022769677444687567 0 -0.035321356453028495 0.025604141845864615 0 -0.027419058319226502 0.023505904063309789 0 -0.030271523896281516 0.029206856384910038 0 -0.031147503692247048 0.029882803383913966 0 -0.030192851806583727 0.030152476040332631 0 -0.0144894666070489 0.021595105552250648 0 -0.014147583894784686 0.021508811769455204 0 -0.014415008370695988 0.021277993233869578 0 -0.014067143324004621 0.021116556818248488 0 -0.014147583894784686 0.021508811769455204 0 -0.014415008370695988 0.021277993233869578 0 -0.0144894666070489 0.021595105552250648 0 -0.014415008370695988 0.021277993233869578 0 -0.014749747587689812 0.021355792525768906 0 -0.014965167447512924 0.021101682001383914 0 -0.015057404874562258 0.02147030173254183 0 -0.014749747587689812 0.021355792525768906 0 -0.015061597697626921 0.021852523040949902 0 -0.015057404874562258 0.02147030173254183 0 -0.0148274505901708 0.021627127266043704 0 -0.015057404874562258 0.02147030173254183 0 -0.014749747587689812 0.021355792525768906 0 -0.0148274505901708 0.021627127266043704 0 -0.0144894666070489 0.021595105552250648 0 -0.014749747587689812 0.021355792525768906 0 -0.0148274505901708 0.021627127266043704 0 -0.0144894666070489 0.021595105552250648 0 -0.0148274505901708 0.021627127266043704 0 -0.014793108586590295 0.02188667360512658 0 -0.019469967176411206 0.023357475084928116 0 -0.016100109850299627 0.022922217106433787 0 -0.015061597697626921 0.021852523040949902 0 -0.0148274505901708 0.021627127266043704 0 -0.014793108586590295 0.02188667360512658 0 -0.016100109850299627 0.022922217106433787 0 -0.014362229135711243 0.022406768389977808 0 -0.0144894666070489 0.021595105552250648 0 -0.014793108586590295 0.02188667360512658 0 -0.014174603531245594 0.021897971729958974 0 -0.0144894666070489 0.021595105552250648 0 -0.014147583894784686 0.021508811769455204 0 -0.014174603531245594 0.021897971729958974 0 -0.014752291265345174 0.021667243229223594 0 -0.014174603531245594 0.021897971729958974 0 -0.014367157691202479 0.02215051552478749 0 -0.014174603531245594 0.021897971729958974 0 -0.014367157691202479 0.02215051552478749 0 -0.014052209643362323 0.022315733122586123 0 -0.014367157691202479 0.02215051552478749 0 -0.014052209643362323 0.022315733122586123 0 -0.014497842233427349 0.022358664298424539 0 -0.014996235495146589 0.022284819770411968 0 -0.014741167000734483 0.022083719289544036 0 -0.014497842233427349 0.022358664298424539 0 -0.014752291265345174 0.021667243229223594 0 -0.014367157691202479 0.02215051552478749 0 -0.014741167000734483 0.022083719289544036 0 -0.015082925395889348 0.021941713824189121 0 -0.014752291265345174 0.021667243229223594 0 -0.014741167000734483 0.022083719289544036 0 -0.014367157691202479 0.02215051552478749 0 -0.014741167000734483 0.022083719289544036 0 -0.014497842233427349 0.022358664298424539 0 -0.014996235495146589 0.022284819770411968 0 -0.014497842233427349 0.022358664298424539 0 -0.014793040390792279 0.022642557892532732 0 -0.014497842233427349 0.022358664298424539 0 -0.014793040390792279 0.022642557892532732 0 -0.014253119590018206 0.022738970930883652 0 -0.013712008125399961 0.022689057368540669 0 -0.014052209643362323 0.022315733122586123 0 -0.014253119590018206 0.022738970930883652 0 -0.014052209643362323 0.022315733122586123 0 -0.014497842233427349 0.022358664298424539 0 -0.014253119590018206 0.022738970930883652 0 -0.013712008125399961 0.022689057368540669 0 -0.014253119590018206 0.022738970930883652 0 -0.013891856879206438 0.023011437534133115 0 -0.014253119590018206 0.022738970930883652 0 -0.014329772731650136 0.023220660575728452 0 -0.013891856879206438 0.023011437534133115 0 -0.014253119590018206 0.022738970930883652 0 -0.014731303760831052 0.022985475166663903 0 -0.014329772731650136 0.023220660575728452 0 -0.014793040390792279 0.022642557892532732 0 -0.014253119590018206 0.022738970930883652 0 -0.014731303760831052 0.022985475166663903 0 -0.014793040390792279 0.022642557892532732 0 -0.014731303760831052 0.022985475166663903 0 -0.015122135695969865 0.02291292828615268 0 -0.014816716730402761 0.023332362622395176 0 -0.014367321670006776 0.023601693291371614 0 -0.015263309574717205 0.023692156794765648 0 -0.014731303760831052 0.022985475166663903 0 -0.014816716730402761 0.023332362622395176 0 -0.014329772731650136 0.023220660575728452 0 -0.014816716730402761 0.023332362622395176 0 -0.014329772731650136 0.023220660575728452 0 -0.014367321670006776 0.023601693291371614 0 -0.014329772731650136 0.023220660575728452 0 -0.013995722706597928 0.023280472087436388 0 -0.013891856879206438 0.023011437534133115 0 -0.014329772731650136 0.023220660575728452 0 -0.013995722706597928 0.023280472087436388 0 -0.014367321670006776 0.023601693291371614 0 -0.015211477926788307 0.023871394613110407 0 -0.016406367815967392 0.022888023408261789 0 -0.016244758997348164 0.025019555225874516 0 -0.015472643152646777 0.023112820081365948 0 -0.01417228207459879 0.023292540146342237 0 -0.013995722706597928 0.023280472087436388 0 -0.014367321670006776 0.023601693291371614 0 -0.013720606283317519 0.023396698977126224 0 -0.015211477926788307 0.023871394613110407 0 -0.016406367815967392 0.022888023408261789 0 -0.014224046996855725 0.023439061327222083 0 -0.016406367815967392 0.022888023408261789 0 -0.014224046996855725 0.023439061327222083 0 -0.013720606283317519 0.023396698977126224 0 -0.015211477926788307 0.023871394613110407 0 -0.016244758997348164 0.025019555225874516 0 -0.01371005959018994 0.023975951889159429 0 -0.017223091183026229 0.016974188124760235 0 -0.015426940787376799 0.020044577730718025 0 -0.015472643152646777 0.023112820081365948 0 -0.016660216933717161 0.022343867506063569 0 -0.016406367815967392 0.022888023408261789 0 -0.018489583942936851 0.023672243545181122 0 -0.019285006706065873 0.022631634479947569 0 -0.016406367815967392 0.022888023408261789 0 -0.018489583942936851 0.023672243545181122 0 -0.018075395826623406 0.024614588018598726 0 -0.016406367815967392 0.022888023408261789 0 -0.018075395826623406 0.024614588018598726 0 -0.016244758997348164 0.025019555225874516 0 -0.017223091183026229 0.016974188124760235 0 -0.022945067431969376 0.013895743089624296 0 -0.018380051743299732 0.0097417041257538157 0 -0.018881446586515541 0.0099656368796867591 0 -0.018455740018499447 0.010038118763005839 0 -0.018075395826623406 0.024614588018598726 0 -0.016244758997348164 0.025019555225874516 0 -0.018997015602542706 0.026187330635315174 0 -0.018380051743299732 0.0097417041257538157 0 -0.017882692660619069 0.0095492313849978427 0 -0.018054573694797765 0.0098631567574619002 0 -0.018380051743299732 0.0097417041257538157 0 -0.018245254391268766 0.0099804336325149401 0 -0.018455740018499447 0.010038118763005839 0 -0.018380051743299732 0.0097417041257538157 0 -0.018245254391268766 0.0099804336325149401 0 -0.018054573694797765 0.0098631567574619002 0 -0.018245254391268766 0.0099804336325149401 0 -0.018054573694797765 0.0098631567574619002 0 -0.018063792035384905 0.010041517611914188 0 -0.027255015417907306 0.010618728722437016 0 -0.025572271122669781 0.0097719128796454977 0 -0.026648377148366278 0.0092509145831568603 0 -0.027255015417907306 0.010618728722437016 0 -0.026648377148366278 0.0092509145831568603 0 -0.027658465640562246 0.0091320081810927715 0 -0.027255015417907306 0.010618728722437016 0 -0.025572271122669781 0.0097719128796454977 0 -0.025543342569075433 0.011541860581920081 0 -0.025572271122669781 0.0097719128796454977 0 -0.025543342569075433 0.011541860581920081 0 -0.024362364875819956 0.010666990311712457 0 -0.025572271122669781 0.0097719128796454977 0 -0.025829667513773871 0.0084642062036994255 0 -0.023814807682313414 0.0081080253765127806 0 -0.025572271122669781 0.0097719128796454977 0 -0.025829667513773871 0.0084642062036994255 0 -0.026648377148366278 0.0092509145831568603 0 -0.025829667513773871 0.0084642062036994255 0 -0.026648377148366278 0.0092509145831568603 0 -0.026884782409124206 0.008109332498100778 0 -0.026648377148366278 0.0092509145831568603 0 -0.027560040403673016 0.0086401098493429813 0 -0.027658465640562246 0.0091320081810927715 0 -0.026884782409124206 0.008109332498100778 0 -0.027560040403673016 0.0086401098493429813 0 -0.027757689633358902 0.0079844443733238773 0 -0.026648377148366278 0.0092509145831568603 0 -0.026884782409124206 0.008109332498100778 0 -0.027560040403673016 0.0086401098493429813 0 -0.023847672513281286 0.017572011951435231 0 -0.023957558445580434 0.012551456480342466 0 -0.027255015417907306 0.010618728722437016 0 -0.027658465640562246 0.0091320081810927715 0 -0.029172702675492997 0.008019064549455732 0 -0.027560040403673016 0.0086401098493429813 0 -0.027658465640562246 0.0091320081810927715 0 -0.029172702675492997 0.008019064549455732 0 -0.027560040403673016 0.0086401098493429813 0 -0.029172702675492997 0.008019064549455732 0 -0.027757689633358902 0.0079844443733238773 0 -0.022945067431969376 0.013895743089624296 0 -0.019086507568374333 0.02097243154715835 0 -0.018997015602542706 0.026187330635315174 0 -0.019014945189423659 0.025064906584297785 0 -0.019927533398100526 0.02494784106922281 0 -0.019109609487763652 0.025954621578336445 0 -0.019927533398100526 0.02494784106922281 0 -0.019360039948759237 0.026076865636331485 0 -0.022945067431969376 0.013895743089624296 0 -0.023957558445580434 0.012551456480342466 0 -0.018075395826623406 0.024614588018598726 0 -0.018997015602542706 0.026187330635315174 0 -0.019014945189423659 0.025064906584297785 0 -0.019061779347145525 0.024513889885525896 0 -0.019927533398100526 0.02494784106922281 0 -0.019651680028259861 0.023973318438193593 0 -0.019014945189423659 0.025064906584297785 0 -0.019061779347145525 0.024513889885525896 0 -0.019927533398100526 0.02494784106922281 0 -0.018075395826623406 0.024614588018598726 0 -0.019014945189423659 0.025064906584297785 0 -0.019061779347145525 0.024513889885525896 0 -0.020692573410548351 0.024427856044951141 0 -0.019927533398100526 0.02494784106922281 0 -0.019360039948759237 0.026076865636331485 0 -0.020692573410548351 0.024427856044951141 0 -0.019927533398100526 0.02494784106922281 0 -0.019651680028259861 0.023973318438193593 0 -0.020692573410548351 0.024427856044951141 0 -0.019651680028259861 0.023973318438193593 0 -0.020188920189670025 0.023589175043631335 0 -0.019651680028259861 0.023973318438193593 0 -0.020188920189670025 0.023589175043631335 0 -0.019285006706065873 0.022631634479947569 0 -0.020692573410548351 0.024427856044951141 0 -0.020188920189670025 0.023589175043631335 0 -0.020738283272774202 0.023153579149337723 0 -0.018489583942936851 0.023672243545181122 0 -0.019651680028259861 0.023973318438193593 0 -0.019285006706065873 0.022631634479947569 0 -0.018489583942936851 0.023672243545181122 0 -0.019061779347145525 0.024513889885525896 0 -0.019651680028259861 0.023973318438193593 0 -0.018489583942936851 0.023672243545181122 0 -0.018075395826623406 0.024614588018598726 0 -0.019061779347145525 0.024513889885525896 0 -0.020188920189670025 0.023589175043631335 0 -0.019285006706065873 0.022631634479947569 0 -0.020738283272774202 0.023153579149337723 0 -0.016660216933717161 0.022343867506063569 0 -0.027237502975903691 0.01761435671385762 0 -0.019285006706065873 0.022631634479947569 0 -0.020738283272774202 0.023153579149337723 0 -0.02219514003956426 0.022465850434267319 0 -0.020692573410548351 0.024427856044951141 0 -0.020738283272774202 0.023153579149337723 0 -0.02219514003956426 0.022465850434267319 0 -0.023847672513281286 0.017572011951435231 0 -0.027237502975903691 0.01761435671385762 0 -0.025543342569075433 0.011541860581920081 0 -0.024934038068796145 0.013248513573410224 0 -0.024362364875819956 0.010666990311712457 0 -0.027255015417907306 0.010618728722437016 0 -0.025543342569075433 0.011541860581920081 0 -0.025354341419070812 0.013229557892122547 0 -0.025543342569075433 0.011541860581920081 0 -0.025354341419070812 0.013229557892122547 0 -0.024934038068796145 0.013248513573410224 0 -0.027237502975903691 0.01761435671385762 0 -0.03028013640243005 0.015745329012156587 0 -0.0330546613710158 0.014111263584568023 0 -0.029599089823644391 0.014263224698256655 0 -0.03037915170219932 0.017641882259704787 0 -0.030060480645155502 0.016904734141957714 0 -0.028262809538610684 0.023196714310739327 0 -0.016504192498142077 0.023652922553637164 0 -0.016615769420822012 0.023511423362252683 0 -0.015557551117314916 0.023129276006872087 0 -0.030060480645155502 0.016904734141957714 0 -0.016138898767019884 0.020699881754721743 0 -0.015989724986894684 0.023546597703040798 0 -0.015333053315226932 0.023301520700974375 0 -0.01572781649294273 0.022807262817554786 0 -0.03028013640243005 0.015745329012156587 0 -0.030060480645155502 0.016904734141957714 0 -0.027237502975903691 0.01761435671385762 0 -0.030060480645155502 0.016904734141957714 0 -0.015430484554435134 0.022100350729071874 0 -0.016138898767019884 0.020699881754721743 0 -0.014816716730402761 0.023332362622395176 0 -0.015263309574717205 0.023692156794765648 0 -0.015557551117314916 0.023129276006872087 0 -0.014731303760831052 0.022985475166663903 0 -0.014816716730402761 0.023332362622395176 0 -0.015557551117314916 0.023129276006872087 0 -0.015263309574717205 0.023692156794765648 0 -0.016504192498142077 0.023652922553637164 0 -0.015557551117314916 0.023129276006872087 0 -0.014731303760831052 0.022985475166663903 0 -0.015333053315226932 0.023301520700974375 0 -0.015122135695969865 0.02291292828615268 0 -0.015181123820466774 0.022582089225789928 0 -0.015122135695969865 0.02291292828615268 0 -0.01572781649294273 0.022807262817554786 0 -0.015333053315226932 0.023301520700974375 0 -0.015122135695969865 0.02291292828615268 0 -0.01572781649294273 0.022807262817554786 0 -0.015181123820466774 0.022582089225789928 0 -0.014793040390792279 0.022642557892532732 0 -0.015122135695969865 0.02291292828615268 0 -0.039714736896663251 0.022826613272739323 0 -0.039689264066131533 0.022586839103612796 0 -0.039978923356080574 0.022627206369320915 0 -0.042200881862826195 0.011413221720321559 0 -0.043432354291943018 0.0092785434002813638 0 -0.041488168614395395 0.011677849309420568 0 -0.045077415495932117 0.0099296928948598567 0 -0.043806879216448533 0.0086118661432006954 0 -0.045077415495932117 0.0099296928948598567 0 -0.043806879216448533 0.0086118661432006954 0 -0.045166586996285861 0.0077352794863151646 0 -0.043806879216448533 0.0086118661432006954 0 -0.042873603533121737 0.0073261069356458184 0 -0.042255573587164252 0.0081887883407016394 0 -0.043806879216448533 0.0086118661432006954 0 -0.042873603533121737 0.0073261069356458184 0 -0.043776848522998527 0.0071452497243169478 0 -0.042873603533121737 0.0073261069356458184 0 -0.043776848522998527 0.0071452497243169478 0 -0.042666063776809593 0.0063135510827863096 0 -0.043776848522998527 0.0071452497243169478 0 -0.045166586996285861 0.0077352794863151646 0 -0.045139955161048628 0.0068768892210723052 0 -0.043806879216448533 0.0086118661432006954 0 -0.043776848522998527 0.0071452497243169478 0 -0.045166586996285861 0.0077352794863151646 0 -0.046917538283496846 0.0071066833804740324 0 -0.045077415495932117 0.0099296928948598567 0 -0.045166586996285861 0.0077352794863151646 0 -0.030060480645155502 0.016904734141957714 0 -0.04227580156261912 0.014845833721168884 0 -0.045166586996285861 0.0077352794863151646 0 -0.04629695814408729 0.0068277293995351101 0 -0.045139955161048628 0.0068768892210723052 0 -0.046917538283496846 0.0071066833804740324 0 -0.045166586996285861 0.0077352794863151646 0 -0.04629695814408729 0.0068277293995351101 0 -0.030060480645155502 0.016904734141957714 0 -0.035447668489313751 0.014548080894296338 0 -0.039189368963669202 0.0092832506180485358 0 -0.040323998814042597 0.010321038143945891 0 -0.038537409504352499 0.010864763452547416 0 -0.039189368963669202 0.0092832506180485358 0 -0.040323998814042597 0.010321038143945891 0 -0.040751160447227194 0.0085338533248208379 0 -0.042041248788182085 0.011049726824410525 0 -0.043806879216448533 0.0086118661432006954 0 -0.04185101759389414 0.0093384054646266715 0 -0.040323998814042597 0.010321038143945891 0 -0.04185101759389414 0.0093384054646266715 0 -0.040751160447227194 0.0085338533248208379 0 -0.042041248788182085 0.011049726824410525 0 -0.040323998814042597 0.010321038143945891 0 -0.04185101759389414 0.0093384054646266715 0 -0.043806879216448533 0.0086118661432006954 0 -0.04185101759389414 0.0093384054646266715 0 -0.042255573587164252 0.0081887883407016394 0 -0.042873603533121737 0.0073261069356458184 0 -0.04166583849820394 0.0071262590382519982 0 -0.042666063776809593 0.0063135510827863096 0 -0.042873603533121737 0.0073261069356458184 0 -0.042255573587164252 0.0081887883407016394 0 -0.04166583849820394 0.0071262590382519982 0 -0.04166583849820394 0.0071262590382519982 0 -0.04026739616697636 0.0074721058307721773 0 -0.040610456601228903 0.0064524653527478189 0 -0.04166583849820394 0.0071262590382519982 0 -0.040751160447227194 0.0085338533248208379 0 -0.04026739616697636 0.0074721058307721773 0 -0.042255573587164252 0.0081887883407016394 0 -0.04166583849820394 0.0071262590382519982 0 -0.040751160447227194 0.0085338533248208379 0 -0.04185101759389414 0.0093384054646266715 0 -0.042255573587164252 0.0081887883407016394 0 -0.040751160447227194 0.0085338533248208379 0 -0.040751160447227194 0.0085338533248208379 0 -0.04026739616697636 0.0074721058307721773 0 -0.03925293790669479 0.0079826995378599625 0 -0.04026739616697636 0.0074721058307721773 0 -0.03925293790669479 0.0079826995378599625 0 -0.039184511073590812 0.0065088402940743553 0 -0.03925293790669479 0.0079826995378599625 0 -0.039184511073590812 0.0065088402940743553 0 -0.03793876424246144 0.0072623928554720321 0 -0.039189368963669202 0.0092832506180485358 0 -0.03925293790669479 0.0079826995378599625 0 -0.038594106826119336 0.0084355082222396655 0 -0.039189368963669202 0.0092832506180485358 0 -0.040751160447227194 0.0085338533248208379 0 -0.03925293790669479 0.0079826995378599625 0 -0.039184511073590812 0.0065088402940743553 0 -0.040007022173168739 0.0051067278093437432 0 -0.03857034234022224 0.0048826661380629421 0 -0.04026739616697636 0.0074721058307721773 0 -0.039184511073590812 0.0065088402940743553 0 -0.040610456601228903 0.0064524653527478189 0 -0.040610456601228903 0.0064524653527478189 0 -0.040007022173168739 0.0051067278093437432 0 -0.041620508299048072 0.0057560103427677315 0 -0.039184511073590812 0.0065088402940743553 0 -0.040610456601228903 0.0064524653527478189 0 -0.040007022173168739 0.0051067278093437432 0 -0.039037994218782637 0.003002569339897317 0 -0.039984545604954159 0.006177118311181019 0 -0.041620508299048072 0.0057560103427677315 0 -0.041179427251426738 0.0041068448852116758 0 -0.04360432974585516 0.0053797004726976443 0 -0.040007022173168739 0.0051067278093437432 0 -0.041620508299048072 0.0057560103427677315 0 -0.041179427251426738 0.0041068448852116758 0 -0.04166583849820394 0.0071262590382519982 0 -0.040610456601228903 0.0064524653527478189 0 -0.041620508299048072 0.0057560103427677315 0 -0.041620508299048072 0.0057560103427677315 0 -0.042666063776809593 0.0063135510827863096 0 -0.04360432974585516 0.0053797004726976443 0 -0.04166583849820394 0.0071262590382519982 0 -0.041620508299048072 0.0057560103427677315 0 -0.042666063776809593 0.0063135510827863096 0 -0.037952945501053069 0.00071559145091528191 0 -0.037497081103073863 0.00082617615398236318 0 -0.038217807611670096 0.0011672142925712244 0 -0.037952945501053069 0.00071559145091528191 0 -0.037696689818883418 0.00036607115197859815 0 -0.038249432396777035 0.00032094309671448909 0 -0.037952945501053069 0.00071559145091528191 0 -0.037696689818883418 0.00036607115197859815 0 -0.037497081103073863 0.00082617615398236318 0 -0.040007022173168739 0.0051067278093437432 0 -0.03857034234022224 0.0048826661380629421 0 -0.03871397063129612 0.0026197268669597325 0 -0.037696689818883418 0.00036607115197859815 0 -0.037497081103073863 0.00082617615398236318 0 -0.036808510672550081 0.00067335824893474271 0 -0.039037994218782637 0.003002569339897317 0 -0.037549630402554122 0.0017211835800360344 0 -0.040007022173168739 0.0051067278093437432 0 -0.041179427251426738 0.0041068448852116758 0 -0.03871397063129612 0.0026197268669597325 0 -0.035447668489313751 0.014548080894296338 0 -0.039984545604954159 0.006177118311181019 0 -0.035863616154801943 0.0097576749136824899 0 -0.034613148084992398 0.009155328856477683 0 -0.035919875262462569 0.0088815391582843205 0 -0.046224625225414165 0.0068579182925761917 0 -0.045139955161048628 0.0068768892210723052 0 -0.043474887535242666 0.0055323351113397683 0 -0.03028013640243005 0.015745329012156587 0 -0.031471720250955522 0.0095672651839621373 0 -0.036103264217133398 0.0097519658468000342 0 -0.035863616154801943 0.0097576749136824899 0 -0.035919875262462569 0.0088815391582843205 0 -0.03028013640243005 0.015745329012156587 0 -0.035447668489313751 0.014548080894296338 0 -0.031124430206871959 0.015010366929758228 0 -0.031106025611072501 0.01494093384404553 0 -0.031259586495916342 0.015001838668227284 0 -0.035447668489313751 0.014548080894296338 0 -0.040774415730811121 0.013047942006739224 0 -0.043776848522998527 0.0071452497243169478 0 -0.045139955161048628 0.0068768892210723052 0 -0.043474887535242666 0.0055323351113397683 0 -0.043776848522998527 0.0071452497243169478 0 -0.042666063776809593 0.0063135510827863096 0 -0.043474887535242666 0.0055323351113397683 0 -0.041159479005060444 0.0055711399165105559 0 -0.039984545604954159 0.006177118311181019 0 -0.037952945501053069 0.00071559145091528191 0 -0.038217807611670096 0.0011672142925712244 0 -0.038249432396777035 0.00032094309671448909 0 -0.039984545604954159 0.006177118311181019 0 -0.034874155436952825 0.0045493728521341084 0 -0.038217807611670096 0.0011672142925712244 0 -0.038249432396777035 0.00032094309671448909 0 -0.039072960407907871 0.00029080902568049668 0 -0.034613148084992398 0.009155328856477683 0 -0.035919875262462569 0.0088815391582843205 0 -0.035732785921632766 0.0080216285593419662 0 -0.031471720250955522 0.0095672651839621373 0 -0.034874155436952825 0.0045493728521341084 0 -0.025572271122669781 0.0097719128796454977 0 -0.024362364875819956 0.010666990311712457 0 -0.023814807682313414 0.0081080253765127806 0 -0.039072960407907871 0.00029080902568049668 0 -0.038517517811559654 -0.00016825921570802943 0 -0.038725891792443304 -0.00083230521223219111 0 -0.038707477695186746 -0.00078699581633159029 0 -0.038753063653935889 -0.00092911643587470321 0 -0.038725891792443304 -0.00083230521223219111 0 -0.034874155436952825 0.0045493728521341084 0 -0.036861128210870966 -0.00066321009032049719 0 -0.038249432396777035 0.00032094309671448909 0 -0.039072960407907871 0.00029080902568049668 0 -0.038517517811559654 -0.00016825921570802943 0 -0.038128491095766916 -0.00040108293528216127 0 -0.038517517811559654 -0.00016825921570802943 0 -0.038725891792443304 -0.00083230521223219111 0 -0.037696689818883418 0.00036607115197859815 0 -0.038249432396777035 0.00032094309671448909 0 -0.038128491095766916 -0.00040108293528216127 0 -0.038249432396777035 0.00032094309671448909 0 -0.038128491095766916 -0.00040108293528216127 0 -0.038517517811559654 -0.00016825921570802943 0 -0.038128491095766916 -0.00040108293528216127 0 -0.038102763710699206 -0.0010172355180555143 0 -0.038593430366904394 -0.0011386895932827892 0 -0.038128491095766916 -0.00040108293528216127 0 -0.038725891792443304 -0.00083230521223219111 0 -0.038593430366904394 -0.0011386895932827892 0 -0.038725891792443304 -0.00083230521223219111 0 -0.038593430366904394 -0.0011386895932827892 0 -0.038766050250932292 -0.0011618129484548794 0 -0.038753063653935889 -0.00092911643587470321 0 -0.038725891792443304 -0.00083230521223219111 0 -0.038766050250932292 -0.0011618129484548794 0 -0.037696689818883418 0.00036607115197859815 0 -0.037484226853322325 -5.2391366348570898e-05 0 -0.036808510672550081 0.00067335824893474271 0 -0.037484226853322325 -5.2391366348570898e-05 0 -0.037068625290793425 -0.00022454401878933022 0 -0.036808510672550081 0.00067335824893474271 0 -0.037068625290793425 -0.00022454401878933022 0 -0.036808510672550081 0.00067335824893474271 0 -0.036589988546529326 1.0254897042362112e-05 0 -0.037696689818883418 0.00036607115197859815 0 -0.038128491095766916 -0.00040108293528216127 0 -0.037484226853322325 -5.2391366348570898e-05 0 -0.038128491095766916 -0.00040108293528216127 0 -0.037484226853322325 -5.2391366348570898e-05 0 -0.037630471067960428 -0.00063811933497125997 0 -0.038128491095766916 -0.00040108293528216127 0 -0.037630471067960428 -0.00063811933497125997 0 -0.038102763710699206 -0.0010172355180555143 0 -0.037484226853322325 -5.2391366348570898e-05 0 -0.037630471067960428 -0.00063811933497125997 0 -0.037068625290793425 -0.00022454401878933022 0 -0.037630471067960428 -0.00063811933497125997 0 -0.037105746478237465 -0.00079777019792870148 0 -0.037068625290793425 -0.00022454401878933022 0 -0.037105746478237465 -0.00079777019792870148 0 -0.037068625290793425 -0.00022454401878933022 0 -0.03670147035309982 -0.00050094764820010466 0 -0.037122891881693487 -0.0012693050041072869 0 -0.037637960877559717 -0.0013913295289506888 0 -0.036907887383296048 -0.0016818750692457992 0 -0.037630471067960428 -0.00063811933497125997 0 -0.037105746478237465 -0.00079777019792870148 0 -0.037637960877559717 -0.0013913295289506888 0 -0.037122891881693487 -0.0012693050041072869 0 -0.036907887383296048 -0.0016818750692457992 0 -0.03655178234240114 -0.0010718767778311177 0 -0.037105746478237465 -0.00079777019792870148 0 -0.037122891881693487 -0.0012693050041072869 0 -0.03655178234240114 -0.0010718767778311177 0 -0.037105746478237465 -0.00079777019792870148 0 -0.037122891881693487 -0.0012693050041072869 0 -0.037637960877559717 -0.0013913295289506888 0 -0.038102763710699206 -0.0010172355180555143 0 -0.037637960877559717 -0.0013913295289506888 0 -0.038407205032195517 -0.0014511380625778141 0 -0.037630471067960428 -0.00063811933497125997 0 -0.038102763710699206 -0.0010172355180555143 0 -0.037637960877559717 -0.0013913295289506888 0 -0.038055858620696756 -0.0016919002625410398 0 -0.037350610665586599 -0.0019887111114481222 0 -0.037885329947839587 -0.0021465165955408642 0 -0.037637960877559717 -0.0013913295289506888 0 -0.038055858620696756 -0.0016919002625410398 0 -0.038407205032195517 -0.0014511380625778141 0 -0.037637960877559717 -0.0013913295289506888 0 -0.038055858620696756 -0.0016919002625410398 0 -0.037350610665586599 -0.0019887111114481222 0 -0.038055858620696756 -0.0016919002625410398 0 -0.038588791620126996 -0.0017936036396101228 0 -0.037885329947839587 -0.0021465165955408642 0 -0.037637960877559717 -0.0013913295289506888 0 -0.037350610665586599 -0.0019887111114481222 0 -0.036907887383296048 -0.0016818750692457992 0 -0.037350610665586599 -0.0019887111114481222 0 -0.036907887383296048 -0.0016818750692457992 0 -0.036431473094191945 -0.0020545780459429604 0 -0.038750783927130446 -0.0014267755905919364 0 -0.038593430366904394 -0.0011386895932827892 0 -0.038766050250932292 -0.0011618129484548794 0 -0.038696606330597717 -0.0014593233810148885 0 -0.038750783927130446 -0.0014267755905919364 0 -0.038781379239170508 -0.00163243077048253 0 -0.038696606330597717 -0.0014593233810148885 0 -0.038750783927130446 -0.0014267755905919364 0 -0.038593430366904394 -0.0011386895932827892 0 -0.038102763710699206 -0.0010172355180555143 0 -0.038593430366904394 -0.0011386895932827892 0 -0.038407205032195517 -0.0014511380625778141 0 -0.038696606330597717 -0.0014593233810148885 0 -0.038593430366904394 -0.0011386895932827892 0 -0.038407205032195517 -0.0014511380625778141 0 -0.038696606330597717 -0.0014593233810148885 0 -0.038407205032195517 -0.0014511380625778141 0 -0.038791968045448155 -0.0017218539595951544 0 -0.038407205032195517 -0.0014511380625778141 0 -0.038588791620126996 -0.0017936036396101228 0 -0.038791968045448155 -0.0017218539595951544 0 -0.038055858620696756 -0.0016919002625410398 0 -0.038407205032195517 -0.0014511380625778141 0 -0.038588791620126996 -0.0017936036396101228 0 -0.038588791620126996 -0.0017936036396101228 0 -0.038791968045448155 -0.0017218539595951544 0 -0.038898649795527596 -0.0017887199961919909 0 -0.038696606330597717 -0.0014593233810148885 0 -0.038791968045448155 -0.0017218539595951544 0 -0.038781379239170508 -0.00163243077048253 0 -0.038791968045448155 -0.0017218539595951544 0 -0.038826899785993643 -0.0017695157160211332 0 -0.038942246719574726 -0.0017622042264886977 0 -0.038791968045448155 -0.0017218539595951544 0 -0.038781379239170508 -0.00163243077048253 0 -0.038826899785993643 -0.0017695157160211332 0 -0.038826899785993643 -0.0017695157160211332 0 -0.03872868040387803 -0.001778766393687926 0 -0.038730130391138803 -0.0018190018279703301 0 -0.03872868040387803 -0.001778766393687926 0 -0.038588046908388213 -0.0019000500602375054 0 -0.038730130391138803 -0.0018190018279703301 0 -0.038781379239170508 -0.00163243077048253 0 -0.038826899785993643 -0.0017695157160211332 0 -0.03872868040387803 -0.001778766393687926 0 -0.038781379239170508 -0.00163243077048253 0 -0.03872868040387803 -0.001778766393687926 0 -0.038765233100973656 -0.0015306907495984557 0 -0.038750783927130446 -0.0014267755905919364 0 -0.038781379239170508 -0.00163243077048253 0 -0.038765233100973656 -0.0015306907495984557 0 -0.038765233100973656 -0.0015306907495984557 0 -0.038782778723076117 -0.0014179008236786697 0 -0.038724714084699303 -0.0016812877145174232 0 -0.03872868040387803 -0.001778766393687926 0 -0.038765233100973656 -0.0015306907495984557 0 -0.038724714084699303 -0.0016812877145174232 0 -0.038765233100973656 -0.0015306907495984557 0 -0.038782778723076117 -0.0014179008236786697 0 -0.038766050250932292 -0.0011618129484548794 0 -0.038750783927130446 -0.0014267755905919364 0 -0.038765233100973656 -0.0015306907495984557 0 -0.038766050250932292 -0.0011618129484548794 0 -0.038782778723076117 -0.0014179008236786697 0 -0.038807214434621866 -0.0016158532574726962 0 -0.038724714084699303 -0.0016812877145174232 0 -0.038807214434621866 -0.0016158532574726962 0 -0.038724714084699303 -0.0016812877145174232 0 -0.038611412107828272 -0.0018514742095678178 0 -0.03872868040387803 -0.001778766393687926 0 -0.038724714084699303 -0.0016812877145174232 0 -0.038611412107828272 -0.0018514742095678178 0 -0.03872868040387803 -0.001778766393687926 0 -0.038611412107828272 -0.0018514742095678178 0 -0.038588046908388213 -0.0019000500602375054 0 -0.038611412107828272 -0.0018514742095678178 0 -0.038387307088639355 -0.0020195421025400347 0 -0.038588046908388213 -0.0019000500602375054 0 -0.038807214434621866 -0.0016158532574726962 0 -0.038611412107828272 -0.0018514742095678178 0 -0.038409571704657676 -0.0020420759826160003 0 -0.038312575823273583 -0.0047694034690708795 0 -0.037923150651132678 -0.003828538304807018 0 -0.03762055221121343 -0.0041122167679916782 0 -0.038611412107828272 -0.0018514742095678178 0 -0.038409571704657676 -0.0020420759826160003 0 -0.038387307088639355 -0.0020195421025400347 0 -0.037923150651132678 -0.003828538304807018 0 -0.03762055221121343 -0.0041122167679916782 0 -0.036556159642470408 -0.0032474456124070017 0 -0.031508853195491036 0.00081825951028682451 0 -0.032984762593671238 0.00029225822340568457 0 -0.033472606640975622 -0.0010452691616716638 0 -0.034638499561697754 -0.0015680640087205001 0 -0.034964705447096747 -0.0020606461764006412 0 -0.031508853195491036 0.00081825951028682451 0 -0.032984762593671238 0.00029225822340568457 0 -0.03236991081796517 0.0016499557280979594 0 -0.032984762593671238 0.00029225822340568457 0 -0.033524611192465012 0.0016431976350617782 0 -0.03236991081796517 0.0016499557280979594 0 -0.025770227120604196 0.0063542563627597016 0 -0.025367158632824616 0.0072654456704376704 0 -0.033524611192465012 0.0016431976350617782 0 -0.031926177739640398 0.0028047156599469028 0 -0.031382821916801827 0.0047792935765641172 0 -0.01812076864680583 0.010939099344953336 0 -0.018491587177046156 0.010431498460623138 0 -0.018121962880361542 0.010557992678434635 0 -0.033524611192465012 0.0016431976350617782 0 -0.03236991081796517 0.0016499557280979594 0 -0.031926177739640398 0.0028047156599469028 0 -0.031508853195491036 0.00081825951028682451 0 -0.03236991081796517 0.0016499557280979594 0 -0.031926177739640398 0.0028047156599469028 0 -0.029412557041826975 0.0029169835208253201 0 -0.031508853195491036 0.00081825951028682451 0 -0.031926177739640398 0.0028047156599469028 0 -0.029412557041826975 0.0029169835208253201 0 -0.031926177739640398 0.0028047156599469028 0 -0.031048106093513012 0.0036971263468464936 0 -0.033871705374407979 -3.039077465812362e-05 0 -0.037867094933883294 -0.0033613768124796314 0 -0.033871705374407979 -3.039077465812362e-05 0 -0.034638499561697754 -0.0015680640087205001 0 -0.029412557041826975 0.0029169835208253201 0 -0.030359407562532716 0.0043067533973498899 0 -0.029274618491132526 0.0048403057384605779 0 -0.029412557041826975 0.0029169835208253201 0 -0.030359407562532716 0.0043067533973498899 0 -0.031048106093513012 0.0036971263468464936 0 -0.030359407562532716 0.0043067533973498899 0 -0.031048106093513012 0.0036971263468464936 0 -0.031382821916801827 0.0047792935765641172 0 -0.031926177739640398 0.0028047156599469028 0 -0.031048106093513012 0.0036971263468464936 0 -0.031382821916801827 0.0047792935765641172 0 -0.030359407562532716 0.0043067533973498899 0 -0.031382821916801827 0.0047792935765641172 0 -0.03047958432141994 0.0053336557661044122 0 -0.030359407562532716 0.0043067533973498899 0 -0.03047958432141994 0.0053336557661044122 0 -0.029274618491132526 0.0048403057384605779 0 -0.03047958432141994 0.0053336557661044122 0 -0.029481022263923483 0.0055402542744100083 0 -0.029274618491132526 0.0048403057384605779 0 -0.018491587177046156 0.010431498460623138 0 -0.018121962880361542 0.010557992678434635 0 -0.018291021592490509 0.010344264591481064 0 -0.018491587177046156 0.010431498460623138 0 -0.018291021592490509 0.010344264591481064 0 -0.018471146665431745 0.010211916967459453 0 -0.018121962880361542 0.010557992678434635 0 -0.018291021592490509 0.010344264591481064 0 -0.018102261287363659 0.010343771477501306 0 -0.018246751710359221 0.010198183408904589 0 -0.017974513627824429 0.010203644101299774 0 -0.018063792035384905 0.010041517611914188 0 -0.018102261287363659 0.010343771477501306 0 -0.018246751710359221 0.010198183408904589 0 -0.017974513627824429 0.010203644101299774 0 -0.018291021592490509 0.010344264591481064 0 -0.018102261287363659 0.010343771477501306 0 -0.018246751710359221 0.010198183408904589 0 -0.018291021592490509 0.010344264591481064 0 -0.018246751710359221 0.010198183408904589 0 -0.018471146665431745 0.010211916967459453 0 -0.018246751710359221 0.010198183408904589 0 -0.018471146665431745 0.010211916967459453 0 -0.018455740018499447 0.010038118763005839 0 -0.018246751710359221 0.010198183408904589 0 -0.018245254391268766 0.0099804336325149401 0 -0.018455740018499447 0.010038118763005839 0 -0.018246751710359221 0.010198183408904589 0 -0.018245254391268766 0.0099804336325149401 0 -0.018063792035384905 0.010041517611914188 0 -0.018881446586515541 0.0099656368796867591 0 -0.018471146665431745 0.010211916967459453 0 -0.018455740018499447 0.010038118763005839 0 -0.022945067431969376 0.013895743089624296 0 -0.025367158632824616 0.0072654456704376704 0 -0.018881446586515541 0.0099656368796867591 0 -0.018491587177046156 0.010431498460623138 0 -0.018471146665431745 0.010211916967459453 0 -0.03047958432141994 0.0053336557661044122 0 -0.028782083257542095 0.0076890404853917843 0 -0.029239893275480142 0.0062038324161120782 0 -0.02866563551340456 0.0084835924145988308 0 -0.031382821916801827 0.0047792935765641172 0 -0.03047958432141994 0.0053336557661044122 0 -0.030449758644072532 0.0049275593160508779 0 -0.023957558445580434 0.012551456480342466 0 -0.03047958432141994 0.0053336557661044122 0 -0.029481022263923483 0.0055402542744100083 0 -0.029239893275480142 0.0062038324161120782 0 -0.028782083257542095 0.0076890404853917843 0 -0.028594610328465567 0.0068154200546354958 0 -0.029239893275480142 0.0062038324161120782 0 -0.02866563551340456 0.0084835924145988308 0 -0.03047958432141994 0.0053336557661044122 0 -0.028299103412354514 0.0083166437125151808 0 -0.028782083257542095 0.0076890404853917843 0 -0.028594610328465567 0.0068154200546354958 0 -0.02822546210783685 0.0071374038785667806 0 -0.028926144799923829 0.0057806083247235835 0 -0.027747703762772819 0.0065411975752852946 0 -0.029274618491132526 0.0048403057384605779 0 -0.028594610328465567 0.0068154200546354958 0 -0.029239893275480142 0.0062038324161120782 0 -0.028578702899736904 0.0062900996747078169 0 -0.029239893275480142 0.0062038324161120782 0 -0.028578702899736904 0.0062900996747078169 0 -0.028926144799923829 0.0057806083247235835 0 -0.029481022263923483 0.0055402542744100083 0 -0.029239893275480142 0.0062038324161120782 0 -0.028926144799923829 0.0057806083247235835 0 -0.028578702899736904 0.0062900996747078169 0 -0.028926144799923829 0.0057806083247235835 0 -0.027747703762772819 0.0065411975752852946 0 -0.028578702899736904 0.0062900996747078169 0 -0.028265535923576012 0.0066042581997980306 0 -0.027747703762772819 0.0065411975752852946 0 -0.028594610328465567 0.0068154200546354958 0 -0.028578702899736904 0.0062900996747078169 0 -0.028265535923576012 0.0066042581997980306 0 -0.028265535923576012 0.0066042581997980306 0 -0.027747703762772819 0.0065411975752852946 0 -0.028091425623079071 0.0068880588230446705 0 -0.029172702675492997 0.008019064549455732 0 -0.027757689633358902 0.0079844443733238773 0 -0.027412941445466292 0.0071704292806426626 0 -0.028782083257542095 0.0076890404853917843 0 -0.02822546210783685 0.0071374038785667806 0 -0.027412941445466292 0.0071704292806426626 0 -0.028091425623079071 0.0068880588230446705 0 -0.02822546210783685 0.0071374038785667806 0 -0.027412941445466292 0.0071704292806426626 0 -0.027747703762772819 0.0065411975752852946 0 -0.028091425623079071 0.0068880588230446705 0 -0.027412941445466292 0.0071704292806426626 0 -0.023957558445580434 0.012551456480342466 0 -0.025532825395369059 0.011456849192306171 0 -0.028594610328465567 0.0068154200546354958 0 -0.028091425623079071 0.0068880588230446705 0 -0.02822546210783685 0.0071374038785667806 0 -0.028594610328465567 0.0068154200546354958 0 -0.028265535923576012 0.0066042581997980306 0 -0.028091425623079071 0.0068880588230446705 0 -0.023814807682313414 0.0081080253765127806 0 -0.026132713373364327 0.0071009261422941309 0 -0.026886468530860762 0.0049550135595233837 0 -0.026884782409124206 0.008109332498100778 0 -0.027757689633358902 0.0079844443733238773 0 -0.027412941445466292 0.0071704292806426626 0 -0.025829667513773871 0.0084642062036994255 0 -0.026884782409124206 0.008109332498100778 0 -0.026132713373364327 0.0071009261422941309 0 -0.038707477695186746 -0.00078699581633159029 0 -0.038753063653935889 -0.00092911643587470321 0 -0.038837494370699083 -0.0010472484759808049 0 -0.026884782409124206 0.008109332498100778 0 -0.026132713373364327 0.0071009261422941309 0 -0.027412941445466292 0.0071704292806426626 0 -0.034874155436952825 0.0045493728521341084 0 -0.032921004717091626 0.0022549853318751751 0 -0.027747703762772819 0.0065411975752852946 0 -0.027412941445466292 0.0071704292806426626 0 -0.027051039086011367 0.0064530607133359303 0 -0.026132713373364327 0.0071009261422941309 0 -0.027412941445466292 0.0071704292806426626 0 -0.027051039086011367 0.0064530607133359303 0 -0.025829667513773871 0.0084642062036994255 0 -0.023814807682313414 0.0081080253765127806 0 -0.026132713373364327 0.0071009261422941309 0 -0.026132713373364327 0.0071009261422941309 0 -0.027051039086011367 0.0064530607133359303 0 -0.026886468530860762 0.0049550135595233837 0 -0.027747703762772819 0.0065411975752852946 0 -0.027051039086011367 0.0064530607133359303 0 -0.026886468530860762 0.0049550135595233837 0 -0.038753063653935889 -0.00092911643587470321 0 -0.038837494370699083 -0.0010472484759808049 0 -0.038766050250932292 -0.0011618129484548794 0 -0.038782778723076117 -0.0014179008236786697 0 -0.038837494370699083 -0.0010472484759808049 0 -0.038766050250932292 -0.0011618129484548794 0 -0.030312090229758837 0.0016046598052201458 0 -0.027747703762772819 0.0065411975752852946 0 -0.026886468530860762 0.0049550135595233837 0 -0.033871705374407979 -3.039077465812362e-05 0 -0.032921004717091626 0.0022549853318751751 0 -0.038782778723076117 -0.0014179008236786697 0 -0.038807214434621866 -0.0016158532574726962 0 -0.038837494370699083 -0.0010472484759808049 0 -0.033871705374407979 -3.039077465812362e-05 0 -0.027804762573329544 0.0070034876619061524 0 -0.029412557041826975 0.0029169835208253201 0 -0.027747703762772819 0.0065411975752852946 0 -0.029274618491132526 0.0048403057384605779 0 -0.029481022263923483 0.0055402542744100083 0 -0.028926144799923829 0.0057806083247235835 0 -0.029274618491132526 0.0048403057384605779 0 -0.034999937206174669 0.015006956683139519 0 -0.03603556778549926 0.014334259334623673 0 -0.034999988636068645 0.013120920427222616 0 -0.036045782253832544 0.013376916524685294 0 -0.03603556778549926 0.014334259334623673 0 -0.034999988636068645 0.013120920427222616 0 -0.036045782253832544 0.013376916524685294 0 -0.036978438723012638 0.014230211825966831 0 -0.037491771375458151 0.013523453693709034 0 -0.036045782253832544 0.013376916524685294 0 -0.036978438723012638 0.014230211825966831 0 -0.03603556778549926 0.014334259334623673 0 -0.03693087880836534 0.015241669091600369 0 -0.03603556778549926 0.014334259334623673 0 -0.036078590821879031 0.015653418838045066 0 -0.036978438723012638 0.014230211825966831 0 -0.03693087880836534 0.015241669091600369 0 -0.03603556778549926 0.014334259334623673 0 -0.034999937206174669 0.015006956683139519 0 -0.03603556778549926 0.014334259334623673 0 -0.036078590821879031 0.015653418838045066 0 -0.034999937206174669 0.015006956683139519 0 -0.035852218890108818 0.016598290967746194 0 -0.034999956644274133 0.016893033986509261 0 -0.034999937206174669 0.015006956683139519 0 -0.035852218890108818 0.016598290967746194 0 -0.036078590821879031 0.015653418838045066 0 -0.036011357569029678 0.017740593317797801 0 -0.035852218890108818 0.016598290967746194 0 -0.034999956644274133 0.016893033986509261 0 -0.036011357569029678 0.017740593317797801 0 -0.035852218890108818 0.016598290967746194 0 -0.03668235009973056 0.016882201129326969 0 -0.03668235009973056 0.016882201129326969 0 -0.036078590821879031 0.015653418838045066 0 -0.037552376055740001 0.01605960241282418 0 -0.03693087880836534 0.015241669091600369 0 -0.036078590821879031 0.015653418838045066 0 -0.037661442490999578 0.015732835932141732 0 -0.035852218890108818 0.016598290967746194 0 -0.03668235009973056 0.016882201129326969 0 -0.036078590821879031 0.015653418838045066 0 -0.036366210750345428 0.01572366547753427 0 -0.037538484651924289 0.015887021642061683 0 -0.03693087880836534 0.015241669091600369 0 -0.037661442490999578 0.015732835932141732 0 -0.038451665195489919 0.01530319503172364 0 -0.037120283307811711 0.018206584482449838 0 -0.03668235009973056 0.016882201129326969 0 -0.037396611191677802 0.017036840482823955 0 -0.037552376055740001 0.01605960241282418 0 -0.037396611191677802 0.017036840482823955 0 -0.03810747955743838 0.01733116103391508 0 -0.037120283307811711 0.018206584482449838 0 -0.037396611191677802 0.017036840482823955 0 -0.03810747955743838 0.01733116103391508 0 -0.03668235009973056 0.016882201129326969 0 -0.037552376055740001 0.01605960241282418 0 -0.037396611191677802 0.017036840482823955 0 -0.03810747955743838 0.01733116103391508 0 -0.038946229450244146 0.016351130644171874 0 -0.039124863310676071 0.01720182747725562 0 -0.039148714662868567 0.018046647107261404 0 -0.03810747955743838 0.01733116103391508 0 -0.039124863310676071 0.01720182747725562 0 -0.037538484651924289 0.015887021642061683 0 -0.039042324911678881 0.016091382132642766 0 -0.038451665195489919 0.01530319503172364 0 -0.039427084976557343 0.014913167660494189 0 -0.039127626634091375 0.015873121392966236 0 -0.037661442490999578 0.015732835932141732 0 -0.038451665195489919 0.01530319503172364 0 -0.039127626634091375 0.015873121392966236 0 -0.037552376055740001 0.01605960241282418 0 -0.03810747955743838 0.01733116103391508 0 -0.038946229450244146 0.016351130644171874 0 -0.038588574330390514 0.014414129192577939 0 -0.038451665195489919 0.01530319503172364 0 -0.039427084976557343 0.014913167660494189 0 -0.037176213277370286 0.015084407095478454 0 -0.038570577009762096 0.014245855192999722 0 -0.03693087880836534 0.015241669091600369 0 -0.038588574330390514 0.014414129192577939 0 -0.038451665195489919 0.01530319503172364 0 -0.036978438723012638 0.014230211825966831 0 -0.03693087880836534 0.015241669091600369 0 -0.038724787271688627 0.014230607433500561 0 -0.036978438723012638 0.014230211825966831 0 -0.038724787271688627 0.014230607433500561 0 -0.037491771375458151 0.013523453693709034 0 -0.038724787271688627 0.014230607433500561 0 -0.039725896830092512 0.012848474252868794 0 -0.038993348837438012 0.012932192544627642 0 -0.038724787271688627 0.014230607433500561 0 -0.038352180191838441 0.013177028748726323 0 -0.038993348837438012 0.012932192544627642 0 -0.038724787271688627 0.014230607433500561 0 -0.037491771375458151 0.013523453693709034 0 -0.038352180191838441 0.013177028748726323 0 -0.038588574330390514 0.014414129192577939 0 -0.040195845717049712 0.013597797530253116 0 -0.039650353242168444 0.014435095313207429 0 -0.038570577009762096 0.014245855192999722 0 -0.039431845141385133 0.011785078613882028 0 -0.038724787271688627 0.014230607433500561 0 -0.04049443516792773 0.013278265565882066 0 -0.039725896830092512 0.012848474252868794 0 -0.040195845717049712 0.013597797530253116 0 -0.040389186719959481 0.014815037652441319 0 -0.039650353242168444 0.014435095313207429 0 -0.03918334944433937 0.0094267245415137289 0 -0.038679291144143077 0.010621700225498699 0 -0.039431845141385133 0.011785078613882028 0 -0.040053000056044404 0.014898875570809926 0 -0.039468579020510972 0.013140472776816355 0 -0.039919487130979411 0.012911945861860012 0 -0.039746471657142811 0.01484153212631506 0 -0.039919487130979411 0.012911945861860012 0 -0.039746471657142811 0.01484153212631506 0 -0.040978601191609274 0.014688033162955175 0 -0.039431845141385133 0.011785078613882028 0 -0.03918334944433937 0.0094267245415137289 0 -0.039746471657142811 0.01484153212631506 0 -0.040650905027982055 0.015725447230043703 0 -0.040978601191609274 0.014688033162955175 0 -0.040389186719959481 0.014815037652441319 0 -0.039650353242168444 0.014435095313207429 0 -0.039427084976557343 0.014913167660494189 0 -0.040389186719959481 0.014815037652441319 0 -0.039427084976557343 0.014913167660494189 0 -0.03989273123951264 0.015351776484508022 0 -0.038588574330390514 0.014414129192577939 0 -0.039650353242168444 0.014435095313207429 0 -0.039427084976557343 0.014913167660494189 0 -0.039427084976557343 0.014913167660494189 0 -0.03989273123951264 0.015351776484508022 0 -0.039127626634091375 0.015873121392966236 0 -0.038946229450244146 0.016351130644171874 0 -0.039636820110909417 0.016863046010206894 0 -0.040295298911749947 0.01655287444260644 0 -0.039042324911678881 0.016091382132642766 0 -0.040301884209207224 0.016185592699794422 0 -0.03989273123951264 0.015351776484508022 0 -0.039127626634091375 0.015873121392966236 0 -0.040579985399659867 0.01602647097276208 0 -0.038946229450244146 0.016351130644171874 0 -0.039124863310676071 0.01720182747725562 0 -0.039636820110909417 0.016863046010206894 0 -0.039124863310676071 0.01720182747725562 0 -0.039636820110909417 0.016863046010206894 0 -0.039779787221198987 0.017438221080565645 0 -0.039148714662868567 0.018046647107261404 0 -0.039124863310676071 0.01720182747725562 0 -0.039779787221198987 0.017438221080565645 0 -0.04021436325016637 0.018142397629264909 0 -0.039779787221198987 0.017438221080565645 0 -0.040459079948853699 0.017505389213987296 0 -0.039779787221198987 0.017438221080565645 0 -0.040459079948853699 0.017505389213987296 0 -0.040342409824996157 0.016888437409659639 0 -0.039636820110909417 0.016863046010206894 0 -0.040342409824996157 0.016888437409659639 0 -0.040295298911749947 0.01655287444260644 0 -0.039636820110909417 0.016863046010206894 0 -0.039779787221198987 0.017438221080565645 0 -0.040342409824996157 0.016888437409659639 0 -0.040459079948853699 0.017505389213987296 0 -0.040342409824996157 0.016888437409659639 0 -0.040900624807532579 0.017245708212206251 0 -0.040053000056044404 0.014898875570809926 0 -0.040301884209207224 0.016185592699794422 0 -0.040342409824996157 0.016888437409659639 0 -0.040277036584019321 0.016515183610657201 0 -0.040787466315290233 0.016535616777518469 0 -0.040036445197209294 0.016465995411494617 0 -0.040650905027982055 0.015725447230043703 0 -0.040787466315290233 0.016535616777518469 0 -0.040301884209207224 0.016185592699794422 0 -0.040461120480678396 0.016257171064226861 0 -0.039746471657142811 0.01484153212631506 0 -0.040036445197209294 0.016465995411494617 0 -0.040650905027982055 0.015725447230043703 0 -0.040389186719959481 0.014815037652441319 0 -0.03989273123951264 0.015351776484508022 0 -0.040579985399659867 0.01602647097276208 0 -0.040322608151678055 0.01635554561461252 0 -0.040301884209207224 0.016185592699794422 0 -0.040650905027982055 0.015725447230043703 0 -0.04187088562103209 0.016365101560156591 0 -0.040978601191609274 0.014688033162955175 0 -0.040650905027982055 0.015725447230043703 0 -0.040787466315290233 0.016535616777518469 0 -0.04187088562103209 0.016365101560156591 0 -0.039558907290570815 0.012501028291766685 0 -0.038679291144143077 0.010621700225498699 0 -0.040787466315290233 0.016535616777518469 0 -0.041563312410655875 0.017301517568810463 0 -0.040900624807532579 0.017245708212206251 0 -0.040342409824996157 0.016888437409659639 0 -0.040787466315290233 0.016535616777518469 0 -0.040900624807532579 0.017245708212206251 0 -0.040787466315290233 0.016535616777518469 0 -0.041563312410655875 0.017301517568810463 0 -0.04187088562103209 0.016365101560156591 0 -0.041083497941714356 0.017825726601490937 0 -0.040459079948853699 0.017505389213987296 0 -0.040900624807532579 0.017245708212206251 0 -0.041083497941714356 0.017825726601490937 0 -0.041563312410655875 0.017301517568810463 0 -0.040900624807532579 0.017245708212206251 0 -0.040436719772571031 0.014386063087704419 0 -0.039558907290570815 0.012501028291766685 0 -0.041563312410655875 0.017301517568810463 0 -0.042608584599275058 0.017743120403152398 0 -0.04187088562103209 0.016365101560156591 0 -0.038537409504352499 0.010864763452547416 0 -0.037936644734507821 0.0091297400537557021 0 -0.03722050637036349 0.0086094756835766485 0 -0.041776132114950952 0.018204001362259352 0 -0.041563312410655875 0.017301517568810463 0 -0.042608584599275058 0.017743120403152398 0 -0.039189368963669202 0.0092832506180485358 0 -0.038537409504352499 0.010864763452547416 0 -0.037936644734507821 0.0091297400537557021 0 -0.037936644734507821 0.0091297400537557021 0 -0.038594106826119336 0.0084355082222396655 0 -0.03793876424246144 0.0072623928554720321 0 -0.037936644734507821 0.0091297400537557021 0 -0.03793876424246144 0.0072623928554720321 0 -0.03588404820185416 0.0054620045105548739 0 -0.037936644734507821 0.0091297400537557021 0 -0.03722050637036349 0.0086094756835766485 0 -0.036806668008113455 0.006888931183579465 0 -0.039189368963669202 0.0092832506180485358 0 -0.037936644734507821 0.0091297400537557021 0 -0.038594106826119336 0.0084355082222396655 0 -0.037701693444862565 0.0087468511388260096 0 -0.036239839477055502 0.005728263637532407 0 -0.03925293790669479 0.0079826995378599625 0 -0.038594106826119336 0.0084355082222396655 0 -0.03793876424246144 0.0072623928554720321 0 -0.039184511073590812 0.0065088402940743553 0 -0.03793876424246144 0.0072623928554720321 0 -0.03774975335715286 0.0056856889642639971 0 -0.039184511073590812 0.0065088402940743553 0 -0.03774975335715286 0.0056856889642639971 0 -0.03857034234022224 0.0048826661380629421 0 -0.03774975335715286 0.0056856889642639971 0 -0.03857034234022224 0.0048826661380629421 0 -0.037061896098373202 0.0042929269390019559 0 -0.03774975335715286 0.0056856889642639971 0 -0.03588404820185416 0.0054620045105548739 0 -0.037061896098373202 0.0042929269390019559 0 -0.03793876424246144 0.0072623928554720321 0 -0.03774975335715286 0.0056856889642639971 0 -0.03588404820185416 0.0054620045105548739 0 -0.03722050637036349 0.0086094756835766485 0 -0.036246570464014492 0.0068479922821869368 0 -0.036806668008113455 0.006888931183579465 0 -0.036239839477055502 0.005728263637532407 0 -0.037533889693586571 0.0062534918220222098 0 -0.03588404820185416 0.0054620045105548739 0 -0.034822430173261067 0.002645516503832596 0 -0.037061896098373202 0.0042929269390019559 0 -0.03539721324610693 0.0054521833577400435 0 -0.036806668008113455 0.006888931183579465 0 -0.03594909307531715 0.0051745925436188995 0 -0.034822430173261067 0.002645516503832596 0 -0.036840745909549645 0.0027833518550951083 0 -0.037061896098373202 0.0042929269390019559 0 -0.03588404820185416 0.0054620045105548739 0 -0.034822430173261067 0.002645516503832596 0 -0.033825911123773769 0.0013014326923528081 0 -0.03539721324610693 0.0054521833577400435 0 -0.036246570464014492 0.0068479922821869368 0 -0.036806668008113455 0.006888931183579465 0 -0.034822430173261067 0.002645516503832596 0 -0.03587355317427271 0.002099231027953613 0 -0.036840745909549645 0.0027833518550951083 0 -0.034822430173261067 0.002645516503832596 0 -0.03587355317427271 0.002099231027953613 0 -0.034620398676218661 0.00074775094540999512 0 -0.03587355317427271 0.002099231027953613 0 -0.036840745909549645 0.0027833518550951083 0 -0.035860090614795934 0.00076315855350798955 0 -0.036840745909549645 0.0027833518550951083 0 -0.03871397063129612 0.0026197268669597325 0 -0.035860090614795934 0.00076315855350798955 0 -0.03857034234022224 0.0048826661380629421 0 -0.03871397063129612 0.0026197268669597325 0 -0.037061896098373202 0.0042929269390019559 0 -0.036840745909549645 0.0027833518550951083 0 -0.03871397063129612 0.0026197268669597325 0 -0.037061896098373202 0.0042929269390019559 0 -0.036808510672550081 0.00067335824893474271 0 -0.0362676067903379 0.00029734193709108822 0 -0.036589988546529326 1.0254897042362112e-05 0 -0.037549630402554122 0.0017211835800360344 0 -0.036229402758903163 0.0010113113711082446 0 -0.036808510672550081 0.00067335824893474271 0 -0.0362676067903379 0.00029734193709108822 0 -0.035860090614795934 0.00076315855350798955 0 -0.0362676067903379 0.00029734193709108822 0 -0.035750125330132464 0.00034798546749516566 0 -0.036153067554399669 -0.00040199401065054195 0 -0.0362676067903379 0.00029734193709108822 0 -0.036589988546529326 1.0254897042362112e-05 0 -0.036153067554399669 -0.00040199401065054195 0 -0.0362676067903379 0.00029734193709108822 0 -0.035860090614795934 0.00076315855350798955 0 -0.035750125330132464 0.00034798546749516566 0 -0.03546578144707805 0.00049966141571238204 0 -0.035750125330132464 0.00034798546749516566 0 -0.035447108704796365 -0.00067477306230023662 0 -0.03587355317427271 0.002099231027953613 0 -0.035860090614795934 0.00076315855350798955 0 -0.034620398676218661 0.00074775094540999512 0 -0.035860090614795934 0.00076315855350798955 0 -0.034620398676218661 0.00074775094540999512 0 -0.035750125330132464 0.00034798546749516566 0 -0.036268293326068526 0.0047600557863362947 0 -0.036452500156300131 0.0041473474159257062 0 -0.035753098654904537 0.0029780168132124405 0 -0.036268293326068526 0.0047600557863362947 0 -0.034822430173261067 0.002645516503832596 0 -0.033825911123773769 0.0013014326923528081 0 -0.034577452032295904 0.00092658580499506307 0 -0.037533889693586571 0.0062534918220222098 0 -0.036268293326068526 0.0047600557863362947 0 -0.035750125330132464 0.00034798546749516566 0 -0.035447108704796365 -0.00067477306230023662 0 -0.036153067554399669 -0.00040199401065054195 0 -0.036268293326068526 0.0047600557863362947 0 -0.03749641358848637 0.0047074569290065085 0 -0.035447108704796365 -0.00067477306230023662 0 -0.036153067554399669 -0.00040199401065054195 0 -0.035937171855939164 -0.0011665745773671542 0 -0.036589988546529326 1.0254897042362112e-05 0 -0.036153067554399669 -0.00040199401065054195 0 -0.03670147035309982 -0.00050094764820010466 0 -0.037068625290793425 -0.00022454401878933022 0 -0.036589988546529326 1.0254897042362112e-05 0 -0.03670147035309982 -0.00050094764820010466 0 -0.037105746478237465 -0.00079777019792870148 0 -0.03670147035309982 -0.00050094764820010466 0 -0.03655178234240114 -0.0010718767778311177 0 -0.036153067554399669 -0.00040199401065054195 0 -0.03670147035309982 -0.00050094764820010466 0 -0.03655178234240114 -0.0010718767778311177 0 -0.036153067554399669 -0.00040199401065054195 0 -0.03655178234240114 -0.0010718767778311177 0 -0.035937171855939164 -0.0011665745773671542 0 -0.03655178234240114 -0.0010718767778311177 0 -0.036384490329300356 -0.0015770332127969932 0 -0.035937171855939164 -0.0011665745773671542 0 -0.036907887383296048 -0.0016818750692457992 0 -0.03655178234240114 -0.0010718767778311177 0 -0.036384490329300356 -0.0015770332127969932 0 -0.036907887383296048 -0.0016818750692457992 0 -0.036384490329300356 -0.0015770332127969932 0 -0.036431473094191945 -0.0020545780459429604 0 -0.036384490329300356 -0.0015770332127969932 0 -0.036431473094191945 -0.0020545780459429604 0 -0.035909018830349221 -0.0016464353054413765 0 -0.035868625665760538 -0.0020237517682106317 0 -0.035909018830349221 -0.0016464353054413765 0 -0.035421869522055845 -0.0017000387582892882 0 -0.035868625665760538 -0.0020237517682106317 0 -0.035421869522055845 -0.0017000387582892882 0 -0.035367525933263796 -0.0020666243450964002 0 -0.036431473094191945 -0.0020545780459429604 0 -0.035868625665760538 -0.0020237517682106317 0 -0.035909018830349221 -0.0016464353054413765 0 -0.036384490329300356 -0.0015770332127969932 0 -0.035909018830349221 -0.0016464353054413765 0 -0.035937171855939164 -0.0011665745773671542 0 -0.035909018830349221 -0.0016464353054413765 0 -0.035937171855939164 -0.0011665745773671542 0 -0.035377580748723485 -0.0017145746038186806 0 -0.035928298251204076 0.0019692760792394868 0 -0.037903054650046605 0.0038360622454044003 0 -0.035447108704796365 -0.00067477306230023662 0 -0.035937171855939164 -0.0011665745773671542 0 -0.035377580748723485 -0.0017145746038186806 0 -0.03749641358848637 0.0047074569290065085 0 -0.037903054650046605 0.0038360622454044003 0 -0.039762178004094227 0.0099610698744466274 0 -0.039811362762420824 0.0099709256378375591 0 -0.039853353762909827 0.0099451669870967065 0 -0.039762178004094227 0.0099610698744466274 0 -0.039853353762909827 0.0099451669870967065 0 -0.039920358861413707 0.0098515722926314272 0 -0.039811362762420824 0.0099709256378375591 0 -0.039790189743392448 0.010001406425447175 0 -0.039853353762909827 0.0099451669870967065 0 -0.039790189743392448 0.010001406425447175 0 -0.039862781806092568 0.0099402764932181396 0 -0.039815730927941009 0.0099708036492802028 0 -0.039811362762420824 0.0099709256378375591 0 -0.039790189743392448 0.010001406425447175 0 -0.039815730927941009 0.0099708036492802028 0 -0.039790189743392448 0.010001406425447175 0 -0.039853353762909827 0.0099451669870967065 0 -0.039702780790108819 0.010067496079220048 0 -0.039853353762909827 0.0099451669870967065 0 -0.039920358861413707 0.0098515722926314272 0 -0.03989064764128545 0.0097392569209934516 0 -0.039853353762909827 0.0099451669870967065 0 -0.03989064764128545 0.0097392569209934516 0 -0.039702780790108819 0.010067496079220048 0 -0.037903054650046605 0.0038360622454044003 0 -0.038718678850398834 0.006752727643673009 0 -0.037753585639409122 0.0073955747636471007 0 -0.038305503858141049 0.0070588177736590303 0 -0.03797688993732657 0.006699044859364657 0 -0.038718678850398834 0.006752727643673009 0 -0.038412033267193509 0.0041159033749108131 0 -0.038571989251479297 0.0053376174275550003 0 -0.038375558361412598 0.0053134158417170833 0 -0.038552519264237514 0.0051928282045784575 0 -0.037903054650046605 0.0038360622454044003 0 -0.038412033267193509 0.0041159033749108131 0 -0.03989064764128545 0.0097392569209934516 0 -0.039702780790108819 0.010067496079220048 0 -0.038999128308342804 0.010182989958200071 0 -0.038718678850398834 0.006752727643673009 0 -0.037697016324516101 0.008038123609366149 0 -0.037753585639409122 0.0073955747636471007 0 -0.036584719705418309 0.0072836406179688359 0 -0.037087530371724825 0.0066778911113579593 0 -0.038718678850398834 0.006752727643673009 0 -0.038787718850732025 0.0095407313028049723 0 -0.040421582228761174 0.0092247590362479343 0 -0.038999128308342804 0.010182989958200071 0 -0.038634227655393365 0.0089724520080558066 0 -0.039790189743392448 0.010001406425447175 0 -0.039702780790108819 0.010067496079220048 0 -0.039862781806092568 0.0099402764932181396 0 -0.039818282781900943 0.010228185815332315 0 -0.039886768358612074 0.010529870522656653 0 -0.039702780790108819 0.010067496079220048 0 -0.039429453327726342 0.010711453800009228 0 -0.038999128308342804 0.010182989958200071 0 -0.039702780790108819 0.010067496079220048 0 -0.039429453327726342 0.010711453800009228 0 -0.040080848025025984 0.011080795600778048 0 -0.039429453327726342 0.010711453800009228 0 -0.039569209498275873 0.011169179762735211 0 -0.038938707751204386 0.0115064030695936 0 -0.040112701714615791 0.011899601617802591 0 -0.040080848025025984 0.011080795600778048 0 -0.040332480047274973 0.012225605544012023 0 -0.039429453327726342 0.010711453800009228 0 -0.039569209498275873 0.011169179762735211 0 -0.040080848025025984 0.011080795600778048 0 -0.039886768358612074 0.010529870522656653 0 -0.039875789507224937 0.011013138370162221 0 -0.03966115815395424 0.011541877933497471 0 -0.039506018970120065 0.012165899971580773 0 -0.038938707751204386 0.0115064030695936 0 -0.039569209498275873 0.011169179762735211 0 -0.03966115815395424 0.011541877933497471 0 -0.038938707751204386 0.0115064030695936 0 -0.03966115815395424 0.011541877933497471 0 -0.040112701714615791 0.011899601617802591 0 -0.039506018970120065 0.012165899971580773 0 -0.03966115815395424 0.011541877933497471 0 -0.040112701714615791 0.011899601617802591 0 -0.040080848025025984 0.011080795600778048 0 -0.039569209498275873 0.011169179762735211 0 -0.03966115815395424 0.011541877933497471 0 -0.040080848025025984 0.011080795600778048 0 -0.039815730927941009 0.0099708036492802028 0 -0.039808324985521754 0.0099090163334280019 0 -0.039824601692975609 0.009807238190155821 0 -0.039641504276174092 0.0096174457599265979 0 -0.039762178004094227 0.0099610698744466274 0 -0.039824601692975609 0.009807238190155821 0 -0.039862781806092568 0.0099402764932181396 0 -0.039815730927941009 0.0099708036492802028 0 -0.039691406800369297 0.0097728886212344098 0 -0.039710723394401945 0.009912735591461443 0 -0.039546039198519289 0.0097120749961257941 0 -0.039862781806092568 0.0099402764932181396 0 -0.039691406800369297 0.0097728886212344098 0 -0.039835328629599216 0.0096789304218620354 0 -0.039811362762420824 0.0099709256378375591 0 -0.039815730927941009 0.0099708036492802028 0 -0.039808324985521754 0.0099090163334280019 0 -0.039762178004094227 0.0099610698744466274 0 -0.039811362762420824 0.0099709256378375591 0 -0.039808324985521754 0.0099090163334280019 0 -0.039762178004094227 0.0099610698744466274 0 -0.039808324985521754 0.0099090163334280019 0 -0.039824601692975609 0.009807238190155821 0 -0.039691406800369297 0.0097728886212344098 0 -0.039835328629599216 0.0096789304218620354 0 -0.039697234101450429 0.0096046716628946007 0 -0.037533889693586571 0.0062534918220222098 0 -0.039546039198519289 0.0097120749961257941 0 -0.039711082122955606 0.0095790599694574284 0 -0.039641504276174092 0.0096174457599265979 0 -0.039824601692975609 0.009807238190155821 0 -0.039556634157509638 0.0095166910813786823 0 -0.039691406800369297 0.0097728886212344098 0 -0.039697234101450429 0.0096046716628946007 0 -0.03918334944433937 0.0094267245415137289 0 -0.037533889693586571 0.0062534918220222098 0 -0.039702519381223295 0.0094473576962340808 0 -0.039556634157509638 0.0095166910813786823 0 -0.039697234101450429 0.0096046716628946007 0 -0.03918334944433937 0.0094267245415137289 0 -0.039875789507224937 0.011013138370162221 0 -0.039431845141385133 0.011785078613882028 0 -0.039875789507224937 0.011013138370162221 0 -0.039702519381223295 0.0094473576962340808 0 -0.039835328629599216 0.0096789304218620354 0 -0.039697234101450429 0.0096046716628946007 0 -0.039920015559775812 0.010215158327148113 0 -0.039698731013762222 0.010325756110229799 0 -0.040023964244686655 0.010850928793653966 0 -0.04049443516792773 0.013278265565882066 0 -0.040324392539176565 0.012230530694157089 0 -0.039725896830092512 0.012848474252868794 0 -0.039725896830092512 0.012848474252868794 0 -0.039506018970120065 0.012165899971580773 0 -0.038993348837438012 0.012932192544627642 0 -0.039725896830092512 0.012848474252868794 0 -0.039506018970120065 0.012165899971580773 0 -0.039907709708241056 0.012264551380816797 0 -0.040112701714615791 0.011899601617802591 0 -0.039506018970120065 0.012165899971580773 0 -0.039907709708241056 0.012264551380816797 0 -0.040324392539176565 0.012230530694157089 0 -0.039725896830092512 0.012848474252868794 0 -0.039907709708241056 0.012264551380816797 0 -0.040112701714615791 0.011899601617802591 0 -0.040324392539176565 0.012230530694157089 0 -0.039907709708241056 0.012264551380816797 0 -0.039990467624745854 0.011234614317562029 0 -0.039875789507224937 0.011013138370162221 0 -0.038691735109076204 0.012375442465145253 0 -0.037666938952845327 0.012099174549218545 0 -0.038938707751204386 0.0115064030695936 0 -0.039506018970120065 0.012165899971580773 0 -0.038691735109076204 0.012375442465145253 0 -0.038993348837438012 0.012932192544627642 0 -0.039506018970120065 0.012165899971580773 0 -0.038691735109076204 0.012375442465145253 0 -0.038938707751204386 0.0115064030695936 0 -0.038352180191838441 0.013177028748726323 0 -0.038691735109076204 0.012375442465145253 0 -0.038993348837438012 0.012932192544627642 0 -0.038352180191838441 0.013177028748726323 0 -0.038691735109076204 0.012375442465145253 0 -0.037666938952845327 0.012099174549218545 0 -0.037491771375458151 0.013523453693709034 0 -0.038352180191838441 0.013177028748726323 0 -0.037666938952845327 0.012099174549218545 0 -0.037491771375458151 0.013523453693709034 0 -0.037666938952845327 0.012099174549218545 0 -0.036236982600663652 0.012342882821974056 0 -0.037666938952845327 0.012099174549218545 0 -0.038302870935121948 0.010836495389428125 0 -0.037174434851870539 0.010741823412162923 0 -0.037666938952845327 0.012099174549218545 0 -0.038938707751204386 0.0115064030695936 0 -0.038302870935121948 0.010836495389428125 0 -0.039429453327726342 0.010711453800009228 0 -0.038938707751204386 0.0115064030695936 0 -0.038302870935121948 0.010836495389428125 0 -0.039429453327726342 0.010711453800009228 0 -0.038302870935121948 0.010836495389428125 0 -0.038999128308342804 0.010182989958200071 0 -0.038302870935121948 0.010836495389428125 0 -0.038999128308342804 0.010182989958200071 0 -0.037969505562189823 0.0098842622627058375 0 -0.038999128308342804 0.010182989958200071 0 -0.038634227655393365 0.0089724520080558066 0 -0.037969505562189823 0.0098842622627058375 0 -0.037697016324516101 0.008038123609366149 0 -0.036170971779121687 0.0081446942944661573 0 -0.038634227655393365 0.0089724520080558066 0 -0.037969505562189823 0.0098842622627058375 0 -0.036819883600859069 0.0087119878069287643 0 -0.037174434851870539 0.010741823412162923 0 -0.037969505562189823 0.0098842622627058375 0 -0.036819883600859069 0.0087119878069287643 0 -0.038302870935121948 0.010836495389428125 0 -0.037174434851870539 0.010741823412162923 0 -0.037969505562189823 0.0098842622627058375 0 -0.037174434851870539 0.010741823412162923 0 -0.036035245384828031 0.010521310433601213 0 -0.036819883600859069 0.0087119878069287643 0 -0.03499999115435528 0.0098323861377659222 0 -0.036035245384828031 0.010521310433601213 0 -0.036819883600859069 0.0087119878069287643 0 -0.03499999115435528 0.0098323861377659222 0 -0.034999983689197572 0.0084298305324415519 0 -0.036819883600859069 0.0087119878069287643 0 -0.03499999115435528 0.0098323861377659222 0 -0.036035245384828031 0.010521310433601213 0 -0.034999986369728044 0.011234853965852026 0 -0.035000482400230237 0.011235410975373835 0 -0.036272392580223439 0.012401164859357933 0 -0.036035245384828031 0.010521310433601213 0 -0.034999986369728044 0.011234853965852026 0 -0.036236982600663652 0.012342882821974056 0 -0.037666938952845327 0.012099174549218545 0 -0.037174434851870539 0.010741823412162923 0 -0.036236982600663652 0.012342882821974056 0 -0.037174434851870539 0.010741823412162923 0 -0.036035245384828031 0.010521310433601213 0 -0.036236982600663652 0.012342882821974056 0 -0.037247872955802695 0.013294913192539743 0 -0.036272392580223439 0.012401164859357933 0 -0.036045782253832544 0.013376916524685294 0 -0.037491771375458151 0.013523453693709034 0 -0.036257521012005578 0.012412743860270638 0 -0.034999992825041751 0.011235006322272999 0 -0.036257521012005578 0.012412743860270638 0 -0.034999988636068645 0.013120920427222616 0 -0.036045782253832544 0.013376916524685294 0 -0.036257521012005578 0.012412743860270638 0 -0.034999988636068645 0.013120920427222616 0 -0.03591412256689664 0.0050303218265922711 0 -0.034999964335088167 0.0048399527788570212 0 -0.035723379303138209 0.0057788074227364513 0 -0.03591412256689664 0.0050303218265922711 0 -0.036420702924432134 0.0055512370158425578 0 -0.035723379303138209 0.0057788074227364513 0 -0.03591412256689664 0.0050303218265922711 0 -0.035706556601486937 0.0043864074223891958 0 -0.036228425318647298 0.0045341238011420877 0 -0.03591412256689664 0.0050303218265922711 0 -0.034999964335088167 0.0048399527788570212 0 -0.035706556601486937 0.0043864074223891958 0 -0.037000407403433369 0.0050839947533587587 0 -0.036420702924432134 0.0055512370158425578 0 -0.037534566856187224 0.0056922087157191504 0 -0.037862878421751366 0.0045765185216822693 0 -0.03656033540972628 0.0041157441953313398 0 -0.036603988322035902 0.0043205296803868502 0 -0.03591412256689664 0.0050303218265922711 0 -0.036228425318647298 0.0045341238011420877 0 -0.036445377318569235 0.0049253731869022327 0 -0.036228425318647298 0.0045341238011420877 0 -0.036539549963923057 0.0046203723312168753 0 -0.036603988322035902 0.0043205296803868502 0 -0.036228425318647298 0.0045341238011420877 0 -0.036539549963923057 0.0046203723312168753 0 -0.036445377318569235 0.0049253731869022327 0 -0.036539549963923057 0.0046203723312168753 0 -0.036878224440373773 0.0047059051084157024 0 -0.036603988322035902 0.0043205296803868502 0 -0.036539549963923057 0.0046203723312168753 0 -0.036878224440373773 0.0047059051084157024 0 -0.036445377318569235 0.0049253731869022327 0 -0.036878224440373773 0.0047059051084157024 0 -0.037000407403433369 0.0050839947533587587 0 -0.036445377318569235 0.0049253731869022327 0 -0.037000407403433369 0.0050839947533587587 0 -0.036445377318569235 0.0049253731869022327 0 -0.036420702924432134 0.0055512370158425578 0 -0.03591412256689664 0.0050303218265922711 0 -0.036445377318569235 0.0049253731869022327 0 -0.036420702924432134 0.0055512370158425578 0 -0.035915664178628459 0.0065692748116416505 0 -0.036810384932383922 0.0054396653964948636 0 -0.035363787393285342 0.0064101330309850619 0 -0.035927059701911269 0.0060442722390780879 0 -0.03593628403213369 0.005214820352955115 0 -0.036420702924432134 0.0055512370158425578 0 -0.035723379303138209 0.0057788074227364513 0 -0.036293927183149076 0.0067447395462469067 0 -0.036420702924432134 0.0055512370158425578 0 -0.036293927183149076 0.0067447395462469067 0 -0.037534566856187224 0.0056922087157191504 0 -0.034999964640228094 0.0063524864829768808 0 -0.035723379303138209 0.0057788074227364513 0 -0.036293927183149076 0.0067447395462469067 0 -0.034999964335088167 0.0048399527788570212 0 -0.034999964640228094 0.0063524864829768808 0 -0.035723379303138209 0.0057788074227364513 0 -0.034999372141028974 0.0078653708198285627 0 -0.035402460890664678 0.0073706840100975406 0 -0.035363787393285342 0.0064101330309850619 0 -0.034999964640228094 0.0063524864829768808 0 -0.035000003576384074 0.0078650260592262634 0 -0.036293927183149076 0.0067447395462469067 0 -0.035000364898341692 0.0078642942173562415 0 -0.035915664178628459 0.0065692748116416505 0 -0.034999372141028974 0.0078653708198285627 0 -0.035000114355843465 0.0084281708837019298 0 -0.035402460890664678 0.0073706840100975406 0 -0.035000114355843465 0.0084281708837019298 0 -0.035402460890664678 0.0073706840100975406 0 -0.035692831356445118 0.0074464984259348041 0 -0.035000261452833352 0.0084294571910758682 0 -0.036170971779121687 0.0081446942944661573 0 -0.035402460890664678 0.0073706840100975406 0 -0.035692831356445118 0.0074464984259348041 0 -0.036004413941499815 0.0066919787016873795 0 -0.035363787393285342 0.0064101330309850619 0 -0.035927059701911269 0.0060442722390780879 0 -0.036004413941499815 0.0066919787016873795 0 -0.035402460890664678 0.0073706840100975406 0 -0.035363787393285342 0.0064101330309850619 0 -0.036004413941499815 0.0066919787016873795 0 -0.035927059701911269 0.0060442722390780879 0 -0.036004413941499815 0.0066919787016873795 0 -0.036442928432736346 0.0058344142991732665 0 -0.036584719705418309 0.0072836406179688359 0 -0.035692831356445118 0.0074464984259348041 0 -0.036004413941499815 0.0066919787016873795 0 -0.036584719705418309 0.0072836406179688359 0 -0.036746219727482536 0.0063435521391307292 0 -0.037087530371724825 0.0066778911113579593 0 -0.036584719705418309 0.0072836406179688359 0 -0.036004413941499815 0.0066919787016873795 0 -0.036746219727482536 0.0063435521391307292 0 -0.036004413941499815 0.0066919787016873795 0 -0.036746219727482536 0.0063435521391307292 0 -0.036442928432736346 0.0058344142991732665 0 -0.036746219727482536 0.0063435521391307292 0 -0.036922201383639303 0.0055027430345654226 0 -0.037184897383526559 0.0057624804047830408 0 -0.036746219727482536 0.0063435521391307292 0 -0.036442928432736346 0.0058344142991732665 0 -0.036922201383639303 0.0055027430345654226 0 -0.036442928432736346 0.0058344142991732665 0 -0.036922201383639303 0.0055027430345654226 0 -0.03663040182948829 0.0050861665916482092 0 -0.036442928432736346 0.0058344142991732665 0 -0.03663040182948829 0.0050861665916482092 0 -0.03593628403213369 0.005214820352955115 0 -0.036922201383639303 0.0055027430345654226 0 -0.03663040182948829 0.0050861665916482092 0 -0.037121262325204268 0.0047210863622230556 0 -0.035927059701911269 0.0060442722390780879 0 -0.036442928432736346 0.0058344142991732665 0 -0.03593628403213369 0.005214820352955115 0 -0.037862878421751366 0.0045765185216822693 0 -0.039219217790138879 0.0044256473178885562 0 -0.037504757050521982 0.0035184722400118315 0 -0.03744691345526633 0.0043612881710529067 0 -0.036384311367446222 0.0037687269757133669 0 -0.036878224440373773 0.0047059051084157024 0 -0.037862878421751366 0.0045765185216822693 0 -0.036603988322035902 0.0043205296803868502 0 -0.037534566856187224 0.0056922087157191504 0 -0.037862878421751366 0.0045765185216822693 0 -0.039219217790138879 0.0044256473178885562 0 -0.037000407403433369 0.0050839947533587587 0 -0.037534566856187224 0.0056922087157191504 0 -0.037862878421751366 0.0045765185216822693 0 -0.036878224440373773 0.0047059051084157024 0 -0.037000407403433369 0.0050839947533587587 0 -0.037862878421751366 0.0045765185216822693 0 -0.036810384932383922 0.0054396653964948636 0 -0.03799439827593086 0.0041414997462994431 0 -0.03663040182948829 0.0050861665916482092 0 -0.03593628403213369 0.005214820352955115 0 -0.036715143018253467 0.0041423556270111378 0 -0.03663040182948829 0.0050861665916482092 0 -0.036715143018253467 0.0041423556270111378 0 -0.037121262325204268 0.0047210863622230556 0 -0.03735328238542749 0.0040472344509456647 0 -0.037651872910870195 0.0043615339481475699 0 -0.037121262325204268 0.0047210863622230556 0 -0.036715143018253467 0.0041423556270111378 0 -0.03735328238542749 0.0040472344509456647 0 -0.037121262325204268 0.0047210863622230556 0 -0.037651872910870195 0.0043615339481475699 0 -0.03819989457247034 0.0039711840948208161 0 -0.037754767067519256 0.0037246667934441573 0 -0.03735328238542749 0.0040472344509456647 0 -0.037651872910870195 0.0043615339481475699 0 -0.037754767067519256 0.0037246667934441573 0 -0.037651872910870195 0.0043615339481475699 0 -0.038017342452685475 0.0048763885895283269 0 -0.03819989457247034 0.0039711840948208161 0 -0.037651872910870195 0.0043615339481475699 0 -0.038017342452685475 0.0048763885895283269 0 -0.037473093036040288 0.0051586471527963881 0 -0.038017342452685475 0.0048763885895283269 0 -0.037798050138350706 0.0053083514181323814 0 -0.038031943480122642 0.0055220597462597668 0 -0.038017342452685475 0.0048763885895283269 0 -0.037473093036040288 0.0051586471527963881 0 -0.037798050138350706 0.0053083514181323814 0 -0.037473093036040288 0.0051586471527963881 0 -0.037521072320292344 0.0056130325368703767 0 -0.037798050138350706 0.0053083514181323814 0 -0.037651872910870195 0.0043615339481475699 0 -0.037473093036040288 0.0051586471527963881 0 -0.037121262325204268 0.0047210863622230556 0 -0.036922201383639303 0.0055027430345654226 0 -0.037473093036040288 0.0051586471527963881 0 -0.037121262325204268 0.0047210863622230556 0 -0.036922201383639303 0.0055027430345654226 0 -0.037473093036040288 0.0051586471527963881 0 -0.037184897383526559 0.0057624804047830408 0 -0.037184897383526559 0.0057624804047830408 0 -0.037521072320292344 0.0056130325368703767 0 -0.03728258762647281 0.0061476057543873438 0 -0.037473093036040288 0.0051586471527963881 0 -0.037184897383526559 0.0057624804047830408 0 -0.037521072320292344 0.0056130325368703767 0 -0.03728258762647281 0.0061476057543873438 0 -0.03749632816144275 0.0063917835099015548 0 -0.037701322291790108 0.005949700919817536 0 -0.037521072320292344 0.0056130325368703767 0 -0.03728258762647281 0.0061476057543873438 0 -0.037701322291790108 0.005949700919817536 0 -0.036746219727482536 0.0063435521391307292 0 -0.037184897383526559 0.0057624804047830408 0 -0.03728258762647281 0.0061476057543873438 0 -0.03728258762647281 0.0061476057543873438 0 -0.037087530371724825 0.0066778911113579593 0 -0.03749632816144275 0.0063917835099015548 0 -0.037753585639409122 0.0073955747636471007 0 -0.037087530371724825 0.0066778911113579593 0 -0.037633193063103615 0.0067478293547898818 0 -0.036746219727482536 0.0063435521391307292 0 -0.03728258762647281 0.0061476057543873438 0 -0.037087530371724825 0.0066778911113579593 0 -0.037087530371724825 0.0066778911113579593 0 -0.03749632816144275 0.0063917835099015548 0 -0.037633193063103615 0.0067478293547898818 0 -0.03749632816144275 0.0063917835099015548 0 -0.037633193063103615 0.0067478293547898818 0 -0.037807799274418311 0.0064069358956183927 0 -0.038305503858141049 0.0070588177736590303 0 -0.03797688993732657 0.006699044859364657 0 -0.038220692129481884 0.0062481576131386725 0 -0.038412033267193509 0.0041159033749108131 0 -0.038501189573891897 0.0051666836166597129 0 -0.037753585639409122 0.0073955747636471007 0 -0.037633193063103615 0.0067478293547898818 0 -0.03797688993732657 0.006699044859364657 0 -0.03797688993732657 0.006699044859364657 0 -0.037807799274418311 0.0064069358956183927 0 -0.038220692129481884 0.0062481576131386725 0 -0.037633193063103615 0.0067478293547898818 0 -0.03797688993732657 0.006699044859364657 0 -0.037807799274418311 0.0064069358956183927 0 -0.03749632816144275 0.0063917835099015548 0 -0.037807799274418311 0.0064069358956183927 0 -0.037701322291790108 0.005949700919817536 0 -0.037807799274418311 0.0064069358956183927 0 -0.038220692129481884 0.0062481576131386725 0 -0.037924951727010256 0.0060403280815595709 0 -0.038220692129481884 0.0062481576131386725 0 -0.037924951727010256 0.0060403280815595709 0 -0.038031943480122642 0.0055220597462597668 0 -0.038501189573891897 0.0051666836166597129 0 -0.03843360093962811 0.0054600638484155802 0 -0.038051285097079689 0.0057202526456396141 0 -0.038031943480122642 0.0055220597462597668 0 -0.038323361379985203 0.0055274572562114344 0 -0.037807799274418311 0.0064069358956183927 0 -0.037924951727010256 0.0060403280815595709 0 -0.037701322291790108 0.005949700919817536 0 -0.037924951727010256 0.0060403280815595709 0 -0.037701322291790108 0.005949700919817536 0 -0.038031943480122642 0.0055220597462597668 0 -0.037701322291790108 0.005949700919817536 0 -0.037798050138350706 0.0053083514181323814 0 -0.038031943480122642 0.0055220597462597668 0 -0.037521072320292344 0.0056130325368703767 0 -0.037701322291790108 0.005949700919817536 0 -0.037798050138350706 0.0053083514181323814 0 -0.038017342452685475 0.0048763885895283269 0 -0.038031943480122642 0.0055220597462597668 0 -0.038455522602374455 0.0051630461883228123 0 -0.038455522602374455 0.0051630461883228123 0 -0.038323361379985203 0.0055274572562114344 0 -0.038838231842868352 0.0057635824361175793 0 -0.038031943480122642 0.0055220597462597668 0 -0.038455522602374455 0.0051630461883228123 0 -0.038323361379985203 0.0055274572562114344 0 -0.038051285097079689 0.0057202526456396141 0 -0.038323361379985203 0.0055274572562114344 0 -0.038838231842868352 0.0057635824361175793 0 -0.038412033267193509 0.0041159033749108131 0 -0.038277467151074766 0.00371366340483362 0 -0.038501189573891897 0.0051666836166597129 0 -0.038277467151074766 0.00371366340483362 0 -0.038320639692991376 0.0042951674102777258 0 -0.038318703600187902 0.0042810593906321016 0 -0.038341312859599172 0.0042798194883359921 0 -0.035868625665760538 -0.0020237517682106317 0 -0.035367525933263796 -0.0020666243450964002 0 -0.036234209816153121 -0.0026572509187773887 0 -0.036431473094191945 -0.0020545780459429604 0 -0.036234209816153121 -0.0026572509187773887 0 -0.037340737207709446 -0.0025965249041260494 0 -0.038277467151074766 0.00371366340483362 0 -0.038667028446699891 0.0016633287557610945 0 -0.036431473094191945 -0.0020545780459429604 0 -0.035868625665760538 -0.0020237517682106317 0 -0.036234209816153121 -0.0026572509187773887 0 -0.038277467151074766 0.00371366340483362 0 -0.039385453291384896 0.0049391559575697706 0 -0.038838231842868352 0.0057635824361175793 0 -0.039033223128169557 0.0047745962229174032 0 -0.039848902549176946 0.0049770011771185108 0 -0.038455522602374455 0.0051630461883228123 0 -0.038838231842868352 0.0057635824361175793 0 -0.039033223128169557 0.0047745962229174032 0 -0.039033223128169557 0.0047745962229174032 0 -0.038502853322146695 0.0045505423333539515 0 -0.038852038970351832 0.0039479864581090677 0 -0.039033223128169557 0.0047745962229174032 0 -0.038852038970351832 0.0039479864581090677 0 -0.039500484536335034 0.0039920590106744319 0 -0.038455522602374455 0.0051630461883228123 0 -0.039033223128169557 0.0047745962229174032 0 -0.038502853322146695 0.0045505423333539515 0 -0.038017342452685475 0.0048763885895283269 0 -0.038502853322146695 0.0045505423333539515 0 -0.03819989457247034 0.0039711840948208161 0 -0.038017342452685475 0.0048763885895283269 0 -0.038455522602374455 0.0051630461883228123 0 -0.038502853322146695 0.0045505423333539515 0 -0.03819989457247034 0.0039711840948208161 0 -0.038852038970351832 0.0039479864581090677 0 -0.038656154281105484 0.0031121294133043677 0 -0.038502853322146695 0.0045505423333539515 0 -0.03819989457247034 0.0039711840948208161 0 -0.038852038970351832 0.0039479864581090677 0 -0.038852038970351832 0.0039479864581090677 0 -0.039277905202245313 0.0030746610794923361 0 -0.038656154281105484 0.0031121294133043677 0 -0.038852038970351832 0.0039479864581090677 0 -0.039277905202245313 0.0030746610794923361 0 -0.039500484536335034 0.0039920590106744319 0 -0.039277905202245313 0.0030746610794923361 0 -0.038810612881060538 0.0020463742525197231 0 -0.039459189635573953 0.0017945852983348464 0 -0.039277905202245313 0.0030746610794923361 0 -0.038656154281105484 0.0031121294133043677 0 -0.038810612881060538 0.0020463742525197231 0 -0.038656154281105484 0.0031121294133043677 0 -0.038251885870169332 0.0022013322534729894 0 -0.037776913907462586 0.0025287110428994825 0 -0.03819989457247034 0.0039711840948208161 0 -0.038656154281105484 0.0031121294133043677 0 -0.038123342601146443 0.0033669888258741304 0 -0.038526350274360528 0.0030551621148764739 0 -0.038046549583613094 0.0029149108380269418 0 -0.038251885870169332 0.0022013322534729894 0 -0.037791650479292109 0.0018757805857151136 0 -0.037776913907462586 0.0025287110428994825 0 -0.038656154281105484 0.0031121294133043677 0 -0.038251885870169332 0.0022013322534729894 0 -0.038810612881060538 0.0020463742525197231 0 -0.038251885870169332 0.0022013322534729894 0 -0.038263540701055303 0.0014193617333460634 0 -0.038810612881060538 0.0020463742525197231 0 -0.038251885870169332 0.0022013322534729894 0 -0.038263540701055303 0.0014193617333460634 0 -0.037791650479292109 0.0018757805857151136 0 -0.038263540701055303 0.0014193617333460634 0 -0.038810612881060538 0.0020463742525197231 0 -0.038880230655678714 0.0010549100231670846 0 -0.038810612881060538 0.0020463742525197231 0 -0.038880230655678714 0.0010549100231670846 0 -0.039459189635573953 0.0017945852983348464 0 -0.038880230655678714 0.0010549100231670846 0 -0.038527102492213403 0.0001886954585122949 0 -0.039517885367786977 0.00065681790323841654 0 -0.038988072733029087 -0.00041471359793025938 0 -0.038527102492213403 0.0001886954585122949 0 -0.039517885367786977 0.00065681790323841654 0 -0.038263540701055303 0.0014193617333460634 0 -0.038527102492213403 0.0001886954585122949 0 -0.037441745289621312 0.0012824152008664279 0 -0.038263540701055303 0.0014193617333460634 0 -0.038880230655678714 0.0010549100231670846 0 -0.038527102492213403 0.0001886954585122949 0 -0.038527102492213403 0.0001886954585122949 0 -0.037441745289621312 0.0012824152008664279 0 -0.037220591784103148 0.00054030777874453605 0 -0.038197302635409235 -0.00072357477216463588 0 -0.038527102492213403 0.0001886954585122949 0 -0.037786449508109048 -0.00013630192788381581 0 -0.03841804642196843 0.00016885693533121723 0 -0.037581516438971743 0.00021688800411802432 0 -0.037581516438971743 0.00021688800411802432 0 -0.036582205538437461 0.00031288896286888861 0 -0.037441745289621312 0.0012824152008664279 0 -0.037220591784103148 0.00054030777874453605 0 -0.036756923431080814 0.0011528330388368131 0 -0.037220591784103148 0.00054030777874453605 0 -0.036756923431080814 0.0011528330388368131 0 -0.036409711294538009 0.00068071432988341433 0 -0.037441745289621312 0.0012824152008664279 0 -0.036756923431080814 0.0011528330388368131 0 -0.037002796289702919 0.0016157750663636254 0 -0.037002796289702919 0.0016157750663636254 0 -0.037169343395422987 0.0020165902296963795 0 -0.036411672837274874 0.0016003692877582028 0 -0.037002796289702919 0.0016157750663636254 0 -0.037307556542099794 0.0019734400718420136 0 -0.037169343395422987 0.0020165902296963795 0 -0.038263540701055303 0.0014193617333460634 0 -0.037441745289621312 0.0012824152008664279 0 -0.037791650479292109 0.0018757805857151136 0 -0.037441745289621312 0.0012824152008664279 0 -0.037002796289702919 0.0016157750663636254 0 -0.037307556542099794 0.0019734400718420136 0 -0.037441745289621312 0.0012824152008664279 0 -0.037791650479292109 0.0018757805857151136 0 -0.037307556542099794 0.0019734400718420136 0 -0.038046549583613094 0.0029149108380269418 0 -0.038174566221168299 0.0028331167950124449 0 -0.037307556542099794 0.0019734400718420136 0 -0.037776913907462586 0.0025287110428994825 0 -0.037082439025931078 0.0021469288036414852 0 -0.038123342601146443 0.0033669888258741304 0 -0.037754767067519256 0.0037246667934441573 0 -0.037510392298305356 0.0033155311190490992 0 -0.038059219114790092 0.0027820623065449267 0 -0.038174566221168299 0.0028331167950124449 0 -0.037791650479292109 0.0018757805857151136 0 -0.037307556542099794 0.0019734400718420136 0 -0.037776913907462586 0.0025287110428994825 0 -0.03819989457247034 0.0039711840948208161 0 -0.038123342601146443 0.0033669888258741304 0 -0.037754767067519256 0.0037246667934441573 0 -0.038174566221168299 0.0028331167950124449 0 -0.037501820939667169 0.0019895260464237248 0 -0.03799439827593086 0.0041414997462994431 0 -0.038174566221168299 0.0028331167950124449 0 -0.036715143018253467 0.0041423556270111378 0 -0.03735328238542749 0.0040472344509456647 0 -0.037510392298305356 0.0033155311190490992 0 -0.03735328238542749 0.0040472344509456647 0 -0.037754767067519256 0.0037246667934441573 0 -0.037510392298305356 0.0033155311190490992 0 -0.039219217790138879 0.0044256473178885562 0 -0.041122673873856354 0.0028716486882752151 0 -0.038480009061710896 0.0022068348297414339 0 -0.039219217790138879 0.0044256473178885562 0 -0.037504757050521982 0.0035184722400118315 0 -0.038480009061710896 0.0022068348297414339 0 -0.037504757050521982 0.0035184722400118315 0 -0.036775387839171197 0.0025704951096104461 0 -0.038480009061710896 0.0022068348297414339 0 -0.037862878421751366 0.0045765185216822693 0 -0.037504757050521982 0.0035184722400118315 0 -0.035753412424393456 0.0036474233858807882 0 -0.037504757050521982 0.0035184722400118315 0 -0.036775387839171197 0.0025704951096104461 0 -0.036362571366434726 0.0030418691298041449 0 -0.037501820939667169 0.0019895260464237248 0 -0.035915010353697395 0.0015307981630664721 0 -0.036775387839171197 0.0025704951096104461 0 -0.038480009061710896 0.0022068348297414339 0 -0.035659590808771617 0.0014431418181765688 0 -0.036411672837274874 0.0016003692877582028 0 -0.036219863479583156 0.0011384311061711334 0 -0.035659590808771617 0.0014431418181765688 0 -0.036756923431080814 0.0011528330388368131 0 -0.037002796289702919 0.0016157750663636254 0 -0.036411672837274874 0.0016003692877582028 0 -0.036756923431080814 0.0011528330388368131 0 -0.036411672837274874 0.0016003692877582028 0 -0.036219863479583156 0.0011384311061711334 0 -0.036756923431080814 0.0011528330388368131 0 -0.036409711294538009 0.00068071432988341433 0 -0.036219863479583156 0.0011384311061711334 0 -0.03705013232559165 -0.00099965180529024275 0 -0.037786449508109048 -0.00013630192788381581 0 -0.036918569052476681 -4.9848976443925425e-05 0 -0.036918569052476681 -4.9848976443925425e-05 0 -0.035546528874925688 0.000398258896659929 0 -0.035963923793834188 -0.00018221453345296451 0 -0.036301370300847076 -0.00075173854970358349 0 -0.036918569052476681 -4.9848976443925425e-05 0 -0.035963923793834188 -0.00018221453345296451 0 -0.03705013232559165 -0.00099965180529024275 0 -0.036301370300847076 -0.00075173854970358349 0 -0.036918569052476681 -4.9848976443925425e-05 0 -0.036582205538437461 0.00031288896286888861 0 -0.035663462629579132 0.00039341469016738681 0 -0.036409711294538009 0.00068071432988341433 0 -0.036219863479583156 0.0011384311061711334 0 -0.035744852539264502 0.00089542060896587205 0 -0.036409711294538009 0.00068071432988341433 0 -0.035744852539264502 0.00089542060896587205 0 -0.035546528874925688 0.000398258896659929 0 -0.035546528874925688 0.000398258896659929 0 -0.035286768241403602 0.00013469269971642491 0 -0.035369342902771966 0.0012810177874081525 0 -0.035673731882389266 0.00051178631154362214 0 -0.035908934413762333 0.0019616798277104978 0 -0.035744852539264502 0.00089542060896587205 0 -0.035546528874925688 0.000398258896659929 0 -0.035369342902771966 0.0012810177874081525 0 -0.035546528874925688 0.000398258896659929 0 -0.035963923793834188 -0.00018221453345296451 0 -0.035286768241403602 0.00013469269971642491 0 -0.035688917036368013 -0.00065547924465526549 0 -0.035963923793834188 -0.00018221453345296451 0 -0.035286768241403602 0.00013469269971642491 0 -0.036301370300847076 -0.00075173854970358349 0 -0.035688917036368013 -0.00065547924465526549 0 -0.035963923793834188 -0.00018221453345296451 0 -0.035215288663550212 -0.0011901870049428214 0 -0.035688917036368013 -0.00065547924465526549 0 -0.035286768241403602 0.00013469269971642491 0 -0.035477126126382402 -0.00093465363615988901 0 -0.035673731882389266 0.00051178631154362214 0 -0.034999986455752898 -0.00080436964457134409 0 -0.036039029539436364 0.00089076056120100677 0 -0.034999995916058513 0.0012615994841279352 0 -0.034999995916058513 0.0012615994841279352 0 -0.035764485034459892 0.0017725166102424718 0 -0.034999996652554356 0.0033273987990555332 0 -0.036039029539436364 0.00089076056120100677 0 -0.035764485034459892 0.0017725166102424718 0 -0.036338420475191709 0.002491780620633318 0 -0.036039029539436364 0.00089076056120100677 0 -0.034999995916058513 0.0012615994841279352 0 -0.035764485034459892 0.0017725166102424718 0 -0.035764485034459892 0.0017725166102424718 0 -0.036338420475191709 0.002491780620633318 0 -0.034999996652554356 0.0033273987990555332 0 -0.036219863479583156 0.0011384311061711334 0 -0.035744852539264502 0.00089542060896587205 0 -0.035659590808771617 0.0014431418181765688 0 -0.035744852539264502 0.00089542060896587205 0 -0.035659590808771617 0.0014431418181765688 0 -0.035369342902771966 0.0012810177874081525 0 -0.036775387839171197 0.0025704951096104461 0 -0.035659590808771617 0.0014431418181765688 0 -0.035942790998644725 0.0023736162743955716 0 -0.035369342902771966 0.0012810177874081525 0 -0.035942790998644725 0.0023736162743955716 0 -0.03584586540680209 0.0027312166229782335 0 -0.035659590808771617 0.0014431418181765688 0 -0.035369342902771966 0.0012810177874081525 0 -0.035942790998644725 0.0023736162743955716 0 -0.037504757050521982 0.0035184722400118315 0 -0.036362571366434726 0.0030418691298041449 0 -0.035753412424393456 0.0036474233858807882 0 -0.035369342902771966 0.0012810177874081525 0 -0.03584586540680209 0.0027312166229782335 0 -0.035753412424393456 0.0036474233858807882 0 -0.035908934413762333 0.0019616798277104978 0 -0.036384311367446222 0.0037687269757133669 0 -0.036775387839171197 0.0025704951096104461 0 -0.035942790998644725 0.0023736162743955716 0 -0.036362571366434726 0.0030418691298041449 0 -0.03584586540680209 0.0027312166229782335 0 -0.036362571366434726 0.0030418691298041449 0 -0.035753412424393456 0.0036474233858807882 0 -0.035942790998644725 0.0023736162743955716 0 -0.03584586540680209 0.0027312166229782335 0 -0.036362571366434726 0.0030418691298041449 0 -0.036384311367446222 0.0037687269757133669 0 -0.036396935320640963 0.0038188237049513289 0 -0.035706556601486937 0.0043864074223891958 0 -0.036228425318647298 0.0045341238011420877 0 -0.036573406938329882 0.0041089384538367472 0 -0.036228425318647298 0.0045341238011420877 0 -0.036573406938329882 0.0041089384538367472 0 -0.036603988322035902 0.0043205296803868502 0 -0.034999964335088167 0.0048399527788570212 0 -0.035706556601486937 0.0043864074223891958 0 -0.034999997014720015 0.0033275052816349993 0 -0.036384311367446222 0.0037687269757133669 0 -0.035000776810616578 0.0033277379671165343 0 -0.036338420475191709 0.002491780620633318 0 -0.036635988253724369 0.0040808649043466219 0 -0.034999996652554356 0.0033273987990555332 0 -0.035706556601486937 0.0043864074223891958 0 -0.036573406938329882 0.0041089384538367472 0 -0.034999997014720015 0.0033275052816349993 0 -0.038746738603648391 -0.0012089463885634664 0 -0.039153691647539519 -0.0004254839111986075 0 -0.038564538265882513 -0.00069928466039624094 0 -0.038746738603648391 -0.0012089463885634664 0 -0.038070935392699082 -0.0012882790561082134 0 -0.038353310904808105 -0.0016777214668043693 0 -0.038746738603648391 -0.0012089463885634664 0 -0.038564538265882513 -0.00069928466039624094 0 -0.038070935392699082 -0.0012882790561082134 0 -0.038746738603648391 -0.0012089463885634664 0 -0.03916763805802375 -0.00101435713826976 0 -0.039153691647539519 -0.0004254839111986075 0 -0.038746738603648391 -0.0012089463885634664 0 -0.03916763805802375 -0.00101435713826976 0 -0.039001235937963792 -0.0014569451422620267 0 -0.039153691647539519 -0.0004254839111986075 0 -0.038564538265882513 -0.00069928466039624094 0 -0.038786767763341279 3.1976991262374461e-06 0 -0.038564538265882513 -0.00069928466039624094 0 -0.037933333971587727 -0.00026020095365834493 0 -0.038786767763341279 3.1976991262374461e-06 0 -0.037933333971587727 -0.00026020095365834493 0 -0.038006625813525957 -0.00082674293866087862 0 -0.037385860430575839 -0.0010578687896815899 0 -0.038564538265882513 -0.00069928466039624094 0 -0.037933333971587727 -0.00026020095365834493 0 -0.038006625813525957 -0.00082674293866087862 0 -0.037933333971587727 -0.00026020095365834493 0 -0.037069405110716484 -0.00056470896375914674 0 -0.037385860430575839 -0.0010578687896815899 0 -0.037069405110716484 -0.00056470896375914674 0 -0.036736225374778594 -0.00011159492551829142 0 -0.036295133095592631 -0.00061693329262468204 0 -0.037933333971587727 -0.00026020095365834493 0 -0.037069405110716484 -0.00056470896375914674 0 -0.03735279248590153 -6.3657730545605608e-05 0 -0.037069405110716484 -0.00056470896375914674 0 -0.036736225374778594 -0.00011159492551829142 0 -0.03735279248590153 -6.3657730545605608e-05 0 -0.037069405110716484 -0.00056470896375914674 0 -0.036526600952950482 -0.0011424770606369584 0 -0.037385860430575839 -0.0010578687896815899 0 -0.037069405110716484 -0.00056470896375914674 0 -0.036526600952950482 -0.0011424770606369584 0 -0.036295133095592631 -0.00061693329262468204 0 -0.036526600952950482 -0.0011424770606369584 0 -0.037385860430575839 -0.0010578687896815899 0 -0.036592966787463259 -0.0016276623736406768 0 -0.037385860430575839 -0.0010578687896815899 0 -0.036592966787463259 -0.0016276623736406768 0 -0.037283630348729752 -0.001685631992692536 0 -0.038564538265882513 -0.00069928466039624094 0 -0.038006625813525957 -0.00082674293866087862 0 -0.038070935392699082 -0.0012882790561082134 0 -0.038006625813525957 -0.00082674293866087862 0 -0.037385860430575839 -0.0010578687896815899 0 -0.038070935392699082 -0.0012882790561082134 0 -0.037385860430575839 -0.0010578687896815899 0 -0.038070935392699082 -0.0012882790561082134 0 -0.037283630348729752 -0.001685631992692536 0 -0.038070935392699082 -0.0012882790561082134 0 -0.03788166713994149 -0.0018196302656388393 0 -0.038353310904808105 -0.0016777214668043693 0 -0.038070935392699082 -0.0012882790561082134 0 -0.03788166713994149 -0.0018196302656388393 0 -0.037283630348729752 -0.001685631992692536 0 -0.03788166713994149 -0.0018196302656388393 0 -0.037369685138162793 -0.0023642065667275076 0 -0.038146339183041007 -0.0020206907231672491 0 -0.03788166713994149 -0.0018196302656388393 0 -0.038146339183041007 -0.0020206907231672491 0 -0.038353310904808105 -0.0016777214668043693 0 -0.036592966787463259 -0.0016276623736406768 0 -0.036610972102754311 -0.0019875920028691822 0 -0.037283630348729752 -0.001685631992692536 0 -0.03788166713994149 -0.0018196302656388393 0 -0.037283630348729752 -0.001685631992692536 0 -0.037369685138162793 -0.0023642065667275076 0 -0.036610972102754311 -0.0019875920028691822 0 -0.037283630348729752 -0.001685631992692536 0 -0.037369685138162793 -0.0023642065667275076 0 -0.036610972102754311 -0.0019875920028691822 0 -0.037369685138162793 -0.0023642065667275076 0 -0.036296391352979254 -0.0024111834499395066 0 -0.037923150651132678 -0.003828538304807018 0 -0.037369685138162793 -0.0023642065667275076 0 -0.036556159642470408 -0.0032474456124070017 0 -0.037369685138162793 -0.0023642065667275076 0 -0.036556159642470408 -0.0032474456124070017 0 -0.036296391352979254 -0.0024111834499395066 0 -0.037867094933883294 -0.0033613768124796314 0 -0.037464217921790416 -0.0023091804278750523 0 -0.038409571704657676 -0.0020420759826160003 0 -0.037369685138162793 -0.0023642065667275076 0 -0.038097716116348712 -0.0021296775840270845 0 -0.037369685138162793 -0.0023642065667275076 0 -0.038146339183041007 -0.0020206907231672491 0 -0.038097716116348712 -0.0021296775840270845 0 -0.038146339183041007 -0.0020206907231672491 0 -0.038097716116348712 -0.0021296775840270845 0 -0.038387307088639355 -0.0020195421025400347 0 -0.038409571704657676 -0.0020420759826160003 0 -0.038097716116348712 -0.0021296775840270845 0 -0.038387307088639355 -0.0020195421025400347 0 -0.038387307088639355 -0.0020195421025400347 0 -0.038588046908388213 -0.0019000500602375054 0 -0.038499313470000088 -0.0018729870661147222 0 -0.038588046908388213 -0.0019000500602375054 0 -0.038499313470000088 -0.0018729870661147222 0 -0.038730130391138803 -0.0018190018279703301 0 -0.038499313470000088 -0.0018729870661147222 0 -0.038727603336533398 -0.0016564648942632276 0 -0.038730130391138803 -0.0018190018279703301 0 -0.038146339183041007 -0.0020206907231672491 0 -0.038387307088639355 -0.0020195421025400347 0 -0.038499313470000088 -0.0018729870661147222 0 -0.038146339183041007 -0.0020206907231672491 0 -0.038499313470000088 -0.0018729870661147222 0 -0.038353310904808105 -0.0016777214668043693 0 -0.038746738603648391 -0.0012089463885634664 0 -0.038353310904808105 -0.0016777214668043693 0 -0.038727603336533398 -0.0016564648942632276 0 -0.038499313470000088 -0.0018729870661147222 0 -0.038353310904808105 -0.0016777214668043693 0 -0.038727603336533398 -0.0016564648942632276 0 -0.038746738603648391 -0.0012089463885634664 0 -0.039001235937963792 -0.0014569451422620267 0 -0.038727603336533398 -0.0016564648942632276 0 -0.039001235937963792 -0.0014569451422620267 0 -0.038727603336533398 -0.0016564648942632276 0 -0.038893304753492348 -0.0017133910390090574 0 -0.038727603336533398 -0.0016564648942632276 0 -0.038893304753492348 -0.0017133910390090574 0 -0.038730130391138803 -0.0018190018279703301 0 -0.038826899785993643 -0.0017695157160211332 0 -0.038893304753492348 -0.0017133910390090574 0 -0.038730130391138803 -0.0018190018279703301 0 -0.038826899785993643 -0.0017695157160211332 0 -0.038893304753492348 -0.0017133910390090574 0 -0.038942246719574726 -0.0017622042264886977 0 -0.038893304753492348 -0.0017133910390090574 0 -0.038942246719574726 -0.0017622042264886977 0 -0.039058927832628446 -0.0016023185437923288 0 -0.038942246719574726 -0.0017622042264886977 0 -0.039185528621151329 -0.0016151644198205244 0 -0.039058927832628446 -0.0016023185437923288 0 -0.038942246719574726 -0.0017622042264886977 0 -0.039033386826285946 -0.0017397380062451999 0 -0.039185528621151329 -0.0016151644198205244 0 -0.038942246719574726 -0.0017622042264886977 0 -0.038898649795527596 -0.0017887199961919909 0 -0.039033386826285946 -0.0017397380062451999 0 -0.038791968045448155 -0.0017218539595951544 0 -0.038942246719574726 -0.0017622042264886977 0 -0.038898649795527596 -0.0017887199961919909 0 -0.038588791620126996 -0.0017936036396101228 0 -0.038898649795527596 -0.0017887199961919909 0 -0.039117032022432441 -0.0017619367523290963 0 -0.038898649795527596 -0.0017887199961919909 0 -0.039117032022432441 -0.0017619367523290963 0 -0.039120596312719566 -0.0017611454071383217 0 -0.038898649795527596 -0.0017887199961919909 0 -0.039033386826285946 -0.0017397380062451999 0 -0.039120596312719566 -0.0017611454071383217 0 -0.038689494525577253 -0.0015599812595192416 0 -0.03879529497330754 0.00033789467626841143 0 -0.038588791620126996 -0.0017936036396101228 0 -0.038530171773196259 -0.0025150080799299524 0 -0.037885329947839587 -0.0021465165955408642 0 -0.03879529497330754 0.00033789467626841143 0 -0.038806370289958314 0.00030934909575083992 0 -0.039033386826285946 -0.0017397380062451999 0 -0.039120596312719566 -0.0017611454071383217 0 -0.039185528621151329 -0.0016151644198205244 0 -0.039205151044795924 -0.0017549682061177474 0 -0.039120596312719566 -0.0017611454071383217 0 -0.039185528621151329 -0.0016151644198205244 0 -0.03879529497330754 0.00033789467626841143 0 -0.040225864212527308 0.002010212164558307 0 -0.039205151044795924 -0.0017549682061177474 0 -0.039185528621151329 -0.0016151644198205244 0 -0.039785376198072236 -0.0011704891976866256 0 -0.039185528621151329 -0.0016151644198205244 0 -0.039320044588812421 -0.0013066477058080723 0 -0.039785376198072236 -0.0011704891976866256 0 -0.041093691291199733 0.0058037759178726405 0 -0.040503843317808964 0.0052030437868108119 0 -0.041078455835648377 0.0047409584393121647 0 -0.03916763805802375 -0.00101435713826976 0 -0.039001235937963792 -0.0014569451422620267 0 -0.039320044588812421 -0.0013066477058080723 0 -0.039001235937963792 -0.0014569451422620267 0 -0.038893304753492348 -0.0017133910390090574 0 -0.039058927832628446 -0.0016023185437923288 0 -0.039001235937963792 -0.0014569451422620267 0 -0.039320044588812421 -0.0013066477058080723 0 -0.039058927832628446 -0.0016023185437923288 0 -0.039185528621151329 -0.0016151644198205244 0 -0.039320044588812421 -0.0013066477058080723 0 -0.039058927832628446 -0.0016023185437923288 0 -0.037350610665586599 -0.0019887111114481222 0 -0.036431473094191945 -0.0020545780459429604 0 -0.037340737207709446 -0.0025965249041260494 0 -0.038530171773196259 -0.0025150080799299524 0 -0.037340737207709446 -0.0025965249041260494 0 -0.037885329947839587 -0.0021465165955408642 0 -0.03879529497330754 0.00033789467626841143 0 -0.038667028446699891 0.0016633287557610945 0 -0.041093691291199733 0.0058037759178726405 0 -0.039946897578848665 0.005712356699599931 0 -0.040503843317808964 0.0052030437868108119 0 -0.037350610665586599 -0.0019887111114481222 0 -0.037340737207709446 -0.0025965249041260494 0 -0.037885329947839587 -0.0021465165955408642 0 -0.038852053950935453 0.0056055395435716726 0 -0.039946897578848665 0.005712356699599931 0 -0.039848902549176946 0.0049770011771185108 0 -0.039946897578848665 0.005712356699599931 0 -0.040503843317808964 0.0052030437868108119 0 -0.039848902549176946 0.0049770011771185108 0 -0.039033223128169557 0.0047745962229174032 0 -0.039848902549176946 0.0049770011771185108 0 -0.039500484536335034 0.0039920590106744319 0 -0.039848902549176946 0.0049770011771185108 0 -0.040333930006677468 0.0042562148417655933 0 -0.039500484536335034 0.0039920590106744319 0 -0.040503843317808964 0.0052030437868108119 0 -0.039848902549176946 0.0049770011771185108 0 -0.040333930006677468 0.0042562148417655933 0 -0.040333930006677468 0.0042562148417655933 0 -0.041078455835648377 0.0047409584393121647 0 -0.04104846434634251 0.0035118300633233653 0 -0.040503843317808964 0.0052030437868108119 0 -0.040333930006677468 0.0042562148417655933 0 -0.041078455835648377 0.0047409584393121647 0 -0.040333930006677468 0.0042562148417655933 0 -0.04104846434634251 0.0035118300633233653 0 -0.040028408619179216 0.0028789745862181707 0 -0.040333930006677468 0.0042562148417655933 0 -0.039500484536335034 0.0039920590106744319 0 -0.040028408619179216 0.0028789745862181707 0 -0.039277905202245313 0.0030746610794923361 0 -0.039500484536335034 0.0039920590106744319 0 -0.040028408619179216 0.0028789745862181707 0 -0.03916763805802375 -0.00101435713826976 0 -0.039320044588812421 -0.0013066477058080723 0 -0.039564554102121112 -0.00069700974504449101 0 -0.039785376198072236 -0.0011704891976866256 0 -0.040150254665663736 -0.00033643771312109384 0 -0.039564554102121112 -0.00069700974504449101 0 -0.040225864212527308 0.002010212164558307 0 -0.040505375992524247 0.0015894942712425776 0 -0.039320044588812421 -0.0013066477058080723 0 -0.039785376198072236 -0.0011704891976866256 0 -0.039564554102121112 -0.00069700974504449101 0 -0.040150254665663736 -0.00033643771312109384 0 -0.039564554102121112 -0.00069700974504449101 0 -0.039772620988116049 0.0001899862707566826 0 -0.039153691647539519 -0.0004254839111986075 0 -0.039564554102121112 -0.00069700974504449101 0 -0.039772620988116049 0.0001899862707566826 0 -0.03916763805802375 -0.00101435713826976 0 -0.039153691647539519 -0.0004254839111986075 0 -0.039564554102121112 -0.00069700974504449101 0 -0.040505375992524247 0.0015894942712425776 0 -0.040484860478092063 0.0013021936405611648 0 -0.040150254665663736 -0.00033643771312109384 0 -0.039772620988116049 0.0001899862707566826 0 -0.040255414678252735 0.00044299297461642073 0 -0.039772620988116049 0.0001899862707566826 0 -0.040016532559035742 0.00068368819208611861 0 -0.040255414678252735 0.00044299297461642073 0 -0.040016532559035742 0.00068368819208611861 0 -0.040255414678252735 0.00044299297461642073 0 -0.040210691328344303 0.00084570084528379371 0 -0.040484860478092063 0.0013021936405611648 0 -0.040363889355238824 0.00099444602274180081 0 -0.039772620988116049 0.0001899862707566826 0 -0.040016532559035742 0.00068368819208611861 0 -0.039768228742391498 0.00073244758886580833 0 -0.039772620988116049 0.0001899862707566826 0 -0.039768228742391498 0.00073244758886580833 0 -0.039375975118719632 0.00041191622316190656 0 -0.039277905202245313 0.0030746610794923361 0 -0.040028408619179216 0.0028789745862181707 0 -0.039459189635573953 0.0017945852983348464 0 -0.04104846434634251 0.0035118300633233653 0 -0.040844836329699777 0.0021288857909818105 0 -0.040028408619179216 0.0028789745862181707 0 -0.040844836329699777 0.0021288857909818105 0 -0.04005921786021896 0.0015108035283595701 0 -0.040210691328344303 0.00084570084528379371 0 -0.040844836329699777 0.0021288857909818105 0 -0.040028408619179216 0.0028789745862181707 0 -0.04005921786021896 0.0015108035283595701 0 -0.040028408619179216 0.0028789745862181707 0 -0.04005921786021896 0.0015108035283595701 0 -0.039459189635573953 0.0017945852983348464 0 -0.038880230655678714 0.0010549100231670846 0 -0.039459189635573953 0.0017945852983348464 0 -0.039517885367786977 0.00065681790323841654 0 -0.04005921786021896 0.0015108035283595701 0 -0.039459189635573953 0.0017945852983348464 0 -0.039517885367786977 0.00065681790323841654 0 -0.04005921786021896 0.0015108035283595701 0 -0.039517885367786977 0.00065681790323841654 0 -0.040210691328344303 0.00084570084528379371 0 -0.039724009943859141 -4.8480996511987996e-05 0 -0.039517885367786977 0.00065681790323841654 0 -0.040210691328344303 0.00084570084528379371 0 -0.039991488614257192 0.00029643592412268891 0 -0.039724009943859141 -4.8480996511987996e-05 0 -0.040210691328344303 0.00084570084528379371 0 -0.039724009943859141 -4.8480996511987996e-05 0 -0.038988072733029087 -0.00041471359793025938 0 -0.039517885367786977 0.00065681790323841654 0 -0.039768228742391498 0.00073244758886580833 0 -0.039960036115579273 0.00087395729450196716 0 -0.039600254638176471 0.0010552450970995057 0 -0.040016532559035742 0.00068368819208611861 0 -0.039768228742391498 0.00073244758886580833 0 -0.039960036115579273 0.00087395729450196716 0 -0.039960036115579273 0.00087395729450196716 0 -0.039812533162178192 0.0010017544063604855 0 -0.039600254638176471 0.0010552450970995057 0 -0.040016532559035742 0.00068368819208611861 0 -0.039960036115579273 0.00087395729450196716 0 -0.040210691328344303 0.00084570084528379371 0 -0.039991488614257192 0.00029643592412268891 0 -0.039960036115579273 0.00087395729450196716 0 -0.040210691328344303 0.00084570084528379371 0 -0.039991488614257192 0.00029643592412268891 0 -0.039960036115579273 0.00087395729450196716 0 -0.039812533162178192 0.0010017544063604855 0 -0.03979895803355861 0.00051480804516140701 0 -0.039812533162178192 0.0010017544063604855 0 -0.039784313092785364 0.0011272971586901021 0 -0.039812533162178192 0.0010017544063604855 0 -0.039784313092785364 0.0011272971586901021 0 -0.039584544841444282 0.0014684483249167188 0 -0.039784313092785364 0.0011272971586901021 0 -0.039715531016536305 0.0017257115661828539 0 -0.039584544841444282 0.0014684483249167188 0 -0.039951120281599965 0.0009227675655340469 0 -0.039784313092785364 0.0011272971586901021 0 -0.039715531016536305 0.0017257115661828539 0 -0.039715531016536305 0.0017257115661828539 0 -0.039584544841444282 0.0014684483249167188 0 -0.039350379886929222 0.0018793586559770917 0 -0.039584544841444282 0.0014684483249167188 0 -0.039232065017457442 0.0013086625559931646 0 -0.039600254638176471 0.0010552450970995057 0 -0.039584544841444282 0.0014684483249167188 0 -0.039232065017457442 0.0013086625559931646 0 -0.039350379886929222 0.0018793586559770917 0 -0.039812533162178192 0.0010017544063604855 0 -0.039584544841444282 0.0014684483249167188 0 -0.039600254638176471 0.0010552450970995057 0 -0.039768228742391498 0.00073244758886580833 0 -0.039600254638176471 0.0010552450970995057 0 -0.039375975118719632 0.00041191622316190656 0 -0.039600254638176471 0.0010552450970995057 0 -0.039045239278971494 0.00072481110811744762 0 -0.039375975118719632 0.00041191622316190656 0 -0.039232065017457442 0.0013086625559931646 0 -0.039600254638176471 0.0010552450970995057 0 -0.039045239278971494 0.00072481110811744762 0 -0.039232065017457442 0.0013086625559931646 0 -0.039045239278971494 0.00072481110811744762 0 -0.038723050832135404 0.0010031491994725089 0 -0.039045239278971494 0.00072481110811744762 0 -0.038403123647153065 0.00036805357083463073 0 -0.038723050832135404 0.0010031491994725089 0 -0.039045239278971494 0.00072481110811744762 0 -0.038786767763341279 3.1976991262374461e-06 0 -0.038403123647153065 0.00036805357083463073 0 -0.039045239278971494 0.00072481110811744762 0 -0.038786767763341279 3.1976991262374461e-06 0 -0.039375975118719632 0.00041191622316190656 0 -0.039153691647539519 -0.0004254839111986075 0 -0.038786767763341279 3.1976991262374461e-06 0 -0.039375975118719632 0.00041191622316190656 0 -0.039153691647539519 -0.0004254839111986075 0 -0.039772620988116049 0.0001899862707566826 0 -0.039375975118719632 0.00041191622316190656 0 -0.037144219140119492 0.00034421138933712355 0 -0.037538252447099262 0.00084040580188648106 0 -0.03684193156490484 0.00084433421348218611 0 -0.037144219140119492 0.00034421138933712355 0 -0.037780774486905894 0.00032442719835561737 0 -0.037538252447099262 0.00084040580188648106 0 -0.037144219140119492 0.00034421138933712355 0 -0.03684193156490484 0.00084433421348218611 0 -0.036384159377542219 0.00042861514726284203 0 -0.037144219140119492 0.00034421138933712355 0 -0.036736225374778594 -0.00011159492551829142 0 -0.036384159377542219 0.00042861514726284203 0 -0.037144219140119492 0.00034421138933712355 0 -0.03735279248590153 -6.3657730545605608e-05 0 -0.037780774486905894 0.00032442719835561737 0 -0.037144219140119492 0.00034421138933712355 0 -0.036736225374778594 -0.00011159492551829142 0 -0.03735279248590153 -6.3657730545605608e-05 0 -0.037933333971587727 -0.00026020095365834493 0 -0.03735279248590153 -6.3657730545605608e-05 0 -0.037780774486905894 0.00032442719835561737 0 -0.037933333971587727 -0.00026020095365834493 0 -0.038786767763341279 3.1976991262374461e-06 0 -0.038403123647153065 0.00036805357083463073 0 -0.037933333971587727 -0.00026020095365834493 0 -0.038403123647153065 0.00036805357083463073 0 -0.037780774486905894 0.00032442719835561737 0 -0.037780774486905894 0.00032442719835561737 0 -0.038185955517852324 0.00076754000482167587 0 -0.037538252447099262 0.00084040580188648106 0 -0.038403123647153065 0.00036805357083463073 0 -0.037780774486905894 0.00032442719835561737 0 -0.038185955517852324 0.00076754000482167587 0 -0.038185955517852324 0.00076754000482167587 0 -0.037900487371271809 0.0015197517663845261 0 -0.037538252447099262 0.00084040580188648106 0 -0.038403123647153065 0.00036805357083463073 0 -0.038185955517852324 0.00076754000482167587 0 -0.038723050832135404 0.0010031491994725089 0 -0.038185955517852324 0.00076754000482167587 0 -0.038723050832135404 0.0010031491994725089 0 -0.038689186800259005 0.0014881939867399684 0 -0.039232065017457442 0.0013086625559931646 0 -0.038723050832135404 0.0010031491994725089 0 -0.038689186800259005 0.0014881939867399684 0 -0.038185955517852324 0.00076754000482167587 0 -0.037900487371271809 0.0015197517663845261 0 -0.038689186800259005 0.0014881939867399684 0 -0.037283806980853575 0.0012970594579425161 0 -0.037900487371271809 0.0015197517663845261 0 -0.037538252447099262 0.00084040580188648106 0 -0.037283806980853575 0.0012970594579425161 0 -0.037900487371271809 0.0015197517663845261 0 -0.036724804647596247 0.0018487236126253591 0 -0.037283806980853575 0.0012970594579425161 0 -0.037538252447099262 0.00084040580188648106 0 -0.03684193156490484 0.00084433421348218611 0 -0.03684193156490484 0.00084433421348218611 0 -0.036724804647596247 0.0018487236126253591 0 -0.036038025024030064 0.0011318814504316533 0 -0.037283806980853575 0.0012970594579425161 0 -0.03684193156490484 0.00084433421348218611 0 -0.036724804647596247 0.0018487236126253591 0 -0.037900487371271809 0.0015197517663845261 0 -0.037728773702407743 0.0023108196400642004 0 -0.038732310448357114 0.0020780806384204046 0 -0.037900487371271809 0.0015197517663845261 0 -0.036724804647596247 0.0018487236126253591 0 -0.037728773702407743 0.0023108196400642004 0 -0.036724804647596247 0.0018487236126253591 0 -0.037728773702407743 0.0023108196400642004 0 -0.036807134170319868 0.0030236888783627706 0 -0.039232065017457442 0.0013086625559931646 0 -0.038689186800259005 0.0014881939867399684 0 -0.039350379886929222 0.0018793586559770917 0 -0.037900487371271809 0.0015197517663845261 0 -0.038689186800259005 0.0014881939867399684 0 -0.038732310448357114 0.0020780806384204046 0 -0.038732310448357114 0.0020780806384204046 0 -0.039350379886929222 0.0018793586559770917 0 -0.039513907150557949 0.0025189101032476193 0 -0.038689186800259005 0.0014881939867399684 0 -0.038732310448357114 0.0020780806384204046 0 -0.039350379886929222 0.0018793586559770917 0 -0.038414992856019674 0.0054299266060744353 0 -0.039513907150557949 0.0025189101032476193 0 -0.038164002862280763 0.0036345007276741064 0 -0.039715531016536305 0.0017257115661828539 0 -0.039350379886929222 0.0018793586559770917 0 -0.039513907150557949 0.0025189101032476193 0 -0.038732310448357114 0.0020780806384204046 0 -0.039513907150557949 0.0025189101032476193 0 -0.038164002862280763 0.0036345007276741064 0 -0.040262982212432678 0.0014524768329822776 0 -0.039715531016536305 0.0017257115661828539 0 -0.039513907150557949 0.0025189101032476193 0 -0.036807134170319868 0.0030236888783627706 0 -0.038164002862280763 0.0036345007276741064 0 -0.036643976982742348 0.0041717685900047293 0 -0.037728773702407743 0.0023108196400642004 0 -0.038732310448357114 0.0020780806384204046 0 -0.038164002862280763 0.0036345007276741064 0 -0.037728773702407743 0.0023108196400642004 0 -0.036807134170319868 0.0030236888783627706 0 -0.038164002862280763 0.0036345007276741064 0 -0.037149925533718299 0.004862343824406045 0 -0.038164002862280763 0.0036345007276741064 0 -0.036643976982742348 0.0041717685900047293 0 -0.037149925533718299 0.004862343824406045 0 -0.03639445495657595 0.0052600356202100566 0 -0.036643976982742348 0.0041717685900047293 0 -0.036643976982742348 0.0041717685900047293 0 -0.035781193523526704 0.004698952285171443 0 -0.035621169232044579 0.0037759651198132683 0 -0.03639445495657595 0.0052600356202100566 0 -0.036643976982742348 0.0041717685900047293 0 -0.035781193523526704 0.004698952285171443 0 -0.036807134170319868 0.0030236888783627706 0 -0.036643976982742348 0.0041717685900047293 0 -0.035621169232044579 0.0037759651198132683 0 -0.035621169232044579 0.0037759651198132683 0 -0.034107774421443263 0.0041682928142127446 0 -0.03501176710685984 0.0030565431103384399 0 -0.035781193523526704 0.004698952285171443 0 -0.035621169232044579 0.0037759651198132683 0 -0.034753503544716062 0.0049764883261266494 0 -0.033241575084686094 0.0054562617557365042 0 -0.034107774421443263 0.0041682928142127446 0 -0.032155930235564338 0.0045079590395191316 0 -0.033241575084686094 0.0054562617557365042 0 -0.034753503544716062 0.0049764883261266494 0 -0.034107774421443263 0.0041682928142127446 0 -0.034107774421443263 0.0041682928142127446 0 -0.03356755351352312 0.0032142347584896759 0 -0.032155930235564338 0.0045079590395191316 0 -0.035621169232044579 0.0037759651198132683 0 -0.034753503544716062 0.0049764883261266494 0 -0.034107774421443263 0.0041682928142127446 0 -0.034107774421443263 0.0041682928142127446 0 -0.03356755351352312 0.0032142347584896759 0 -0.03501176710685984 0.0030565431103384399 0 -0.03356755351352312 0.0032142347584896759 0 -0.03448049992389228 0.0024519012169880935 0 -0.033873070561755536 0.0018919520245071881 0 -0.03356755351352312 0.0032142347584896759 0 -0.03448049992389228 0.0024519012169880935 0 -0.03501176710685984 0.0030565431103384399 0 -0.03448049992389228 0.0024519012169880935 0 -0.03501176710685984 0.0030565431103384399 0 -0.03561685589046424 0.0019689333494088755 0 -0.035995369241317958 0.0027037691819246212 0 -0.03501176710685984 0.0030565431103384399 0 -0.03561685589046424 0.0019689333494088755 0 -0.036724804647596247 0.0018487236126253591 0 -0.035995369241317958 0.0027037691819246212 0 -0.03561685589046424 0.0019689333494088755 0 -0.036724804647596247 0.0018487236126253591 0 -0.036807134170319868 0.0030236888783627706 0 -0.035995369241317958 0.0027037691819246212 0 -0.036807134170319868 0.0030236888783627706 0 -0.035621169232044579 0.0037759651198132683 0 -0.035995369241317958 0.0027037691819246212 0 -0.035621169232044579 0.0037759651198132683 0 -0.035995369241317958 0.0027037691819246212 0 -0.03501176710685984 0.0030565431103384399 0 -0.030210231687019726 0.0060121452283120741 0 -0.030335820598653147 0.00467201031729844 0 -0.032155930235564338 0.0045079590395191316 0 -0.030335820598653147 0.00467201031729844 0 -0.032155930235564338 0.0045079590395191316 0 -0.031250660541128628 0.0038446787426546537 0 -0.03356755351352312 0.0032142347584896759 0 -0.032155930235564338 0.0045079590395191316 0 -0.032172503017098383 0.0028194078372291609 0 -0.032155930235564338 0.0045079590395191316 0 -0.032172503017098383 0.0028194078372291609 0 -0.031250660541128628 0.0038446787426546537 0 -0.03356755351352312 0.0032142347584896759 0 -0.032172503017098383 0.0028194078372291609 0 -0.033873070561755536 0.0018919520245071881 0 -0.032172503017098383 0.0028194078372291609 0 -0.031250660541128628 0.0038446787426546537 0 -0.030362428963602445 0.0033438417554842248 0 -0.030335820598653147 0.00467201031729844 0 -0.031250660541128628 0.0038446787426546537 0 -0.030362428963602445 0.0033438417554842248 0 -0.030335820598653147 0.00467201031729844 0 -0.030362428963602445 0.0033438417554842248 0 -0.029065247307560629 0.0043103258627052304 0 -0.030362428963602445 0.0033438417554842248 0 -0.031021427392387068 0.0017031588236842358 0 -0.028523416625963013 0.0031177501495618593 0 -0.032172503017098383 0.0028194078372291609 0 -0.030362428963602445 0.0033438417554842248 0 -0.031021427392387068 0.0017031588236842358 0 -0.031021427392387068 0.0017031588236842358 0 -0.032962764933648053 0.0014937683450188303 0 -0.032496987278797983 0.00042423233650940587 0 -0.032172503017098383 0.0028194078372291609 0 -0.031021427392387068 0.0017031588236842358 0 -0.032962764933648053 0.0014937683450188303 0 -0.032172503017098383 0.0028194078372291609 0 -0.032962764933648053 0.0014937683450188303 0 -0.033873070561755536 0.0018919520245071881 0 -0.032962764933648053 0.0014937683450188303 0 -0.032496987278797983 0.00042423233650940587 0 -0.03364270162088568 0.00058497312956935354 0 -0.033517316561994616 -0.00012626920798710508 0 -0.032496987278797983 0.00042423233650940587 0 -0.03364270162088568 0.00058497312956935354 0 -0.033517316561994616 -0.00012626920798710508 0 -0.032496987278797983 0.00042423233650940587 0 -0.032209390950538853 -0.00056936022467051102 0 -0.032496987278797983 0.00042423233650940587 0 -0.031137399483340763 0.00038599959599362261 0 -0.032209390950538853 -0.00056936022467051102 0 -0.031021427392387068 0.0017031588236842358 0 -0.031137399483340763 0.00038599959599362261 0 -0.029026149702539392 0.00080518056407610805 0 -0.031021427392387068 0.0017031588236842358 0 -0.032496987278797983 0.00042423233650940587 0 -0.031137399483340763 0.00038599959599362261 0 -0.035149386152188218 0.0013966979298056365 0 -0.036038025024030064 0.0011318814504316533 0 -0.035490905972482674 0.00051671241234016246 0 -0.035149386152188218 0.0013966979298056365 0 -0.034530982005187921 0.0010631043760627931 0 -0.035490905972482674 0.00051671241234016246 0 -0.036724804647596247 0.0018487236126253591 0 -0.036038025024030064 0.0011318814504316533 0 -0.03561685589046424 0.0019689333494088755 0 -0.035149386152188218 0.0013966979298056365 0 -0.036038025024030064 0.0011318814504316533 0 -0.03561685589046424 0.0019689333494088755 0 -0.03448049992389228 0.0024519012169880935 0 -0.035149386152188218 0.0013966979298056365 0 -0.03561685589046424 0.0019689333494088755 0 -0.03448049992389228 0.0024519012169880935 0 -0.035149386152188218 0.0013966979298056365 0 -0.033873070561755536 0.0018919520245071881 0 -0.032962764933648053 0.0014937683450188303 0 -0.033873070561755536 0.0018919520245071881 0 -0.034530982005187921 0.0010631043760627931 0 -0.035149386152188218 0.0013966979298056365 0 -0.033873070561755536 0.0018919520245071881 0 -0.034530982005187921 0.0010631043760627931 0 -0.034530982005187921 0.0010631043760627931 0 -0.034638287503962077 0.00011038759255385177 0 -0.035490905972482674 0.00051671241234016246 0 -0.034530982005187921 0.0010631043760627931 0 -0.03364270162088568 0.00058497312956935354 0 -0.034638287503962077 0.00011038759255385177 0 -0.032962764933648053 0.0014937683450188303 0 -0.034530982005187921 0.0010631043760627931 0 -0.03364270162088568 0.00058497312956935354 0 -0.033517316561994616 -0.00012626920798710508 0 -0.034638287503962077 0.00011038759255385177 0 -0.034238154933156163 -0.00037923837657596589 0 -0.033517316561994616 -0.00012626920798710508 0 -0.03364270162088568 0.00058497312956935354 0 -0.034638287503962077 0.00011038759255385177 0 -0.034638287503962077 0.00011038759255385177 0 -0.03533630648095909 -0.00014034835412076975 0 -0.035490905972482674 0.00051671241234016246 0 -0.03533630648095909 -0.00014034835412076975 0 -0.035490905972482674 0.00051671241234016246 0 -0.035998534109113578 -9.0634308743305458e-05 0 -0.03684193156490484 0.00084433421348218611 0 -0.036038025024030064 0.0011318814504316533 0 -0.036384159377542219 0.00042861514726284203 0 -0.036038025024030064 0.0011318814504316533 0 -0.035490905972482674 0.00051671241234016246 0 -0.036384159377542219 0.00042861514726284203 0 -0.036736225374778594 -0.00011159492551829142 0 -0.036384159377542219 0.00042861514726284203 0 -0.035998534109113578 -9.0634308743305458e-05 0 -0.035490905972482674 0.00051671241234016246 0 -0.036384159377542219 0.00042861514726284203 0 -0.035998534109113578 -9.0634308743305458e-05 0 -0.036736225374778594 -0.00011159492551829142 0 -0.035998534109113578 -9.0634308743305458e-05 0 -0.036295133095592631 -0.00061693329262468204 0 -0.035998534109113578 -9.0634308743305458e-05 0 -0.036295133095592631 -0.00061693329262468204 0 -0.035560474444977612 -0.00063819109711630315 0 -0.03533630648095909 -0.00014034835412076975 0 -0.035998534109113578 -9.0634308743305458e-05 0 -0.035560474444977612 -0.00063819109711630315 0 -0.03533630648095909 -0.00014034835412076975 0 -0.035560474444977612 -0.00063819109711630315 0 -0.03486498170570277 -0.00047722951733679419 0 -0.035560474444977612 -0.00063819109711630315 0 -0.035816540203344356 -0.0011096178930302015 0 -0.034977492030466191 -0.0011277856295191016 0 -0.036526600952950482 -0.0011424770606369584 0 -0.036295133095592631 -0.00061693329262468204 0 -0.035816540203344356 -0.0011096178930302015 0 -0.036295133095592631 -0.00061693329262468204 0 -0.035560474444977612 -0.00063819109711630315 0 -0.035816540203344356 -0.0011096178930302015 0 -0.036526600952950482 -0.0011424770606369584 0 -0.036592966787463259 -0.0016276623736406768 0 -0.035966884743414904 -0.0015369903259417677 0 -0.036526600952950482 -0.0011424770606369584 0 -0.035816540203344356 -0.0011096178930302015 0 -0.035966884743414904 -0.0015369903259417677 0 -0.035816540203344356 -0.0011096178930302015 0 -0.035966884743414904 -0.0015369903259417677 0 -0.035384305699536857 -0.0015052104204977095 0 -0.035816540203344356 -0.0011096178930302015 0 -0.035384305699536857 -0.0015052104204977095 0 -0.034977492030466191 -0.0011277856295191016 0 -0.035966884743414904 -0.0015369903259417677 0 -0.035493035832380851 -0.0018586384796616788 0 -0.035967863145105299 -0.0019184261216299507 0 -0.035966884743414904 -0.0015369903259417677 0 -0.035384305699536857 -0.0015052104204977095 0 -0.035493035832380851 -0.0018586384796616788 0 -0.035384305699536857 -0.0015052104204977095 0 -0.035493035832380851 -0.0018586384796616788 0 -0.035036488597180039 -0.0020113212805722611 0 -0.035493035832380851 -0.0018586384796616788 0 -0.035036488597180039 -0.0020113212805722611 0 -0.035474359120243722 -0.0022033322101021281 0 -0.035493035832380851 -0.0018586384796616788 0 -0.035967863145105299 -0.0019184261216299507 0 -0.035474359120243722 -0.0022033322101021281 0 -0.036592966787463259 -0.0016276623736406768 0 -0.035966884743414904 -0.0015369903259417677 0 -0.035967863145105299 -0.0019184261216299507 0 -0.034368009800477238 -0.001881528803162186 0 -0.034353931466915621 -0.0022575941848473587 0 -0.035036488597180039 -0.0020113212805722611 0 -0.034368009800477238 -0.001881528803162186 0 -0.034353931466915621 -0.0022575941848473587 0 -0.033774607576977964 -0.0019952700118860433 0 -0.034353931466915621 -0.0022575941848473587 0 -0.033774607576977964 -0.0019952700118860433 0 -0.033801896452048806 -0.0023266023524914771 0 -0.034353931466915621 -0.0022575941848473587 0 -0.033801896452048806 -0.0023266023524914771 0 -0.034093553677446646 -0.0025921414183042299 0 -0.034353931466915621 -0.0022575941848473587 0 -0.035036488597180039 -0.0020113212805722611 0 -0.035218698265767928 -0.0025845606208926464 0 -0.034368009800477238 -0.001881528803162186 0 -0.035036488597180039 -0.0020113212805722611 0 -0.03468904220156812 -0.0015874570912725761 0 -0.035384305699536857 -0.0015052104204977095 0 -0.03468904220156812 -0.0015874570912725761 0 -0.034977492030466191 -0.0011277856295191016 0 -0.035384305699536857 -0.0015052104204977095 0 -0.035036488597180039 -0.0020113212805722611 0 -0.03468904220156812 -0.0015874570912725761 0 -0.03468904220156812 -0.0015874570912725761 0 -0.034370659885822406 -0.0012530614915656308 0 -0.034977492030466191 -0.0011277856295191016 0 -0.03468904220156812 -0.0015874570912725761 0 -0.033927942647607727 -0.0015406171011365806 0 -0.034370659885822406 -0.0012530614915656308 0 -0.034368009800477238 -0.001881528803162186 0 -0.03468904220156812 -0.0015874570912725761 0 -0.033927942647607727 -0.0015406171011365806 0 -0.034368009800477238 -0.001881528803162186 0 -0.033927942647607727 -0.0015406171011365806 0 -0.033774607576977964 -0.0019952700118860433 0 -0.033927942647607727 -0.0015406171011365806 0 -0.034370659885822406 -0.0012530614915656308 0 -0.033607775834164751 -0.00098408045669750211 0 -0.034371794836623462 -0.00084629215480099603 0 -0.034238154933156163 -0.00037923837657596589 0 -0.033607775834164751 -0.00098408045669750211 0 -0.034370659885822406 -0.0012530614915656308 0 -0.034371794836623462 -0.00084629215480099603 0 -0.033607775834164751 -0.00098408045669750211 0 -0.035560474444977612 -0.00063819109711630315 0 -0.034977492030466191 -0.0011277856295191016 0 -0.03486498170570277 -0.00047722951733679419 0 -0.034371794836623462 -0.00084629215480099603 0 -0.034977492030466191 -0.0011277856295191016 0 -0.03486498170570277 -0.00047722951733679419 0 -0.034370659885822406 -0.0012530614915656308 0 -0.034371794836623462 -0.00084629215480099603 0 -0.034977492030466191 -0.0011277856295191016 0 -0.034638287503962077 0.00011038759255385177 0 -0.03533630648095909 -0.00014034835412076975 0 -0.03486498170570277 -0.00047722951733679419 0 -0.034638287503962077 0.00011038759255385177 0 -0.03486498170570277 -0.00047722951733679419 0 -0.034238154933156163 -0.00037923837657596589 0 -0.034371794836623462 -0.00084629215480099603 0 -0.03486498170570277 -0.00047722951733679419 0 -0.034238154933156163 -0.00037923837657596589 0 -0.033517316561994616 -0.00012626920798710508 0 -0.034238154933156163 -0.00037923837657596589 0 -0.033607775834164751 -0.00098408045669750211 0 -0.033517316561994616 -0.00012626920798710508 0 -0.032209390950538853 -0.00056936022467051102 0 -0.033607775834164751 -0.00098408045669750211 0 -0.032209390950538853 -0.00056936022467051102 0 -0.033607775834164751 -0.00098408045669750211 0 -0.032703635710225998 -0.0014630698219710294 0 -0.032209390950538853 -0.00056936022467051102 0 -0.031236599169446471 -0.0017542184205109547 0 -0.032703635710225998 -0.0014630698219710294 0 -0.031137399483340763 0.00038599959599362261 0 -0.032209390950538853 -0.00056936022467051102 0 -0.030581016803019539 -0.0004531155310317428 0 -0.032209390950538853 -0.00056936022467051102 0 -0.030581016803019539 -0.0004531155310317428 0 -0.031236599169446471 -0.0017542184205109547 0 -0.031236599169446471 -0.0017542184205109547 0 -0.03115876289577604 -0.0030729073752078558 0 -0.029062334654991556 -0.0029064320598976936 0 -0.031236599169446471 -0.0017542184205109547 0 -0.032868454176915585 -0.0022400486693376622 0 -0.03115876289577604 -0.0030729073752078558 0 -0.032868454176915585 -0.0022400486693376622 0 -0.033476778187767085 -0.0030666963807627189 0 -0.03115876289577604 -0.0030729073752078558 0 -0.033927942647607727 -0.0015406171011365806 0 -0.033607775834164751 -0.00098408045669750211 0 -0.033350816177477934 -0.0017242223796160776 0 -0.033350816177477934 -0.0017242223796160776 0 -0.032703635710225998 -0.0014630698219710294 0 -0.032868454176915585 -0.0022400486693376622 0 -0.033607775834164751 -0.00098408045669750211 0 -0.033350816177477934 -0.0017242223796160776 0 -0.032703635710225998 -0.0014630698219710294 0 -0.033927942647607727 -0.0015406171011365806 0 -0.033350816177477934 -0.0017242223796160776 0 -0.033774607576977964 -0.0019952700118860433 0 -0.031236599169446471 -0.0017542184205109547 0 -0.032703635710225998 -0.0014630698219710294 0 -0.032868454176915585 -0.0022400486693376622 0 -0.033350816177477934 -0.0017242223796160776 0 -0.032868454176915585 -0.0022400486693376622 0 -0.033774607576977964 -0.0019952700118860433 0 -0.032868454176915585 -0.0022400486693376622 0 -0.033774607576977964 -0.0019952700118860433 0 -0.033801896452048806 -0.0023266023524914771 0 -0.032868454176915585 -0.0022400486693376622 0 -0.033801896452048806 -0.0023266023524914771 0 -0.033429040229176726 -0.0025328932637860829 0 -0.032868454176915585 -0.0022400486693376622 0 -0.033429040229176726 -0.0025328932637860829 0 -0.033476778187767085 -0.0030666963807627189 0 -0.033801896452048806 -0.0023266023524914771 0 -0.033601210456224787 -0.0027260965683312973 0 -0.034093553677446646 -0.0025921414183042299 0 -0.033801896452048806 -0.0023266023524914771 0 -0.033429040229176726 -0.0025328932637860829 0 -0.033601210456224787 -0.0027260965683312973 0 -0.033601210456224787 -0.0027260965683312973 0 -0.033476778187767085 -0.0030666963807627189 0 -0.034093553677446646 -0.0025921414183042299 0 -0.033429040229176726 -0.0025328932637860829 0 -0.033601210456224787 -0.0027260965683312973 0 -0.033476778187767085 -0.0030666963807627189 0 -0.026879695413776439 0.0035008950328590132 0 -0.023732085849559794 0.0045342231635065238 0 -0.017233376218317227 0.012212479634992163 0 -0.016856702384989618 0.011979314667192731 0 -0.016561681324605535 0.01229998571898647 0 -0.017233376218317227 0.012212479634992163 0 -0.017124035343330502 0.011886694813982305 0 -0.017324164214423041 0.011718298973004923 0 -0.017233376218317227 0.012212479634992163 0 -0.016856702384989618 0.011979314667192731 0 -0.017124035343330502 0.011886694813982305 0 -0.016561681324605535 0.01229998571898647 0 -0.016446260529681813 0.01178120876525356 0 -0.016050720301284457 0.011908100271906055 0 -0.016856702384989618 0.011979314667192731 0 -0.016561681324605535 0.01229998571898647 0 -0.016446260529681813 0.01178120876525356 0 -0.016446260529681813 0.01178120876525356 0 -0.016569209454038815 0.011499520124749855 0 -0.016972498852036302 0.011641959689559906 0 -0.016856702384989618 0.011979314667192731 0 -0.016446260529681813 0.01178120876525356 0 -0.016972498852036302 0.011641959689559906 0 -0.016446260529681813 0.01178120876525356 0 -0.016569209454038815 0.011499520124749855 0 -0.016060062474081871 0.011541877668055351 0 -0.017124035343330502 0.011886694813982305 0 -0.016972498852036302 0.011641959689559906 0 -0.017324164214423041 0.011718298973004923 0 -0.016856702384989618 0.011979314667192731 0 -0.017124035343330502 0.011886694813982305 0 -0.016972498852036302 0.011641959689559906 0 -0.016972498852036302 0.011641959689559906 0 -0.017324164214423041 0.011718298973004923 0 -0.017369239166115779 0.011324532022182324 0 -0.017324164214423041 0.011718298973004923 0 -0.017706985565891273 0.0115419352670638 0 -0.017369239166115779 0.011324532022182324 0 -0.017233376218317227 0.012212479634992163 0 -0.017324164214423041 0.011718298973004923 0 -0.017706985565891273 0.0115419352670638 0 -0.033472606640975622 -0.0010452691616716638 0 -0.035338566446287425 -0.001245952308348583 0 -0.035163643382645035 -0.0023297271508719007 0 -0.032984762593671238 0.00029225822340568457 0 -0.033472606640975622 -0.0010452691616716638 0 -0.035338566446287425 -0.001245952308348583 0 -0.036556159642470408 -0.0032474456124070017 0 -0.035163643382645035 -0.0023297271508719007 0 -0.036296391352979254 -0.0024111834499395066 0 -0.034964705447096747 -0.0020606461764006412 0 -0.035092965266097682 -0.0022273924553418696 0 -0.036610972102754311 -0.0019875920028691822 0 -0.036296391352979254 -0.0024111834499395066 0 -0.035838332457673129 -0.0021679661210803258 0 -0.035163643382645035 -0.0023297271508719007 0 -0.036296391352979254 -0.0024111834499395066 0 -0.035838332457673129 -0.0021679661210803258 0 -0.036610972102754311 -0.0019875920028691822 0 -0.035838332457673129 -0.0021679661210803258 0 -0.035967863145105299 -0.0019184261216299507 0 -0.036592966787463259 -0.0016276623736406768 0 -0.036610972102754311 -0.0019875920028691822 0 -0.035967863145105299 -0.0019184261216299507 0 -0.035163643382645035 -0.0023297271508719007 0 -0.035838332457673129 -0.0021679661210803258 0 -0.035474359120243722 -0.0022033322101021281 0 -0.035838332457673129 -0.0021679661210803258 0 -0.035967863145105299 -0.0019184261216299507 0 -0.035474359120243722 -0.0022033322101021281 0 -0.035163643382645035 -0.0023297271508719007 0 -0.035474359120243722 -0.0022033322101021281 0 -0.035218698265767928 -0.0025845606208926464 0 -0.035036488597180039 -0.0020113212805722611 0 -0.035474359120243722 -0.0022033322101021281 0 -0.035218698265767928 -0.0025845606208926464 0 -0.026879695413776439 0.0035008950328590132 0 -0.026312810207515434 0.0053350170549767125 0 -0.035824720758110808 -0.0027174695432125445 0 -0.035338566446287425 -0.001245952308348583 0 -0.035163643382645035 -0.0023297271508719007 0 -0.035824720758110808 -0.0027174695432125445 0 -0.035163643382645035 -0.0023297271508719007 0 -0.035218698265767928 -0.0025845606208926464 0 -0.034353931466915621 -0.0022575941848473587 0 -0.035218698265767928 -0.0025845606208926464 0 -0.034093553677446646 -0.0025921414183042299 0 -0.033476778187767085 -0.0030666963807627189 0 -0.035218698265767928 -0.0025845606208926464 0 -0.034093553677446646 -0.0025921414183042299 0 -0.026879695413776439 0.0035008950328590132 0 -0.033918117583164105 0.00086637090501517282 0 -0.020442439002937567 0.010257003139784495 0 -0.0180604216086677 0.0091500949405225584 0 -0.021834938900408909 0.0078838144989334027 0 -0.020442439002937567 0.010257003139784495 0 -0.0180604216086677 0.0091500949405225584 0 -0.018807777030039805 0.011769455487105203 0 -0.0180604216086677 0.0091500949405225584 0 -0.021834938900408909 0.0078838144989334027 0 -0.018452081101858517 0.0062861391327393027 0 -0.021834938900408909 0.0078838144989334027 0 -0.024185673184381733 0.0079018925594125568 0 -0.025275891732115609 0.0048657805958382911 0 -0.024185673184381733 0.0079018925594125568 0 -0.026145785843993484 0.0078109123149055987 0 -0.025275891732115609 0.0048657805958382911 0 -0.026145785843993484 0.0078109123149055987 0 -0.023500720942735417 0.010916620399837236 0 -0.027132143350966812 0.011530344131729745 0 -0.024185673184381733 0.0079018925594125568 0 -0.026145785843993484 0.0078109123149055987 0 -0.023500720942735417 0.010916620399837236 0 -0.021834938900408909 0.0078838144989334027 0 -0.024185673184381733 0.0079018925594125568 0 -0.023500720942735417 0.010916620399837236 0 -0.020442439002937567 0.010257003139784495 0 -0.021834938900408909 0.0078838144989334027 0 -0.023500720942735417 0.010916620399837236 0 -0.023500720942735417 0.010916620399837236 0 -0.020229567667770034 0.012704299609090855 0 -0.022408316001058793 0.015551435692745981 0 -0.023500720942735417 0.010916620399837236 0 -0.025266383972130779 0.013909612833413146 0 -0.022408316001058793 0.015551435692745981 0 -0.023500720942735417 0.010916620399837236 0 -0.025266383972130779 0.013909612833413146 0 -0.027132143350966812 0.011530344131729745 0 -0.019023402897586108 0.014531550552040872 0 -0.020229567667770034 0.012704299609090855 0 -0.022408316001058793 0.015551435692745981 0 -0.019023402897586108 0.014531550552040872 0 -0.020229567667770034 0.012704299609090855 0 -0.018407768108608138 0.013466563533280096 0 -0.020442439002937567 0.010257003139784495 0 -0.020229567667770034 0.012704299609090855 0 -0.018807777030039805 0.011769455487105203 0 -0.020442439002937567 0.010257003139784495 0 -0.023500720942735417 0.010916620399837236 0 -0.020229567667770034 0.012704299609090855 0 -0.0180604216086677 0.0091500949405225584 0 -0.018807777030039805 0.011769455487105203 0 -0.017336816138900223 0.013213238861783373 0 -0.020229567667770034 0.012704299609090855 0 -0.018807777030039805 0.011769455487105203 0 -0.018407768108608138 0.013466563533280096 0 -0.018807777030039805 0.011769455487105203 0 -0.017336816138900223 0.013213238861783373 0 -0.018407768108608138 0.013466563533280096 0 -0.017336816138900223 0.013213238861783373 0 -0.018407768108608138 0.013466563533280096 0 -0.017460014950226005 0.015033200153626997 0 -0.019023402897586108 0.014531550552040872 0 -0.018407768108608138 0.013466563533280096 0 -0.017460014950226005 0.015033200153626997 0 -0.019023402897586108 0.014531550552040872 0 -0.017460014950226005 0.015033200153626997 0 -0.018340806755602804 0.016484108924137986 0 -0.017647519779577233 0.010004165629564205 0 -0.015312459077086485 0.013234497400888874 0 -0.016643135374198412 0.014889448907256948 0 -0.016013766473289559 0.01447090451072403 0 -0.016106468870185423 0.016371178757174632 0 -0.0180604216086677 0.0091500949405225584 0 -0.015715242156519489 0.011710526158413505 0 -0.015717791910230101 0.011395513096210223 0 -0.0180604216086677 0.0091500949405225584 0 -0.016013766473289559 0.01447090451072403 0 -0.014063929893797697 0.01565462762631812 0 -0.0180604216086677 0.0091500949405225584 0 -0.017336816138900223 0.013213238861783373 0 -0.016013766473289559 0.01447090451072403 0 -0.017336816138900223 0.013213238861783373 0 -0.016643135374198412 0.014889448907256948 0 -0.016013766473289559 0.01447090451072403 0 -0.017336816138900223 0.013213238861783373 0 -0.017460014950226005 0.015033200153626997 0 -0.016643135374198412 0.014889448907256948 0 -0.016013766473289559 0.01447090451072403 0 -0.014063929893797697 0.01565462762631812 0 -0.015144850679085095 0.016023484410802646 0 -0.016446260529681813 0.01178120876525356 0 -0.016060062474081871 0.011541877668055351 0 -0.016047218377960987 0.011662787812978449 0 -0.015717791910230101 0.011395513096210223 0 -0.016060062474081871 0.011541877668055351 0 -0.016047218377960987 0.011662787812978449 0 -0.015715242156519489 0.011710526158413505 0 -0.015717791910230101 0.011395513096210223 0 -0.016060062474081871 0.011541877668055351 0 -0.015717791910230101 0.011395513096210223 0 -0.016047218377960987 0.011662787812978449 0 -0.016050720301284457 0.011908100271906055 0 -0.016446260529681813 0.01178120876525356 0 -0.016047218377960987 0.011662787812978449 0 -0.016050720301284457 0.011908100271906055 0 -0.016561681324605535 0.01229998571898647 0 -0.016050720301284457 0.011908100271906055 0 -0.015848362095267517 0.012392345844379015 0 -0.016912795135567305 0.012060060126734655 0 -0.02256200229327451 0.0049884338901424333 0 -0.023732085849559794 0.0045342231635065238 0 -0.02256200229327451 0.0049884338901424333 0 -0.015717791910230101 0.011395513096210223 0 -0.016050720301284457 0.011908100271906055 0 -0.015848362095267517 0.012392345844379015 0 -0.0180604216086677 0.0091500949405225584 0 -0.014855550055732702 0.007315528595755085 0 -0.018452081101858517 0.0062861391327393027 0 -0.0180604216086677 0.0091500949405225584 0 -0.015717791910230101 0.011395513096210223 0 -0.014855550055732702 0.007315528595755085 0 -0.026304507996884358 0.0034774338856611211 0 -0.026486698146134868 0.0032627538881962615 0 -0.026110777718430792 0.0033495381168062804 0 -0.026304507996884358 0.0034774338856611211 0 -0.026486698146134868 0.0032627538881962615 0 -0.026571404722438043 0.003392653882808292 0 -0.02256200229327451 0.0049884338901424333 0 -0.022561318556916447 0.0049294623758529953 0 -0.031236599169446471 -0.0017542184205109547 0 -0.029062334654991556 -0.0029064320598976936 0 -0.029196490686344095 -0.00099105101495702971 0 -0.02256200229327451 0.0049884338901424333 0 -0.026857157680393554 0.0010207077524888215 0 -0.030581016803019539 -0.0004531155310317428 0 -0.029196490686344095 -0.00099105101495702971 0 -0.029026149702539392 0.00080518056407610805 0 -0.030581016803019539 -0.0004531155310317428 0 -0.031236599169446471 -0.0017542184205109547 0 -0.029196490686344095 -0.00099105101495702971 0 -0.026304507996884358 0.0034774338856611211 0 -0.026571404722438043 0.003392653882808292 0 -0.026620406297568584 0.0033279552936106996 0 -0.026571404722438043 0.003392653882808292 0 -0.026620406297568584 0.0033279552936106996 0 -0.027066915801545688 0.0031472241175082216 0 -0.026304507996884358 0.0034774338856611211 0 -0.026620406297568584 0.0033279552936106996 0 -0.026387550109850028 0.0033935870407967961 0 -0.026387550109850028 0.0033935870407967961 0 -0.026091539769184015 0.0034618239966714903 0 -0.026055719334614914 0.0035512885125668255 0 -0.026387550109850028 0.0033935870407967961 0 -0.026091539769184015 0.0034618239966714903 0 -0.026418201943646302 0.0033493617400295341 0 -0.026091539769184015 0.0034618239966714903 0 -0.026055719334614914 0.0035512885125668255 0 -0.025812430957334664 0.003698622025576461 0 -0.026304507996884358 0.0034774338856611211 0 -0.026387550109850028 0.0033935870407967961 0 -0.026055719334614914 0.0035512885125668255 0 -0.021834938900408909 0.0078838144989334027 0 -0.018452081101858517 0.0062861391327393027 0 -0.025275891732115609 0.0048657805958382911 0 -0.026304507996884358 0.0034774338856611211 0 -0.025856170348013498 0.0037340919361141625 0 -0.026110777718430792 0.0033495381168062804 0 -0.022561318556916447 0.0049294623758529953 0 -0.024789115012262899 0.0047759351198171252 0 -0.026304507996884358 0.0034774338856611211 0 -0.026055719334614914 0.0035512885125668255 0 -0.025856170348013498 0.0037340919361141625 0 -0.025856170348013498 0.0037340919361141625 0 -0.026110777718430792 0.0033495381168062804 0 -0.025275891732115609 0.0048657805958382911 0 -0.026055719334614914 0.0035512885125668255 0 -0.025856170348013498 0.0037340919361141625 0 -0.025812430957334664 0.003698622025576461 0 -0.026145785843993484 0.0078109123149055987 0 -0.025275891732115609 0.0048657805958382911 0 -0.026139818613525091 0.0034761388891132849 0 -0.025856170348013498 0.0037340919361141625 0 -0.025275891732115609 0.0048657805958382911 0 -0.025812430957334664 0.003698622025576461 0 -0.025275891732115609 0.0048657805958382911 0 -0.025812430957334664 0.003698622025576461 0 -0.026139818613525091 0.0034761388891132849 0 -0.0040315837644374708 0.012495017249683295 0 -0.0040210260239905557 0.013370610533907151 0 -0.0042352290163837035 0.01380736476938922 0 -0.015191877396512397 0.0082234756964306398 0 -0.015131893126547438 0.0084614027688065044 0 -0.026091539769184015 0.0034618239966714903 0 -0.026139818613525091 0.0034761388891132849 0 -0.026234316639868503 0.003378146082093093 0 -0.0040315837644374708 0.012495017249683295 0 -0.0038447772198745701 0.01322169375127261 0 -0.0040210260239905557 0.013370610533907151 0 -0.026091539769184015 0.0034618239966714903 0 -0.025812430957334664 0.003698622025576461 0 -0.026139818613525091 0.0034761388891132849 0 -0.0038447772198745701 0.01322169375127261 0 -0.0040210260239905557 0.013370610533907151 0 -0.0040315012751235488 0.013893089378013864 0 -0.0040315012751235488 0.013893089378013864 0 -0.0042352290163837035 0.01380736476938922 0 -0.0037986704491325854 0.014764153237759653 0 -0.0039886952128355448 0.014356732591304013 0 -0.0037992075890627424 0.014602765239057864 0 -0.0033977897177549965 0.014293918541674604 0 -0.0040210260239905557 0.013370610533907151 0 -0.0040315012751235488 0.013893089378013864 0 -0.0042352290163837035 0.01380736476938922 0 -0.026091539769184015 0.0034618239966714903 0 -0.026234316639868503 0.003378146082093093 0 -0.026418201943646302 0.0033493617400295341 0 -0.026387550109850028 0.0033935870407967961 0 -0.026418201943646302 0.0033493617400295341 0 -0.026754082098981846 0.00325772591504234 0 -0.026590162095890921 0.0033269458978900115 0 -0.026754082098981846 0.00325772591504234 0 -0.026844882553640127 0.0032662297681244792 0 -0.026418201943646302 0.0033493617400295341 0 -0.026590162095890921 0.0033269458978900115 0 -0.026754082098981846 0.00325772591504234 0 -0.026234316639868503 0.003378146082093093 0 -0.026418201943646302 0.0033493617400295341 0 -0.026590162095890921 0.0033269458978900115 0 -0.026234316639868503 0.003378146082093093 0 -0.026590162095890921 0.0033269458978900115 0 -0.026768624907387569 0.0033496043853279553 0 -0.0042352290163837035 0.01380736476938922 0 -0.0037986704491325854 0.014764153237759653 0 -0.0037806974663116884 0.014816181986795659 0 -0.0039886952128355448 0.014356732591304013 0 -0.0037986704491325854 0.014764153237759653 0 -0.0038348969306804931 0.014711788074032771 0 -0.0039242283962658319 0.014112366922323831 0 -0.0039884125802842792 0.014586757785210838 0 -0.015131893126547438 0.0084614027688065044 0 -0.015149789536106689 0.0092201323108672423 0 -0.026590162095890921 0.0033269458978900115 0 -0.026785161863850358 0.0033078624247057783 0 -0.026768624907387569 0.0033496043853279553 0 -0.026590162095890921 0.0033269458978900115 0 -0.026785161863850358 0.0033078624247057783 0 -0.026844882553640127 0.0032662297681244792 0 -0.026785161863850358 0.0033078624247057783 0 -0.026768624907387569 0.0033496043853279553 0 -0.026967232103142971 0.0033078008783833991 0 -0.0037986704491325854 0.014764153237759653 0 -0.0037641530273589867 0.014776621727771564 0 -0.003730268283074102 0.014769760476822994 0 -0.0037986704491325854 0.014764153237759653 0 -0.0037806974663116884 0.014816181986795659 0 -0.003730268283074102 0.014769760476822994 0 -0.0037986704491325854 0.014764153237759653 0 -0.0037641530273589867 0.014776621727771564 0 -0.0038348969306804931 0.014711788074032771 0 -0.0037641530273589867 0.014776621727771564 0 -0.0038348969306804931 0.014711788074032771 0 -0.0037664431297362746 0.014809456828043443 0 -0.0039886952128355448 0.014356732591304013 0 -0.0038348969306804931 0.014711788074032771 0 -0.0038558028114932148 0.014714565564741725 0 -0.0038348969306804931 0.014711788074032771 0 -0.0038558028114932148 0.014714565564741725 0 -0.0037664431297362746 0.014809456828043443 0 -0.0038313609823015281 0.0149984943772696 0 -0.0038558028114932148 0.014714565564741725 0 -0.0037664431297362746 0.014809456828043443 0 -0.0038313609823015281 0.0149984943772696 0 -0.0037992075890627424 0.014602765239057864 0 -0.0038558028114932148 0.014714565564741725 0 -0.0039886952128355448 0.014356732591304013 0 -0.0037992075890627424 0.014602765239057864 0 -0.0038558028114932148 0.014714565564741725 0 -0.026857157680393554 0.0010207077524888215 0 -0.027915321615614226 0.0022494053103239713 0 -0.031137399483340763 0.00038599959599362261 0 -0.030581016803019539 -0.0004531155310317428 0 -0.029026149702539392 0.00080518056407610805 0 -0.026620406297568584 0.0033279552936106996 0 -0.027066915801545688 0.0031472241175082216 0 -0.026754082098981846 0.00325772591504234 0 -0.027066915801545688 0.0031472241175082216 0 -0.026754082098981846 0.00325772591504234 0 -0.027256552753210674 0.0031616362067546705 0 -0.026620406297568584 0.0033279552936106996 0 -0.026387550109850028 0.0033935870407967961 0 -0.026754082098981846 0.00325772591504234 0 -0.026844882553640127 0.0032662297681244792 0 -0.026967232103142971 0.0033078008783833991 0 -0.027256552753210674 0.0031616362067546705 0 -0.026754082098981846 0.00325772591504234 0 -0.026844882553640127 0.0032662297681244792 0 -0.027256552753210674 0.0031616362067546705 0 -0.026785161863850358 0.0033078624247057783 0 -0.026844882553640127 0.0032662297681244792 0 -0.026967232103142971 0.0033078008783833991 0 -0.026768624907387569 0.0033496043853279553 0 -0.027043309221979169 0.0033885025542901245 0 -0.027345961708406537 0.0036675812023793993 0 -0.026967232103142971 0.0033078008783833991 0 -0.027221101006186438 0.0033434793754113673 0 -0.027256552753210674 0.0031616362067546705 0 -0.026768624907387569 0.0033496043853279553 0 -0.026967232103142971 0.0033078008783833991 0 -0.027043309221979169 0.0033885025542901245 0 -0.026967232103142971 0.0033078008783833991 0 -0.027043309221979169 0.0033885025542901245 0 -0.027221101006186438 0.0033434793754113673 0 -0.027043309221979169 0.0033885025542901245 0 -0.027221101006186438 0.0033434793754113673 0 -0.027345961708406537 0.0036675812023793993 0 -0.027709288212292495 0.00333270204371869 0 -0.027256552753210674 0.0031616362067546705 0 -0.028523416625963013 0.0031177501495618593 0 -0.027221101006186438 0.0033434793754113673 0 -0.027709288212292495 0.00333270204371869 0 -0.027256552753210674 0.0031616362067546705 0 -0.027066915801545688 0.0031472241175082216 0 -0.027256552753210674 0.0031616362067546705 0 -0.028523416625963013 0.0031177501495618593 0 -0.031021427392387068 0.0017031588236842358 0 -0.029026149702539392 0.00080518056407610805 0 -0.028523416625963013 0.0031177501495618593 0 -0.027915321615614226 0.0022494053103239713 0 -0.028241386603535784 0.0030932263083477962 0 -0.030362428963602445 0.0033438417554842248 0 -0.029065247307560629 0.0043103258627052304 0 -0.028523416625963013 0.0031177501495618593 0 -0.027709288212292495 0.00333270204371869 0 -0.028523416625963013 0.0031177501495618593 0 -0.028198580341162446 0.0038992089506903961 0 -0.029065247307560629 0.0043103258627052304 0 -0.028198580341162446 0.0038992089506903961 0 -0.02784681874736545 0.004577116074315774 0 -0.029065247307560629 0.0043103258627052304 0 -0.028523416625963013 0.0031177501495618593 0 -0.028198580341162446 0.0038992089506903961 0 -0.0037806974663116884 0.014816181986795659 0 -0.0031777054361379698 0.014484996265890069 0 -0.0035695146041153005 0.01467857741028358 0 -0.026768624907387569 0.0033496043853279553 0 -0.027345961708406537 0.0036675812023793993 0 -0.027648957125053563 0.0047184955285483714 0 -0.027687136005327056 0.0041129280399379306 0 -0.027345961708406537 0.0036675812023793993 0 -0.027648957125053563 0.0047184955285483714 0 -0.015149789536106689 0.0092201323108672423 0 -0.01283362416437508 0.0098566048428837295 0 -0.028198580341162446 0.0038992089506903961 0 -0.027687136005327056 0.0041129280399379306 0 -0.02784681874736545 0.004577116074315774 0 -0.028198580341162446 0.0038992089506903961 0 -0.027687136005327056 0.0041129280399379306 0 -0.027687393730660134 0.003721970106556009 0 -0.027709288212292495 0.00333270204371869 0 -0.028198580341162446 0.0038992089506903961 0 -0.027687393730660134 0.003721970106556009 0 -0.027687136005327056 0.0041129280399379306 0 -0.027687393730660134 0.003721970106556009 0 -0.027345961708406537 0.0036675812023793993 0 -0.027221101006186438 0.0033434793754113673 0 -0.027709288212292495 0.00333270204371869 0 -0.027345961708406537 0.0036675812023793993 0 -0.027709288212292495 0.00333270204371869 0 -0.027687393730660134 0.003721970106556009 0 -0.027345961708406537 0.0036675812023793993 0 -0.0031777054361379698 0.014484996265890069 0 -0.0034667876902689178 0.01458953933094021 0 -0.0035695146041153005 0.01467857741028358 0 -0.0031777054361379698 0.014484996265890069 0 -0.0034667876902689178 0.01458953933094021 0 -0.0033339124999603171 0.014399705522311391 0 -0.027687136005327056 0.0041129280399379306 0 -0.027648957125053563 0.0047184955285483714 0 -0.02784681874736545 0.004577116074315774 0 -0.027625715643253917 0.0048306056175191243 0 -0.02784681874736545 0.004577116074315774 0 -0.028671852390348695 0.0054073485832762946 0 -0.01283362416437508 0.0098566048428837295 0 -0.014133160489297939 0.0087562194420685129 0 -0.015770492426025899 0.0084764564561010201 0 -0.01283362416437508 0.0098566048428837295 0 -0.028738690353246665 0.0065234950686090141 0 -0.027625715643253917 0.0048306056175191243 0 -0.028671852390348695 0.0054073485832762946 0 -0.029065247307560629 0.0043103258627052304 0 -0.02784681874736545 0.004577116074315774 0 -0.028671852390348695 0.0054073485832762946 0 -0.030210231687019726 0.0060121452283120741 0 -0.030335820598653147 0.00467201031729844 0 -0.028671852390348695 0.0054073485832762946 0 -0.030335820598653147 0.00467201031729844 0 -0.029065247307560629 0.0043103258627052304 0 -0.028671852390348695 0.0054073485832762946 0 -0.0036863620120961399 0.014726346518426485 0 -0.0037803622513802814 0.014766649534774683 0 -0.0035322235519856574 0.01455414221150585 0 -0.0038313609823015281 0.0149984943772696 0 -0.0037803622513802814 0.014766649534774683 0 -0.0037664431297362746 0.014809456828043443 0 -0.0036863620120961399 0.014726346518426485 0 -0.0037803622513802814 0.014766649534774683 0 -0.0037664431297362746 0.014809456828043443 0 -0.0037641530273589867 0.014776621727771564 0 -0.0037664431297362746 0.014809456828043443 0 -0.003661214840475345 0.014728473547013413 0 -0.0036863620120961399 0.014726346518426485 0 -0.0037664431297362746 0.014809456828043443 0 -0.003661214840475345 0.014728473547013413 0 -0.0037641530273589867 0.014776621727771564 0 -0.003661214840475345 0.014728473547013413 0 -0.003730268283074102 0.014769760476822994 0 -0.0037806974663116884 0.014816181986795659 0 -0.003730268283074102 0.014769760476822994 0 -0.0035695146041153005 0.01467857741028358 0 -0.003661214840475345 0.014728473547013413 0 -0.003730268283074102 0.014769760476822994 0 -0.0035695146041153005 0.01467857741028358 0 -0.003661214840475345 0.014728473547013413 0 -0.0034667876902689178 0.01458953933094021 0 -0.0035322235519856574 0.01455414221150585 0 -0.003661214840475345 0.014728473547013413 0 -0.0034667876902689178 0.01458953933094021 0 -0.0035695146041153005 0.01467857741028358 0 -0.0036863620120961399 0.014726346518426485 0 -0.003661214840475345 0.014728473547013413 0 -0.0035322235519856574 0.01455414221150585 0 -0.0031619038615736334 0.013925834069924464 0 -0.0035322235519856574 0.01455414221150585 0 -0.0033339124999603171 0.014399705522311391 0 -0.0031619038615736334 0.013925834069924464 0 -0.0031777054361379698 0.014484996265890069 0 -0.0033339124999603171 0.014399705522311391 0 -0.0031619038615736334 0.013925834069924464 0 -0.0035322235519856574 0.01455414221150585 0 -0.003643868279633387 0.014353495091797333 0 -0.0034667876902689178 0.01458953933094021 0 -0.0035322235519856574 0.01455414221150585 0 -0.0033339124999603171 0.014399705522311391 0 -0.0037803622513802814 0.014766649534774683 0 -0.0035322235519856574 0.01455414221150585 0 -0.003643868279633387 0.014353495091797333 0 -0.0037803622513802814 0.014766649534774683 0 -0.003643868279633387 0.014353495091797333 0 -0.0040999636904634016 0.014566489922537652 0 -0.0037803622513802814 0.014766649534774683 0 -0.0040999636904634016 0.014566489922537652 0 -0.0042735938363760214 0.015034862885087987 0 -0.0038313609823015281 0.0149984943772696 0 -0.0037803622513802814 0.014766649534774683 0 -0.0042735938363760214 0.015034862885087987 0 -0.0042735938363760214 0.015034862885087987 0 -0.00450115723358099 0.015136444294166969 0 -0.0044956070796904413 0.015487490484906413 0 -0.0044925654509653523 0.014472669123922637 0 -0.0040999636904634016 0.014566489922537652 0 -0.00450115723358099 0.015136444294166969 0 -0.0040999636904634016 0.014566489922537652 0 -0.0042735938363760214 0.015034862885087987 0 -0.00450115723358099 0.015136444294166969 0 -0.00450115723358099 0.015136444294166969 0 -0.00478988487922208 0.014933823790803442 0 -0.0043062452491338466 0.016240597027600046 0 -0.0044925654509653523 0.014472669123922637 0 -0.00450115723358099 0.015136444294166969 0 -0.00478988487922208 0.014933823790803442 0 -0.00478988487922208 0.014933823790803442 0 -0.0056555240265269537 0.015014479925606002 0 -0.0043062452491338466 0.016240597027600046 0 -0.0054072440813692666 0.014430666637529845 0 -0.00478988487922208 0.014933823790803442 0 -0.0056555240265269537 0.015014479925606002 0 -0.0041987119440701874 0.016886276476118553 0 -0.0043823100543449178 0.016488576262069093 0 -0.0032031904846736951 0.019086039715166165 0 -0.0043062452491338466 0.016240597027600046 0 -0.0023585580857227637 0.017230506941205013 0 -0.0043062452491338466 0.016240597027600046 0 -0.0023585580857227637 0.017230506941205013 0 -0.0026085849717530211 0.015563463185886462 0 -0.0043062452491338466 0.016240597027600046 0 -0.0044956070796904413 0.015487490484906413 0 -0.0026085849717530211 0.015563463185886462 0 -0.00450115723358099 0.015136444294166969 0 -0.0043062452491338466 0.016240597027600046 0 -0.0044956070796904413 0.015487490484906413 0 -0.0044956070796904413 0.015487490484906413 0 -0.0038070271918530705 0.014373832911892091 0 -0.0045737560758945988 0.01524220115230375 0 -0.0022923906657190862 0.014395542024962524 0 -0.0034708525216132686 0.014907474151287412 0 -0.0044956070796904413 0.015487490484906413 0 -0.0038070271918530705 0.014373832911892091 0 -0.0026085849717530211 0.015563463185886462 0 -0.0010289679655419136 0.014365527642374419 0 0.00060865559449172076 0.013857311068117615 0 -0.00049521453794791918 0.013003751674376323 0 -0.0010289679655419136 0.014365527642374419 0 -0.0025575403955332182 0.01479488762397768 0 -0.0019242336268841039 0.013223516653583451 0 -0.0027984571521179379 0.01385523841576344 0 -0.0033977897177549965 0.014293918541674604 0 -0.0025575403955332182 0.01479488762397768 0 -0.0027984571521179379 0.01385523841576344 0 -0.0025575403955332182 0.01479488762397768 0 -0.0019242336268841039 0.013223516653583451 0 -0.0039886952128355448 0.014356732591304013 0 -0.0033977897177549965 0.014293918541674604 0 -0.0032934398968659834 0.013069966708911272 0 -0.0027984571521179379 0.01385523841576344 0 -0.0033977897177549965 0.014293918541674604 0 -0.0032934398968659834 0.013069966708911272 0 -0.0038313609823015281 0.0149984943772696 0 -0.0037992075890627424 0.014602765239057864 0 -0.0033977897177549965 0.014293918541674604 0 -0.0038313609823015281 0.0149984943772696 0 -0.0033977897177549965 0.014293918541674604 0 -0.0025575403955332182 0.01479488762397768 0 -0.0038313609823015281 0.0149984943772696 0 -0.0042735938363760214 0.015034862885087987 0 -0.0045737560758945988 0.01524220115230375 0 -0.0037877634975923957 0.015016948513880329 0 -0.0034708525216132686 0.014907474151287412 0 -0.0042735938363760214 0.015034862885087987 0 -0.0044956070796904413 0.015487490484906413 0 -0.0045737560758945988 0.01524220115230375 0 0.0053280200488415334 0.016521539893832381 0 0.0037353069465700999 0.018532859061182218 0 0.0034370863095121245 0.015588760929389336 0 0.0036187387625602318 0.019562388044625786 0 0.0046346491534857183 0.019432398666821483 0 0.0037353069465700999 0.018532859061182218 0 0.0037353069465700999 0.018532859061182218 0 0.0016887119653515427 0.017200400770450996 0 0.00090498148324527736 0.019695712894432969 0 0.003295757040776615 0.018626908922764775 0 0.0015930949097733157 0.019000020593406313 0 0.0036187387625602318 0.019562388044625786 0 0.0037353069465700999 0.018532859061182218 0 0.0023352949182806073 0.019401718990871803 0 0.0037353069465700999 0.018532859061182218 0 0.0016887119653515427 0.017200400770450996 0 0.0034370863095121245 0.015588760929389336 0 0.0016887119653515427 0.017200400770450996 0 -0.00050360437945431069 0.017196644512267531 0 0.00071595518198347104 0.015337477505480798 0 0.0016887119653515427 0.017200400770450996 0 -0.00050360437945431069 0.017196644512267531 0 0.00090498148324527736 0.019695712894432969 0 -0.00050360437945431069 0.017196644512267531 0 0.00090498148324527736 0.019695712894432969 0 -0.0014046115547626987 0.018855737401695175 0 -0.0021165682705977726 0.021081130870313977 0 -0.0032031904846736951 0.019086039715166165 0 -0.0014046115547626987 0.018855737401695175 0 -0.0032031904846736951 0.019086039715166165 0 -0.0014046115547626987 0.018855737401695175 0 -0.0023585580857227637 0.017230506941205013 0 -0.00050360437945431069 0.017196644512267531 0 -0.0023585580857227637 0.017230506941205013 0 -0.0026085849717530211 0.015563463185886462 0 -0.00050360437945431069 0.017196644512267531 0 -0.0014046115547626987 0.018855737401695175 0 -0.0023585580857227637 0.017230506941205013 0 -0.0026085849717530211 0.015563463185886462 0 -0.0010823298124397105 0.013495578609434502 0 0.00071595518198347104 0.015337477505480798 0 -0.0022923906657190862 0.014395542024962524 0 -0.00019772221752397323 0.013747868121869013 0 -0.0038070271918530705 0.014373832911892091 0 -0.0026085849717530211 0.015563463185886462 0 -0.0010823298124397105 0.013495578609434502 0 -0.00019772221752397323 0.013747868121869013 0 0.0016518300838853067 0.013311574931787145 0 -0.0010823298124397105 0.013495578609434502 0 0.00071595518198347104 0.015337477505480798 0 0.0022144626056525736 0.013302458656535714 0 -0.00050360437945431069 0.017196644512267531 0 -0.0026085849717530211 0.015563463185886462 0 0.00071595518198347104 0.015337477505480798 0 0.0016887119653515427 0.017200400770450996 0 0.00071595518198347104 0.015337477505480798 0 0.0034370863095121245 0.015588760929389336 0 0.00071595518198347104 0.015337477505480798 0 0.0034370863095121245 0.015588760929389336 0 0.0022144626056525736 0.013302458656535714 0 0.0055891450912953907 0.014963517233780668 0 0.0034370863095121245 0.015588760929389336 0 0.0044085629635960133 0.01355506437830435 0 0.0034370863095121245 0.015588760929389336 0 0.0044085629635960133 0.01355506437830435 0 0.0022144626056525736 0.013302458656535714 0 0.0036132329980324727 0.011918471537304052 0 0.0022144626056525736 0.013302458656535714 0 0.0021328419421061053 0.011153974950740986 0 0.0051496650806859027 0.012285306267739686 0 0.0036132329980324727 0.011918471537304052 0 0.0044085629635960133 0.01355506437830435 0 0.0051496650806859027 0.012285306267739686 0 0.0047048394338582581 0.010994835927331442 0 0.0036132329980324727 0.011918471537304052 0 0.0036132329980324727 0.011918471537304052 0 0.0044085629635960133 0.01355506437830435 0 0.0022144626056525736 0.013302458656535714 0 0.0022144626056525736 0.013302458656535714 0 0.0010811645648176103 0.012397653654462323 0 0.0021328419421061053 0.011153974950740986 0 0.0010811645648176103 0.012397653654462323 0 0.00095876568313322532 0.01115883495903062 0 0.0021328419421061053 0.011153974950740986 0 0.00060865559449172076 0.013857311068117615 0 0.0022144626056525736 0.013302458656535714 0 0.0010811645648176103 0.012397653654462323 0 0.00060865559449172076 0.013857311068117615 0 0.0010811645648176103 0.012397653654462323 0 -0.00049521453794791918 0.013003751674376323 0 0.0010811645648176103 0.012397653654462323 0 -1.9308639849977935e-05 0.011696383600421398 0 -0.00049521453794791918 0.013003751674376323 0 0.0010811645648176103 0.012397653654462323 0 -1.9308639849977935e-05 0.011696383600421398 0 0.00095876568313322532 0.01115883495903062 0 -1.9308639849977935e-05 0.011696383600421398 0 0.00016609829676432033 0.010526683330793513 0 0.00095876568313322532 0.01115883495903062 0 0.00016609829676432033 0.010526683330793513 0 -0.0006391605471589779 0.010046047912157083 0 0.00025469446034515015 0.0093889661459735183 0 0.00016609829676432033 0.010526683330793513 0 0.0014629637415409077 0.010014356322240653 0 0.00025469446034515015 0.0093889661459735183 0 0.0014629637415409077 0.010014356322240653 0 0.0012214590020210975 0.009144159993338433 0 0.00025469446034515015 0.0093889661459735183 0 0.0014629637415409077 0.010014356322240653 0 0.002532829743456456 0.0090385177072776785 0 0.0012214590020210975 0.009144159993338433 0 0.00016609829676432033 0.010526683330793513 0 0.0014629637415409077 0.010014356322240653 0 0.00095876568313322532 0.01115883495903062 0 0.0014629637415409077 0.010014356322240653 0 0.00095876568313322532 0.01115883495903062 0 0.0021328419421061053 0.011153974950740986 0 0.0014629637415409077 0.010014356322240653 0 0.0021328419421061053 0.011153974950740986 0 0.0033508801594852636 0.010036442914018926 0 0.0036132329980324727 0.011918471537304052 0 0.0021328419421061053 0.011153974950740986 0 0.0033508801594852636 0.010036442914018926 0 0.0014629637415409077 0.010014356322240653 0 0.0033508801594852636 0.010036442914018926 0 0.002532829743456456 0.0090385177072776785 0 0.0047649079690581476 0.0094105548953128254 0 0.0041298183980508826 0.0085820802571280278 0 0.0033508801594852636 0.010036442914018926 0 0.0047048394338582581 0.010994835927331442 0 0.0036132329980324727 0.011918471537304052 0 0.0033508801594852636 0.010036442914018926 0 0.0047649079690581476 0.0094105548953128254 0 0.0047048394338582581 0.010994835927331442 0 0.0033508801594852636 0.010036442914018926 0 -0.0022746066922400355 0.011738645479256767 0 -0.0032391158534966704 0.012010564911919612 0 -0.0033255341460514025 0.012925334123195409 0 -0.0022746066922400355 0.011738645479256767 0 -0.0032934398968659834 0.013069966708911272 0 -0.0019242336268841039 0.013223516653583451 0 -0.0024235219626641932 0.011986714271977316 0 -0.0032260281683844823 0.012974857808302575 0 -0.0040315837644374708 0.012495017249683295 0 -0.0032391158534966704 0.012010564911919612 0 -0.0033481798728933819 0.011694372499964691 0 -0.0040315837644374708 0.012495017249683295 0 -0.0035765791119519758 0.012579237054362952 0 -0.0037113404817352771 0.012854308521876613 0 -0.0040315837644374708 0.012495017249683295 0 -0.0032391158534966704 0.012010564911919612 0 -0.0035765791119519758 0.012579237054362952 0 -0.0032391158534966704 0.012010564911919612 0 -0.0035765791119519758 0.012579237054362952 0 -0.0033255341460514025 0.012925334123195409 0 -0.0038447772198745701 0.01322169375127261 0 -0.0040315012751235488 0.013893089378013864 0 -0.0033255341460514025 0.012925334123195409 0 -0.0039242283962658319 0.014112366922323831 0 -0.0032260281683844823 0.012974857808302575 0 -0.0038447772198745701 0.01322169375127261 0 -0.0033255341460514025 0.012925334123195409 0 -0.0037113404817352771 0.012854308521876613 0 -0.0035765791119519758 0.012579237054362952 0 -0.0033255341460514025 0.012925334123195409 0 -0.0037113404817352771 0.012854308521876613 0 -0.0040315837644374708 0.012495017249683295 0 -0.0038447772198745701 0.01322169375127261 0 -0.0037113404817352771 0.012854308521876613 0 -0.0027984571521179379 0.01385523841576344 0 -0.0032934398968659834 0.013069966708911272 0 -0.0019242336268841039 0.013223516653583451 0 -0.0010289679655419136 0.014365527642374419 0 -0.0019242336268841039 0.013223516653583451 0 -0.00049521453794791918 0.013003751674376323 0 -0.0019242336268841039 0.013223516653583451 0 -0.00049521453794791918 0.013003751674376323 0 -0.0012408496020553978 0.01191278479865838 0 -1.9308639849977935e-05 0.011696383600421398 0 -0.00049521453794791918 0.013003751674376323 0 -0.0012408496020553978 0.01191278479865838 0 -0.0022746066922400355 0.011738645479256767 0 -0.0019242336268841039 0.013223516653583451 0 -0.0012408496020553978 0.01191278479865838 0 -0.0022746066922400355 0.011738645479256767 0 -0.0012408496020553978 0.01191278479865838 0 -0.0020003257585487918 0.010988044260591511 0 -0.0012408496020553978 0.01191278479865838 0 -0.0020003257585487918 0.010988044260591511 0 -0.00088086881093709009 0.010845212776606225 0 -0.0020003257585487918 0.010988044260591511 0 -0.00088086881093709009 0.010845212776606225 0 -0.0014145690332248997 0.01021008628010083 0 -1.9308639849977935e-05 0.011696383600421398 0 -0.0012408496020553978 0.01191278479865838 0 -0.00088086881093709009 0.010845212776606225 0 -1.9308639849977935e-05 0.011696383600421398 0 0.00016609829676432033 0.010526683330793513 0 -0.00088086881093709009 0.010845212776606225 0 -0.0006391605471589779 0.010046047912157083 0 -0.0013088750107266287 0.0093416269815396382 0 0.00025469446034515015 0.0093889661459735183 0 0.00016609829676432033 0.010526683330793513 0 -0.00088086881093709009 0.010845212776606225 0 -0.0006391605471589779 0.010046047912157083 0 -0.00088086881093709009 0.010845212776606225 0 -0.0006391605471589779 0.010046047912157083 0 -0.0014145690332248997 0.01021008628010083 0 -0.0006391605471589779 0.010046047912157083 0 -0.0014145690332248997 0.01021008628010083 0 -0.0013088750107266287 0.0093416269815396382 0 -0.0020003257585487918 0.010988044260591511 0 -0.0014145690332248997 0.01021008628010083 0 -0.002208775570682961 0.010009677941705529 0 -0.0026956569492295377 0.01043208685384988 0 -0.006187874181298454 0.012847654781374035 0 -0.0014145690332248997 0.01021008628010083 0 -0.002208775570682961 0.010009677941705529 0 -0.0013088750107266287 0.0093416269815396382 0 -0.029816082158518838 0.0096056848653779808 0 -0.030179437589836013 0.013936449987158178 0 -0.033884619230138545 0.01682857590873069 0 -0.016352923153817124 0.010387189213818215 0 -0.016584672621696057 0.015364144226228048 0 -0.0020003257585487918 0.010988044260591511 0 -0.002208775570682961 0.010009677941705529 0 -0.0031502221946373091 0.010826132578445998 0 -0.0031502221946373091 0.010826132578445998 0 -0.003301101337246638 0.010923942150506252 0 -0.0031044807880603697 0.010578875791009867 0 -0.0030542477522228053 0.010690691373257776 0 -0.0031502221946373091 0.010826132578445998 0 -0.0031044807880603697 0.010578875791009867 0 -0.0026956569492295377 0.01043208685384988 0 -0.0029662917158559425 0.010637318767325947 0 -0.0022746066922400355 0.011738645479256767 0 -0.0032391158534966704 0.012010564911919612 0 -0.0028614382222049528 0.011365389144200147 0 -0.0020003257585487918 0.010988044260591511 0 -0.0031502221946373091 0.010826132578445998 0 -0.0028614382222049528 0.011365389144200147 0 -0.0031502221946373091 0.010826132578445998 0 -0.0028614382222049528 0.011365389144200147 0 -0.003301101337246638 0.010923942150506252 0 -0.0032391158534966704 0.012010564911919612 0 -0.0028614382222049528 0.011365389144200147 0 -0.0033481798728933819 0.011694372499964691 0 -0.0022746066922400355 0.011738645479256767 0 -0.0020003257585487918 0.010988044260591511 0 -0.0028614382222049528 0.011365389144200147 0 -0.015191877396512397 0.0082234756964306398 0 -0.016352923153817124 0.010387189213818215 0 -0.026145785843993484 0.0078109123149055987 0 -0.026139818613525091 0.0034761388891132849 0 -0.029816082158518838 0.0096056848653779808 0 -0.0040315837644374708 0.012495017249683295 0 -0.0033481798728933819 0.011694372499964691 0 -0.003301101337246638 0.010923942150506252 0 -0.0028614382222049528 0.011365389144200147 0 -0.0033481798728933819 0.011694372499964691 0 -0.003301101337246638 0.010923942150506252 0 -0.026145785843993484 0.0078109123149055987 0 -0.029816082158518838 0.0096056848653779808 0 -0.027132143350966812 0.011530344131729745 0 -0.029816082158518838 0.0096056848653779808 0 -0.027132143350966812 0.011530344131729745 0 -0.030179437589836013 0.013936449987158178 0 -0.025266383972130779 0.013909612833413146 0 -0.027110432215108868 0.014229934973145685 0 -0.025854718813752769 0.017556575777841567 0 -0.030179437589836013 0.013936449987158178 0 -0.027110432215108868 0.014229934973145685 0 -0.025854718813752769 0.017556575777841567 0 -0.025266383972130779 0.013909612833413146 0 -0.027132143350966812 0.011530344131729745 0 -0.027110432215108868 0.014229934973145685 0 -0.027132143350966812 0.011530344131729745 0 -0.030179437589836013 0.013936449987158178 0 -0.027110432215108868 0.014229934973145685 0 -0.030179437589836013 0.013936449987158178 0 -0.033884619230138545 0.01682857590873069 0 -0.025854718813752769 0.017556575777841567 0 -0.016584672621696057 0.015364144226228048 0 -0.022587017972124875 0.01782502858985929 0 -0.01765634787853216 0.019706141085366561 0 -0.017585845639624752 0.01975071695196191 0 -0.01750130212730416 0.019197207291754382 0 -0.017480426726960336 0.019427627146597827 0 -0.01765634787853216 0.019706141085366561 0 -0.01750130212730416 0.019197207291754382 0 -0.01765634787853216 0.019706141085366561 0 -0.017539284488610106 0.019734712431295549 0 -0.017704925799658825 0.019925720804279127 0 -0.017480426726960336 0.019427627146597827 0 -0.017539284488610106 0.019734712431295549 0 -0.017301445609907103 0.019682222464624144 0 -0.017480426726960336 0.019427627146597827 0 -0.01765634787853216 0.019706141085366561 0 -0.017539284488610106 0.019734712431295549 0 -0.01765634787853216 0.019706141085366561 0 -0.017293886009808652 0.01992857732581799 0 -0.017840906178131902 0.019931474652393505 0 -0.017338848547830604 0.020017148098478842 0 -0.017358941150421719 0.019917330865185313 0 -0.01765634787853216 0.019706141085366561 0 -0.017585845639624752 0.01975071695196191 0 -0.017293886009808652 0.01992857732581799 0 -0.017585845639624752 0.01975071695196191 0 -0.017661553962890604 0.019726413366816992 0 -0.01750130212730416 0.019197207291754382 0 -0.017585845639624752 0.01975071695196191 0 -0.017661553962890604 0.019726413366816992 0 -0.017293886009808652 0.01992857732581799 0 -0.017585448408074439 0.021751616754605432 0 -0.016336734974975665 0.021827931958293769 0 -0.016216086581207913 0.020987145712923976 0 -0.0030542477522228053 0.010690691373257776 0 -0.0031044807880603697 0.010578875791009867 0 -0.0030032214243418034 0.010653676520361272 0 -0.016584672621696057 0.015364144226228048 0 -0.006187874181298454 0.012847654781374035 0 -0.006187874181298454 0.012847654781374035 0 0.00063715987555464538 0.010549688544026563 0 -0.0013976621819838007 0.0093027137153238529 0 0.00025469446034515015 0.0093889661459735183 0 0.00025608789092461149 0.008214030373589979 0 -0.016336734974975665 0.021827931958293769 0 -0.016216086581207913 0.020987145712923976 0 -0.014966265162231271 0.020900580845239106 0 -0.006187874181298454 0.012847654781374035 0 -0.0078137311999413959 0.014843385358958728 0 -0.016216086581207913 0.020987145712923976 0 -0.015515381988601175 0.020365455401514281 0 -0.014966265162231271 0.020900580845239106 0 -0.016216086581207913 0.020987145712923976 0 -0.016832276345769219 0.020162349640427964 0 -0.015515381988601175 0.020365455401514281 0 -0.016584672621696057 0.015364144226228048 0 -0.017885268319180428 0.021164107150686 0 -0.017661553962890604 0.019726413366816992 0 -0.017293886009808652 0.01992857732581799 0 -0.016832276345769219 0.020162349640427964 0 -0.017293886009808652 0.01992857732581799 0 -0.016832276345769219 0.020162349640427964 0 -0.017161497727654112 0.019917601168210949 0 -0.017585448408074439 0.021751616754605432 0 -0.016216086581207913 0.020987145712923976 0 -0.016832276345769219 0.020162349640427964 0 -0.016832276345769219 0.020162349640427964 0 -0.016866183027912169 0.019690509510999255 0 -0.017161497727654112 0.019917601168210949 0 -0.016832276345769219 0.020162349640427964 0 -0.016866183027912169 0.019690509510999255 0 -0.0162387513271001 0.019859191982892488 0 -0.016866183027912169 0.019690509510999255 0 -0.0162387513271001 0.019859191982892488 0 -0.016647597078251402 0.019271295946125058 0 -0.016832276345769219 0.020162349640427964 0 -0.015515381988601175 0.020365455401514281 0 -0.0162387513271001 0.019859191982892488 0 -0.0162387513271001 0.019859191982892488 0 -0.015611854550991636 0.019499950872945124 0 -0.016647597078251402 0.019271295946125058 0 -0.015515381988601175 0.020365455401514281 0 -0.0162387513271001 0.019859191982892488 0 -0.015611854550991636 0.019499950872945124 0 -0.015515381988601175 0.020365455401514281 0 -0.015611854550991636 0.019499950872945124 0 -0.014606118479286279 0.020344236995812913 0 -0.014733233181578004 0.020883301360417515 0 -0.015909938231757792 0.020587916687470644 0 -0.013416038632179772 0.021074616721616823 0 -0.013617134308429143 0.02231723443330598 0 -0.011656668020429037 0.022202568538841387 0 -0.013617134308429143 0.02231723443330598 0 -0.011656668020429037 0.022202568538841387 0 -0.01329195645639788 0.023611006605042069 0 -0.014733233181578004 0.020883301360417515 0 -0.013389724643576045 0.022070137067846451 0 -0.013416038632179772 0.021074616721616823 0 -0.013617134308429143 0.02231723443330598 0 -0.014349792240970306 0.021289025455644921 0 -0.015133193520507101 0.021353909488721796 0 -0.015108644126774652 0.021454334360367335 0 -0.015455382587041704 0.021376279500373404 0 -0.015909938231757792 0.020587916687470644 0 -0.016749816252090668 0.020881005134998798 0 -0.016866183027912169 0.019690509510999255 0 -0.016647597078251402 0.019271295946125058 0 -0.017394045337196847 0.019135058878124358 0 -0.014761656888299102 0.02152452371206081 0 -0.015133193520507101 0.021353909488721796 0 -0.015108644126774652 0.021454334360367335 0 -0.013389724643576045 0.022070137067846451 0 -0.015490459859795021 0.022477662195428242 0 -0.015133193520507101 0.021353909488721796 0 -0.015455382587041704 0.021376279500373404 0 -0.015504923853711312 0.021175206709855381 0 -0.018048276702476582 0.020650551085504752 0 -0.017570346937447613 0.02056893031491356 0 -0.017775991332805274 0.020232401188752993 0 -0.016749816252090668 0.020881005134998798 0 -0.015490459859795021 0.022477662195428242 0 -0.018048276702476582 0.020650551085504752 0 -0.017330788981101602 0.02125672004892883 0 -0.017570346937447613 0.02056893031491356 0 -0.017887594104555361 0.021486715997830575 0 -0.01680405256076109 0.021759843156342325 0 -0.017769665991023059 0.02199795660145764 0 -0.016749816252090668 0.020881005134998798 0 -0.01701657515364921 0.021408835177493864 0 -0.017330788981101602 0.02125672004892883 0 -0.017570346937447613 0.02056893031491356 0 -0.016974024004882602 0.020593770258882708 0 -0.017570346937447613 0.02056893031491356 0 -0.017472866876518674 0.020107958828924175 0 -0.017775991332805274 0.020232401188752993 0 -0.017472866876518674 0.020107958828924175 0 -0.017704925799658825 0.019925720804279127 0 -0.017775991332805274 0.020232401188752993 0 -0.017570346937447613 0.02056893031491356 0 -0.017472866876518674 0.020107958828924175 0 -0.016974024004882602 0.020593770258882708 0 -0.017539284488610106 0.019734712431295549 0 -0.017472866876518674 0.020107958828924175 0 -0.017301445609907103 0.019682222464624144 0 -0.017539284488610106 0.019734712431295549 0 -0.017472866876518674 0.020107958828924175 0 -0.017704925799658825 0.019925720804279127 0 -0.016749816252090668 0.020881005134998798 0 -0.017358941150421719 0.019917330865185313 0 -0.016866183027912169 0.019690509510999255 0 -0.017394045337196847 0.019135058878124358 0 -0.017161497727654112 0.019917601168210949 0 -0.01765634787853216 0.019706141085366561 0 -0.017704925799658825 0.019925720804279127 0 -0.017840906178131902 0.019931474652393505 0 -0.017704925799658825 0.019925720804279127 0 -0.017840906178131902 0.019931474652393505 0 -0.017775991332805274 0.020232401188752993 0 -0.018048276702476582 0.020650551085504752 0 -0.017840906178131902 0.019931474652393505 0 -0.017775991332805274 0.020232401188752993 0 0.0041298183980508826 0.0085820802571280278 0 0.0038316483694652826 0.007642955535147382 0 0.002827978976700321 0.0079340219548203021 0 0.0041298183980508826 0.0085820802571280278 0 0.002532829743456456 0.0090385177072776785 0 0.002827978976700321 0.0079340219548203021 0 0.0041298183980508826 0.0085820802571280278 0 0.0033508801594852636 0.010036442914018926 0 0.002532829743456456 0.0090385177072776785 0 0.002532829743456456 0.0090385177072776785 0 0.002827978976700321 0.0079340219548203021 0 0.0015792760676673412 0.0083236221819329072 0 0.002827978976700321 0.0079340219548203021 0 0.0015792760676673412 0.0083236221819329072 0 0.0018950856387835553 0.0072956400762297187 0 0.0015792760676673412 0.0083236221819329072 0 0.00025608789092461149 0.008214030373589979 0 0.0018950856387835553 0.0072956400762297187 0 -0.014966265162231271 0.020900580845239106 0 -0.014825262039789847 0.020432536609311238 0 -0.013819912783290712 0.020219956251017617 0 -0.0078137311999413959 0.014843385358958728 0 -0.0058632063491902081 0.013729302103618096 0 0.0015792760676673412 0.0083236221819329072 0 0.0012214590020210975 0.009144159993338433 0 0.00025608789092461149 0.008214030373589979 0 0.002532829743456456 0.0090385177072776785 0 0.0015792760676673412 0.0083236221819329072 0 0.0012214590020210975 0.009144159993338433 0 0.0012214590020210975 0.009144159993338433 0 0.00025469446034515015 0.0093889661459735183 0 0.00025608789092461149 0.008214030373589979 0 -0.015515381988601175 0.020365455401514281 0 -0.014966265162231271 0.020900580845239106 0 -0.014825262039789847 0.020432536609311238 0 -0.015515381988601175 0.020365455401514281 0 -0.014825262039789847 0.020432536609311238 0 -0.014606118479286279 0.020344236995812913 0 -0.014825262039789847 0.020432536609311238 0 -0.014606118479286279 0.020344236995812913 0 -0.014698304529046509 0.020138588570892887 0 -0.014606118479286279 0.020344236995812913 0 -0.014349792240970306 0.021289025455644921 0 -0.014698304529046509 0.020138588570892887 0 -0.014733233181578004 0.020883301360417515 0 -0.014776486704934309 0.020622368326845806 0 -0.013416038632179772 0.021074616721616823 0 -0.014606118479286279 0.020344236995812913 0 -0.014349792240970306 0.021289025455644921 0 -0.014349792240970306 0.021289025455644921 0 -0.014897956832936978 0.0221268557442428 0 -0.014698304529046509 0.020138588570892887 0 -0.013617134308429143 0.02231723443330598 0 -0.014349792240970306 0.021289025455644921 0 -0.014897956832936978 0.0221268557442428 0 -0.013617134308429143 0.02231723443330598 0 -0.014897956832936978 0.0221268557442428 0 -0.014376048666126391 0.023195806165226866 0 -0.01483582245352274 0.020382270109293353 0 -0.014706242441469343 0.020705755890327023 0 -0.014897956832936978 0.0221268557442428 0 -0.014698304529046509 0.020138588570892887 0 -0.016682161648666583 0.022754556568322332 0 -0.014825262039789847 0.020432536609311238 0 -0.013819912783290712 0.020219956251017617 0 -0.014698304529046509 0.020138588570892887 0 -0.013819912783290712 0.020219956251017617 0 -0.014698304529046509 0.020138588570892887 0 -0.013601341050122197 0.018483905770079793 0 -0.0058632063491902081 0.013729302103618096 0 -0.0041979774592610479 0.012910588995877112 0 0.002827978976700321 0.0079340219548203021 0 0.0018950856387835553 0.0072956400762297187 0 0.0034316664176058265 0.0065724426589379671 0 -0.013819912783290712 0.020219956251017617 0 -0.011821548631808324 0.019214023430720917 0 -0.013601341050122197 0.018483905770079793 0 0.0042650621465514967 0.0071418154617364678 0 0.0038316483694652826 0.007642955535147382 0 0.0034316664176058265 0.0065724426589379671 0 0.0038316483694652826 0.007642955535147382 0 0.002827978976700321 0.0079340219548203021 0 0.0034316664176058265 0.0065724426589379671 0 -0.011397838196735561 0.017217961159790782 0 -0.012028578629362512 0.01732889876791505 0 -0.011739513954513364 0.016752863092650543 0 -0.012028578629362512 0.01732889876791505 0 -0.012170851612753258 0.016916785394372677 0 -0.011739513954513364 0.016752863092650543 0 -0.011397838196735561 0.017217961159790782 0 -0.012028578629362512 0.01732889876791505 0 -0.011940957369654974 0.018001225746089918 0 -0.011119792805064305 0.017942444065133012 0 -0.011397838196735561 0.017217961159790782 0 -0.011940957369654974 0.018001225746089918 0 -0.011119792805064305 0.017942444065133012 0 -0.011821548631808324 0.019214023430720917 0 -0.011940957369654974 0.018001225746089918 0 -0.011821548631808324 0.019214023430720917 0 -0.011940957369654974 0.018001225746089918 0 -0.013601341050122197 0.018483905770079793 0 -0.012028578629362512 0.01732889876791505 0 -0.011940957369654974 0.018001225746089918 0 -0.013601341050122197 0.018483905770079793 0 -0.01083443836872681 0.024336934095874809 0 -0.014706242441469343 0.020705755890327023 0 -0.012028578629362512 0.01732889876791505 0 -0.012718455965308885 0.017098220850397233 0 -0.013601341050122197 0.018483905770079793 0 -0.017935792028084589 0.0258329192290431 0 -0.017054693947812415 0.025092391489703016 0 -0.016682161648666583 0.022754556568322332 0 -0.012028578629362512 0.01732889876791505 0 -0.012718455965308885 0.017098220850397233 0 -0.012170851612753258 0.016916785394372677 0 -0.017935792028084589 0.0258329192290431 0 -0.017575657536412277 0.025896988452294992 0 -0.017416090867219354 0.025640991429791787 0 -0.017935792028084589 0.0258329192290431 0 -0.017575657536412277 0.025896988452294992 0 -0.017342832614724215 0.026390820999778936 0 -0.017575657536412277 0.025896988452294992 0 -0.017147476221724561 0.025807203597105879 0 -0.017342832614724215 0.026390820999778936 0 -0.017575657536412277 0.025896988452294992 0 -0.017147476221724561 0.025807203597105879 0 -0.017416090867219354 0.025640991429791787 0 -0.017935792028084589 0.0258329192290431 0 -0.017416090867219354 0.025640991429791787 0 -0.017054693947812415 0.025092391489703016 0 -0.017147476221724561 0.025807203597105879 0 -0.017416090867219354 0.025640991429791787 0 -0.017054693947812415 0.025092391489703016 0 -0.016663730594216643 0.02554625893694161 0 -0.016664902818068272 0.026154148712045709 0 -0.015679633815513232 0.025985285045671856 0 -0.017147476221724561 0.025807203597105879 0 -0.016663730594216643 0.02554625893694161 0 -0.017054693947812415 0.025092391489703016 0 -0.017147476221724561 0.025807203597105879 0 -0.016663730594216643 0.02554625893694161 0 -0.016664902818068272 0.026154148712045709 0 -0.017147476221724561 0.025807203597105879 0 -0.016664902818068272 0.026154148712045709 0 -0.017342832614724215 0.026390820999778936 0 -0.015679633815513232 0.025985285045671856 0 -0.016033415693563039 0.025097953812081821 0 -0.015038763325005741 0.025105205193081636 0 -0.016663730594216643 0.02554625893694161 0 -0.015679633815513232 0.025985285045671856 0 -0.016033415693563039 0.025097953812081821 0 -0.016033415693563039 0.025097953812081821 0 -0.015662763572066734 0.023695854997327421 0 -0.015038763325005741 0.025105205193081636 0 -0.016663730594216643 0.02554625893694161 0 -0.016033415693563039 0.025097953812081821 0 -0.017054693947812415 0.025092391489703016 0 -0.016033415693563039 0.025097953812081821 0 -0.017054693947812415 0.025092391489703016 0 -0.015662763572066734 0.023695854997327421 0 -0.014897956832936978 0.0221268557442428 0 -0.016682161648666583 0.022754556568322332 0 -0.015662763572066734 0.023695854997327421 0 -0.017054693947812415 0.025092391489703016 0 -0.016682161648666583 0.022754556568322332 0 -0.015662763572066734 0.023695854997327421 0 -0.015662763572066734 0.023695854997327421 0 -0.01450715779449255 0.024300267911938081 0 -0.015038763325005741 0.025105205193081636 0 -0.015662763572066734 0.023695854997327421 0 -0.014376048666126391 0.023195806165226866 0 -0.01450715779449255 0.024300267911938081 0 -0.014897956832936978 0.0221268557442428 0 -0.015662763572066734 0.023695854997327421 0 -0.014376048666126391 0.023195806165226866 0 -0.014376048666126391 0.023195806165226866 0 -0.01450715779449255 0.024300267911938081 0 -0.01329195645639788 0.023611006605042069 0 -0.014381554744245796 0.02486140260247274 0 -0.013582066378831199 0.026994766522088733 0 -0.01450715779449255 0.024300267911938081 0 -0.014323666289315936 0.025846789298907213 0 -0.013279432734558482 0.027004339625931514 0 -0.01450715779449255 0.024300267911938081 0 -0.015038763325005741 0.025105205193081636 0 -0.014323666289315936 0.025846789298907213 0 -0.015679633815513232 0.025985285045671856 0 -0.015038763325005741 0.025105205193081636 0 -0.014323666289315936 0.025846789298907213 0 -0.014323666289315936 0.025846789298907213 0 -0.013840568775268177 0.027965460976633789 0 -0.013279432734558482 0.027004339625931514 0 -0.014323666289315936 0.025846789298907213 0 -0.015058298588267653 0.027134858686113289 0 -0.013519977312587543 0.028413080581040862 0 -0.014125167626519624 0.026436348509036842 0 -0.013687815997939308 0.028162518988989412 0 -0.015679633815513232 0.025985285045671856 0 -0.014323666289315936 0.025846789298907213 0 -0.015058298588267653 0.027134858686113289 0 -0.015058298588267653 0.027134858686113289 0 -0.013519977312587543 0.028413080581040862 0 -0.015385535934379996 0.028450259179704371 0 -0.012842521527993362 0.031109612249778724 0 -0.013519977312587543 0.028413080581040862 0 -0.014547337988311145 0.029902854037042747 0 -0.013519977312587543 0.028413080581040862 0 -0.014547337988311145 0.029902854037042747 0 -0.015385535934379996 0.028450259179704371 0 -0.014547337988311145 0.029902854037042747 0 -0.015385535934379996 0.028450259179704371 0 -0.016607628482320017 0.029706914176596075 0 -0.015385535934379996 0.028450259179704371 0 -0.016607628482320017 0.029706914176596075 0 -0.016900944632478578 0.028007119442388911 0 -0.016900944632478578 0.028007119442388911 0 -0.016316038862357614 0.02707666197851542 0 -0.017562523520982976 0.027053620987815951 0 -0.015058298588267653 0.027134858686113289 0 -0.015385535934379996 0.028450259179704371 0 -0.016316038862357614 0.02707666197851542 0 -0.015385535934379996 0.028450259179704371 0 -0.016900944632478578 0.028007119442388911 0 -0.016316038862357614 0.02707666197851542 0 -0.016664902818068272 0.026154148712045709 0 -0.015679633815513232 0.025985285045671856 0 -0.016316038862357614 0.02707666197851542 0 -0.015679633815513232 0.025985285045671856 0 -0.015058298588267653 0.027134858686113289 0 -0.016316038862357614 0.02707666197851542 0 -0.016664902818068272 0.026154148712045709 0 -0.016316038862357614 0.02707666197851542 0 -0.017342832614724215 0.026390820999778936 0 -0.016316038862357614 0.02707666197851542 0 -0.017562523520982976 0.027053620987815951 0 -0.017342832614724215 0.026390820999778936 0 -0.0093179595380975082 0.026684115792857878 0 -0.0096501097583600835 0.027708252479450905 0 -0.0098590525509472098 0.027515044310791825 0 -0.01083443836872681 0.024336934095874809 0 -0.0069801039784857868 0.034198947553558408 0 -0.017935792028084589 0.0258329192290431 0 -0.017562523520982976 0.027053620987815951 0 -0.018612207303760578 0.027759290189487241 0 -0.017935792028084589 0.0258329192290431 0 -0.017562523520982976 0.027053620987815951 0 -0.017342832614724215 0.026390820999778936 0 -0.01083443836872681 0.024336934095874809 0 -0.008790171624802284 0.027598763638203704 0 -0.012718455965308885 0.017098220850397233 0 -0.012170851612753258 0.016916785394372677 0 -0.012116259738243134 0.016415657020512738 0 -0.0069801039784857868 0.034198947553558408 0 -0.008790171624802284 0.027598763638203704 0 -0.016900944632478578 0.028007119442388911 0 -0.017562523520982976 0.027053620987815951 0 -0.018612207303760578 0.027759290189487241 0 0.00038251745507807556 0.046129450097968754 0 -0.00087520308664892368 0.049637916065855263 0 -0.0013157728546315526 0.047221656537108719 0 -0.0033942846328777095 0.047463735249630573 0 -0.00087520308664892368 0.049637916065855263 0 -0.0013157728546315526 0.047221656537108719 0 -0.016607628482320017 0.029706914176596075 0 -0.016900944632478578 0.028007119442388911 0 -0.018612207303760578 0.027759290189487241 0 -0.0094731963927313558 0.038092842457771378 0 -0.0069801039784857868 0.034198947553558408 0 0.00038251745507807556 0.046129450097968754 0 2.8990221498076196e-05 0.047194329554930685 0 0.00064148679543219041 0.046792164896236027 0 -0.0029248403549470342 0.047979979666499077 0 -0.0069801039784857868 0.034198947553558408 0 -0.0052169757012663232 0.031427629747902565 0 -0.008790171624802284 0.027598763638203704 0 0.0014820810682958105 0.046046801923578365 0 0.00096528494385127151 0.046083810034168754 0 0.00064148679543219041 0.046792164896236027 0 -0.00063488964509458043 0.034275361818730088 0 -0.0052169757012663232 0.031427629747902565 0 -0.01103447370164338 0.016463990447975994 0 -0.011483595395878368 0.016006787054251053 0 -0.011536529254007659 0.016395135754818622 0 -0.01103447370164338 0.016463990447975994 0 -0.011536529254007659 0.016395135754818622 0 -0.011739513954513364 0.016752863092650543 0 -0.01103447370164338 0.016463990447975994 0 -0.011397838196735561 0.017217961159790782 0 -0.011739513954513364 0.016752863092650543 0 -0.011536529254007659 0.016395135754818622 0 -0.011934981764045807 0.016557504795190216 0 -0.011739513954513364 0.016752863092650543 0 2.8990221498076196e-05 0.047194329554930685 0 0.00064148679543219041 0.046792164896236027 0 0.00016929829031238884 0.047310481116462882 0 -0.011483595395878368 0.016006787054251053 0 -0.011536529254007659 0.016395135754818622 0 -0.011934981764045807 0.016557504795190216 0 -0.012170851612753258 0.016916785394372677 0 -0.012116259738243134 0.016415657020512738 0 -0.011739513954513364 0.016752863092650543 0 -0.008790171624802284 0.027598763638203704 0 -0.011429951252999055 0.023976064568985475 0 -0.010644584432619134 0.024675341375759722 0 -0.0096309525475549527 0.025430595817685982 0 -0.010435863360662321 0.026269086964641693 0 -0.013982268911756241 0.024415161273014123 0 -0.015490459859795021 0.022477662195428242 0 -0.010644584432619134 0.024675341375759722 0 -0.011790674796430636 0.024947548311424678 0 -0.010435863360662321 0.026269086964641693 0 -0.010644584432619134 0.024675341375759722 0 -0.0096309525475549527 0.025430595817685982 0 -0.010089312321790384 0.023160560478272009 0 -0.018243630105938748 0.023696177087552818 0 -0.01703197952575676 0.023321712018207735 0 -0.017282217715770733 0.022318421582741783 0 -0.018243630105938748 0.023696177087552818 0 -0.01703197952575676 0.023321712018207735 0 -0.016762736324914956 0.024251979762442959 0 -0.01680405256076109 0.021759843156342325 0 -0.016928850840213189 0.022457008735405196 0 -0.017769665991023059 0.02199795660145764 0 -0.018243630105938748 0.023696177087552818 0 -0.017282217715770733 0.022318421582741783 0 -0.018692605979428935 0.021584062997468095 0 -0.017120307279000178 0.022220008758438107 0 -0.015490459859795021 0.022477662195428242 0 -0.010644584432619134 0.024675341375759722 0 -0.010089312321790384 0.023160560478272009 0 -0.011374863351653833 0.023617808442786412 0 -0.011656668020429037 0.022202568538841387 0 -0.010089312321790384 0.023160560478272009 0 -0.011374863351653833 0.023617808442786412 0 -0.011374863351653833 0.023617808442786412 0 -0.01329195645639788 0.023611006605042069 0 -0.011790674796430636 0.024947548311424678 0 -0.011656668020429037 0.022202568538841387 0 -0.011374863351653833 0.023617808442786412 0 -0.01329195645639788 0.023611006605042069 0 -0.01450715779449255 0.024300267911938081 0 -0.01329195645639788 0.023611006605042069 0 -0.013305569372101454 0.025538172140922955 0 -0.013617134308429143 0.02231723443330598 0 -0.014376048666126391 0.023195806165226866 0 -0.01329195645639788 0.023611006605042069 0 -0.013132190491848534 0.024016936543870066 0 -0.012144937439988589 0.025262252279100367 0 -0.01450715779449255 0.024300267911938081 0 -0.013305569372101454 0.025538172140922955 0 -0.01382591132141819 0.027154252491371107 0 -0.01329195645639788 0.023611006605042069 0 -0.013305569372101454 0.025538172140922955 0 -0.012187336705556441 0.025715257844737945 0 -0.010644584432619134 0.024675341375759722 0 -0.011374863351653833 0.023617808442786412 0 -0.011790674796430636 0.024947548311424678 0 -0.013305569372101454 0.025538172140922955 0 -0.012187336705556441 0.025715257844737945 0 -0.012754248175579318 0.02679445360455519 0 -0.012144937439988589 0.025262252279100367 0 -0.010988972476190659 0.027075705923365483 0 -0.012754248175579318 0.02679445360455519 0 -0.012519099592646039 0.027910585412630282 0 -0.011294901742019463 0.027484733330304035 0 -0.012187336705556441 0.025715257844737945 0 -0.012754248175579318 0.02679445360455519 0 -0.011294901742019463 0.027484733330304035 0 -0.012754248175579318 0.02679445360455519 0 -0.01382591132141819 0.027154252491371107 0 -0.012519099592646039 0.027910585412630282 0 -0.013305569372101454 0.025538172140922955 0 -0.012754248175579318 0.02679445360455519 0 -0.01382591132141819 0.027154252491371107 0 -0.012559841244815429 0.029261841550293419 0 -0.013466837245202605 0.029686217784967339 0 -0.013840568775268177 0.027965460976633789 0 -0.012751472700193211 0.02927419489673112 0 -0.013582066378831199 0.026994766522088733 0 -0.012979479354358838 0.029376628773349203 0 -0.01382591132141819 0.027154252491371107 0 -0.012519099592646039 0.027910585412630282 0 -0.012559841244815429 0.029261841550293419 0 -0.013840568775268177 0.027965460976633789 0 -0.013279432734558482 0.027004339625931514 0 -0.013133891780137295 0.030183946364602487 0 -0.013687815997939308 0.028162518988989412 0 -0.012979479354358838 0.029376628773349203 0 -0.012519099592646039 0.027910585412630282 0 -0.01236655583688224 0.028908057531176919 0 -0.012519099592646039 0.027910585412630282 0 -0.011721677692105265 0.028704095754656288 0 -0.011294901742019463 0.027484733330304035 0 -0.012519099592646039 0.027910585412630282 0 -0.01236655583688224 0.028908057531176919 0 -0.011721677692105265 0.028704095754656288 0 -0.012149045679238005 0.029426527631255115 0 -0.01236655583688224 0.028908057531176919 0 -0.011721677692105265 0.028704095754656288 0 -0.010988972476190659 0.027075705923365483 0 -0.012147017604481253 0.028036071481338048 0 -0.011721677692105265 0.028704095754656288 0 -0.011294901742019463 0.027484733330304035 0 -0.010637212068397624 0.028935054116132682 0 -0.011688142097773061 0.029787478792270273 0 -0.011721677692105265 0.028704095754656288 0 -0.010637212068397624 0.028935054116132682 0 -0.0096309525475549527 0.025430595817685982 0 -0.010435863360662321 0.026269086964641693 0 -0.0091680004012174281 0.02757900621764664 0 -0.018243630105938748 0.023696177087552818 0 -0.017787566847459788 0.026084506635066378 0 -0.016762736324914956 0.024251979762442959 0 -0.013982268911756241 0.024415161273014123 0 -0.012147017604481253 0.028036071481338048 0 -0.017787566847459788 0.026084506635066378 0 -0.015648040772819539 0.025258718416693509 0 -0.01503419263009686 0.026690189473986763 0 -0.015648040772819539 0.025258718416693509 0 -0.01503419263009686 0.026690189473986763 0 -0.014060933718978917 0.025394626296848525 0 -0.013242562987337156 0.027305154476146079 0 -0.01503419263009686 0.026690189473986763 0 -0.014060933718978917 0.025394626296848525 0 -0.015648040772819539 0.025258718416693509 0 -0.015134596073207929 0.024021233038916755 0 -0.014060933718978917 0.025394626296848525 0 -0.017787566847459788 0.026084506635066378 0 -0.015648040772819539 0.025258718416693509 0 -0.016762736324914956 0.024251979762442959 0 -0.015648040772819539 0.025258718416693509 0 -0.015134596073207929 0.024021233038916755 0 -0.016762736324914956 0.024251979762442959 0 -0.017120307279000178 0.022220008758438107 0 -0.016175001547404432 0.022815084023000701 0 -0.015134596073207929 0.024021233038916755 0 -0.016762736324914956 0.024251979762442959 0 -0.015883349968328877 0.02304153357313506 0 -0.01703197952575676 0.023321712018207735 0 -0.017282217715770733 0.022318421582741783 0 -0.015883349968328877 0.02304153357313506 0 -0.01703197952575676 0.023321712018207735 0 -0.016762736324914956 0.024251979762442959 0 -0.015883349968328877 0.02304153357313506 0 -0.015134596073207929 0.024021233038916755 0 -0.015883349968328877 0.02304153357313506 0 -0.014898917304695196 0.022882203588297012 0 -0.015883349968328877 0.02304153357313506 0 -0.014898917304695196 0.022882203588297012 0 -0.015716620057884156 0.021970789580661388 0 -0.014898917304695196 0.022882203588297012 0 -0.015716620057884156 0.021970789580661388 0 -0.014510115305718699 0.022075015237822387 0 -0.01680405256076109 0.021759843156342325 0 -0.015716620057884156 0.021970789580661388 0 -0.016313635263820205 0.022292119056243016 0 -0.016928850840213189 0.022457008735405196 0 -0.015883349968328877 0.02304153357313506 0 -0.016313635263820205 0.022292119056243016 0 -0.015883349968328877 0.02304153357313506 0 -0.015716620057884156 0.021970789580661388 0 -0.016313635263820205 0.022292119056243016 0 -0.01701657515364921 0.021408835177493864 0 -0.015957764241548884 0.021813436147999507 0 -0.01680405256076109 0.021759843156342325 0 -0.016928850840213189 0.022457008735405196 0 -0.016313635263820205 0.022292119056243016 0 -0.013592861033664192 0.022343833837543112 0 -0.014510115305718699 0.022075015237822387 0 -0.014006191976207807 0.021435039280895733 0 -0.013592861033664192 0.022343833837543112 0 -0.014510115305718699 0.022075015237822387 0 -0.013598533494458066 0.023585661462495085 0 -0.014898917304695196 0.022882203588297012 0 -0.014510115305718699 0.022075015237822387 0 -0.013598533494458066 0.023585661462495085 0 -0.015134596073207929 0.024021233038916755 0 -0.014898917304695196 0.022882203588297012 0 -0.013598533494458066 0.023585661462495085 0 -0.013592861033664192 0.022343833837543112 0 -0.013598533494458066 0.023585661462495085 0 -0.013245733351414955 0.02303832801340782 0 -0.013337125431415063 0.023694224047474198 0 -0.012511030734156615 0.024475918743414996 0 -0.013598533494458066 0.023585661462495085 0 -0.013099022494932175 0.023236919973118209 0 -0.013245733351414955 0.02303832801340782 0 -0.013598533494458066 0.023585661462495085 0 -0.014060933718978917 0.025394626296848525 0 -0.011634421349036542 0.025914657940131421 0 -0.015134596073207929 0.024021233038916755 0 -0.013598533494458066 0.023585661462495085 0 -0.014060933718978917 0.025394626296848525 0 -0.013242562987337156 0.027305154476146079 0 -0.014060933718978917 0.025394626296848525 0 -0.011634421349036542 0.025914657940131421 0 -0.011850744306439301 0.025118079359069002 0 -0.012511030734156615 0.024475918743414996 0 -0.012952407049602679 0.022769970326347606 0 -0.013099022494932175 0.023236919973118209 0 -0.013046848753822447 0.023014161710176742 0 -0.013046848753822447 0.023014161710176742 0 -0.013019703503571805 0.02309275454752804 0 -0.012812337927506816 0.023148345140995084 0 -0.013099022494932175 0.023236919973118209 0 -0.013019703503571805 0.02309275454752804 0 -0.013245733351414955 0.02303832801340782 0 -0.013099022494932175 0.023236919973118209 0 -0.013046848753822447 0.023014161710176742 0 -0.013019703503571805 0.02309275454752804 0 -0.013712008125399961 0.022689057368540669 0 -0.013380919354080034 0.022999651960209304 0 -0.013891856879206438 0.023011437534133115 0 -0.013275430620010378 0.022655162071639798 0 -0.013046848753822447 0.023014161710176742 0 -0.013345325748144876 0.02284871760708708 0 -0.013712008125399961 0.022689057368540669 0 -0.013345325748144876 0.02284871760708708 0 -0.013380919354080034 0.022999651960209304 0 -0.013046848753822447 0.023014161710176742 0 -0.013345325748144876 0.02284871760708708 0 -0.013380919354080034 0.022999651960209304 0 -0.013046848753822447 0.023014161710176742 0 -0.013380919354080034 0.022999651960209304 0 -0.012812337927506816 0.023148345140995084 0 -0.013380919354080034 0.022999651960209304 0 -0.013449742386800127 0.023228465910428608 0 -0.012812337927506816 0.023148345140995084 0 -0.013380919354080034 0.022999651960209304 0 -0.013666699386473191 0.023167941639642618 0 -0.013891856879206438 0.023011437534133115 0 -0.013449742386800127 0.023228465910428608 0 -0.013666699386473191 0.023167941639642618 0 -0.013720606283317519 0.023396698977126224 0 -0.013380919354080034 0.022999651960209304 0 -0.013449742386800127 0.023228465910428608 0 -0.013666699386473191 0.023167941639642618 0 -0.013995722706597928 0.023280472087436388 0 -0.013666699386473191 0.023167941639642618 0 -0.013720606283317519 0.023396698977126224 0 -0.013995722706597928 0.023280472087436388 0 -0.013666699386473191 0.023167941639642618 0 -0.013891856879206438 0.023011437534133115 0 -0.015211477926788307 0.023871394613110407 0 -0.01371005959018994 0.023975951889159429 0 -0.014224046996855725 0.023439061327222083 0 -0.015426940787376799 0.020044577730718025 0 -0.014693530113795941 0.021119239284542062 0 -0.013705891062482349 0.023763421601888213 0 -0.014224046996855725 0.023439061327222083 0 -0.013720606283317519 0.023396698977126224 0 -0.013449742386800127 0.023228465910428608 0 -0.013705891062482349 0.023763421601888213 0 -0.013720606283317519 0.023396698977126224 0 -0.012812337927506816 0.023148345140995084 0 -0.012409057156541069 0.022560293325578573 0 -0.012651606556695389 0.022425764158418043 0 -0.015426940787376799 0.020044577730718025 0 -0.013239408887256355 0.021919861657926282 0 -0.013449742386800127 0.023228465910428608 0 -0.013705891062482349 0.023763421601888213 0 -0.012812337927506816 0.023148345140995084 0 -0.011841342957432673 0.02276739280811671 0 -0.012812337927506816 0.023148345140995084 0 -0.012409057156541069 0.022560293325578573 0 -0.015426940787376799 0.020044577730718025 0 -0.015245924745240745 0.015816643817356417 0 -0.011841342957432673 0.02276739280811671 0 -0.012409057156541069 0.022560293325578573 0 -0.012284026849469261 0.02198076875108132 0 -0.012409057156541069 0.022560293325578573 0 -0.012651606556695389 0.022425764158418043 0 -0.012284026849469261 0.02198076875108132 0 -0.017882692660619069 0.0095492313849978427 0 -0.018054573694797765 0.0098631567574619002 0 -0.017824317274158681 0.0099803294864272904 0 -0.017882692660619069 0.0095492313849978427 0 -0.017824317274158681 0.0099803294864272904 0 -0.017466543148314865 0.0099646941837141009 0 -0.018054573694797765 0.0098631567574619002 0 -0.018063792035384905 0.010041517611914188 0 -0.017824317274158681 0.0099803294864272904 0 -0.013245733351414955 0.02303832801340782 0 -0.012942878461245677 0.022797900678819826 0 -0.013038605911271027 0.022263582416971146 0 -0.013019703503571805 0.02309275454752804 0 -0.013245733351414955 0.02303832801340782 0 -0.012942878461245677 0.022797900678819826 0 -0.013019703503571805 0.02309275454752804 0 -0.012812337927506816 0.023148345140995084 0 -0.012942878461245677 0.022797900678819826 0 -0.012812337927506816 0.023148345140995084 0 -0.012942878461245677 0.022797900678819826 0 -0.012651606556695389 0.022425764158418043 0 -0.012651606556695389 0.022425764158418043 0 -0.013038605911271027 0.022263582416971146 0 -0.012628381172174194 0.021722677497045432 0 -0.012942878461245677 0.022797900678819826 0 -0.012651606556695389 0.022425764158418043 0 -0.013038605911271027 0.022263582416971146 0 -0.012651606556695389 0.022425764158418043 0 -0.012628381172174194 0.021722677497045432 0 -0.012284026849469261 0.02198076875108132 0 -0.013592861033664192 0.022343833837543112 0 -0.013038605911271027 0.022263582416971146 0 -0.013317747974087838 0.021712743463114789 0 -0.013592861033664192 0.022343833837543112 0 -0.013245733351414955 0.02303832801340782 0 -0.013038605911271027 0.022263582416971146 0 -0.013038605911271027 0.022263582416971146 0 -0.013317747974087838 0.021712743463114789 0 -0.012628381172174194 0.021722677497045432 0 -0.013317747974087838 0.021712743463114789 0 -0.012628381172174194 0.021722677497045432 0 -0.01337616685026698 0.020608910334108332 0 -0.012665669831352144 0.021470625396847274 0 -0.01331220938759538 0.020644309564564138 0 -0.012628381172174194 0.021722677497045432 0 -0.012399734343907814 0.020835518402955517 0 -0.012284026849469261 0.02198076875108132 0 -0.014701355531172276 0.015566575748549428 0 -0.015245924745240745 0.015816643817356417 0 -0.016971234117449163 0.010378748387519097 0 -0.017466543148314865 0.0099646941837141009 0 -0.017378897094797608 0.010332094307535631 0 -0.016971234117449163 0.010378748387519097 0 -0.017247113741004301 0.010617588612730182 0 -0.016938582184494191 0.010794594714977951 0 -0.016971234117449163 0.010378748387519097 0 -0.017247113741004301 0.010617588612730182 0 -0.017378897094797608 0.010332094307535631 0 -0.012628381172174194 0.021722677497045432 0 -0.012399734343907814 0.020835518402955517 0 -0.013177501330105456 0.020607060658806579 0 -0.012399734343907814 0.020835518402955517 0 -0.013177501330105456 0.020607060658806579 0 -0.012848288454364861 0.018986318281947703 0 -0.017974513627824429 0.010203644101299774 0 -0.018063792035384905 0.010041517611914188 0 -0.017824317274158681 0.0099803294864272904 0 -0.017974513627824429 0.010203644101299774 0 -0.017654685312315614 0.010230360512658814 0 -0.017872669539349711 0.010419173843601574 0 -0.017974513627824429 0.010203644101299774 0 -0.017824317274158681 0.0099803294864272904 0 -0.017654685312315614 0.010230360512658814 0 -0.017654685312315614 0.010230360512658814 0 -0.017466543148314865 0.0099646941837141009 0 -0.017378897094797608 0.010332094307535631 0 -0.017824317274158681 0.0099803294864272904 0 -0.017654685312315614 0.010230360512658814 0 -0.017466543148314865 0.0099646941837141009 0 -0.017247113741004301 0.010617588612730182 0 -0.017548561396815709 0.010494765413993704 0 -0.017505817759261806 0.010762122923388925 0 -0.017247113741004301 0.010617588612730182 0 -0.017378897094797608 0.010332094307535631 0 -0.017548561396815709 0.010494765413993704 0 -0.017654685312315614 0.010230360512658814 0 -0.017548561396815709 0.010494765413993704 0 -0.017872669539349711 0.010419173843601574 0 -0.017654685312315614 0.010230360512658814 0 -0.017378897094797608 0.010332094307535631 0 -0.017548561396815709 0.010494765413993704 0 -0.017548561396815709 0.010494765413993704 0 -0.017872669539349711 0.010419173843601574 0 -0.017806478159192226 0.010717421854187831 0 -0.018121962880361542 0.010557992678434635 0 -0.017872669539349711 0.010419173843601574 0 -0.017806478159192226 0.010717421854187831 0 -0.018102261287363659 0.010343771477501306 0 -0.017974513627824429 0.010203644101299774 0 -0.017872669539349711 0.010419173843601574 0 -0.018121962880361542 0.010557992678434635 0 -0.018102261287363659 0.010343771477501306 0 -0.017872669539349711 0.010419173843601574 0 -0.01812076864680583 0.010939099344953336 0 -0.018121962880361542 0.010557992678434635 0 -0.017806478159192226 0.010717421854187831 0 -0.01812076864680583 0.010939099344953336 0 -0.017806478159192226 0.010717421854187831 0 -0.017637298468599495 0.011033571441755508 0 -0.017806478159192226 0.010717421854187831 0 -0.017505817759261806 0.010762122923388925 0 -0.017637298468599495 0.011033571441755508 0 -0.017548561396815709 0.010494765413993704 0 -0.017806478159192226 0.010717421854187831 0 -0.017505817759261806 0.010762122923388925 0 -0.017247113741004301 0.010617588612730182 0 -0.017505817759261806 0.010762122923388925 0 -0.017279136215171 0.010961227363861615 0 -0.017505817759261806 0.010762122923388925 0 -0.017637298468599495 0.011033571441755508 0 -0.017279136215171 0.010961227363861615 0 -0.017706985565891273 0.0115419352670638 0 -0.017369239166115779 0.011324532022182324 0 -0.017637298468599495 0.011033571441755508 0 -0.017369239166115779 0.011324532022182324 0 -0.017637298468599495 0.011033571441755508 0 -0.017279136215171 0.010961227363861615 0 -0.025770227120604196 0.0063542563627597016 0 -0.026312810207515434 0.0053350170549767125 0 -0.01812076864680583 0.010939099344953336 0 -0.017706985565891273 0.0115419352670638 0 -0.017637298468599495 0.011033571441755508 0 -0.032984762593671238 0.00029225822340568457 0 -0.033524611192465012 0.0016431976350617782 0 -0.035338566446287425 -0.001245952308348583 0 -0.014701355531172276 0.015566575748549428 0 -0.014647200979668666 0.014845967639425256 0 -0.016971234117449163 0.010378748387519097 0 -0.016359093796032367 0.010858604832933418 0 -0.016938582184494191 0.010794594714977951 0 -0.016359093796032367 0.010858604832933418 0 -0.016938582184494191 0.010794594714977951 0 -0.016828054523752703 0.011187923281185438 0 -0.017247113741004301 0.010617588612730182 0 -0.016938582184494191 0.010794594714977951 0 -0.017279136215171 0.010961227363861615 0 -0.016938582184494191 0.010794594714977951 0 -0.017279136215171 0.010961227363861615 0 -0.016828054523752703 0.011187923281185438 0 -0.016972498852036302 0.011641959689559906 0 -0.017369239166115779 0.011324532022182324 0 -0.016828054523752703 0.011187923281185438 0 -0.017369239166115779 0.011324532022182324 0 -0.017279136215171 0.010961227363861615 0 -0.016828054523752703 0.011187923281185438 0 -0.016359093796032367 0.010858604832933418 0 -0.016828054523752703 0.011187923281185438 0 -0.016294792583640208 0.011321874088092087 0 -0.016569209454038815 0.011499520124749855 0 -0.016972498852036302 0.011641959689559906 0 -0.016828054523752703 0.011187923281185438 0 -0.016569209454038815 0.011499520124749855 0 -0.016828054523752703 0.011187923281185438 0 -0.016294792583640208 0.011321874088092087 0 -0.016569209454038815 0.011499520124749855 0 -0.016060062474081871 0.011541877668055351 0 -0.016294792583640208 0.011321874088092087 0 -0.015312459077086485 0.013234497400888874 0 -0.014647200979668666 0.014845967639425256 0 -0.015715242156519489 0.011710526158413505 0 -0.016060062474081871 0.011541877668055351 0 -0.016294792583640208 0.011321874088092087 0 -0.015715242156519489 0.011710526158413505 0 -0.016359093796032367 0.010858604832933418 0 -0.016294792583640208 0.011321874088092087 0 -0.014063929893797697 0.01565462762631812 0 -0.012848288454364861 0.018986318281947703 0 -0.014734903990638534 0.017384574941037286 0 -0.012848288454364861 0.018986318281947703 0 -0.014771946813380126 0.019008363760427513 0 -0.014734903990638534 0.017384574941037286 0 -0.01331220938759538 0.020644309564564138 0 -0.01495904339233969 0.019035729695246906 0 -0.013177501330105456 0.020607060658806579 0 -0.012848288454364861 0.018986318281947703 0 -0.014771946813380126 0.019008363760427513 0 -0.014437800436754168 0.019299481068261463 0 -0.017453151765619512 0.017588169938953478 0 -0.016358788533582701 0.01933644521507431 0 -0.014437800436754168 0.019299481068261463 0 -0.016358788533582701 0.01933644521507431 0 -0.01550048964608022 0.020274831799742418 0 -0.014437800436754168 0.019299481068261463 0 -0.017453151765619512 0.017588169938953478 0 -0.018340806755602804 0.016484108924137986 0 -0.01495904339233969 0.019035729695246906 0 -0.01752442796706145 0.016899898326317928 0 -0.014771946813380126 0.019008363760427513 0 -0.014734903990638534 0.017384574941037286 0 -0.016106468870185423 0.016371178757174632 0 -0.014771946813380126 0.019008363760427513 0 -0.016106468870185423 0.016371178757174632 0 -0.018340806755602804 0.016484108924137986 0 -0.014734903990638534 0.017384574941037286 0 -0.015144850679085095 0.016023484410802646 0 -0.016106468870185423 0.016371178757174632 0 -0.014063929893797697 0.01565462762631812 0 -0.014734903990638534 0.017384574941037286 0 -0.015144850679085095 0.016023484410802646 0 -0.016013766473289559 0.01447090451072403 0 -0.015144850679085095 0.016023484410802646 0 -0.016106468870185423 0.016371178757174632 0 -0.017460014950226005 0.015033200153626997 0 -0.016643135374198412 0.014889448907256948 0 -0.016106468870185423 0.016371178757174632 0 -0.017453151765619512 0.017588169938953478 0 -0.018340806755602804 0.016484108924137986 0 -0.022408316001058793 0.015551435692745981 0 -0.017460014950226005 0.015033200153626997 0 -0.016106468870185423 0.016371178757174632 0 -0.018340806755602804 0.016484108924137986 0 -0.019023402897586108 0.014531550552040872 0 -0.018340806755602804 0.016484108924137986 0 -0.022408316001058793 0.015551435692745981 0 -0.017842412868553054 0.017972215009089326 0 -0.022587017972124875 0.01782502858985929 0 -0.017453151765619512 0.017588169938953478 0 -0.01750130212730416 0.019197207291754382 0 -0.017336800692976339 0.018982265205580297 0 -0.017453151765619512 0.017588169938953478 0 -0.025854718813752769 0.017556575777841567 0 -0.022408316001058793 0.015551435692745981 0 -0.025266383972130779 0.013909612833413146 0 -0.025854718813752769 0.017556575777841567 0 -0.022408316001058793 0.015551435692745981 0 -0.017336800692976339 0.018982265205580297 0 -0.017301445609907103 0.019682222464624144 0 -0.016627204973681864 0.020084516959842397 0 -0.017480426726960336 0.019427627146597827 0 -0.01750130212730416 0.019197207291754382 0 -0.017336800692976339 0.018982265205580297 0 -0.017480426726960336 0.019427627146597827 0 -0.017336800692976339 0.018982265205580297 0 -0.017301445609907103 0.019682222464624144 0 -0.017453151765619512 0.017588169938953478 0 -0.017336800692976339 0.018982265205580297 0 -0.016358788533582701 0.01933644521507431 0 -0.017336800692976339 0.018982265205580297 0 -0.016358788533582701 0.01933644521507431 0 -0.016627204973681864 0.020084516959842397 0 -0.016627204973681864 0.020084516959842397 0 -0.016974024004882602 0.020593770258882708 0 -0.015846315531474142 0.021019176621054497 0 -0.016358788533582701 0.01933644521507431 0 -0.016627204973681864 0.020084516959842397 0 -0.01550048964608022 0.020274831799742418 0 -0.016627204973681864 0.020084516959842397 0 -0.015846315531474142 0.021019176621054497 0 -0.01550048964608022 0.020274831799742418 0 -0.017472866876518674 0.020107958828924175 0 -0.017301445609907103 0.019682222464624144 0 -0.017114717895117853 0.02012037951715314 0 -0.017301445609907103 0.019682222464624144 0 -0.016627204973681864 0.020084516959842397 0 -0.017114717895117853 0.02012037951715314 0 -0.016627204973681864 0.020084516959842397 0 -0.017114717895117853 0.02012037951715314 0 -0.016974024004882602 0.020593770258882708 0 -0.017472866876518674 0.020107958828924175 0 -0.017114717895117853 0.02012037951715314 0 -0.016974024004882602 0.020593770258882708 0 -0.017330788981101602 0.02125672004892883 0 -0.015716620057884156 0.021970789580661388 0 -0.016974024004882602 0.020593770258882708 0 -0.015716620057884156 0.021970789580661388 0 -0.016974024004882602 0.020593770258882708 0 -0.015846315531474142 0.021019176621054497 0 -0.015716620057884156 0.021970789580661388 0 -0.014510115305718699 0.022075015237822387 0 -0.015846315531474142 0.021019176621054497 0 -0.014510115305718699 0.022075015237822387 0 -0.01488025570224439 0.02108701156500583 0 -0.014006191976207807 0.021435039280895733 0 -0.014510115305718699 0.022075015237822387 0 -0.015846315531474142 0.021019176621054497 0 -0.01488025570224439 0.02108701156500583 0 -0.01488025570224439 0.02108701156500583 0 -0.014006191976207807 0.021435039280895733 0 -0.014412456170993404 0.020600947972264177 0 -0.013317747974087838 0.021712743463114789 0 -0.01337616685026698 0.020608910334108332 0 -0.014006191976207807 0.021435039280895733 0 -0.013592861033664192 0.022343833837543112 0 -0.013317747974087838 0.021712743463114789 0 -0.014006191976207807 0.021435039280895733 0 -0.01337616685026698 0.020608910334108332 0 -0.014437800436754168 0.019299481068261463 0 -0.014412456170993404 0.020600947972264177 0 -0.01337616685026698 0.020608910334108332 0 -0.014006191976207807 0.021435039280895733 0 -0.014412456170993404 0.020600947972264177 0 -0.014437800436754168 0.019299481068261463 0 -0.01550048964608022 0.020274831799742418 0 -0.014412456170993404 0.020600947972264177 0 -0.01488025570224439 0.02108701156500583 0 -0.01550048964608022 0.020274831799742418 0 -0.014412456170993404 0.020600947972264177 0 -0.015846315531474142 0.021019176621054497 0 -0.01488025570224439 0.02108701156500583 0 -0.01550048964608022 0.020274831799742418 0 
</DataArray>
</PointData>
<CellData Scalars="region_id,cross_section_updated," Vectors="" Tensors="stress,">
<DataArray type="Float64" Name="region_id" format="ascii">
5 5 5 5 5 6 5 5 5 5 5 5 5 6 5 5 5 5 6 5 5 6 5 5 5 5 6 5 5 5 5 6 5 5 5 5 5 5 5 5 5 5 5 5 5 6 5 5 6 5 5 5 5 5 6 5 5 5 5 5 5 5 6 5 5 5 5 6 5 5 5 5 5 5 5 5 5 6 5 5 6 5 5 6 5 5 5 5 6 5 5 5 5 5 5 5 6 6 6 5 5 6 5 5 5 5 5 6 5 5 5 5 5 5 5 5 5 5 5 5 5 6 5 5 5 6 5 5 5 5 5 5 6 5 5 5 5 5 5 5 5 5 5 5 5 5 5 5 5 5 5 5 5 5 5 5 5 5 6 5 5 5 6 5 5 6 5 5 5 5 5 5 5 5 5 5 5 6 5 5 5 5 5 5 5 5 6 5 5 5 5 5 5 5 5 6 5 5 5 5 5 5 5 5 5 6 5 5 5 5 5 5 5 5 5 5 5 5 5 5 5 5 5 5 5 5 5 5 5 6 5 5 5 6 5 6 5 6 5 5 6 5 5 5 6 5 6 5 6 5 6 6 5 6 5 5 6 5 6 5 5 5 6 5 6 6 5 5 6 5 5 5 6 5 6 6 6 5 6 5 5 5 6 5 6 6 6 5 5 6 6 5 5 5 5 6 5 6 5 5 6 5 5 5 6 5 6 6 6 5 5 5 6 5 6 6 6 6 5 5 5 6 6 5 5 6 6 6 5 6 5 5 5 5 6 5 5 5 5 5 5 5 6 5 5 5 5 5 5 6 6 5 5 5 6 5 5 5 6 5 6 5 6 6 5 5 5 5 6 5 5 6 5 5 5 5 6 5 6 5 5 5 5 5 6 6 5 5 5 5 5 5 5 5 6 5 5 5 6 5 5 6 5 6 5 5 5 5 5 5 5 5 5 5 5 6 5 6 5 6 5 5 5 6 5 6 5 6 5 5 5 5 5 5 6 5 6 5 5 5 6 5 5 5 6 5 6 6 5 5 5 5 6 5 5 5 5 6 6 5 5 6 5 6 5 6 6 5 5 5 6 5 5 5 5 6 5 5 5 5 5 5 5 5 5 5 5 6 5 5 5 5 6 5 5 5 6 5 6 6 6 5 5 5 6 6 5 6 5 5 6 5 5 5 5 6 5 5 5 5 5 5 5 5 5 5 5 6 6 5 5 6 5 5 5 6 5 5 5 5 5 5 6 5 5 5 6 5 5 5 6 5 5 5 5 5 5 5 5 5 5 5 6 5 5 5 6 5 5 5 5 5 5 5 6 5 5 5 5 5 6 5 5 5 5 5 5 5 5 5 5 5 5 5 5 5 5 5 5 5 6 5 5 5 5 6 5 5 6 5 5 5 5 5 5 5 6 5 5 5 5 5 5 5 5 6 5 6 5 5 6 5 5 5 6 5 5 6 5 5 5 6 5 6 5 5 6 5 6 5 5 5 5 5 5 5 5 5 5 5 5 5 5 5 5 5 5 5 5 5 5 6 5 6 5 6 5 5 5 5 5 5 5 5 5 5 5 5 5 5 5 6 5 5 5 5 5 5 5 5 5 6 5 5 5 5 5 5 5 5 5 5 5 5 5 5 5 5 5 5 5 5 5 5 5 5 5 5 5 5 5 6 5 5 6 5 5 5 6 6 5 6 5 5 5 5 5 6 5 5 5 5 5 6 5 5 5 5 5 5 5 5 5 5 5 5 5 5 5 5 5 5 5 5 5 5 5 5 5 5 5 5 5 5 5 5 5 5 5 5 5 5 5 5 5 5 5 5 5 5 5 5 5 6 5 5 5 5 5 5 5 5 5 5 5 5 5 5 5 6 5 5 5 5 6 5 5 5 5 5 5 5 5 5 5 5 5 5 5 5 5 5 5 5 5 5 5 5 5 5 5 5 6 5 5 6 5 6 6 6 6 5 5 6 5 5 5 5 5 5 5 5 5 5 5 5 5 5 5 5 5 6 5 5 6 5 6 5 5 5 5 6 5 6 5 5 5 5 6 5 5 5 6 5 5 5 5 5 6 5 6 5 5 6 6 5 6 5 5 5 5 5 5 5 5 5 5 5 6 5 5 5 6 5 5 5 6 5 5 6 6 6 5 5 5 5 5 5 5 5 5 5 5 6 5 5 5 5 5 5 5 5 6 6 6 5 5 5 5 5 5 5 5 6 6 5 5 5 6 5 5 6 5 5 5 5 5 5 5 5 5 5 5 6 5 5 5 5 5 5 5 5 6 5 5 5 5 5 5 5 5 5 5 6 5 6 6 6 5 5 5 5 5 5 5 6 6 5 6 5 5 5 5 5 6 5 6 6 5 5 5 6 5 6 5 5 5 5 6 5 5 5 5 5 5 5 5 5 5 5 5 5 5 5 5 5 6 5 5 5 6 5 5 5 5 5 6 5 5 5 5 5 5 6 5 6 5 5 5 5 5 5 5 5 6 5 5 5 6 5 5 5 5 5 5 5 5 5 5 5 5 5 5 5 5 5 5 5 5 5 5 5 5 5 6 6 6 5 5 5 5 6 5 5 5 5 6 5 5 5 5 5 5 5 6 5 5 5 5 5 5 5 5 6 5 5 5 5 5 5 5 5 5 5 5 5 6 5 5 5 5 5 5 6 5 5 5 5 5 5 5 5 6 5 5 5 6 5 5 5 5 5 5 5 5 5 5 5 5 6 5 5 5 5 5 5 5 5 5 5 5 5 5 5 5 5 5 5 5 5 5 5 5 5 5 5 5 5 5 5 5 5 5 5 5 5 5 5 5 5 5 5 5 5 5 5 5 6 5 5 5 5 5 5 5 5 5 5 5 5 5 5 5 5 5 5 5 5 5 5 5 5 6 5 5 5 5 5 5 5 5 5 5 6 5 5 6 5 5 5 5 5 5 5 5 5 6 5 6 5 5 5 5 6 5 5 6 5 6 5 5 5 5 5 6 5 5 5 5 5 5 5 5 6 5 5 5 5 5 5 5 5 5 5 5 5 5 5 6 5 6 6 5 5 5 5 5 6 5 5 5 5 5 5 5 5 5 5 5 5 5 5 5 6 5 5 5 5 5 5 5 5 5 5 5 5 5 5 5 5 6 5 5 5 5 5 6 6 5 5 6 5 5 5 5 5 5 5 5 5 5 6 5 5 5 5 5 5 5 5 5 6 5 6 5 5 5 5 5 6 5 5 5 5 6 5 5 5 6 5 5 5 6 5 5 6 5 5 5 5 5 5 5 5 5 5 5 5 5 5 5 5 6 5 5 5 5 5 5 5 6 5 5 5 5 5 5 5 5 5 5 5 5 5 5 5 5 5 5 5 5 5 5 5 5 5 5 5 6 5 5 5 5 6 5 5 5 6 5 5 5 5 5 5 5 5 5 6 5 6 5 5 5 5 5 5 5 5 5 5 5 5 5 5 5 5 5 5 6 6 5 5 5 6 5 5 6 5 5 6 5 5 5 6 5 5 6 5 5 5 5 5 5 5 5 5 5 5 5 5 5 5 5 5 5 5 5 6 5 6 5 5 5 5 5 5 5 5 5 5 5 6 5 6 5 5 5 6 5 5 5 5 5 6 5 5 5 5 5 5 6 5 5 5 5 5 5 5 5 5 5 5 6 5 5 5 5 5 5 5 5 6 5 5 5 6 5 5 6 5 5 5 5 5 6 5 5 5 5 5 5 5 5 5 6 5 5 6 5 6 5 6 6 6 5 6 5 5 5 5 5 5 6 5 5 5 5 5 5 6 5 5 5 5 5 5 5 6 5 5 5 5 6 5 5 5 5 5 6 5 6 5 5 5 5 5 5 5 5 5 5 6 5 5 5 5 5 5 5 6 5 5 5 5 5 5 5 6 5 6 5 5 5 5 5 5 5 5 6 5 5 5 6 6 5 5 5 5 5 6 6 5 6 5 5 6 5 5 6 5 5 5 5 5 5 5 5 6 5 5 5 5 5 6 5 5 5 5 6 5 5 6 5 5 5 5 5 5 5 5 5 5 5 5 5 5 5 5 5 5 5 5 5 5 5 5 5 5 5 5 5 5 5 5 5 5 5 5 5 5 5 5 5 6 5 5 6 5 5 5 5 5 6 5 5 5 5 6 5 5 5 5 5 5 5 5 5 5 5 5 5 5 5 5 5 5 5 5 5 5 5 5 6 5 5 5 6 5 5 5 5 5 5 6 5 5 5 5 5 5 5 5 5 5 5 6 5 6 6 5 5 6 5 5 5 5 5 5 5 5 5 5 5 6 5 5 6 5 5 5 5 5 5 5 5 5 5 5 5 5 5 5 6 5 5 5 5 5 5 5 6 5 6 5 5 5 5 6 5 6 5 5 5 5 5 5 5 5 5 6 5 5 5 5 5 5 5 5 5 5 5 5 5 5 5 5 5 6 5 5 5 5 5 5 5 5 5 5 5 5 5 5 5 5 5 5 5 5 5 5 5 5 5 6 6 5 5 5 5 5 5 5 5 5 5 5 6 5 5 5 5 6 5 5 5 5 6 5 5 5 5 5 5 5 5 6 5 5 5 5 5 5 5 5 5 6 5 5 5 5 5 5 5 5 5 5 5 5 5 5 5 5 5 5 5 5 6 5 5 5 5 5 5 5 5 5 5 5 5 5 5 6 5 6 5 5 5 5 5 5 5 5 6 5 5 6 5 5 5 5 5 5 5 5 5 5 5 5 5 5 5 5 5 5 5 5 5 5 5 5 5 5 5 5 5 5 5 5 5 5 5 5 6 5 5 6 5 5 5 5 6 5 6 5 5 6 5 6 5 5 5 5 5 6 5 5 5 5 5 5 5 5 5 5 5 5 6 5 5 5 6 5 5 5 5 5 5 5 5 5 6 5 5 5 5 6 6 5 5 5 5 5 5 5 5 6 5 5 5 5 5 6 5 5 5 6 5 5 5 6 5 5 5 5 6 5 5 5 5 5 5 5 5 5 5 5 5 5 5 6 5 5 5 5 5 5 6 5 6 6 5 6 5 6 5 5 5 5 6 5 5 5 5 6 5 5 5 5 5 5 5 5 5 6 5 5 5 5 5 5 5 5 5 5 5 5 5 5 6 5 5 5 6 5 5 5 6 5 6 5 5 5 5 5 5 5 5 5 5 5 5 5 5 5 5 6 5 5 5 5 5 5 6 5 5 5 5 5 5 5 5 5 5 5 5 5 5 5 5 5 5 6 5 5 5 5 5 5 5 5 5 5 5 5 5 5 5 5 5 5 5 5 5 5 5 5 5 5 5 5 5 5 5 5 5 5 6 5 5 5 5 6 5 5 5 5 5 5 5 6 5 5 5 5 5 5 5 5 5 6 5 5 6 5 5 5 5 5 6 5 5 5 6 5 5 6 5 5 5 5 5 5 5 5 5 5 5 5 5 5 5 5 5 5 5 5 6 5 5 5 5 5 5 5 5 5 5 6 6 5 6 5 5 5 5 5 6 5 5 5 5 6 5 5 5 5 5 6 5 6 5 5 6 5 5 5 5 5 5 5 5 6 5 5 5 5 5 5 6 5 5 5 5 5 5 6 5 5 5 5 6 5 5 6 5 6 5 5 6 5 5 5 5 5 5 6 5 5 5 5 6 5 5 5 5 5 5 5 5 6 6 5 5 5 5 5 5 5 5 6 5 5 5 5 5 5 6 5 5 5 5 5 5 5 6 5 5 5 6 5 5 5 5 5 5 5 5 5 5 5 5 6 5 5 5 5 6 5 5 6 5 5 5 5 6 5 5 5 6 6 5 5 5 6 5 5 5 6 5 5 5 5 5 5 5 5 5 6 5 5 5 6 5 5 5 5 5 5 5 5 5 5 5 5 6 5 6 5 5 6 5 5 6 5 5 5 5 5 5 5 6 5 5 5 5 5 6 5 6 5 5 5 6 6 5 6 6 5 6 5 5 5 5 5 5 6 5 6 5 5 5 5 5 5 5 5 5 5 5 5 5 6 5 5 6 5 6 5 5 6 5 5 5 6 6 5 5 6 5 5 5 5 5 5 5 5 5 5 5 5 5 5 5 5 5 5 5 5 5 5 5 6 6 5 6 5 6 5 5 6 6 5 5 6 5 5 6 5 5 6 5 6 5 5 5 5 6 5 5 5 5 6 5 6 6 5 6 5 5 6 6 5 5 5 6 5 5 5 5 6 6 5 5 5 5 5 6 5 5 5 5 5 5 5 5 5 5 5 6 5 6 5 6 5 5 6 5 6 5 5 5 5 5 5 5 5 6 5 5 6 5 5 5 5 6 5 5 5 5 5 5 5 5 5 5 5 5 6 5 5 5 5 5 5 5 5 5 5 5 6 5 5 5 5 5 5 6 5 6 5 5 6 5 5 5 5 5 5 5 5 5 5 5 5 5 5 5 5 5 6 6 5 5 5 6 5 5 6 5 5 5 5 5 5 5 5 5 5 5 5 5 5 5 5 5 5 5 5 5 5 5 5 5 6 6 5 5 5 5 5 5 5 5 5 5 5 6 5 5 5 5 5 5 5 5 5 5 5 5 5 5 5 5 5 5 5 5 5 5 5 5 5 5 5 5 5 5 5 5 5 6 5 5 5 5 5 6 5 5 6 5 5 6 6 5 5 5 5 5 5 5 5 5 5 5 5 5 6 5 5 6 5 5 5 5 5 5 6 5 5 6 5 5 5 5 5 5 5 5 5 5 5 5 5 6 5 5 5 5 5 5 5 6 5 5 5 5 5 5 5 5 5 5 5 5 6 5 5 6 5 5 5 5 5 5 5 5 5 5 5 5 5 5 5 5 5 5 5 5 6 5 5 6 5 6 5 5 5 6 5 5 6 5 6 5 5 5 6 5 5 5 5 6 5 5 5 5 5 5 5 6 5 5 5 6 5 5 5 5 5 5 5 5 5 5 5 5 6 5 5 5 5 5 5 5 5 6 5 5 5 5 5 5 5 5 5 5 5 6 5 5 5 5 5 5 5 5 5 5 5 5 5 5 5 5 5 5 5 6 6 5 5 5 6 5 5 5 5 5 5 5 5 5 5 5 5 6 5 5 5 5 5 5 5 5 5 6 5 5 5 5 5 5 5 5 5 5 5 5 5 5 5 5 6 5 6 5 5 5 5 5 6 5 5 5 5 6 5 5 5 6 5 5 5 6 5 5 5 5 5 5 5 5 5 6 5 5 5 6 5 5 6 5 5 5 5 5 5 6 5 5 5 5 5 5 5 5 6 5 5 5 6 5 5 5 5 5 5 5 5 5 5 5 5 5 5 5 5 5 5 5 5 5 5 5 5 5 5 5 6 5 5 5 5 5 5 5 6 5 5 5 5 5 5 5 5 5 5 5 5 5 5 5 5 5 5 5 5 5 5 5 5 5 6 5 6 5 5 5 5 5 5 6 5 5 5 6 5 5 6 5 5 5 5 5 5 5 5 5 5 5 5 6 5 5 5 5 5 6 5 5 5 5 5 5 5 5 5 5 5 5 5 6 5 5 5 6 5 5 5 5 5 5 5 5 5 5 5 5 6 6 5 5 5 5 6 5 5 5 5 5 5 5 5 5 6 6 5 5 5 5 5 6 5 5 5 5 5 6 5 5 5 5 5 6 5 6 5 5 5 5 6 5 6 5 6 6 5 5 5 5 5 5 5 6 6 5 5 5 5 5 5 6 6 6 5 6 6 5 5 5 6 5 5 5 5 5 6 6 6 5 6 5 5 5 6 5 6 6 5 5 5 5 5 5 5 6 6 5 5 6 6 6 5 5 5 5 5 5 5 5 5 5 5 5 5 5 5 5 5 5 5 5 5 5 5 5 5 5 5 5 5 5 5 5 5 5 5 5 5 5 5 5 6 5 5 5 5 5 5 5 5 5 5 6 5 5 5 5 5 5 6 5 5 6 5 5 5 5 5 5 5 5 5 5 5 5 5 6 5 6 5 5 5 5 6 5 5 5 6 5 5 6 5 5 5 6 5 5 6 5 5 5 5 5 6 5 5 5 5 5 5 5 6 5 5 5 5 5 5 5 6 5 5 6 5 5 5 5 6 5 6 5 5 5 5 5 6 5 5 5 5 6 5 5 5 5 5 5 6 6 5 5 5 5 5 6 5 5 6 5 5 5 5 5 5 5 5 5 5 6 5 5 5 5 5 5 5 5 5 5 5 5 5 5 5 5 5 5 6 5 5 5 5 5 5 6 5 5 5 5 5 5 5 6 6 5 5 5 5 6 5 5 5 5 5 5 5 6 5 5 6 5 6 6 6 5 5 5 5 5 5 6 5 5 5 5 5 6 5 5 5 5 6 5 5 5 6 5 5 5 6 5 5 5 5 5 5 5 5 5 5 5 5 5 5 5 5 5 5 5 5 5 5 5 5 5 6 5 5 5 5 5 5 5 6 5 6 5 5 5 5 5 5 6 5 5 6 5 5 5 6 5 5 6 5 5 5 5 5 6 5 5 5 6 6 5 5 5 5 5 5 5 5 5 5 5 5 6 5 5 5 5 5 5 5 5 5 6 5 5 5 5 5 6 6 5 5 5 5 5 5 5 5 5 6 5 5 5 5 5 5 5 5 6 5 5 5 5 5 5 5 5 5 5 5 5 5 5 5 5 5 5 6 5 5 5 5 6 5 6 5 6 5 5 5 5 5 5 5 5 5 5 5 5 5 5 5 5 5 6 5 5 5 5 5 6 5 5 5 6 6 5 5 5 5 5 6 5 5 5 5 6 5 5 5 5 5 5 5 5 6 5 5 5 5 5 5 5 6 5 5 5 5 5 5 5 5 5 6 5 5 5 5 5 5 5 5 5 5 5 5 5 5 5 5 5 5 6 5 5 5 5 5 5 5 5 5 5 5 5 5 6 5 5 5 5 5 5 6 5 5 6 5 5 6 5 5 5 5 5 5 5 5 5 5 5 5 5 5 5 5 5 5 5 5 5 5 5 5 5 5 6 5 6 5 6 6 5 5 5 6 5 5 5 5 5 5 5 5 5 6 6 5 6 5 5 5 5 5 5 5 5 5 5 5 5 5 5 6 5 6 6 5 6 5 5 5 5 5 5 5 5 5 6 6 5 5 5 5 5 5 5 5 5 5 5 5 5 5 5 5 5 5 5 5 5 5 6 5 5 5 5 5 6 5 5 5 5 5 6 5 5 5 6 5 5 5 5 5 5 5 5 5 6 5 5 5 5 6 5 5 5 5 5 5 6 5 5 5 5 5 5 5 6 5 5 5 5 6 5 5 5 5 5 5 5 5 5 5 6 5 5 5 5 6 5 5 5 6 5 5 5 5 5 6 5 5 5 5 5 5 5 5 5 5 5 5 5 5 6 6 5 5 6 5 5 5 5 5 5 5 6 5 5 5 5 5 5 6 5 5 5 5 5 5 5 5 5 5 5 5 5 5 5 5 5 5 5 5 5 5 5 6 5 5 5 5 5 5 5 5 6 5 5 5 5 6 5 5 5 5 5 6 5 6 5 6 5 5 5 5 5 5 5 6 5 5 5 6 5 5 5 5 5 6 5 5 5 5 5 6 5 6 5 5 6 5 6 5 5 5 5 5 6 5 5 5 6 5 5 5 5 5 5 5 5 5 5 6 5 5 5 5 5 5 5 5 5 5 5 5 5 5 5 5 5 5 5 5 5 5 6 5 5 5 5 5 5 5 5 5 5 5 5 5 5 5 5 5 5 6 5 5 5 6 5 5 5 5 5 5 6 5 5 5 6 6 5 6 5 6 6 5 6 5 5 6 5 5 6 6 5 5 5 5 5 5 5 5 6 5 6 5 5 5 5 5 5 5 5 5 5 5 5 5 5 5 5 5 5 5 5 5 5 6 5 5 5 5 5 5 5 5 6 5 5 6 5 5 6 6 5 5 6 5 5 5 5 5 5 5 5 5 5 5 5 5 5 5 5 5 5 5 5 5 5 5 5 5 5 5 5 5 5 5 5 5 5 5 5 5 5 5 6 5 6 5 5 5 5 5 5 5 5 5 5 5 5 5 5 5 5 5 5 5 5 5 5 5 5 5 5 5 5 5 5 5 5 5 5 5 5 5 5 5 5 6 5 5 6 5 5 5 5 5 6 5 6 5 5 6 5 5 5 5 5 5 6 5 5 5 5 5 5 5 5 5 5 5 6 5 5 6 6 5 6 5 5 6 5 5 5 5 6 5 5 5 5 5 5 5 5 5 6 5 6 5 5 5 5 5 5 5 6 5 6 5 5 5 5 5 5 5 5 5 6 5 6 5 5 5 5 5 5 5 5 5 5 6 5 5 5 6 5 5 6 5 5 6 5 5 5 5 6 5 5 5 6 5 5 5 5 5 5 5 5 5 5 5 5 5 5 6 5 5 5 5 5 5 6 5 6 5 6 5 5 5 6 5 5 5 5 5 5 5 5 6 5 5 5 5 5 6 5 5 6 5 5 5 5 5 5 5 5 5 6 5 5 5 6 5 5 5 5 5 5 6 5 5 5 5 5 5 5 5 5 5 5 5 5 5 5 5 5 5 5 5 5 5 5 5 5 5 5 5 5 5 5 6 5 5 5 5 5 6 5 5 6 6 5 5 5 5 6 5 5 5 5 5 6 5 5 5 5 5 5 5 5 5 5 5 5 5 5 5 5 6 5 5 5 5 5 5 5 5 6 6 5 5 5 5 5 5 6 5 5 5 5 6 5 5 5 5 5 5 5 5 5 5 5 5 5 5 5 5 5 5 5 5 5 5 5 5 6 5 5 6 5 5 5 5 5 5 5 5 5 5 5 5 5 5 5 5 5 5 5 5 5 5 5 5 5 5 5 6 5 6 5 5 5 5 5 6 5 5 5 5 5 5 5 5 5 5 5 5 5 5 5 5 5 5 5 5 6 6 5 6 5 5 5 5 5 5 5 5 5 5 5 5 5 5 5 5 6 5 5 5 6 5 5 5 5 5 5 5 5 5 5 5 5 5 6 5 5 5 5 5 5 5 5 5 5 5 5 5 5 5 5 5 5 5 5 5 5 6 5 5 5 5 5 5 5 5 5 5 5 5 5 6 5 6 5 5 6 6 5 5 5 5 5 5 5 5 5 5 5 5 5 5 5 5 5 5 5 5 6 5 5 6 5 5 5 6 5 5 5 5 5 5 6 5 5 5 6 5 5 5 5 5 5 5 5 6 5 5 6 5 5 6 5 6 5 5 5 5 6 6 5 5 6 6 5 5 6 5 5 5 5 6 5 5 6 6 5 6 5 5 5 5 5 5 5 5 5 5 5 5 5 5 5 5 5 5 5 5 6 5 5 5 5 6 5 5 5 5 6 6 5 5 5 5 5 5 5 5 5 5 5 5 6 5 5 5 6 5 5 5 5 5 5 5 6 5 5 5 6 5 5 6 6 5 5 5 6 5 5 5 6 5 5 5 5 5 5 5 5 5 5 5 5 5 5 5 5 5 5 6 5 5 5 5 5 5 5 5 5 5 5 5 5 5 5 5 5 5 6 6 5 5 5 5 5 6 6 5 6 5 5 5 5 5 5 5 5 5 6 5 5 5 6 5 5 5 5 5 5 5 5 5 5 5 5 5 5 6 5 5 5 5 5 5 5 6 5 5 6 5 5 5 5 5 5 6 5 5 5 5 6 5 5 5 5 5 5 6 5 5 5 5 5 5 5 5 6 6 5 5 5 6 6 5 5 5 5 5 6 5 5 5 5 5 5 6 5 5 5 5 6 5 5 5 5 5 6 5 5 5 5 6 5 5 5 5 5 5 5 5 5 5 5 5 5 5 5 5 5 5 5 5 5 5 5 5 5 6 5 5 5 5 6 5 6 5 6 5 5 6 5 5 6 5 5 6 5 5 5 5 5 5 6 5 5 6 5 6 6 6 5 5 6 5 6 6 5 5 5 6 5 6 5 5 5 5 5 5 6 5 5 5 6 5 5 5 5 5 5 5 6 5 5 5 6 5 6 6 5 5 5 5 5 5 5 6 5 5 5 5 5 5 5 5 6 6 5 5 5 5 6 5 5 6 5 5 5 6 5 5 5 6 6 5 5 5 5 6 5 5 5 5 5 6 6 5 5 5 5 5 5 5 5 5 5 5 5 5 5 5 5 5 5 5 5 5 5 5 5 5 5 5 5 5 5 5 6 5 5 5 6 5 5 5 5 5 5 5 5 5 5 5 5 5 5 5 6 5 6 6 5 5 6 5 5 5 5 5 5 5 5 5 5 5 5 5 5 5 5 5 5 5 5 5 5 5 6 5 5 6 6 5 5 5 5 5 5 5 6 5 5 5 6 5 5 5 5 6 6 5 5 5 5 5 5 5 6 5 5 5 5 6 5 5 5 5 6 5 5 5 5 5 5 5 5 5 5 5 5 5 5 5 5 5 5 5 6 5 5 5 5 5 5 5 5 5 5 5 5 5 5 5 5 6 5 5 5 6 5 5 5 5 5 5 5 5 5 6 5 5 5 5 5 5 5 5 5 5 5 5 5 5 5 5 5 5 5 5 5 6 5 5 5 5 5 5 5 5 5 5 5 5 5 5 5 5 5 6 5 5 5 5 5 6 5 5 5 5 5 5 5 5 5 5 5 5 5 5 5 5 5 5 5 5 5 5 5 5 5 5 5 6 5 5 6 5 5 5 6 5 5 5 5 5 5 5 5 5 5 5 5 5 5 5 6 5 6 5 5 5 5 5 5 5 5 5 6 5 5 5 5 5 5 5 5 5 6 6 5 5 5 5 5 5 5 5 5 5 5 5 5 5 5 5 5 5 5 5 5 5 5 5 5 5 5 5 5 5 5 5 5 5 5 5 5 5 5 5 5 5 5 5 5 5 5 5 5 5 5 5 5 5 5 5 5 5 5 5 5 5 5 5 5 5 5 5 5 5 5 6 5 5 5 5 5 5 6 5 5 5 5 5 5 5 5 5 6 5 6 5 5 5 5 5 5 5 5 5 5 5 5 5 5 5 5 5 5 5 5 5 5 5 5 5 5 5 5 5 5 5 5 5 5 6 5 5 5 6 6 5 5 5 5 5 5 5 5 5 5 5 5 5 5 5 5 5 5 5 5 5 5 6 6 5 5 5 5 5 5 5 5 6 5 5 5 5 5 5 6 5 5 5 5 5 6 5 5 5 5 6 5 5 5 6 5 5 5 6 5 5 6 5 5 5 5 5 5 5 5 5 5 5 5 5 6 5 5 5 5 5 5 5 5 6 5 5 5 5 5 5 5 5 5 5 5 6 5 5 5 6 5 5 5 5 6 5 5 5 5 5 5 5 5 6 5 6 5 5 6 5 5 5 5 5 6 5 5 5 5 5 5 5 5 5 5 5 5 6 5 5 5 5 5 5 5 5 5 6 5 5 5 5 5 5 6 5 5 5 5 5 5 5 6 5 5 5 5 5 6 5 5 5 5 5 5 5 5 5 5 5 5 5 5 5 5 5 5 5 5 5 5 5 5 5 5 5 5 5 5 5 5 5 5 5 5 5 5 5 5 5 5 5 5 5 5 5 6 5 6 5 5 5 5 5 5 5 5 5 5 5 5 5 5 6 5 5 5 5 5 5 5 5 5 5 5 5 5 5 5 6 5 5 6 5 6 5 5 5 5 5 6 5 5 5 5 5 5 5 5 5 5 5 5 5 5 5 5 5 5 5 5 6 5 5 5 5 5 5 5 5 5 5 5 6 5 6 5 5 6 5 6 5 5 5 5 5 5 5 6 5 6 5 5 5 5 6 5 5 5 5 6 6 5 5 6 5 5 5 5 5 5 5 5 5 5 5 5 5 5 5 5 6 5 5 5 5 5 5 5 5 5 5 5 5 5 5 6 5 6 5 5 5 5 5 5 5 6 5 6 5 5 5 5 5 5 5 5 5 6 6 5 5 5 6 5 5 5 5 6 5 6 5 5 6 5 6 6 6 5 5 6 5 5 5 6 6 6 5 5 5 5 5 5 5 5 5 5 5 6 5 5 5 5 5 5 6 5 5 5 6 5 5 5 5 5 5 5 5 6 5 5 5 6 5 5 5 5 5 5 5 5 5 5 5 5 5 5 5 5 5 5 5 5 5 5 5 5 5 5 5 5 5 5 5 5 5 5 5 5 5 5 5 5 5 5 5 5 5 5 5 5 5 5 5 5 5 5 5 5 5 5 5 5 6 5 5 5 5 5 6 5 5 5 5 6 5 5 5 6 5 5 5 5 5 5 5 5 5 5 5 5 5 5 5 5 5 5 5 5 5 5 5 5 5 5 5 5 5 5 5 5 5 5 5 5 5 5 5 5 6 5 5 6 5 5 5 5 5 5 5 6 5 5 5 5 5 5 5 5 5 5 5 6 5 5 6 5 6 5 5 5 6 5 5 5 5 5 5 5 5 6 5 5 5 5 6 5 5 5 5 6 5 6 5 5 5 5 5 5 5 5 5 5 5 5 6 5 6 5 5 5 5 5 5 5 5 5 5 5 5 5 6 5 5 5 5 5 5 5 5 5 6 5 5 5 6 5 5 5 5 5 5 5 5 5 5 5 5 5 5 5 5 5 5 5 5 5 5 5 5 5 5 5 5 5 5 5 5 5 5 5 6 5 5 6 5 5 5 5 6 5 5 5 5 5 5 5 5 5 5 5 5 5 5 5 6 5 5 5 5 5 5 5 5 5 6 5 6 5 5 5 5 5 5 5 6 5 5 5 5 5 5 5 5 5 5 5 5 5 5 6 5 5 5 5 5 5 5 5 5 5 5 6 5 5 5 5 5 5 5 5 5 5 5 5 5 5 5 5 5 5 5 5 5 5 5 6 5 6 5 5 5 5 5 5 6 5 6 5 5 5 6 5 5 5 6 5 5 5 6 5 5 6 5 5 5 5 5 5 5 6 5 5 5 5 5 5 5 6 5 5 5 5 5 5 5 5 5 5 5 5 5 6 5 5 5 5 5 5 5 5 6 5 5 5 5 5 5 5 5 5 5 5 5 5 5 5 5 5 5 5 5 6 5 5 5 5 5 5 5 5 5 5 5 5 5 5 5 5 5 5 5 5 5 5 5 5 5 5 5 5 5 5 5 5 5 5 5 5 5 5 5 5 5 5 5 5 5 5 5 5 5 5 6 5 6 5 5 5 6 5 5 6 6 5 6 5 5 5 5 5 5 5 5 5 5 5 5 5 5 5 5 5 5 5 5 5 5 5 5 5 5 5 5 5 5 5 5 5 5 5 6 5 5 5 5 6 5 5 6 5 5 5 6 5 5 5 5 6 5 6 6 5 5 5 5 6 5 5 5 6 5 5 5 6 5 5 5 5 5 5 6 5 5 5 5 5 5 5 5 5 5 5 5 5 5 5 5 5 5 5 5 6 5 5 5 5 5 5 5 5 5 5 5 5 5 5 5 5 5 5 6 5 5 6 5 5 6 5 5 5 5 5 5 5 5 5 5 5 6 5 5 5 5 6 5 5 5 5 6 5 5 5 6 5 5 5 5 5 5 5 5 5 5 5 5 5 5 5 5 5 5 5 5 5 5 5 5 5 6 5 5 5 5 5 5 5 5 6 5 5 5 6 5 5 5 5 5 5 5 5 5 5 5 5 5 5 5 5 5 5 5 5 5 5 5 5 6 5 5 5 6 5 5 5 5 5 5 5 5 6 5 5 6 5 5 5 5 6 5 5 5 5 5 5 5 6 5 6 5 5 6 5 5 6 6 5 5 5 5 5 5 5 5 5 5 5 5 5 5 5 5 5 5 5 5 5 6 5 5 5 5 6 5 5 5 5 5 5 5 5 5 5 5 5 5 6 5 5 6 5 5 5 5 5 5 5 5 5 5 5 5 5 5 5 5 5 5 5 5 5 5 5 5 5 5 5 5 5 5 5 5 5 5 5 5 5 5 5 5 5 5 5 5 5 5 5 5 5 5 5 5 5 5 5 5 5 5 5 5 5 5 5 5 5 5 5 5 5 5 5 5 5 5 5 5 5 5 5 5 5 5 5 5 5 5 5 5 5 5 5 5 5 5 5 5 5 5 5 5 5 5 5 5 5 5 5 5 5 5 5 5 5 5 5 5 5 5 5 5 5 5 5 5 5 5 5 5 6 5 5 5 5 5 5 5 6 5 5 5 5 5 5 5 5 5 6 5 6 5 5 5 6 5 5 6 5 5 5 5 5 5 5 5 5 5 5 5 5 5 5 5 5 5 5 5 5 5 5 5 5 5 5 5 5 5 5 5 5 5 5 5 5 6 5 5 6 6 5 5 6 5 5 6 5 5 5 6 5 5 5 5 5 5 5 5 5 6 5 5 5 5 5 5 6 5 5 5 5 5 5 5 5 5 5 5 5 5 5 5 5 5 5 5 5 5 5 5 5 5 5 5 5 5 5 5 6 5 5 5 5 5 5 5 5 5 5 5 5 5 5 5 5 5 5 5 5 5 5 5 5 5 5 5 5 5 5 5 5 5 5 5 5 5 5 5 5 5 5 5 5 5 5 6 5 6 5 5 5 5 6 5 5 5 5 6 5 5 5 5 6 5 5 5 5 5 5 5 5 6 5 5 6 5 6 5 5 5 5 6 5 5 6 6 5 5 5 5 5 5 6 5 5 5 5 5 5 5 5 5 5 6 6 5 5 5 5 5 6 5 5 6 5 5 5 5 6 5 5 6 5 5 5 5 5 5 5 5 5 5 5 5 5 5 5 5 5 5 5 5 5 5 5 5 5 5 5 5 5 6 5 6 5 5 5 5 5 5 5 5 5 5 5 5 5 6 5 5 5 5 6 6 5 5 5 5 5 5 5 5 5 5 5 5 5 5 5 5 5 5 5 5 5 5 5 5 5 5 5 5 5 5 5 5 5 5 5 5 5 5 5 5 5 5 6 5 5 5 6 5 5 5 5 5 5 5 5 5 5 5 5 5 5 5 5 5 5 5 5 6 5 5 6 5 5 5 5 5 5 5 5 5 6 5 5 5 5 5 6 5 5 5 5 5 6 5 6 5 5 5 5 5 5 5 5 5 5 5 5 5 6 5 5 5 6 6 5 5 5 5 5 5 5 5 6 5 5 6 5 5 6 6 5 5 5 5 5 6 5 5 5 5 5 5 5 6 5 5 6 6 5 5 5 5 5 5 6 6 5 5 5 6 5 5 5 5 5 5 5 6 5 5 5 5 5 5 5 5 5 5 5 5 5 5 5 5 5 5 5 5 5 5 5 5 5 5 6 5 5 5 5 5 5 5 6 5 5 5 5 5 5 5 5 5 5 5 6 5 5 5 5 5 5 5 5 6 5 5 5 5 5 5 5 5 5 5 5 5 5 5 5 5 6 5 5 5 6 5 5 5 5 5 6 5 5 5 5 5 5 5 5 5 5 5 5 5 5 6 5 5 5 5 6 5 5 6 5 5 5 5 5 6 5 5 5 5 5 5 5 5 5 5 5 5 5 5 6 5 6 5 5 5 6 5 6 5 6 5 5 5 5 5 5 6 6 5 5 5 5 5 5 6 5 6 5 5 5 5 5 5 5 5 5 5 5 5 5 5 5 5 5 6 5 5 5 6 6 5 5 5 5 5 6 5 5 6 6 5 5 5 5 5 5 5 5 5 5 5 5 5 5 5 5 5 5 5 5 5 5 5 5 5 5 5 5 5 5 5 5 5 5 5 5 5 5 5 5 5 5 5 5 6 5 5 6 6 6 5 5 5 5 5 5 6 5 5 5 5 5 5 5 5 5 6 5 5 5 6 5 5 5 5 5 5 5 5 5 5 5 5 5 5 5 5 5 5 5 5 6 5 5 5 5 6 5 5 5 5 5 5 5 5 5 5 5 5 5 5 5 5 5 5 5 5 5 5 5 5 5 5 5 5 5 5 5 5 5 5 6 5 6 5 5 5 5 5 5 5 5 6 5 5 5 6 5 6 5 5 5 5 5 5 5 5 6 5 5 5 5 6 5 5 5 5 6 5 5 5 5 5 5 5 6 5 5 5 5 6 5 5 5 5 5 5 5 5 5 5 5 5 5 5 5 5 5 5 5 5 5 5 5 5 5 5 5 5 5 5 5 5 5 5 5 5 5 5 5 5 5 5 5 5 5 5 6 5 5 5 5 6 6 5 5 6 6 5 5 5 5 5 5 5 5 5 5 5 5 5 5 5 5 5 5 5 6 5 5 5 6 6 5 5 5 5 5 5 5 5 5 5 5 5 5 5 5 5 5 5 5 5 5 5 5 5 5 5 5 6 5 5 5 5 5 5 5 6 5 5 5 5 5 5 5 5 5 5 5 5 5 5 5 6 5 5 5 5 5 5 5 5 6 5 6 6 5 5 5 5 5 5 5 5 5 5 5 5 6 5 5 5 5 5 5 5 5 5 5 5 5 5 5 5 5 5 5 6 5 5 5 6 5 5 5 5 5 5 5 5 6 5 5 5 5 5 5 5 5 5 5 5 5 5 5 5 6 5 5 5 6 5 5 5 5 5 5 5 5 5 5 5 5 5 5 5 5 5 5 5 5 5 5 5 5 5 5 5 5 5 5 5 5 5 6 5 6 5 5 5 5 5 5 5 5 6 5 5 5 5 5 5 5 5 5 6 5 5 6 5 5 5 5 5 6 5 5 5 5 6 5 5 5 5 6 5 5 5 6 5 6 5 5 6 5 5 5 5 5 5 5 5 5 5 5 5 5 5 6 5 5 6 5 6 5 5 5 6 5 5 6 5 5 5 5 6 5 6 5 5 5 5 5 5 6 5 6 5 5 5 5 5 6 5 5 5 5 6 5 5 5 5 5 5 6 5 5 5 5 5 5 5 5 5 5 5 5 5 5 5 5 5 5 5 5 5 5 5 5 5 5 5 5 5 5 5 5 5 6 6 5 5 5 5 5 5 5 5 5 5 6 5 5 6 6 5 6 5 5 5 5 5 5 5 6 5 5 5 5 5 5 5 5 5 5 5 5 6 5 5 5 5 6 5 5 5 5 5 5 5 5 5 5 5 5 6 5 5 5 5 5 5 5 5 5 5 5 5 5 5 5 5 5 6 5 5 5 5 5 6 5 5 5 6 5 5 5 5 5 5 6 5 6 5 5 5 6 5 5 5 5 5 5 5 5 5 6 5 5 6 5 5 5 5 5 5 5 6 5 5 5 5 5 5 5 5 5 5 5 5 5 6 5 5 6 5 5 5 5 5 5 6 5 5 5 5 5 5 6 5 5 5 5 5 5 5 6 5 5 5 5 5 5 5 5 5 5 5 5 5 5 5 5 5 5 5 5 5 5 6 5 5 5 5 5 5 5 5 5 5 6 5 5 5 5 6 6 5 5 5 5 6 5 5 5 5 5 5 5 5 5 6 5 5 5 5 5 5 5 5 5 5 5 6 5 5 5 6 5 5 5 6 5 5 5 5 5 5 5 5 5 5 5 5 6 5 5 5 5 5 6 5 5 6 5 5 5 5 5 5 5 5 5 5 5 5 5 5 6 5 5 5 5 5 5 5 6 5 5 5 6 5 5 5 5 5 6 5 5 5 5 5 5 5 5 5 6 5 5 5 5 5 5 5 5 6 5 5 5 5 5 6 5 5 5 5 5 5 5 6 5 5 5 5 5 5 5 5 5 5 5 5 5 5 5 5 5 5 5 5 5 5 5 5 5 5 5 5 5 5 5 5 5 5 5 5 5 5 5 5 5 5 5 5 5 5 5 5 6 5 5 5 5 5 5 5 6 5 5 5 5 5 5 5 5 5 5 5 5 5 5 5 5 5 5 5 5 5 5 6 6 5 5 6 6 5 5 5 5 5 5 5 6 5 5 5 5 5 5 5 5 5 5 5 5 5 5 6 5 5 5 5 5 5 5 5 6 5 5 6 5 5 5 6 5 5 5 5 5 5 5 5 5 5 5 5 5 5 5 5 5 5 5 5 5 5 5 5 5 5 5 5 6 5 5 5 5 5 5 5 5 6 5 5 5 5 5 5 6 6 5 5 5 5 6 5 5 6 5 5 6 5 5 5 5 5 5 6 5 5 5 5 5 5 5 5 6 5 5 5 5 5 5 5 5 5 5 5 6 5 5 6 5 5 5 5 5 5 5 6 5 5 5 6 5 6 5 6 5 5 5 5 5 5 5 5 5 5 5 5 5 5 5 5 5 6 5 6 5 5 5 5 5 5 5 5 5 5 6 5 5 5 5 5 5 5 6 5 5 5 6 5 6 6 5 5 6 5 5 5 5 6 5 5 5 6 5 5 5 6 5 6 6 5 5 5 5 5 5 6 5 5 5 5 5 5 5 5 6 6 6 5 6 5 5 6 6 5 5 6 5 5 5 5 5 5 5 5 5 5 5 6 5 5 5 5 5 5 5 5 5 5 5 5 5 6 6 5 5 5 5 6 5 5 5 6 5 5 5 5 5 6 6 5 5 5 6 5 5 5 5 5 5 5 5 5 5 5 5 5 5 5 6 5 5 5 6 5 5 5 6 5 5 5 5 5 5 6 5 5 5 5 5 6 5 5 5 5 5 5 5 5 6 5 5 5 5 5 5 5 5 5 6 5 5 5 5 6 5 6 5 5 6 5 6 5 5 5 5 5 5 6 5 6 6 5 5 5 5 5 5 5 5 6 5 6 5 6 5 6 5 5 5 5 5 5 5 5 5 5 5 6 5 5 5 6 5 5 5 5 5 5 5 5 6 5 5 5 5 5 5 5 5 5 6 5 5 5 5 6 5 5 6 5 5 5 5 5 5 5 5 5 6 5 5 5 6 5 5 5 5 5 5 5 5 5 5 5 5 5 5 5 5 5 5 5 6 5 5 5 5 5 5 5 5 5 5 6 5 5 5 5 5 5 5 5 5 5 5 5 5 5 5 5 5 5 5 5 5 5 5 5 5 5 5 5 5 5 5 5 5 5 5 5 5 5 5 5 5 5 5 5 5 6 6 5 5 5 5 5 5 5 5 5 5 5 5 5 6 6 5 5 5 6 5 5 6 5 5 5 6 5 5 5 6 5 5 5 5 5 5 5 5 6 5 5 6 5 6 6 5 5 5 5 5 5 6 5 6 6 6 5 5 6 5 5 6 6 5 5 5 5 5 5 5 5 5 5 5 5 5 5 5 5 5 5 5 5 5 6 5 5 5 5 5 5 5 5 5 6 5 5 5 5 5 5 5 6 6 5 5 5 5 5 5 5 5 5 5 5 5 5 5 5 5 5 5 5 5 5 5 5 6 5 6 5 5 5 5 5 5 5 6 5 5 5 6 6 5 5 6 5 5 5 5 6 5 5 5 6 5 5 5 6 5 5 5 5 5 5 5 5 5 6 6 5 5 5 5 5 6 5 5 6 6 6 5 5 5 5 5 6 5 5 5 5 5 5 5 5 5 6 5 6 5 5 5 5 5 5 5 5 5 5 5 5 5 5 5 5 5 5 5 5 5 5 5 5 6 5 5 5 5 6 6 5 5 5 6 5 5 5 5 5 5 5 5 5 5 5 5 5 5 5 5 6 5 5 5 6 5 5 6 5 5 5 5 5 5 5 5 5 5 5 5 5 6 5 5 6 5 5 5 6 5 6 5 6 5 6 6 6 5 5 5 5 5 5 5 5 6 5 5 5 5 5 5 5 5 6 5 5 6 5 5 5 5 5 5 5 5 5 5 5 5 5 5 5 5 5 5 5 5 5 6 5 5 5 5 5 5 5 5 5 5 6 5 6 5 5 6 5 6 5 6 5 5 6 5 6 5 5 6 5 5 5 6 5 5 5 5 5 5 5 5 5 5 5 5 5 5 5 5 5 5 5 5 5 5 5 5 5 5 5 5 5 5 5 5 5 5 5 5 5 5 5 5 5 5 5 5 5 5 5 5 5 5 5 5 5 5 5 5 5 5 5 5 5 6 5 5 6 5 5 5 5 5 5 6 6 5 5 5 5 5 5 5 5 5 5 5 5 5 5 5 5 5 5 6 5 5 5 6 5 5 5 5 5 5 5 5 5 5 5 5 5 5 5 5 6 5 5 5 5 5 5 5 6 5 5 5 5 5 5 5 5 6 5 6 5 5 5 5 5 5 5 5 5 5 5 5 5 5 5 5 6 5 5 5 5 5 5 5 6 5 5 5 5 6 5 5 5 5 5 5 5 6 5 5 6 6 5 5 6 5 5 5 5 5 5 6 5 5 5 5 5 5 5 5 5 6 5 5 6 5 5 6 5 5 6 5 5 5 5 5 6 5 5 5 5 5 5 5 5 6 5 5 5 5 5 5 5 6 5 5 5 5 5 5 5 5 5 5 5 5 6 5 5 5 5 5 5 5 6 6 5 6 5 6 5 5 5 5 5 5 5 5 5 5 5 5 5 5 5 6 5 6 5 5 5 5 5 5 5 5 6 5 6 5 6 5 6 5 6 5 5 6 5 5 5 5 5 6 5 5 5 5 5 5 5 5 6 5 5 5 5 5 6 5 5 6 5 6 6 5 5 5 5 5 5 5 5 6 5 5 5 5 5 5 5 5 5 5 5 5 5 6 5 5 5 5 5 5 5 6 5 5 5 6 5 5 5 5 5 5 5 5 5 5 5 5 5 5 5 5 5 6 5 5 5 5 5 5 5 6 5 5 6 5 5 5 5 5 5 5 5 5 5 5 5 5 5 5 6 5 5 5 5 6 5 5 5 5 5 5 5 5 5 5 5 5 5 5 5 5 5 5 5 5 5 5 5 5 5 6 5 5 5 5 5 5 6 5 5 5 5 5 5 5 5 5 6 6 5 5 5 6 5 6 5 5 5 5 5 5 5 5 5 5 5 5 5 5 5 6 5 5 5 5 5 5 5 5 5 5 5 5 6 6 5 5 5 5 5 5 5 5 6 5 5 6 5 5 6 6 5 5 5 5 5 5 5 6 5 5 5 5 5 5 5 5 5 6 5 5 5 6 5 5 5 5 5 6 5 5 5 5 5 5 5 5 5 5 5 5 6 5 5 5 6 5 5 5 6 5 5 5 5 5 5 5 5 5 5 5 5 5 5 5 5 5 5 5 5 5 5 5 5 5 5 5 5 5 5 5 5 6 5 5 5 5 5 5 5 5 5 5 5 5 5 5 5 5 5 5 5 5 5 5 5 5 6 5 6 5 5 6 5 5 5 5 5 5 5 5 5 6 5 5 5 5 5 5 5 5 5 5 5 5 5 5 6 5 5 5 5 6 5 5 5 6 5 5 5 5 5 5 5 5 5 5 5 5 5 5 5 5 5 5 5 5 5 5 5 5 5 5 5 5 5 5 5 5 5 5 5 5 5 5 5 5 5 5 5 5 5 5 5 5 5 5 5 5 5 5 5 5 5 5 5 5 5 5 5 5 5 5 5 5 5 5 5 5 5 5 5 5 5 5 5 5 5 5 5 5 5 5 5 5 5 5 5 5 5 5 5 5 5 5 5 5 5 5 5 5 5 5 5 5 5 5 5 5 5 5 5 5 5 5 5 5 5 5 5 5 5 5 5 5 5 5 5 5 5 5 5 5 5 5 5 5 5 5 5 5 5 5 5 5 5 5 5 5 5 5 5 5 5 5 5 5 5 5 5 5 5 5 5 5 5 5 5 5 5 5 5 5 5 5 5 5 5 5 5 5 5 5 5 5 5 6 5 5 5 5 5 5 5 5 5 5 5 5 5 5 5 5 6 5 5 5 5 5 5 5 5 6 5 5 5 5 6 5 5 5 5 5 5 5 5 5 5 5 5 5 5 5 5 5 5 5 5 5 5 6 5 5 5 5 5 5 5 5 5 5 5 5 5 6 6 5 5 5 5 5 6 5 6 5 5 5 5 5 5 5 5 5 5 5 6 5 5 5 5 5 5 5 6 5 5 5 5 5 5 5 5 5 5 5 5 5 5 5 6 6 5 5 5 5 5 5 5 5 5 5 5 5 6 5 5 5 5 5 5 5 5 5 5 5 5 5 5 5 5 6 5 5 5 5 5 5 5 6 5 5 5 5 5 5 5 5 5 5 6 6 5 5 5 5 5 5 5 5 5 5 5 5 5 5 5 5 5 5 5 5 5 5 5 5 5 5 5 5 5 5 6 5 5 5 5 5 6 5 5 5 5 5 5 5 5 5 5 6 5 5 5 5 6 5 5 5 5 5 5 5 5 5 5 6 5 6 5 5 5 5 5 5 5 5 5 5 5 5 5 5 5 5 5 5 5 5 5 5 5 5 5 5 5 5 5 5 5 6 5 5 5 5 5 6 5 5 5 5 5 5 5 5 5 5 5 5 5 5 5 5 5 5 6 5 5 6 5 5 5 6 5 5 5 5 5 6 5 5 5 5 5 5 5 5 5 5 6 5 5 5 5 5 5 6 5 5 5 5 5 6 6 5 5 6 5 5 6 5 5 5 5 5 5 5 5 5 5 6 5 5 6 5 5 6 5 5 6 5 5 6 5 5 6 5 5 5 5 5 5 6 5 5 5 5 5 5 5 5 5 5 5 6 5 5 5 5 5 5 5 6 5 5 5 5 6 5 5 5 6 5 5 5 5 5 5 5 5 5 5 5 6 5 5 5 5 5 5 5 5 5 5 5 5 5 5 5 5 5 5 5 5 5 5 5 5 6 5 5 5 5 5 6 5 5 5 5 5 5 5 5 5 5 5 5 5 5 6 5 5 6 5 6 5 5 5 5 6 5 6 6 5 6 5 5 5 5 5 5 5 6 5 6 5 5 5 5 5 5 6 5 5 5 5 5 5 6 5 5 5 5 6 5 5 5 5 5 6 5 5 6 5 5 5 5 6 5 5 5 5 6 5 5 5 5 5 5 6 5 5 5 5 5 5 5 5 5 6 5 5 5 5 5 5 6 5 5 5 5 6 5 5 5 5 5 5 5 5 5 5 5 5 5 5 5 5 6 5 5 5 6 5 5 6 5 5 5 5 5 5 5 5 5 5 5 5 5 5 5 5 6 5 6 5 5 5 5 5 5 5 5 5 5 5 5 5 5 5 5 5 5 5 5 5 5 5 5 5 5 6 5 5 6 5 5 5 5 5 5 5 5 5 5 6 5 5 5 5 6 5 5 5 5 6 5 5 5 5 5 5 5 5 5 6 5 5 5 5 5 5 5 5 5 5 5 5 5 5 5 5 5 5 5 5 5 5 5 5 5 5 5 5 
</DataArray>
<DataArray type="Float64" Name="stress" NumberOfComponents="9" format="ascii">
-1495450199.9757462 1520630669.4010696 0 1520630669.4010696 1074172.4423236847 0 0 0 0 -685743688.99575806 1779213704.9178314 0 1779213704.9178314 -425727666.9869194 0 0 0 0 -376278.87498092651 1537586192.6581726 0 1537586192.6581726 -1058004304.2130699 0 0 0 0 -527701952.37919617 1132745478.6174526 0 1132745478.6174526 -1305294352.8017426 0 0 0 0 -470840901.06510925 1377866353.2035446 0 1377866353.2035446 -1299694096.3525596 0 0 0 0 -8036073.3811692744 -170006.13715723902 0 -170006.13715723902 -766623.53586870804 0 0 0 0 -64471148.23374939 -290024053.84735107 0 -290024053.84735107 412837921.85699463 0 0 0 0 -657755275.49482727 107700485.7025032 0 107700485.7025032 212889136.6482048 0 0 0 0 -1802229339.961647 1435721937.3441448 0 1435721937.3441448 -505572925.42147827 0 0 0 0 -1490565721.662384 1748787023.9710798 0 1748787023.9710798 -1725346333.4163132 0 0 0 0 -570049656.86512756 564049158.0928154 0 564049158.0928154 -276198802.20239258 0 0 0 0 -2319292089.3476868 1105962001.9775848 0 1105962001.9775848 -116597145.32580948 0 0 0 0 -1193072.9697685242 11347477.664993286 0 11347477.664993286 2801.4368438720703 0 0 0 0 -1594722.3288541809 821526.55373513885 0 821526.55373513885 -3332360.9017185271 0 0 0 0 -8852460.7167205811 12065073.524089813 0 12065073.524089813 -759417.09370422363 0 0 0 0 -6388019.0210952759 10659878.121162415 0 10659878.121162415 1325.0554387708303 0 0 0 0 -7216340.2189826965 7754514.2165527344 0 7754514.2165527344 -431114.43135070801 0 0 0 0 -15037937.768745422 11432712.954990387 0 11432712.954990387 -1190424.7046947479 0 0 0 0 -7320188.0670779049 3804366.622355463 0 3804366.622355463 -4982451.5933426321 0 0 0 0 -7701146.1441345215 14242063.141708374 0 14242063.141708374 -11072595.072792053 0 0 0 0 -4447588.892791748 8390024.5597686768 0 8390024.5597686768 -3435664.5361709595 0 0 0 0 1206611.2789381891 8766947.2354713306 0 8766947.2354713306 -3501500.784826979 0 0 0 0 106671968.14749908 -33402436.208194733 0 -33402436.208194733 18205338.102737427 0 0 0 0 204970456.08930969 -19995359.850883484 0 -19995359.850883484 -70719094.132019043 0 0 0 0 85565442.518913269 12241986.911521912 0 12241986.911521912 -15565152.294322968 0 0 0 0 140201881.34758759 170051426.67354774 0 170051426.67354774 120599864.49356079 0 0 0 0 -22972010.272617608 21687954.939802576 0 21687954.939802576 -11063889.650926992 0 0 0 0 -59460997.729553223 198403268.71833038 0 198403268.71833038 117672190.66401291 0 0 0 0 15704945.90007782 86741547.426780701 0 86741547.426780701 -7453103.4400177002 0 0 0 0 109121108.6025219 63305380.527832031 0 63305380.527832031 -101054948.30149841 0 0 0 0 -197149878.42160034 55382554.631492615 0 55382554.631492615 429488340.17653656 0 0 0 0 -23220779.912567943 4158783.4133310243 0 4158783.4133310243 -917796.85089661181 0 0 0 0 -669726729.4635849 472481269.12531662 0 472481269.12531662 -339046438.85005569 0 0 0 0 -149632627.44592285 39344515.212524414 0 39344515.212524414 -52465212.965171814 0 0 0 0 -18372668.297920227 227122084.05753326 0 227122084.05753326 -125453639.70826721 0 0 0 0 -197488133.75416565 284126255.12227249 0 284126255.12227249 221258054.52011871 0 0 0 0 90551166.726817191 78797052.854832768 0 78797052.854832768 -303816105.44431305 0 0 0 0 -3635035.1611061096 43067661.188617706 0 43067661.188617706 -305945218.87386322 0 0 0 0 415419.50955200195 178241966.55621338 0 178241966.55621338 -303186160.4106369 0 0 0 0 -5799026.8745117188 151340729.4445343 0 151340729.4445343 -298201431.06420898 0 0 0 0 90879807.239649415 156834959.8838428 0 156834959.8838428 -320676942.18812561 0 0 0 0 -102856969.17953491 136734486.66973877 0 136734486.66973877 -82681810.894657135 0 0 0 0 -238050433.67416382 -68253305.590087891 0 -68253305.590087891 -373930492.92774963 0 0 0 0 -342809791.90172958 220839419.83197403 0 220839419.83197403 -111064251.46490479 0 0 0 0 35656479.95022583 77142527.290756226 0 77142527.290756226 -448218104.58821106 0 0 0 0 111840.54174898565 1322826.1542626023 0 1322826.1542626023 -645202.34026396275 0 0 0 0 -317034667.42900085 279085245.43421936 0 279085245.43421936 -233009261.08201599 0 0 0 0 -165407253.03255081 -146387295.11888695 0 -146387295.11888695 -175015323.60830688 0 0 0 0 -54493.288830153644 358648.46946598962 0 358648.46946598962 482838.71090114117 0 0 0 0 -205896326.58682251 236360891.13508606 0 236360891.13508606 -45757679.367233276 0 0 0 0 -7763009.6597213745 142794772.59843063 0 142794772.59843063 -333682837.23547363 0 0 0 0 -47073372.42791748 281935145.0430603 0 281935145.0430603 -598428453.43405151 0 0 0 0 -216813.16656494141 173699589.32907104 0 173699589.32907104 -332470426.08607531 0 0 0 0 -27902950.758636475 9271565.9176559448 0 9271565.9176559448 -6962334.9784374237 0 0 0 0 -777376.97938414663 3603044.382680513 0 3603044.382680513 1596089.8411408961 0 0 0 0 35311425.912704468 23855625.031230927 0 23855625.031230927 -64245213.245025635 0 0 0 0 -28341697.15398407 2037886.5475883484 0 2037886.5475883484 -55450905.641819 0 0 0 0 -34201511.441314697 61386914.994503021 0 61386914.994503021 -112164017.76919556 0 0 0 0 -46580670.22170639 93517608.165039062 0 93517608.165039062 -151206861.72819519 0 0 0 0 17035979.648590088 103782458.04940414 0 103782458.04940414 -165218956.66009521 0 0 0 0 284096280.84559631 202137750.69213486 0 202137750.69213486 -49615232.108001709 0 0 0 0 44636060.174186707 118488011.65016174 0 118488011.65016174 -10423244.964790344 0 0 0 0 -21010199.719518274 23123766.019941345 0 23123766.019941345 -14047475.243801296 0 0 0 0 128976411.45578003 45961761.972106934 0 45961761.972106934 13012048.937870026 0 0 0 0 205852169.18703079 49508220.126749039 0 49508220.126749039 -108893013.61169434 0 0 0 0 35802168.338577271 104401429.62844849 0 104401429.62844849 -79964079.394805908 0 0 0 0 -44461776.777435303 -57390007.546298981 0 -57390007.546298981 -544927.47719573975 0 0 0 0 625441.598464109 978952.59234817699 0 978952.59234817699 -2921023.987236768 0 0 0 0 36072545.399429321 -52317571.859413147 0 -52317571.859413147 -119779090.14181328 0 0 0 0 -32125232.906860352 -6097599.229637146 0 -6097599.229637146 -53845462.560066223 0 0 0 0 108251115.39710999 70117942.180301666 0 70117942.180301666 -11145052.237213135 0 0 0 0 150540097.33139038 48980620.664142609 0 48980620.664142609 -29327126.009464264 0 0 0 0 162941431.26104355 34305096.05490303 0 34305096.05490303 -19985587.515884399 0 0 0 0 162913521.90113831 34318163.037220001 0 34318163.037220001 -18718130.387794495 0 0 0 0 83879798.698207855 -42877969.044240952 0 -42877969.044240952 -33639629.22492218 0 0 0 0 140695106.7901001 43727234.046474457 0 43727234.046474457 -22315272.30229187 0 0 0 0 -32344111.124603271 37658398.859790802 0 37658398.859790802 38435117.377700806 0 0 0 0 1160018.0524558574 5725079.2313728631 0 5725079.2313728631 -3095739.6432220191 0 0 0 0 5113354.7629432678 10242328.599691391 0 10242328.599691391 1299551.0602798462 0 0 0 0 2339135.4046554565 5352858.1890087128 0 5352858.1890087128 2271018.8679962158 0 0 0 0 1763110.232348308 5735262.0778542459 0 5735262.0778542459 -974751.24972302862 0 0 0 0 39319748.111816406 28667606.556007385 0 28667606.556007385 -53740887.936004639 0 0 0 0 6602919.9351158142 23008589.391003609 0 23008589.391003609 -14202136.401184082 0 0 0 0 8809637.9145825952 10855449.181550942 0 10855449.181550942 -1453511.126483419 0 0 0 0 -2751205.6125640869 -52371037.634723663 0 -52371037.634723663 -10120650.234165192 0 0 0 0 8845473.9971923828 8791671.1008644104 0 8791671.1008644104 2369242.6319122314 0 0 0 0 -26792109.333526611 23206794.582197189 0 23206794.582197189 8299827.0825958252 0 0 0 0 12437876.718093872 -6665934.9161491394 0 -6665934.9161491394 3173788.566078186 0 0 0 0 -1671558.2513248697 5222537.5276909545 0 5222537.5276909545 2400512.2026027739 0 0 0 0 -18303605.043807983 -1808342.3142776489 0 -1808342.3142776489 18521857.641353607 0 0 0 0 -3221483.2051925659 17169092.543167114 0 17169092.543167114 -15586784.102119446 0 0 0 0 -6031031.3261489868 13339969.538536072 0 13339969.538536072 4694251.546207428 0 0 0 0 -2410249.7848510742 1859043.7625770569 0 1859043.7625770569 -20630766.185316086 0 0 0 0 -1140021.4929275513 6521702.0018844604 0 6521702.0018844604 -9839688.7615890503 0 0 0 0 -465023425.67848206 602827310.06427002 0 602827310.06427002 -712448796.87498474 0 0 0 0 -10560526.456005096 2567612.2112874985 0 2567612.2112874985 6375945.2128143311 0 0 0 0 -3038105.1100289077 171092.81757270545 0 171092.81757270545 -646073.28253031522 0 0 0 0 -69511.740301802754 519991.63319143653 0 519991.63319143653 -290914.78956094384 0 0 0 0 2121272.1614356413 4636120.4857236445 0 4636120.4857236445 -4984068.2336780876 0 0 0 0 -1281831.0880203247 6063784.8378753662 0 6063784.8378753662 -8784963.3336257935 0 0 0 0 -3404788.2026824951 8501909.8016014099 0 8501909.8016014099 -7376154.8769321442 0 0 0 0 2069840.0230936632 5603319.1821151897 0 5603319.1821151897 -5670494.6763898879 0 0 0 0 -5672053.2272338867 10841483.212310791 0 10841483.212310791 -5732070.8681945801 0 0 0 0 -8974295.4163513184 17214163.151290894 0 17214163.151290894 -5783137.7941741943 0 0 0 0 -5257816.9311447144 -6626233.2130737305 0 -6626233.2130737305 -7314439.4158935547 0 0 0 0 -5456008.3682403564 15586212.121589661 0 15586212.121589661 -21247469.917190552 0 0 0 0 -11567280.44090271 15865959.987518311 0 15865959.987518311 1268703.0748062134 0 0 0 0 -62967.535032168031 -169944.00451813638 0 -169944.00451813638 -1914899.8684823662 0 0 0 0 -7688500.3790740967 2452868.6901283264 0 2452868.6901283264 33918938.238826752 0 0 0 0 -814049.4560546875 674207116.46791458 0 674207116.46791458 -1102298429.8092175 0 0 0 0 -347722521.03948212 682125272.87874031 0 682125272.87874031 -879293674.67593384 0 0 0 0 -529776953.64806366 943136246.63834381 0 943136246.63834381 -842929163.04271412 0 0 0 0 -883991.87053865532 1036830246.0620011 0 1036830246.0620011 -1065197502.7357483 0 0 0 0 -548942732.07024384 879604405.69467926 0 879604405.69467926 -524891385.16532135 0 0 0 0 -1185646397.3214798 1327011698.5856438 0 1327011698.5856438 -641398790.16179657 0 0 0 0 -1307357954.1831121 697453927.53748035 0 697453927.53748035 -119511289.54598999 0 0 0 0 -449996493.99549866 254260200.21446228 0 254260200.21446228 -122434295.87089932 0 0 0 0 -120901560.49104881 262637635.85464907 0 262637635.85464907 -352421255.66433716 0 0 0 0 -145780149.39346313 4388418.1665115356 0 4388418.1665115356 -135017607.5093689 0 0 0 0 -62483719.045410156 158624273.84613037 0 158624273.84613037 -408100031.89855957 0 0 0 0 -404823837.69528198 255570986.93540955 0 255570986.93540955 -284701605.00393677 0 0 0 0 295408.98390521109 797310.26532138884 0 797310.26532138884 -1915323.1674045175 0 0 0 0 -284537936.52241516 438570073.3926239 0 438570073.3926239 -536590622.14289093 0 0 0 0 -403331022.11328125 435859912.88903809 0 435859912.88903809 -509887785.00741577 0 0 0 0 -884718354.8033905 664389966.30078506 0 664389966.30078506 -350175100.96646118 0 0 0 0 10927488.548017252 3388893.8417637348 0 3388893.8417637348 708478.95052863657 0 0 0 0 -78051954.342092991 -21850942.419031143 0 -21850942.419031143 289895759.27328491 0 0 0 0 1993542.8886260986 38522840.941265106 0 38522840.941265106 -7549951.2023620605 0 0 0 0 16616533.958891869 27650194.284422874 0 27650194.284422874 533991.80560302734 0 0 0 0 16737471.722316742 26884081.284069061 0 26884081.284069061 -15638694.215019226 0 0 0 0 19885742.704544067 47423495.601396561 0 47423495.601396561 25241195.884994507 0 0 0 0 9034713.2334499359 25503646.704292297 0 25503646.704292297 -17488893.34022522 0 0 0 0 1940475.1993845953 -1637127.2184609547 0 -1637127.2184609547 192878.15027633309 0 0 0 0 -111700093.97826385 23675133.780361176 0 23675133.780361176 78609940.051200867 0 0 0 0 366868927.25717688 345197845.62063122 0 345197845.62063122 252275979.62175751 0 0 0 0 329489255.20713282 284943449.65751839 0 284943449.65751839 81673468.237213135 0 0 0 0 328019160.9289403 278660751.06173563 0 278660751.06173563 162432054.46876526 0 0 0 0 139446071.60226059 152708372.28082275 0 152708372.28082275 316710.94565582275 0 0 0 0 -27465357.898208618 128860595.41153336 0 128860595.41153336 209303686.39424896 0 0 0 0 35541977.199876785 72466678.606546402 0 72466678.606546402 17970925.297134399 0 0 0 0 40567620.96301651 92553840.367954254 0 92553840.367954254 -15788403.671951294 0 0 0 0 24364063.003276825 82781791.017333984 0 82781791.017333984 80903381.614059448 0 0 0 0 47944847.67791748 119845802.33447075 0 119845802.33447075 1286.0941619873047 0 0 0 0 91689605.652614594 175280579.86711502 0 175280579.86711502 56929331.01348877 0 0 0 0 28339754.456893921 111579252.13751984 0 111579252.13751984 22188954.749885559 0 0 0 0 -17214391.037509918 130447026.8406868 0 130447026.8406868 -72490618.244308472 0 0 0 0 19631478.001846313 75931204.05493927 0 75931204.05493927 8164395.8471412659 0 0 0 0 24715330.484184265 47959895.858531952 0 47959895.858531952 -68612995.284934998 0 0 0 0 22975882.222352982 33478097.434669495 0 33478097.434669495 -52992873.329177856 0 0 0 0 26498771.025749207 23037506.447532654 0 23037506.447532654 -30619164.499195099 0 0 0 0 24597776.109672546 55242804.367023468 0 55242804.367023468 -49799958.326065063 0 0 0 0 35434988.356143951 37615670.644737244 0 37615670.644737244 -23175561.421325684 0 0 0 0 27183352.00617218 42394768.447113037 0 42394768.447113037 1122903.5585422516 0 0 0 0 28151107.49420929 29533171.39188385 0 29533171.39188385 -15809637.224941254 0 0 0 0 28197702.908784151 27070981.525954425 0 27070981.525954425 -24865483.508010864 0 0 0 0 13780383.587104797 18773931.045036316 0 18773931.045036316 -11295756.287101746 0 0 0 0 13788551.279243469 19383006.571739197 0 19383006.571739197 7519292.1124191284 0 0 0 0 25017701.366264343 -4484278.8193969727 0 -4484278.8193969727 -17964152.014404297 0 0 0 0 2273019.7328112535 -337048.39255682565 0 -337048.39255682565 -1148104.8043829054 0 0 0 0 2350818.7718353271 -29818789.854141235 0 -29818789.854141235 33866663.350559235 0 0 0 0 39906845.152107239 4333298.8747196198 0 4333298.8747196198 -80248196.598770142 0 0 0 0 -90666079.325120926 89023420.791341782 0 89023420.791341782 -66227118.377883911 0 0 0 0 -928806.08627896011 4748539.8323807269 0 4748539.8323807269 -3177660.8584909886 0 0 0 0 -71354486.028728485 53643909.906600952 0 53643909.906600952 -61737441.176193237 0 0 0 0 -42691662.002304077 131528679.12020111 0 131528679.12020111 -82925655.883911133 0 0 0 0 -789927.54448041692 342017.93661463261 0 342017.93661463261 -130316.55757310987 0 0 0 0 89494610.632183075 4414833.1237373352 0 4414833.1237373352 -149753392.95742798 0 0 0 0 -32671049.912197113 49602548.484024048 0 49602548.484024048 -150303684.69238281 0 0 0 0 -53263443.98179245 99513149.295394897 0 99513149.295394897 -112164287.87805176 0 0 0 0 62651946.110664368 73381112.484985352 0 73381112.484985352 -144560880.68283081 0 0 0 0 6962964.5112457275 141127112.37448883 0 141127112.37448883 -99599164.329772949 0 0 0 0 18518635.961738586 96340049.216758728 0 96340049.216758728 -99821985.242088318 0 0 0 0 57657375.219003677 83807679.021392822 0 83807679.021392822 -99411183.945648193 0 0 0 0 38463811.612236023 36786667.320068359 0 36786667.320068359 -66085815.82069397 0 0 0 0 28166106.440231323 60062867.3487854 0 60062867.3487854 -118089502.59920502 0 0 0 0 -2785504.7926330566 67706123.388664246 0 67706123.388664246 -71742092.23292923 0 0 0 0 36923885.177719116 111224504.51826096 0 111224504.51826096 -199108026.00712585 0 0 0 0 -866297.11475019157 1763244.6441185027 0 1763244.6441185027 768587.7635274604 0 0 0 0 -3936613.5552139282 35074732.148361206 0 35074732.148361206 138903027.41928864 0 0 0 0 -27040280.146591187 33923802.866928101 0 33923802.866928101 -128825426.50001526 0 0 0 0 27258710.523040771 40376180.558654785 0 40376180.558654785 70990.846374163782 0 0 0 0 37754844.453407288 75462360.954948425 0 75462360.954948425 34178815.489028931 0 0 0 0 33207466.043212891 92355464.390649796 0 92355464.390649796 95079995.549057007 0 0 0 0 823274.38929748535 6945798.8610153198 0 6945798.8610153198 77267717.314430237 0 0 0 0 811693.35389688611 5262337.5086206347 0 5262337.5086206347 19791543.906990051 0 0 0 0 12174895.484703064 33309146.804115295 0 33309146.804115295 29793202.061355591 0 0 0 0 -1458446.0197482258 2463463.7169462889 0 2463463.7169462889 1036031.8919721544 0 0 0 0 310082.94550323486 10140886.612129211 0 10140886.612129211 14928124.706737518 0 0 0 0 -5579625.6459350586 133121852.24724579 0 133121852.24724579 13254763.591270447 0 0 0 0 -28571275.802566528 45264395.619552612 0 45264395.619552612 -202431886.03520203 0 0 0 0 -24554614.425811768 76760704.726104736 0 76760704.726104736 -82054109.5389328 0 0 0 0 -2723332.5886955261 3723831.9023284912 0 3723831.9023284912 2893972.1134567261 0 0 0 0 1582243.9495658875 15346282.96695137 0 15346282.96695137 9521.2242279052734 0 0 0 0 -4974775.9577713013 13785661.038692474 0 13785661.038692474 5390834.9143676758 0 0 0 0 -3692128.4390716553 9488114.068397522 0 9488114.068397522 -4151315.263671875 0 0 0 0 101279.00100252032 1708268.5628669187 0 1708268.5628669187 -134162.85400499031 0 0 0 0 130806208.42891121 232608218.80051804 0 232608218.80051804 -230340163.73658752 0 0 0 0 -581442551.97601318 -180256984.15367126 0 -180256984.15367126 157248122.50749969 0 0 0 0 -327782699.85159302 209504988.81484985 0 209504988.81484985 -40918001.976959229 0 0 0 0 271231519.00134277 4085442.7551193237 0 4085442.7551193237 -425659221.91030884 0 0 0 0 197232688.02323914 187534040.97724915 0 187534040.97724915 -170675549.3848114 0 0 0 0 51276836.932754517 34179612.707321167 0 34179612.707321167 -268339196.24398804 0 0 0 0 -6112262.3787841797 -10204166.808532715 0 -10204166.808532715 -171019853.90487671 0 0 0 0 -363515180.22303772 -57876222.500541687 0 -57876222.500541687 -5448725.4667663574 0 0 0 0 66825863.302444458 -179419525.29325867 0 -179419525.29325867 -393743123.88845062 0 0 0 0 -462557.35735089332 1407973.7058383897 0 1407973.7058383897 -1447600.4780145586 0 0 0 0 -97287065.175109863 -31558615.291160583 0 -31558615.291160583 -9739046.6594543457 0 0 0 0 -31388592.224716187 2092632.2274627686 0 2092632.2274627686 -51358770.380935669 0 0 0 0 -19520646.745353699 -5586298.7550125122 0 -5586298.7550125122 -9695887.046585083 0 0 0 0 -32256477.173858643 17683760.471893311 0 17683760.471893311 5237092.0914306641 0 0 0 0 -64334223.885360718 -740487.3980178833 0 -740487.3980178833 542947.1452331543 0 0 0 0 -84234370.126449585 -14135169.334655762 0 -14135169.334655762 -7551934.5446014404 0 0 0 0 -119470377.57763672 6804084.1362075806 0 6804084.1362075806 26211823.085769653 0 0 0 0 -74134115.019622803 66605857.466308594 0 66605857.466308594 36108028.559612274 0 0 0 0 -30871393.079723358 167697390.70804024 0 167697390.70804024 -36388396.083251953 0 0 0 0 -258087485.09761047 43128117.808227539 0 43128117.808227539 35992194.021408081 0 0 0 0 -20540378.651626587 43637796.189437866 0 43637796.189437866 20672399.991073608 0 0 0 0 -42198548.043533325 51533931.537338257 0 51533931.537338257 38030652.210922241 0 0 0 0 -46014161.213279724 31770108.716690063 0 31770108.716690063 25917407.72492981 0 0 0 0 -63820340.416124344 1889262.1562614441 0 1889262.1562614441 13446741.29510498 0 0 0 0 -92086128.429000854 22415637.531410217 0 22415637.531410217 34879963.382080078 0 0 0 0 -66109756.340881348 17621725.456188202 0 17621725.456188202 23894300.076538086 0 0 0 0 -49963483.212867737 5627555.4427528381 0 5627555.4427528381 4624002.9957580566 0 0 0 0 -52481811.877761841 34033399.155097961 0 34033399.155097961 31387213.109117508 0 0 0 0 -40451099.871437073 41206391.42183876 0 41206391.42183876 32171122.441741943 0 0 0 0 -29195426.114051819 34486655.964920044 0 34486655.964920044 15406936.184066772 0 0 0 0 -44225923.607131958 27922490.864082336 0 27922490.864082336 22769299.438537598 0 0 0 0 -49110192.04776001 27981962.678848267 0 27981962.678848267 25209986.76410675 0 0 0 0 -47462555.268146515 28389404.767158508 0 28389404.767158508 815255.69195556641 0 0 0 0 -756185.54357179999 1730555.439578861 0 1730555.439578861 2686902.8945675492 0 0 0 0 -34205074.424430847 31260194.699684143 0 31260194.699684143 23345185.870429993 0 0 0 0 -21607788.053501129 8046467.2420845032 0 8046467.2420845032 25257619.677825928 0 0 0 0 -10428134.923149109 63058583.450881958 0 63058583.450881958 27824528.256706238 0 0 0 0 -22157105.568677112 25850595.797521047 0 25850595.797521047 -13038391.250922963 0 0 0 0 -20168361.534812927 40797451.15794754 0 40797451.15794754 19754053.977272034 0 0 0 0 1045666.1106407791 12651282.948096015 0 12651282.948096015 -2521307.4667468737 0 0 0 0 51373053.984069824 108175307.97072601 0 108175307.97072601 90705547.009521723 0 0 0 0 -17104255.944577217 16372146.773429435 0 16372146.773429435 7043061.9654757082 0 0 0 0 18075651.859405518 59977413.606651306 0 59977413.606651306 25128243.702186584 0 0 0 0 15305689.990524292 45356302.975028992 0 45356302.975028992 26418807.018295288 0 0 0 0 17535060.198345169 20196584.099982783 0 20196584.099982783 1549584.0947651644 0 0 0 0 36736720.988380432 52570449.356513977 0 52570449.356513977 595795.51419067383 0 0 0 0 -11156647.259185791 20905310.698907852 0 20905310.698907852 9380058.1637420654 0 0 0 0 -12940293.586929321 22110953.159233093 0 22110953.159233093 4186730.8760986328 0 0 0 0 -5101616.117914319 14364140.342734128 0 14364140.342734128 3203397.7635934353 0 0 0 0 -5576264.5795288086 17597386.474945068 0 17597386.474945068 -10032346.760081291 0 0 0 0 -11699142.866764218 15481168.217432715 0 15481168.217432715 14173384.069713732 0 0 0 0 2440020.3870849609 14998633.372192383 0 14998633.372192383 3263833.7863636017 0 0 0 0 -497001.44999530911 20854962.408481449 0 20854962.408481449 8472238.8124993313 0 0 0 0 2746849.3635253906 15150175.204956055 0 15150175.204956055 -3965769.4968261719 0 0 0 0 -7102601.2620945498 18283862.661261275 0 18283862.661261275 8789799.9834580868 0 0 0 0 -14387156.196791023 18519277.49808386 0 18519277.49808386 1707909.5772985425 0 0 0 0 1666682.8605155945 21818449.514125824 0 21818449.514125824 1782629.0032348633 0 0 0 0 -3564244.3747961819 12743728.143140398 0 12743728.143140398 4423484.0022853361 0 0 0 0 -2328360.5291366577 23058971.714998245 0 23058971.714998245 2816862.4912414551 0 0 0 0 -9538678.4214782715 17670580.40827179 0 17670580.40827179 6806548.1005663872 0 0 0 0 -7587346.3013571352 17081243.771990091 0 17081243.771990091 5573436.4691721182 0 0 0 0 -8481373.1584205627 22208774.348798752 0 22208774.348798752 3649602.3072967529 0 0 0 0 -2410903.0827912539 14565311.417067386 0 14565311.417067386 1090288.3246447295 0 0 0 0 -9833642.0077667236 18678029.738037109 0 18678029.738037109 -5520088.1114959717 0 0 0 0 -4375373.8452148438 13903274.77872467 0 13903274.77872467 5124491.414498806 0 0 0 0 -3440501.1793670654 21367175.511986732 0 21367175.511986732 -3639614.0452346802 0 0 0 0 -1403529.4010503218 16354587.797779698 0 16354587.797779698 5461208.3375326097 0 0 0 0 -1814965.6662883759 17960636.692569733 0 17960636.692569733 5279583.7286491394 0 0 0 0 -1713874.2687473409 13469664.394620866 0 13469664.394620866 2784499.0746496469 0 0 0 0 1972759.8957733214 14160035.236344986 0 14160035.236344986 -269294.3434226946 0 0 0 0 3274879.7341003418 18904427.52456665 0 18904427.52456665 8418006.4442596436 0 0 0 0 2222065.215385437 17346029.169311523 0 17346029.169311523 7614174.5726051331 0 0 0 0 2195838.2703424245 11223409.385339886 0 11223409.385339886 -640794.2325315997 0 0 0 0 2374884.6055202484 17677410.559148788 0 17677410.559148788 6607963.927230835 0 0 0 0 -5316373.6307220459 12136256.018249512 0 12136256.018249512 5120118.8419799805 0 0 0 0 -2471282.1306610107 15275023.921012878 0 15275023.921012878 4894953.7706506252 0 0 0 0 -2477538.1449026391 11324390.853466706 0 11324390.853466706 5278400.3927282244 0 0 0 0 -1023595.4899406433 17000717.757156372 0 17000717.757156372 8299732.0857620239 0 0 0 0 -6275208.6057489142 11611099.060292289 0 11611099.060292289 11195766.329250723 0 0 0 0 -2234738.971663963 7379524.8586862013 0 7379524.8586862013 5087560.6600562185 0 0 0 0 3575791.1440680176 9802363.9994099941 0 9802363.9994099941 1495774.2250629961 0 0 0 0 -2542867.7404022217 6895692.0242614746 0 6895692.0242614746 2596462.9643249512 0 0 0 0 -3353035.5691223592 8499368.7943906337 0 8499368.7943906337 8480501.1430004686 0 0 0 0 18651913.641326904 12506668.261383057 0 12506668.261383057 1162514.6254692078 0 0 0 0 2171271.7273988724 10784384.903594971 0 10784384.903594971 2292689.2240219116 0 0 0 0 -1080343.0474262238 8776561.0347480774 0 8776561.0347480774 2555767.8052215576 0 0 0 0 1764916.7889889553 1959326.4286718573 0 1959326.4286718573 1327610.1871944368 0 0 0 0 -2658765.1625213623 10703911.551651001 0 10703911.551651001 4382512.2768249512 0 0 0 0 -1201162.7143488564 7801507.2111503705 0 7801507.2111503705 1960423.4274948835 0 0 0 0 3593993.0724770948 8381952.3287226446 0 8381952.3287226446 -3581561.8417274207 0 0 0 0 3573011.000962317 5014748.1749185715 0 5014748.1749185715 2876469.0990325361 0 0 0 0 1224964.8376159668 41918106.337135315 0 41918106.337135315 41898413.131257534 0 0 0 0 11588261.432933807 8923764.8379096985 0 8923764.8379096985 20980236.936889648 0 0 0 0 5073033.3043340296 13534111.081868038 0 13534111.081868038 -5436428.5904061683 0 0 0 0 6796675.8105331361 12563239.231608525 0 12563239.231608525 3278156.5332086384 0 0 0 0 23226165.653816223 27397194.880493164 0 27397194.880493164 760548.72312927246 0 0 0 0 8103741.7510299683 13043503.772727966 0 13043503.772727966 1341025.0693092346 0 0 0 0 12071836.607318878 19298875.41375351 0 19298875.41375351 5625079.6939239502 0 0 0 0 -4048155.2586135864 27515347.22719574 0 27515347.22719574 2771868.3836898804 0 0 0 0 16559468.54127726 16731358.896349266 0 16731358.896349266 5059758.8976624273 0 0 0 0 7768451.047000885 25855186.411911011 0 25855186.411911011 5078009.475944519 0 0 0 0 4360768.4227224533 5919874.2390724197 0 5919874.2390724197 -1167533.331074819 0 0 0 0 31434554.405875683 22497200.52786684 0 22497200.52786684 -15444928.956832886 0 0 0 0 5545934.7508239746 27275601.051212311 0 27275601.051212311 4404861.3236618042 0 0 0 0 5131499.2842519116 11855471.227369115 0 11855471.227369115 5400851.1808843315 0 0 0 0 5949644.753235817 26160579.958992958 0 26160579.958992958 2235113.987121582 0 0 0 0 16805695.987968445 20679540.929573059 0 20679540.929573059 9054326.1647949219 0 0 0 0 6982262.5907020569 14010504.173252106 0 14010504.173252106 4007602.8060150146 0 0 0 0 8282662.8462496251 8616674.5925896764 0 8616674.5925896764 -343135.34376056492 0 0 0 0 7511638.2164001465 18863182.871192932 0 18863182.871192932 6871989.6234016418 0 0 0 0 2210673.3978239186 11586105.674038766 0 11586105.674038766 7665058.9930222631 0 0 0 0 3210303.749967739 11152480.04250633 0 11152480.04250633 1531197.0723030567 0 0 0 0 3541824.666983217 11318681.425314428 0 11318681.425314428 7179227.4939890653 0 0 0 0 6611442.5911712646 11454396.179626465 0 11454396.179626465 8151922.1860580444 0 0 0 0 288654.08345794678 16140876.625671387 0 16140876.625671387 785654.3165435791 0 0 0 0 14101057.191238403 17557633.597686768 0 17557633.597686768 5571731.5173873901 0 0 0 0 5654249.0659194738 16167336.81107112 0 16167336.81107112 863316.61855836306 0 0 0 0 5571839.7891311646 15560034.471687317 0 15560034.471687317 3391229.5690307617 0 0 0 0 6697538.9991944619 16096739.798269905 0 16096739.798269905 4355998.5969409496 0 0 0 0 -2353125.361161707 18689268.83819994 0 18689268.83819994 11930150.438934043 0 0 0 0 1551267.9734073654 18469153.368629083 0 18469153.368629083 -565249.81826041988 0 0 0 0 -616906.82021760941 15382712.884558707 0 15382712.884558707 2638326.6353775896 0 0 0 0 2974847.8165664673 27373846.579612732 0 27373846.579612732 -3779719.7917175293 0 0 0 0 -386221.78662109375 27667603.944755554 0 27667603.944755554 1446688.146232605 0 0 0 0 2418370.1605453491 25789176.410934448 0 25789176.410934448 -8282050.8717346191 0 0 0 0 10231455.735167794 14404131.66312854 0 14404131.66312854 -7035114.908852905 0 0 0 0 2196023.1179331355 1038895.2148009501 0 1038895.2148009501 488382.97430032492 0 0 0 0 6434222.0414123535 14007753.150421143 0 14007753.150421143 12691593.852233887 0 0 0 0 5660557.0367393494 10486334.779518127 0 10486334.779518127 1137668.7459106445 0 0 0 0 12040915.5156787 15156386.150464674 0 15156386.150464674 -7312924.83476834 0 0 0 0 -2791642.02591189 13226017.560804054 0 13226017.560804054 7894178.2140937597 0 0 0 0 10051470.551824592 20568909.066598792 0 20568909.066598792 -5142892.384854666 0 0 0 0 4241004.126739502 27037662.080383301 0 27037662.080383301 3313811.8672180176 0 0 0 0 4940085.1687755436 16450671.438161939 0 16450671.438161939 -1044621.3592833064 0 0 0 0 -6360711.4487800598 27343403.551071167 0 27343403.551071167 6184285.0345001221 0 0 0 0 5765619.6089134216 19685807.573196411 0 19685807.573196411 -1996124.5232543945 0 0 0 0 15762962.878845215 26345178.382141113 0 26345178.382141113 -7773433.7055053711 0 0 0 0 43496011.541807175 29165409.315068245 0 29165409.315068245 -15490204.819213867 0 0 0 0 5754604.428994216 1920670.2833872419 0 1920670.2833872419 496473.77348297834 0 0 0 0 -7332861.2842254639 35536903.634407043 0 35536903.634407043 9250164.8138275146 0 0 0 0 -2762705.0113677979 39209444.339630127 0 39209444.339630127 185955.80865097046 0 0 0 0 -2769178.8687820435 37538730.611160278 0 37538730.611160278 9072224.7733154297 0 0 0 0 -14049707.834075928 37883765.847717285 0 37883765.847717285 12628418.830322266 0 0 0 0 -5760487.447555542 32667796.977981567 0 32667796.977981567 1485695.2676696777 0 0 0 0 6005836.0752410889 38126682.827865601 0 38126682.827865601 4049062.0518798828 0 0 0 0 -5979207.8632984161 42098660.286848068 0 42098660.286848068 14673693.611785889 0 0 0 0 8198055.5180304721 19880608.830878645 0 19880608.830878645 2202464.4555367241 0 0 0 0 -18513046.01146698 21886659.847610474 0 21886659.847610474 -3975429.6677246094 0 0 0 0 -1485316.1969146729 33511959.228351593 0 33511959.228351593 11323607.063842773 0 0 0 0 3492438.4259910583 34182089.731803894 0 34182089.731803894 8732408.5840377808 0 0 0 0 20491272.397140503 19730984.693595886 0 19730984.693595886 16257468.409553528 0 0 0 0 -32673734.382705688 32043783.169891357 0 32043783.169891357 3119051.2312469482 0 0 0 0 43086313.130187988 -5408563.9130096436 0 -5408563.9130096436 -33323263.465057373 0 0 0 0 12003063.947643235 21028608.909122776 0 21028608.909122776 -7554172.1270075887 0 0 0 0 3107683.1857687458 772158.16980345547 0 772158.16980345547 -2590102.45169276 0 0 0 0 11101661.870674133 31135368.744934082 0 31135368.744934082 -7013929.5289306641 0 0 0 0 19932526.390904427 37058565.114864349 0 37058565.114864349 -6293983.5468597412 0 0 0 0 14877562.971877456 12462740.168430924 0 12462740.168430924 -22606101.946891785 0 0 0 0 10177117.771701764 23072357.649962842 0 23072357.649962842 1719284.3207353414 0 0 0 0 14606782.28225708 28509113.354858398 0 28509113.354858398 14114305.066966057 0 0 0 0 18286544.657592773 47089152.982887268 0 47089152.982887268 10588278.386077881 0 0 0 0 43901209.914134979 11281786.484764099 0 11281786.484764099 -14648957.539306641 0 0 0 0 4437908.2235246673 4502641.3180882502 0 4502641.3180882502 1562642.4055423886 0 0 0 0 -16788545.496177673 32771282.49779129 0 32771282.49779129 10131995.619064331 0 0 0 0 10556116.032524779 21052755.995880231 0 21052755.995880231 3409785.9528162051 0 0 0 0 -15966066.593182087 39141893.039459229 0 39141893.039459229 36742776.824020386 0 0 0 0 -13758506.036204278 2915760.7179106027 0 2915760.7179106027 3362052.5637131575 0 0 0 0 16477596.857199721 20901382.839127447 0 20901382.839127447 -2705401.5231471211 0 0 0 0 -51623767.212664604 65361578.701221466 0 65361578.701221466 85546680.909461975 0 0 0 0 -39849610.532214165 86726713.251039505 0 86726713.251039505 55318815.999195099 0 0 0 0 -15596430.264345169 41631534.154411316 0 41631534.154411316 -68951447.183868408 0 0 0 0 -67210893.444591522 17757344.143295288 0 17757344.143295288 28924914.806083679 0 0 0 0 522238.61130820774 3755423.5586557537 0 3755423.5586557537 1276757.609262845 0 0 0 0 24244265.383516312 116225097.22941589 0 116225097.22941589 -203813409.44998932 0 0 0 0 57092373.299235344 8665384.9493942261 0 8665384.9493942261 13498486.249801636 0 0 0 0 13574960.081651429 24796840.496110562 0 24796840.496110562 2470968.3810889423 0 0 0 0 29715112.383768082 25093626.834692001 0 25093626.834692001 2501205.1391448975 0 0 0 0 15029910.451560974 25499357.061752319 0 25499357.061752319 2530617.5977158546 0 0 0 0 -21993975.964148521 30198845.645084381 0 30198845.645084381 1737987.2772064209 0 0 0 0 -183524065.76704597 14848502.26200676 0 14848502.26200676 100620009.80392456 0 0 0 0 5366268.8930708552 3638934.72889621 0 3638934.72889621 413344.83458723128 0 0 0 0 -155500199.81034279 64149724.836372375 0 64149724.836372375 7664027.4771118164 0 0 0 0 -2510525.1919586323 -38185.322150859982 0 -38185.322150859982 593102.05993467569 0 0 0 0 12947734.347427368 29024472.302322388 0 29024472.302322388 2754913.2876472473 0 0 0 0 17810088.967384338 25926601.509548187 0 25926601.509548187 -2999122.2224502563 0 0 0 0 6755332.8134784698 29702801.060880661 0 29702801.060880661 2827444.4927368164 0 0 0 0 16151865.010198593 22776679.678401947 0 22776679.678401947 -6479448.3639221191 0 0 0 0 20264496.066776276 26690764.955863953 0 26690764.955863953 -13683835.393463135 0 0 0 0 17730053.55988697 24182003.885122944 0 24182003.885122944 -6383834.2244647145 0 0 0 0 14843529.214925312 18974289.538567021 0 18974289.538567021 3978623.1244234517 0 0 0 0 18729350.021827698 28539151.184780121 0 28539151.184780121 -6064562.1887741089 0 0 0 0 -32201136.363149643 57608701.163555145 0 57608701.163555145 21728255.179382324 0 0 0 0 -894752460.51304626 -119927892.06552887 0 -119927892.06552887 302075526.73561096 0 0 0 0 -378864802.87238503 975353.50972747803 0 975353.50972747803 185742498.87042236 0 0 0 0 -664300890.47418022 21628627.920362473 0 21628627.920362473 220548779.88219452 0 0 0 0 -304707260.09719944 -84367494.476570129 0 -84367494.476570129 58765485.966567993 0 0 0 0 -831134371.69542885 189043102.3302269 0 189043102.3302269 187090322.83636475 0 0 0 0 17968664.424385071 5762548.9507827759 0 5762548.9507827759 18513592.867404938 0 0 0 0 -1063677.0166110201 2390768.918020064 0 2390768.918020064 532663.48172733188 0 0 0 0 -353959084.6489296 179326615.72885895 0 179326615.72885895 368845491.81044006 0 0 0 0 17739836.907202877 32251191.471772075 0 32251191.471772075 -2292593.4826507568 0 0 0 0 64659679.00919342 1838738.8082275391 0 1838738.8082275391 -100370066.29800367 0 0 0 0 1932151.9726470187 4104828.4652887117 0 4104828.4652887117 1292319.1327561513 0 0 0 0 71127951.699611664 -6961930.7934179306 0 -6961930.7934179306 -90116937.716770172 0 0 0 0 -15257500.499230385 -6574351.156621933 0 -6574351.156621933 62910580.01543808 0 0 0 0 -3633435.7191631533 13524524.407895787 0 13524524.407895787 9453043.2162693888 0 0 0 0 41383289.466487885 -17536511.537471771 0 -17536511.537471771 -48663276.714220047 0 0 0 0 -549310.62881341204 1379192.8804163449 0 1379192.8804163449 774629.56709587574 0 0 0 0 -439225565.91396332 -129824929.6877594 0 -129824929.6877594 -181482187.45735168 0 0 0 0 -728269925.65089989 -263366873.74409866 0 -263366873.74409866 87912396.544158936 0 0 0 0 -683963450.83992243 -101688457.40270424 0 -101688457.40270424 242916201.58174896 0 0 0 0 -325747583.19355774 74541165.372047424 0 74541165.372047424 42881695.015300751 0 0 0 0 -300169010.32391357 13168361.292172432 0 13168361.292172432 189039826.8089447 0 0 0 0 -305461511.77727699 173349936.39770508 0 173349936.39770508 -20204380.353784561 0 0 0 0 -183343634.35973263 307586101.34006119 0 307586101.34006119 162495018.99167633 0 0 0 0 -298328656.82111835 155142223.10796547 0 155142223.10796547 26124068.520370483 0 0 0 0 -122124612.86486244 176294828.76344681 0 176294828.76344681 -254595656.31814575 0 0 0 0 -139990670.46567726 269506863.53163528 0 269506863.53163528 -139467826.05128098 0 0 0 0 -239093572.47521019 222225121.38644028 0 222225121.38644028 40730270.352503777 0 0 0 0 591916.00856779702 14124521.604791857 0 14124521.604791857 6348590.4140462503 0 0 0 0 -1050415.3833618164 14635683.644210815 0 14635683.644210815 -1699961.0671746731 0 0 0 0 11752899.268006129 17158570.203268602 0 17158570.203268602 -1534631.5000028908 0 0 0 0 35532271.461975098 -19196234.109344482 0 -19196234.109344482 -35329881.432167053 0 0 0 0 -1816310.1557766581 15534941.586053226 0 15534941.586053226 844167.90615324676 0 0 0 0 -269803619.71162105 129605729.53488445 0 129605729.53488445 -80078649.56224823 0 0 0 0 -338988698.23689365 133320440.92172718 0 133320440.92172718 8520403.1456451416 0 0 0 0 36003004.062190771 37548247.61827898 0 37548247.61827898 4127852.6065597534 0 0 0 0 2310019.4272881653 6980301.7854130846 0 6980301.7854130846 265662.68371132016 0 0 0 0 45441257.897342682 11688194.890804291 0 11688194.890804291 4459318.6062736511 0 0 0 0 -3798640.8465674743 -27600.359556589276 0 -27600.359556589276 1082084.7028730512 0 0 0 0 5359146.8769893646 18271671.049415588 0 18271671.049415588 2224883.8342981339 0 0 0 0 5429360.1118598729 8632989.5771082994 0 8632989.5771082994 -502943.47406827658 0 0 0 0 -2011369.72315979 15242672.735145569 0 15242672.735145569 4228829.592165947 0 0 0 0 29712119.99876976 24484154.27249527 0 24484154.27249527 -4676455.7417907715 0 0 0 0 24917959.661006927 12143801.908416748 0 12143801.908416748 10365583.526216388 0 0 0 0 5279996.1818771362 25238697.041732788 0 25238697.041732788 214397.75335049629 0 0 0 0 20459385.304847717 23015799.873054504 0 23015799.873054504 -3652945.5671043396 0 0 0 0 -9152420.8073959351 18697414.620124817 0 18697414.620124817 7449800.9467086792 0 0 0 0 507512.9390965132 14870842.948104974 0 14870842.948104974 2767236.9623321593 0 0 0 0 4136865.4986076355 6933568.9799995422 0 6933568.9799995422 1935229.7217254639 0 0 0 0 4323033.0487618372 13315704.989055358 0 13315704.989055358 1069338.8043548912 0 0 0 0 17581401.351135254 33822994.429721832 0 33822994.429721832 17237694.141540527 0 0 0 0 -1072969.8363685608 42299387.079848528 0 42299387.079848528 20153184.013809204 0 0 0 0 17520630.039924622 21482562.05639267 0 21482562.05639267 2353762.0755906701 0 0 0 0 -2628053.9654825702 12571106.384984881 0 12571106.384984881 3429369.7986268327 0 0 0 0 36432000.970245361 32346768.087608337 0 32346768.087608337 13425912.106891632 0 0 0 0 34479935.228088379 35972906.025722504 0 35972906.025722504 16001205.690155029 0 0 0 0 50023813.181030273 23215409.307893753 0 23215409.307893753 23293140.322998047 0 0 0 0 -820056.61279269587 18710605.992944766 0 18710605.992944766 13153018.790949151 0 0 0 0 4278854.2021560669 14453970.959442139 0 14453970.959442139 4449876.4429779053 0 0 0 0 12780947.636059934 16921864.559640024 0 16921864.559640024 1843455.4809882417 0 0 0 0 18056685.4563132 14929135.080913365 0 14929135.080913365 1656391.5309106465 0 0 0 0 39642700.334083557 25887620.635505676 0 25887620.635505676 -14199117.93097496 0 0 0 0 -18538752.678405762 12444659.564922333 0 12444659.564922333 23696320.975952148 0 0 0 0 -23553928.886451721 -6493943.095741272 0 -6493943.095741272 16927564.685150146 0 0 0 0 57093738.571886063 17700742.75863266 0 17700742.75863266 6355431.3124389648 0 0 0 0 1263181.9290471189 14384714.742164796 0 14384714.742164796 5886960.9389586449 0 0 0 0 43165236.778036118 21191359.801605225 0 21191359.801605225 7557801.5235939026 0 0 0 0 57237509.890163422 32420982.886108398 0 32420982.886108398 33414986.635742188 0 0 0 0 65454752.24984169 -2234403.6154203415 0 -2234403.6154203415 -8328426.5315170288 0 0 0 0 -19479491.897743225 20873088.364707947 0 20873088.364707947 -6934559.9968452454 0 0 0 0 14239064.259935245 34017256.899548136 0 34017256.899548136 4275563.8036685064 0 0 0 0 14820030.294578299 31235248.155822903 0 31235248.155822903 4274681.3897329215 0 0 0 0 11696573.855651855 21896482.831062317 0 21896482.831062317 3778196.1581420898 0 0 0 0 28599244.794172287 31315112.411636353 0 31315112.411636353 8799434.9384460449 0 0 0 0 2703255.5456358045 24392875.00087826 0 24392875.00087826 8992209.4438142776 0 0 0 0 13915034.283630371 23526424.437950134 0 23526424.437950134 11606789.923828125 0 0 0 0 8867299.078280976 18182253.418777969 0 18182253.418777969 4278964.8230287582 0 0 0 0 -9416488.0954055786 31825115.766651154 0 31825115.766651154 3706621.1645431519 0 0 0 0 -2353545.5894310474 20114956.035148811 0 20114956.035148811 6553603.1334535424 0 0 0 0 -431376.40469053388 25074949.376724213 0 25074949.376724213 7080311.754926268 0 0 0 0 -10279526.509857178 38090701.93939209 0 38090701.93939209 7852275.0396957397 0 0 0 0 -10457570.459680557 35369838.501861572 0 35369838.501861572 17096572.320930481 0 0 0 0 42146589.281991959 47696432.067547798 0 47696432.067547798 14837656.360015869 0 0 0 0 6672005.8669210896 5326560.2088427618 0 5326560.2088427618 4206197.7568426132 0 0 0 0 -14557870.87752533 25582344.746412277 0 25582344.746412277 28848820.551124573 0 0 0 0 30641630.076564789 49046430.708277702 0 49046430.708277702 17390738.207633972 0 0 0 0 22166145.439092636 46168524.859994888 0 46168524.859994888 17830725.688545227 0 0 0 0 7344801.996055603 34322427.749408722 0 34322427.749408722 8451100.8358078003 0 0 0 0 -5599818.1562642977 16995688.216291111 0 16995688.216291111 -3562772.4380598441 0 0 0 0 -1777014.0536460876 35296684.247127533 0 35296684.247127533 8408505.671333313 0 0 0 0 -4117013.0431976318 35481403.754837036 0 35481403.754837036 8751974.4156684875 0 0 0 0 -6075579.4846343994 35080626.595710754 0 35080626.595710754 10770180.595900774 0 0 0 0 -10587155.173641205 33485170.323841095 0 33485170.323841095 15671856.998123169 0 0 0 0 -244161.8423614502 41926616.67294693 0 41926616.67294693 5710765.6237716675 0 0 0 0 -28602566.104812622 44127733.2241745 0 44127733.2241745 13225654.190858841 0 0 0 0 -8102992.8284645081 43683703.525125504 0 43683703.525125504 18301715.789230347 0 0 0 0 -14015226.998146057 38062668.425632477 0 38062668.425632477 12978474.693477631 0 0 0 0 -10729609.886447906 49964329.960350037 0 49964329.960350037 8629035.8623809814 0 0 0 0 5064373.5579681396 33263451.220727921 0 33263451.220727921 12006529.224636078 0 0 0 0 -1250188.6913757324 37228296.745552063 0 37228296.745552063 9617200.8875045776 0 0 0 0 -234167.3368454352 4818933.0679272041 0 4818933.0679272041 6540932.2330398634 0 0 0 0 16691413.507019043 47303993.476261139 0 47303993.476261139 5558255.544719696 0 0 0 0 -312741.84124755859 17221222.713699341 0 17221222.713699341 -5238846.5408320427 0 0 0 0 17433414.820541382 36632841.809619904 0 36632841.809619904 2974511.3825454712 0 0 0 0 -19272582.981801987 7486159.2281532288 0 7486159.2281532288 38136537.784317017 0 0 0 0 -1173299.9036002159 18281110.438753642 0 18281110.438753642 3043923.9799421616 0 0 0 0 -4288204.4260253906 18347832.301849365 0 18347832.301849365 -9740634.7976531982 0 0 0 0 -4180223.0739746094 26444159.697814941 0 26444159.697814941 -2591342.8791503906 0 0 0 0 -32364424.956280708 18600411.447452068 0 18600411.447452068 31111426.336090088 0 0 0 0 15294918.90308319 22338877.271159615 0 22338877.271159615 5666227.5525519848 0 0 0 0 38244925.902587891 37118200.901824951 0 37118200.901824951 2528042.7104187012 0 0 0 0 -6755873.6638302878 13416148.715381533 0 13416148.715381533 2290264.1849672794 0 0 0 0 23189565.712532192 31804083.494987167 0 31804083.494987167 -17880105.44656752 0 0 0 0 1714049.7744356021 3342306.4369533211 0 3342306.4369533211 -1650918.6187115908 0 0 0 0 8195130.4339294434 20204033.358604431 0 20204033.358604431 -6681101.8348731995 0 0 0 0 10432628.216140747 31300248.725022316 0 31300248.725022316 9773964.6049308777 0 0 0 0 11288714.228744507 27213442.503611565 0 27213442.503611565 6946670.2381248474 0 0 0 0 7330174.4370362759 18900920.050722077 0 18900920.050722077 5643354.5185182951 0 0 0 0 -12432570.873916298 13811404.373141818 0 13811404.373141818 5300077.0708164722 0 0 0 0 6207600.4477272034 33843498.542721748 0 33843498.542721748 8564168.0108566284 0 0 0 0 -16059351.916388839 19637647.310012735 0 19637647.310012735 6725.247422106564 0 0 0 0 11288531.694114685 38901631.766952515 0 38901631.766952515 -2345391.4569168091 0 0 0 0 -14716003.023010254 30906918.822998047 0 30906918.822998047 12168656.727552414 0 0 0 0 -7936780.6240418553 9422004.5707598403 0 9422004.5707598403 4490629.6935867593 0 0 0 0 -12654323.29019165 41399181.402267456 0 41399181.402267456 996362.2131023407 0 0 0 0 -12695750.341209412 7544633.8340950012 0 7544633.8340950012 38403800.021961212 0 0 0 0 -31090928.146743774 23473483.879665375 0 23473483.879665375 26209738.796545982 0 0 0 0 -38450050.853824615 16573230.578012466 0 16573230.578012466 35433245.604400635 0 0 0 0 -26416122.909655608 20170480.749020644 0 20170480.749020644 16659735.431849316 0 0 0 0 -34119825.540351868 28167131.315880775 0 28167131.315880775 28957621.44638443 0 0 0 0 -36595595.232261658 25938433.129438877 0 25938433.129438877 52621433.966831207 0 0 0 0 -69497971.695701599 50326927.678952217 0 50326927.678952217 28721795.922966003 0 0 0 0 -50452978.839673996 -20062908.132578373 0 -20062908.132578373 17553738.898620605 0 0 0 0 -142505614.49885559 -38980730.581180573 0 -38980730.581180573 6108116.6934356689 0 0 0 0 -45078037.003967285 16368413.399856567 0 16368413.399856567 14157334.243196487 0 0 0 0 -119124698.16711426 30448130.564640045 0 30448130.564640045 21253947.946666718 0 0 0 0 -55185628.633049011 93380163.037599564 0 93380163.037599564 -16438768.664722443 0 0 0 0 -41559010.678100586 33958340.880887985 0 33958340.880887985 38287232.373836517 0 0 0 0 2354628.0043106079 51655708.9985075 0 51655708.9985075 43924426.280630112 0 0 0 0 -22205636.52897644 58648404.501106262 0 58648404.501106262 12170779.247043133 0 0 0 0 -19816314.861147173 25624952.194804836 0 25624952.194804836 8899392.481218569 0 0 0 0 10956390.517572343 27136762.881440945 0 27136762.881440945 13039401.162394874 0 0 0 0 -9371561.7899169922 47626108.302110672 0 47626108.302110672 9712566.4424118996 0 0 0 0 13417394.094688416 43487260.411104202 0 43487260.411104202 -2890051.3696365356 0 0 0 0 13575524.291568063 14142143.453549104 0 14142143.453549104 -9902317.9837692007 0 0 0 0 26989725.223007202 48640917.822973251 0 48640917.822973251 -767545.8068985939 0 0 0 0 13032317.751319885 46414208.809520841 0 46414208.809520841 12931570.449279785 0 0 0 0 110571352.75286102 31911490.946554184 0 31911490.946554184 -5425763.925819397 0 0 0 0 -8047512.5618886501 1046211.3334327564 0 1046211.3334327564 2594117.8938791379 0 0 0 0 13723476.386925697 43842042.332776546 0 43842042.332776546 736478.16518783569 0 0 0 0 11516886.096986294 58767902.760909557 0 58767902.760909557 23823761.41645813 0 0 0 0 10073863.001590729 28436505.999990463 0 28436505.999990463 -619502.37602043152 0 0 0 0 17931705.537693024 46134583.084968567 0 46134583.084968567 21036427.91157198 0 0 0 0 -3214823.5826931 32655367.46271801 0 32655367.46271801 20415130.882266998 0 0 0 0 -7461301.7293367386 15332341.413020134 0 15332341.413020134 -2208191.7248001099 0 0 0 0 4725436.1296161655 31113316.624063596 0 31113316.624063596 9854111.2944543287 0 0 0 0 -31387066.529247284 31406512.378803253 0 31406512.378803253 6134355.7952804565 0 0 0 0 67463149.866630554 38222804.521868706 0 38222804.521868706 18330928.599124908 0 0 0 0 63416407.873674393 34330103.22990799 0 34330103.22990799 15043546.368522644 0 0 0 0 21687216.897654627 6042521.1891429443 0 6042521.1891429443 -8415523.669261042 0 0 0 0 62845909.977088928 41439537.290706635 0 41439537.290706635 22613696.837356567 0 0 0 0 38907749.647594452 26837128.158664703 0 26837128.158664703 10697705.072277069 0 0 0 0 153173681.56149483 58140907.653964996 0 58140907.653964996 -14664350.687633514 0 0 0 0 -5462836.062886484 11721531.316665817 0 11721531.316665817 7285610.6266398132 0 0 0 0 130859732.63051033 -14535786.51723671 0 -14535786.51723671 -40708704.934432983 0 0 0 0 59416711.851722717 40553690.228218079 0 40553690.228218079 22902247.932159424 0 0 0 0 57124401.865516663 41225486.264610291 0 41225486.264610291 25458869.32849884 0 0 0 0 56761828.216720581 36384131.159515381 0 36384131.159515381 19539595.888435364 0 0 0 0 55013203.635299683 37461711.071258545 0 37461711.071258545 26592089.017606735 0 0 0 0 57346188.557975769 33567926.919488907 0 33567926.919488907 15890814.105117798 0 0 0 0 55177910.312492371 35603461.298847198 0 35603461.298847198 21362401.606086731 0 0 0 0 56068785.658802032 33328380.454936981 0 33328380.454936981 21086833.815460205 0 0 0 0 48587609.57831192 34105874.129716873 0 34105874.129716873 18744558.324260712 0 0 0 0 47703814.679805756 23336187.455640793 0 23336187.455640793 15029383.492107391 0 0 0 0 43345072.025026083 26344375.458113909 0 26344375.458113909 14332412.602779388 0 0 0 0 3689107.5166503871 27612714.904864423 0 27612714.904864423 13046297.972624213 0 0 0 0 56889356.491380215 27950896.185490608 0 27950896.185490608 11926640.133907318 0 0 0 0 -52408947.736251831 15084462.907590866 0 15084462.907590866 62582290.17440033 0 0 0 0 40941343.206855774 25082427.814554214 0 25082427.814554214 13753480.41991806 0 0 0 0 -6406004.1375655066 28794428.513867561 0 28794428.513867561 15077677.518911757 0 0 0 0 37678443.776493073 39238401.590688705 0 39238401.590688705 -1261096.7720222473 0 0 0 0 40977020.945932388 22415568.777000427 0 22415568.777000427 -20223968.847530365 0 0 0 0 42354489.922533035 54920922.35669899 0 54920922.35669899 -47486101.639745712 0 0 0 0 39218002.088027954 35374375.451759338 0 35374375.451759338 8597083.2947463989 0 0 0 0 45383113.572531223 29427291.985306263 0 29427291.985306263 14030960.78213501 0 0 0 0 28031544.158880234 29158271.227060318 0 29158271.227060318 13937053.957150459 0 0 0 0 38960875.568637848 47882170.339797974 0 47882170.339797974 24628039.737976074 0 0 0 0 -1827811.8749191929 1598804.2291433299 0 1598804.2291433299 -703344.46435663104 0 0 0 0 50397134.027225018 36586767.379388332 0 36586767.379388332 -127472250.28140259 0 0 0 0 -455426672.6437149 -169866432.65433311 0 -169866432.65433311 61499803.616397381 0 0 0 0 -170079952.05811787 -34962225.835314751 0 -34962225.835314751 24255261.740831375 0 0 0 0 -203492887.91856956 -63842376.369529724 0 -63842376.369529724 -470864.19536972046 0 0 0 0 57637527.497340441 48344536.506984651 0 48344536.506984651 19131540.972801208 0 0 0 0 -654100.32688402385 6973331.2007094929 0 6973331.2007094929 -1299939.1112063527 0 0 0 0 -140761184.96085596 76509740.705699921 0 76509740.705699921 2064108.6326370239 0 0 0 0 -140049744.09223366 70329787.326990128 0 70329787.326990128 38093413.588401794 0 0 0 0 -321605863.36599731 79838587.195899963 0 79838587.195899963 35731183.710502625 0 0 0 0 -155729118.31719208 66301361.599838257 0 66301361.599838257 3283109.1603927612 0 0 0 0 -106601228.26052094 65851178.279563904 0 65851178.279563904 -2641645.80859375 0 0 0 0 -277760423.20461655 165866616.47898865 0 165866616.47898865 -28640013.947418213 0 0 0 0 45621694.666023254 -20029791.686012268 0 -20029791.686012268 20903082.634641647 0 0 0 0 -91030582.236008644 35456466.723073959 0 35456466.723073959 5738241.6804199219 0 0 0 0 59562273.51376152 25005425.914239883 0 25005425.914239883 11298485.713569641 0 0 0 0 22195325.822097778 -24463771.041473389 0 -24463771.041473389 -8826310.6229324341 0 0 0 0 -4924641.6320905685 46535078.77630043 0 46535078.77630043 -48086091.863754272 0 0 0 0 -111020201.00902557 98018087.232639313 0 98018087.232639313 -35477849.561958313 0 0 0 0 -458002403.57315826 156630555.37515259 0 156630555.37515259 -68017431.95703125 0 0 0 0 -250600263.29954529 -23260968.016637802 0 -23260968.016637802 -23775895.864221573 0 0 0 0 -355598843.45103168 152164822.37718582 0 152164822.37718582 -79833725.278457642 0 0 0 0 -405892867.18725967 129955855.75593185 0 129955855.75593185 65616025.829360962 0 0 0 0 -361633102.61409235 -180548865.79570627 0 -180548865.79570627 -243149720.72223663 0 0 0 0 -24510648.00566864 -3487684.7103118896 0 -3487684.7103118896 -4769121.3600120544 0 0 0 0 -5559755.8874664307 78319336.67250824 0 78319336.67250824 -83970672.295829773 0 0 0 0 1847362.8406267166 1214252.1852254346 0 1214252.1852254346 693928.75056822225 0 0 0 0 -16644449.319298744 23971171.05764389 0 23971171.05764389 -18867643.004669189 0 0 0 0 40124383.558773041 -27995198.26657486 0 -27995198.26657486 171907100.59178925 0 0 0 0 27688587.975097656 1457551.5433034897 0 1457551.5433034897 150925093.63182068 0 0 0 0 -266019341.72796631 61857523.993652344 0 61857523.993652344 302226662.49247742 0 0 0 0 1850493.988641113 590607.09513793886 0 590607.09513793886 461341.48013437912 0 0 0 0 -79200454.122104645 -71998773.944081306 0 -71998773.944081306 373032718.68055344 0 0 0 0 50221914.379364014 -143314799.98447418 0 -143314799.98447418 7383465.6223144531 0 0 0 0 1667316.130800873 -676118.77917957306 0 -676118.77917957306 -331597.25555318221 0 0 0 0 -76507.190124511719 25465217.945400238 0 25465217.945400238 -19513851.380531311 0 0 0 0 51349868.281242371 11319061.312425613 0 11319061.312425613 -164894966.17267036 0 0 0 0 -4685544.4509782791 11795338.142091751 0 11795338.142091751 -3715153.2305984497 0 0 0 0 28575151.863372803 -22868991.038528442 0 -22868991.038528442 -18083868.025222778 0 0 0 0 51554494.812545776 29316628.470596313 0 29316628.470596313 3712045.1273269653 0 0 0 0 420727.49456977844 46441856.184524536 0 46441856.184524536 77134449.082611084 0 0 0 0 -86368093.135406494 96650143.230335236 0 96650143.230335236 164889876.10475159 0 0 0 0 494948.74994629994 1420741.8156733215 0 1420741.8156733215 163226.71159499884 0 0 0 0 8755887.8771514893 12666899.385845184 0 12666899.385845184 -1531434.7343826294 0 0 0 0 11770473.591430664 29345706.525791168 0 29345706.525791168 2930019.7126464844 0 0 0 0 6374.3190689086914 28466641.279233932 0 28466641.279233932 17780099.036128998 0 0 0 0 26718.110258061984 19929084.464230925 0 19929084.464230925 -570403.71369934082 0 0 0 0 2101902.9318389893 21910340.54782486 0 21910340.54782486 787972.20693778992 0 0 0 0 -15078383.789230347 14061867.281009674 0 14061867.281009674 5126822.8690185547 0 0 0 0 -9788312.2733383179 4327655.1751403809 0 4327655.1751403809 -311424.08045959473 0 0 0 0 -942309.61754608154 25975448.606256485 0 25975448.606256485 1616322.7188568115 0 0 0 0 -76598.537720769644 629779.10461165011 0 629779.10461165011 -411245.39463079767 0 0 0 0 2139965.6885070801 -4383133.2613525391 0 -4383133.2613525391 6681448.8112716675 0 0 0 0 -404817.46635280922 3597760.8238906637 0 3597760.8238906637 1025254.8468336165 0 0 0 0 -8930480.5066795349 10761702.943092346 0 10761702.943092346 8250194.9086036682 0 0 0 0 -13196845.493068695 2277169.0762958527 0 2277169.0762958527 12791972.652774811 0 0 0 0 -5471661.094994396 2712354.8876217008 0 2712354.8876217008 364821.12410118943 0 0 0 0 -1932573.1572647095 8203161.0020446777 0 8203161.0020446777 -951255.67589187622 0 0 0 0 -7310528.796585083 7395074.6471672058 0 7395074.6471672058 5023283.1175950766 0 0 0 0 -2843389.2584533691 6237312.7690372467 0 6237312.7690372467 -1415339.8317832947 0 0 0 0 -3529119.4178903848 2966165.5757184029 0 2966165.5757184029 441506.22883611172 0 0 0 0 -4023463.0960006714 11150316.817512512 0 11150316.817512512 -6245592.457239151 0 0 0 0 6793515.6846494675 -21204195.330249071 0 -21204195.330249071 87510296.032848358 0 0 0 0 1607456.7399659008 2171139.7071874514 0 2171139.7071874514 161956.97736024112 0 0 0 0 -7617985.8787536621 6141335.9979629517 0 6141335.9979629517 -1660010.1974716187 0 0 0 0 -580328.50192642212 10083264.590455055 0 10083264.590455055 5780016.313583374 0 0 0 0 -4075681.0221862793 13893632.398895264 0 13893632.398895264 5169998.5155439377 0 0 0 0 2486203.0386708528 9668530.117592901 0 9668530.117592901 4495905.7597076893 0 0 0 0 -2397634.146484375 8657629.507686615 0 8657629.507686615 5785211.5331917405 0 0 0 0 -2050316.1446457691 5792567.9858010784 0 5792567.9858010784 1241429.2669868022 0 0 0 0 -22135990.328552246 15319497.479614258 0 15319497.479614258 38776154.582168579 0 0 0 0 -27066336.128543854 -24359879.394626617 0 -24359879.394626617 122443374.32426453 0 0 0 0 -372272.36303167418 1148282.4516605213 0 1148282.4516605213 360114.62253546715 0 0 0 0 -12507078.939285278 19095432.079299927 0 19095432.079299927 27095610.480178833 0 0 0 0 -7628393.8895127922 4099416.7802310213 0 4099416.7802310213 4512270.2235712744 0 0 0 0 -23258332.451019287 11555794.943946838 0 11555794.943946838 41000270.799728394 0 0 0 0 -16648672.931114197 29095150.884012222 0 29095150.884012222 20352639.729076385 0 0 0 0 -22961381.507774353 40017155.703868866 0 40017155.703868866 1462855.8781661987 0 0 0 0 -30322994.006435394 25766861.411457062 0 25766861.411457062 48168327.959274292 0 0 0 0 -179869.25195884705 -7306963.986571312 0 -7306963.986571312 39352880.294204712 0 0 0 0 -24960159.289505005 21341104.962465286 0 21341104.962465286 32997268.824615479 0 0 0 0 -45143474.534851074 54067650.862369537 0 54067650.862369537 3230878.2080001831 0 0 0 0 -15774057.983078003 32138590.422939301 0 32138590.422939301 43610339.649932861 0 0 0 0 -50146364.146374702 7311151.1679987907 0 7311151.1679987907 60286199.629325867 0 0 0 0 -21784068.730133057 51561516.880828857 0 51561516.880828857 -5911197.7475700378 0 0 0 0 -11469134.070220947 61231674.502056122 0 61231674.502056122 -194655323.45059967 0 0 0 0 -12294622.381660461 54649252.846307755 0 54649252.846307755 -67150893.146221161 0 0 0 0 -12690753.023492023 21987332.978549551 0 21987332.978549551 4621532.1316680908 0 0 0 0 28024823.928657532 -32937375.078668594 0 -32937375.078668594 58944393.877788544 0 0 0 0 40600828.09702301 1287787.747795105 0 1287787.747795105 140525558.64690971 0 0 0 0 -36167836.070388794 -26153324.346904755 0 -26153324.346904755 88226556.123161316 0 0 0 0 -103254443.39936066 45009541.112358093 0 45009541.112358093 152767892.09413338 0 0 0 0 -71884197.753646851 108622007.78930092 0 108622007.78930092 -29620935.191448212 0 0 0 0 163559561.51974487 24745174.140993118 0 24745174.140993118 -45520263.431900024 0 0 0 0 -30556795.809555054 38691040.595726013 0 38691040.595726013 101445180.092659 0 0 0 0 -48014489.834878922 142470655.60213113 0 142470655.60213113 112019766.83582306 0 0 0 0 113798251.33346558 147890270.13695717 0 147890270.13695717 81004908.438625336 0 0 0 0 -1934883.7358518541 2195770.5482386202 0 2195770.5482386202 1965964.0445986763 0 0 0 0 35002267.938327789 209670125.58342361 0 209670125.58342361 184637140.40727997 0 0 0 0 -1634416.7856905907 -2177771.3628379852 0 -2177771.3628379852 -661438.80003120936 0 0 0 0 -11253386.704704285 14593432.727371216 0 14593432.727371216 65983120.593996048 0 0 0 0 -425543.58218471706 -980235.12331131101 0 -980235.12331131101 -361336.89396188222 0 0 0 0 -13741576.131942749 2947034.101474762 0 2947034.101474762 144082586.12662506 0 0 0 0 -218069.07811737061 6044241.1255741119 0 6044241.1255741119 68394860.316287994 0 0 0 0 4938505.6025695801 36544115.227798462 0 36544115.227798462 85961727.030548096 0 0 0 0 4620313.6350402832 41795572.855472565 0 41795572.855472565 56508711.116173744 0 0 0 0 3307848.395149231 20529046.861030579 0 20529046.861030579 25832421.17206955 0 0 0 0 4477415.2092499733 37860511.917530179 0 37860511.917530179 50214944.147529602 0 0 0 0 -14435243.40411377 18827873.478282928 0 18827873.478282928 27946512.886062622 0 0 0 0 29218901.563011169 73782770.490013123 0 73782770.490013123 58193263.845680237 0 0 0 0 25768804.903526306 58222181.488876343 0 58222181.488876343 -1257726.4108924866 0 0 0 0 212315060.85803223 17960699.351745605 0 17960699.351745605 -21903439.424648285 0 0 0 0 109814457.30696869 255175343.65779495 0 255175343.65779495 44240389.6783638 0 0 0 0 84766450.338165283 55210449.410869598 0 55210449.410869598 -8672376.1227359772 0 0 0 0 67852932.430709839 -28746588.077781677 0 -28746588.077781677 -18249879.752548218 0 0 0 0 -7940511.4014434814 -41232835.685714722 0 -41232835.685714722 13252100.236671448 0 0 0 0 23727916.175273895 79464944.696134567 0 79464944.696134567 57140160.776741028 0 0 0 0 -1301500.1942035779 1529310.6066430733 0 1529310.6066430733 1381455.1623676196 0 0 0 0 -145381864.58222198 96333678.775466919 0 96333678.775466919 66012995.117324829 0 0 0 0 383834946.17588806 354539898.73658943 0 354539898.73658943 192969771.76597023 0 0 0 0 -18283170.29637146 244089520.93813324 0 244089520.93813324 237336078.80257416 0 0 0 0 2681544.3740081787 236603250.51517296 0 236603250.51517296 232564240.01779175 0 0 0 0 3714720.5301437378 211962419.97165108 0 211962419.97165108 187208978.81003952 0 0 0 0 16243620.894107819 165652762.03659725 0 165652762.03659725 86849733.788352966 0 0 0 0 -48364022.940551758 163727889.15315819 0 163727889.15315819 211637231.81417561 0 0 0 0 -68535060.595085144 -7046937.1191539764 0 -7046937.1191539764 167464265.12652588 0 0 0 0 -27259848.686798096 82980548.43920517 0 82980548.43920517 285864631.41335678 0 0 0 0 -1237219.0770262629 1271983.4728417844 0 1271983.4728417844 1257010.1313077807 0 0 0 0 243902403.0324173 227582705.8823185 0 227582705.8823185 173909429.43176019 0 0 0 0 -299645381.74996185 -57182235.965614319 0 -57182235.965614319 241648590.15771484 0 0 0 0 -188284975.83502197 -53862781.544425964 0 -53862781.544425964 156830840.45697403 0 0 0 0 -21183113.073654175 940446.12692451477 0 940446.12692451477 769943713.48680305 0 0 0 0 30945333.977302551 43701295.29155159 0 43701295.29155159 267510339.04919434 0 0 0 0 -37355685.321702957 206891157.50843 0 206891157.50843 362935524.04789734 0 0 0 0 15267603.587501526 161046177.38565826 0 161046177.38565826 315200519.88579559 0 0 0 0 240639.03972625732 207154201.10814285 0 207154201.10814285 381395354.69563293 0 0 0 0 -65431.011848449707 218926494.10279846 0 218926494.10279846 233669137.29850388 0 0 0 0 28816119.461509705 218824995.01904106 0 218824995.01904106 244327611.58057022 0 0 0 0 -37535332.626724243 210860831.85115814 0 210860831.85115814 245889258.76334763 0 0 0 0 16256880.194824219 199401995.61663342 0 199401995.61663342 176422577.10894012 0 0 0 0 -10930.992576599121 204258138.67676163 0 204258138.67676163 61872613.737705231 0 0 0 0 -41869261.121139526 175857228.91065598 0 175857228.91065598 177355334.7213074 0 0 0 0 -17788745.074092865 205949484.14892006 0 205949484.14892006 102218059.39984131 0 0 0 0 -70879855.723579407 163745359.23333359 0 163745359.23333359 89082395.629308224 0 0 0 0 -41841544.016311646 106956764.69952583 0 106956764.69952583 19021554.211212158 0 0 0 0 43971902.104946136 257940925.35661697 0 257940925.35661697 170052801.73836517 0 0 0 0 -56407713.870391846 190066087.62644005 0 190066087.62644005 226339463.44400978 0 0 0 0 -24360217.391349792 165800188.18244076 0 165800188.18244076 -61292640.568490982 0 0 0 0 -117307785.65638351 180150513.41610718 0 180150513.41610718 192862392.02129364 0 0 0 0 -111124031.59981012 254802071.4219358 0 254802071.4219358 -138229860.9731369 0 0 0 0 -88129627.627105236 86138067.798196316 0 86138067.798196316 -104892582.67583466 0 0 0 0 -58878947.414588928 216525628.57740593 0 216525628.57740593 -245777984.88834763 0 0 0 0 -24210.630508422852 184406468.50411797 0 184406468.50411797 -114572001.03228569 0 0 0 0 -24943548.88048172 115736105.60814762 0 115736105.60814762 -250599818.10227203 0 0 0 0 -34622999.396392822 130338043.25420952 0 130338043.25420952 -148299411.06492615 0 0 0 0 982.59195709228516 156725686.06786633 0 156725686.06786633 -266420980.95150375 0 0 0 0 -25277592.574447632 85373144.101623535 0 85373144.101623535 -366988751.20200348 0 0 0 0 389324.82395163178 2205750.1403678991 0 2205750.1403678991 4905415.4267448597 0 0 0 0 -1306.3007507324219 5104801.2443351746 0 5104801.2443351746 4508933.985168457 0 0 0 0 -108751.30355834961 22594077.933034897 0 22594077.933034897 99806225.638938904 0 0 0 0 -449197.93050886691 64756.865036159754 0 64756.865036159754 1015130.7830620743 0 0 0 0 -28746239.350143433 31375886.358026505 0 31375886.358026505 9033076.1411629915 0 0 0 0 -20564000.96875 21662610.08842659 0 21662610.08842659 8684191.9078760147 0 0 0 0 292663.19671010971 20083043.666779578 0 20083043.666779578 64317146.307020187 0 0 0 0 -9868961.4301708043 1120984.5619312748 0 1120984.5619312748 6662570.0497353896 0 0 0 0 9318801.9247120917 6294041.3619956672 0 6294041.3619956672 2708064.3936975934 0 0 0 0 -3193413.6930618286 140542464.41310406 0 140542464.41310406 -258350367.07523346 0 0 0 0 9975551.2347090244 5074132.4300004467 0 5074132.4300004467 1463242.4083719701 0 0 0 0 -98512247.205116272 85744657.247617722 0 85744657.247617722 -44582333.246666908 0 0 0 0 -130113246.09345055 41231903.631134033 0 41231903.631134033 74091938.057914734 0 0 0 0 -107289091.60516357 12096741.292253494 0 12096741.292253494 40597865.647168159 0 0 0 0 -19245926.776123047 8176666.0711917877 0 8176666.0711917877 22178468.098793745 0 0 0 0 -32931037.83808136 19200534.044904232 0 19200534.044904232 22786726.518692017 0 0 0 0 -10897719.434963226 -500807.97963524982 0 -500807.97963524982 6376446.8405299336 0 0 0 0 8497221.8968048096 48927625.145299911 0 48927625.145299911 42900204.902003765 0 0 0 0 -82827361.241903305 -20998799.102781057 0 -20998799.102781057 23274198.013648987 0 0 0 0 -85131947.005622864 -57736622.968273163 0 -57736622.968273163 -30664174.581552744 0 0 0 0 -83299750.587240219 -22722671.721160173 0 -22722671.721160173 65991676.384317398 0 0 0 0 -91614104.403198242 -129666004.30955124 0 -129666004.30955124 -42330466.185316443 0 0 0 0 -9927248.6672897786 -910578.3589967899 0 -910578.3589967899 6094880.9575802721 0 0 0 0 -23672928.012069702 -3505079.7437725067 0 -3505079.7437725067 31991936.873322487 0 0 0 0 37432774.928565979 53148654.178972244 0 53148654.178972244 -7246253.871219635 0 0 0 0 33846056.481201172 -5056429.6863069534 0 -5056429.6863069534 -69730967.901721954 0 0 0 0 29467629.989852905 83981286.253450394 0 83981286.253450394 88960155.019151688 0 0 0 0 -51336.807868332922 52452787.144307323 0 52452787.144307323 57673244.148929596 0 0 0 0 5783272.3494873047 39334466.02519989 0 39334466.02519989 82485260.636222839 0 0 0 0 6590916.2095661163 38511150.171468496 0 38511150.171468496 57120079.050792694 0 0 0 0 5027655.4129638672 18382293.132148743 0 18382293.132148743 42912670.534189224 0 0 0 0 64441654.825897217 -103272209.00312424 0 -103272209.00312424 275987786.30678082 0 0 0 0 250053192.99349213 -91203520.942729235 0 -91203520.942729235 20421462.494949341 0 0 0 0 63191966.178718567 -53683401.11106205 0 -53683401.11106205 56872505.272884369 0 0 0 0 192704733.29513359 113007346.82509923 0 113007346.82509923 93505787.89204216 0 0 0 0 474910516.11694336 -52605338.686053276 0 -52605338.686053276 187806898.61875153 0 0 0 0 22674325.945655823 9865970.6202702522 0 9865970.6202702522 61883041.944738388 0 0 0 0 154167279.88779449 -46511107.350446701 0 -46511107.350446701 -144513254.44199371 0 0 0 0 64136824.551101685 -38679834.179861069 0 -38679834.179861069 5664677.0524635315 0 0 0 0 25408540.553825378 -123217410.93580723 0 -123217410.93580723 56581758.870513916 0 0 0 0 99936444.809082031 -90897812.483798504 0 -90897812.483798504 -96549930.49451828 0 0 0 0 31956592.203308105 -57887291.052940369 0 -57887291.052940369 -109073944.01517963 0 0 0 0 -7386385.8685302734 -109266410.08855438 0 -109266410.08855438 -72949125.784028649 0 0 0 0 7336578.9671478271 -102362576.949193 0 -102362576.949193 -136759567.61433792 0 0 0 0 -40709675.50038147 -70307125.485363007 0 -70307125.485363007 -86599527.187507629 0 0 0 0 -17924550.423522949 -115787100.0144062 0 -115787100.0144062 -92508700.199409485 0 0 0 0 -12794993.894851685 -125611153.47002792 0 -125611153.47002792 6570032.8249435425 0 0 0 0 25048648.792495728 -84812149.431112289 0 -84812149.431112289 -73129711.875437841 0 0 0 0 -113340803.69319153 -59570993.454075813 0 -59570993.454075813 -67151139.957239151 0 0 0 0 -70128052.350250244 -116455081.8345542 0 -116455081.8345542 180103.21450424194 0 0 0 0 -93027204.889556885 -47549821.021904945 0 -47549821.021904945 120947663.38958359 0 0 0 0 -38705217.411651611 -94241877.164302826 0 -94241877.164302826 -3826633.8782815933 0 0 0 0 2886846.379196167 -116676925.637187 0 -116676925.637187 130767358.51993942 0 0 0 0 -36594266.773406982 -55141131.692743301 0 -55141131.692743301 47090891.808228493 0 0 0 0 -17834030.09487915 20831929.477688789 0 20831929.477688789 211920213.52852821 0 0 0 0 -38182775.276321411 -43718450.664597273 0 -43718450.664597273 101406150.99048233 0 0 0 0 -109927307.71755219 -3963927.5853424072 0 -3963927.5853424072 180274586.75563431 0 0 0 0 -75868898.735717773 35389091.891813278 0 35389091.891813278 -29490298.007116318 0 0 0 0 -46591933.361274719 113004004.5169487 0 113004004.5169487 106966204.65342903 0 0 0 0 5719775.3977127075 23058706.633001328 0 23058706.633001328 142101286.22261429 0 0 0 0 272372993.37921906 131119596.31114578 0 131119596.31114578 309501746.05589676 0 0 0 0 229816239.82480621 191864748.20310593 0 191864748.20310593 246607288.93648529 0 0 0 0 481816370.8311615 374688708.08876419 0 374688708.08876419 169488002.28415489 0 0 0 0 39568647.858131409 -45039312.000478745 0 -45039312.000478745 278562141.40902901 0 0 0 0 211421196.22229004 50163553.648805618 0 50163553.648805618 231236966.62010908 0 0 0 0 377776028.80366898 373427705.82579708 0 373427705.82579708 1197349521.5806313 0 0 0 0 454296652.19302368 257573253.46510887 0 257573253.46510887 356525387.56632996 0 0 0 0 157035486.2735405 132777592.11658001 0 132777592.11658001 612143769.94252396 0 0 0 0 857430597.07228088 674519438.03020287 0 674519438.03020287 330408426.82074356 0 0 0 0 375755727.34783936 332853547.75747871 0 332853547.75747871 483852016.05680847 0 0 0 0 837228902.65634155 311429429.14112473 0 311429429.14112473 225676932.95413971 0 0 0 0 900819959.62730408 514108803.43140602 0 514108803.43140602 -113531690.34590149 0 0 0 0 1134615.2719179243 1986584.7577618733 0 1986584.7577618733 -599188.98400575668 0 0 0 0 35996927.309585571 163058116.8655777 0 163058116.8655777 370382463.85691071 0 0 0 0 748829640.90073776 218020720.18782663 0 218020720.18782663 -119891817.95040894 0 0 0 0 443338545.77936172 82846800.309243917 0 82846800.309243917 -165022246.29330444 0 0 0 0 553757212.50265503 361894688.31564331 0 361894688.31564331 -30990366.567993164 0 0 0 0 628884802.42492676 494626383.14904785 0 494626383.14904785 98268487.360137939 0 0 0 0 505767561.83859253 280017940.90595627 0 280017940.90595627 316429244.53767776 0 0 0 0 316906147.8199234 243021765.44468117 0 243021765.44468117 64438491.018953323 0 0 0 0 553222069.99628162 370695466.02370763 0 370695466.02370763 -139634972.79104233 0 0 0 0 515952927.24983597 521133865.81460667 0 521133865.81460667 142046165.42709732 0 0 0 0 667702440.48771667 483010354.7122879 0 483010354.7122879 -87499655.052494049 0 0 0 0 352915621.09182739 294849438.33869171 0 294849438.33869171 -20713149.684051514 0 0 0 0 101426059.54611969 120734964.36989784 0 120734964.36989784 26764785.097488403 0 0 0 0 -30663608.737121582 95545479.649074554 0 95545479.649074554 -36486653.664699554 0 0 0 0 355226108.85186768 318097736.3934269 0 318097736.3934269 -97684265.811195374 0 0 0 0 514987719.49478149 412492596.56209183 0 412492596.56209183 -85050852.645629883 0 0 0 0 8156405.9672783464 4148060.8181876838 0 4148060.8181876838 1066122.1462877989 0 0 0 0 -156586925.48258972 270970692.54274368 0 270970692.54274368 -117498919.10660696 0 0 0 0 -65348509.377334595 -2983671.1353244781 0 -2983671.1353244781 -68892710.674930573 0 0 0 0 325487079.26042175 232320104.52653885 0 232320104.52653885 51249291.214159012 0 0 0 0 584275194.18021393 210278721.41023636 0 210278721.41023636 -327332604.49278831 0 0 0 0 4248543.7333108485 1386093.8171735778 0 1386093.8171735778 -345621.49764193222 0 0 0 0 -10705275.490509033 119956782.36266899 0 119956782.36266899 -68368247.864920616 0 0 0 0 -171803462.34875107 216522985.1947875 0 216522985.1947875 479678033.47111893 0 0 0 0 278566314.98571014 488017595.4985981 0 488017595.4985981 309218476.54659081 0 0 0 0 -41088691.940788269 326310625.99598789 0 326310625.99598789 253847518.8926506 0 0 0 0 152042707.45561218 108697882.0736618 0 108697882.0736618 43814970.624786377 0 0 0 0 -192286.45590209961 184497064.49774551 0 184497064.49774551 53490294.844766617 0 0 0 0 -129783984.82388306 75339183.98758316 0 75339183.98758316 100888831.67707825 0 0 0 0 428870900.6966362 -32281532.401279926 0 -32281532.401279926 110352491.70801544 0 0 0 0 255796422.92432404 373504584.2107296 0 373504584.2107296 370112410.41429901 0 0 0 0 143745209.93649292 51752191.333492279 0 51752191.333492279 360996349.32274389 0 0 0 0 575294081.60958099 268459239.34820938 0 268459239.34820938 23722931.603477478 0 0 0 0 165492444.61543274 96337771.406486511 0 96337771.406486511 64908522.519550323 0 0 0 0 136636415.9586792 -33457108.061308384 0 -33457108.061308384 -7896688.9521331787 0 0 0 0 -23510257.096694946 42589125.591926575 0 42589125.591926575 126855160.58181 0 0 0 0 41256897.890426636 32744774.289543152 0 32744774.289543152 -13348982.788841248 0 0 0 0 -93787491.577697754 62020012.541313171 0 62020012.541313171 -79517233.329742432 0 0 0 0 -44023808.980499268 -27842029.868377686 0 -27842029.868377686 22623439.346580505 0 0 0 0 -127768440.49828911 74838435.426146269 0 74838435.426146269 -93828592.387451172 0 0 0 0 -401114261.84152222 149913922.88233185 0 149913922.88233185 -66107248.984008789 0 0 0 0 -194981131.45135498 90389935.049957275 0 90389935.049957275 -115666347.78388977 0 0 0 0 -429734732.93685913 522905.35681533813 0 522905.35681533813 -54918334.750366211 0 0 0 0 -182113836.67798233 4756432.661400795 0 4756432.661400795 -55869796.483154297 0 0 0 0 -242267744.28665161 115376133.87966156 0 115376133.87966156 -25225593.508043289 0 0 0 0 -231317443.19099808 48506048.405234337 0 48506048.405234337 -121505800.77676392 0 0 0 0 -56549927.437774658 116619002.19905472 0 116619002.19905472 -38604934.177560806 0 0 0 0 -307232119.9217453 51055718.182722092 0 51055718.182722092 89654541.015846252 0 0 0 0 -178289802.51107788 158130093.82436752 0 158130093.82436752 71007140.00579834 0 0 0 0 2084455.3385326341 6367015.3891146332 0 6367015.3891146332 772904.59019014984 0 0 0 0 -105744939.69244385 54826102.399469376 0 54826102.399469376 -32844383.941085815 0 0 0 0 -324449823.94377899 146062069.09511185 0 146062069.09511185 39634681.513834 0 0 0 0 -3202421.2419599742 5970380.3246611543 0 5970380.3246611543 1838230.0551239103 0 0 0 0 428593.72906494141 5065002.1361894608 0 5065002.1361894608 -1597114.8729133606 0 0 0 0 -549274.57864311337 14357127.896047657 0 14357127.896047657 -6147790.1386986263 0 0 0 0 -2480594.0538691282 5651228.1882044077 0 5651228.1882044077 59182.505223028362 0 0 0 0 13630372.247127473 2709825.3864649907 0 2709825.3864649907 -910563.19130841643 0 0 0 0 16679993.067529634 18332742.586965755 0 18332742.586965755 3089787.8560608774 0 0 0 0 40028549.439208984 1684415.0138473511 0 1684415.0138473511 -4169274.0371017456 0 0 0 0 30441314.349567413 22911473.831611633 0 22911473.831611633 -35281377.423740387 0 0 0 0 3393348.5772564821 2381675.2530884594 0 2381675.2530884594 -1090266.2686343938 0 0 0 0 -574111583.27561951 112490937.60749435 0 112490937.60749435 8380476.1377410889 0 0 0 0 -16023617.687286377 37986477.57708931 0 37986477.57708931 2051094.3601264954 0 0 0 0 -11317906.585128784 27096680.079286575 0 27096680.079286575 10254471.711490631 0 0 0 0 35635826.92111969 34563164.058923721 0 34563164.058923721 5121065.8775787354 0 0 0 0 5655991.0582962036 37524290.500832558 0 37524290.500832558 15563380.125900269 0 0 0 0 5071763.7048454285 35238590.359599113 0 35238590.359599113 8777765.5845108032 0 0 0 0 19220064.207870483 27665770.474252701 0 27665770.474252701 11709987.447944641 0 0 0 0 12759662.923912048 27483110.96443367 0 27483110.96443367 -514371.95645904541 0 0 0 0 17427708.673355103 43941381.960319519 0 43941381.960319519 18796101.058692932 0 0 0 0 5557743.5907669067 29555379.615194321 0 29555379.615194321 5731877.8560791016 0 0 0 0 4442913.5235748291 29791643.451759338 0 29791643.451759338 12853966.941532135 0 0 0 0 4613340.557472229 26610275.338191986 0 26610275.338191986 3978771.5675125122 0 0 0 0 1877102.6118011475 27587845.655368805 0 27587845.655368805 20168132.392541409 0 0 0 0 -8681419.6319732666 22762444.934673309 0 22762444.934673309 -4185892.6689548492 0 0 0 0 15614875.661712646 34042629.045715332 0 34042629.045715332 28322841.942138672 0 0 0 0 -10184933.203598022 23032410.288555145 0 23032410.288555145 12650645.834144592 0 0 0 0 -8792970.1025772095 24190464.363178253 0 24190464.363178253 3599767.1909942627 0 0 0 0 -11243142.017426208 13841912.363800405 0 13841912.363800405 121381.94119609147 0 0 0 0 -13109330.000335693 13946171.510932922 0 13946171.510932922 -256309.05411911011 0 0 0 0 16008772.06880188 33772803.363260269 0 33772803.363260269 26879852.758857727 0 0 0 0 -4376336.828481555 20831342.097428374 0 20831342.097428374 -3311057.8510838584 0 0 0 0 -1269210.9938201904 57273242.807739258 0 57273242.807739258 31134638.852194309 0 0 0 0 1995155.8862355202 21405653.218308985 0 21405653.218308985 -837863.80446765805 0 0 0 0 -12836768.49974823 3534221.8811225891 0 3534221.8811225891 10687645.375856876 0 0 0 0 4448946.6046218872 33379500.371623993 0 33379500.371623993 -4486148.4209365845 0 0 0 0 -15890165.630630493 26117216.178642273 0 26117216.178642273 6132670.1116828918 0 0 0 0 -52954891.971191406 47451351.072189331 0 47451351.072189331 -28261097.147064209 0 0 0 0 -27010954.698035389 11162050.802077096 0 11162050.802077096 4515472.1750947423 0 0 0 0 -43119751.41632843 36056294.079311371 0 36056294.079311371 23643253.049640656 0 0 0 0 -7439648.5132475644 3581870.7028065175 0 3581870.7028065175 2664527.8295874111 0 0 0 0 -22227773.885375977 14904444.639623642 0 14904444.639623642 6451238.9366569519 0 0 0 0 82636108.705718994 -60770753.336086273 0 -60770753.336086273 52936010.602233887 0 0 0 0 -4134957.4885196686 10319362.442459106 0 10319362.442459106 -147823.98244094849 0 0 0 0 -8762174.9223022461 -5246959.6461906433 0 -5246959.6461906433 -14636333.608314514 0 0 0 0 -4956757.8004452735 425547.92636783421 0 425547.92636783421 2714095.5709952042 0 0 0 0 11400418.346496582 17748108.739406586 0 17748108.739406586 -15576845.510576367 0 0 0 0 -6054393.8110275269 8712006.6575469971 0 8712006.6575469971 18603939.384895325 0 0 0 0 1173720.5223083496 8928930.6462936401 0 8928930.6462936401 32044.495764493942 0 0 0 0 746182.88407682627 7163112.3201304972 0 7163112.3201304972 -590074.01672716439 0 0 0 0 -2889092.3201904297 8768575.1531829834 0 8768575.1531829834 1156401.4938049316 0 0 0 0 -4112047.1872634888 11395870.130334854 0 11395870.130334854 -5052071.6526412964 0 0 0 0 -4306659.4086303711 11327072.904838562 0 11327072.904838562 -1121057.3737659454 0 0 0 0 -10788312.739257812 7532643.3829040527 0 7532643.3829040527 -2924799.2012329102 0 0 0 0 -1779851.5798950195 5573202.1389274597 0 5573202.1389274597 -2581772.1448830366 0 0 0 0 -4644467.8322025836 5116007.2807215303 0 5116007.2807215303 4135387.0515798419 0 0 0 0 -102138467.89399719 226819638.32908058 0 226819638.32908058 -133488133.30299377 0 0 0 0 -531055.84945130348 4190626.3447217196 0 4190626.3447217196 641917.17460484058 0 0 0 0 -248448977.84741211 200876114.17326355 0 200876114.17326355 -39149175.962673187 0 0 0 0 -108267226.84845734 44907584.848134995 0 44907584.848134995 -62001515.443580627 0 0 0 0 2399025.2455425635 5809538.7260421515 0 5809538.7260421515 -2894288.7218067199 0 0 0 0 2900550.8554607332 6664220.0711557418 0 6664220.0711557418 -1792319.4155170247 0 0 0 0 -285169.08549499512 9965802.7520132065 0 9965802.7520132065 -4004731.2527332306 0 0 0 0 -1479368.2217559814 5493874.870099023 0 5493874.870099023 234822.41578881349 0 0 0 0 -2758958.9620361328 6284015.3977966309 0 6284015.3977966309 2152621.7386159897 0 0 0 0 -1282879.0848007202 8306695.7524547577 0 8306695.7524547577 1422617.9303283691 0 0 0 0 -103457307.33953118 45109170.801406622 0 45109170.801406622 102363413.80323219 0 0 0 0 -127578362.73031616 91787050.89991951 0 91787050.89991951 263588347.03886032 0 0 0 0 -84976384.557747841 197601574.56008244 0 197601574.56008244 -111129447.78064156 0 0 0 0 5802636.3876905441 86066959.327630043 0 86066959.327630043 24333364.637649536 0 0 0 0 1555143.314666748 94739277.65272522 0 94739277.65272522 26407030.941207409 0 0 0 0 -5397568.3367290497 85416465.603439331 0 85416465.603439331 99359601.826496124 0 0 0 0 21452042.458019257 69607300.141548157 0 69607300.141548157 35815715.960811615 0 0 0 0 -6776395.1981201172 66705684.000095367 0 66705684.000095367 35536230.115004063 0 0 0 0 14497750.789388657 92178354.991072655 0 92178354.991072655 -5268266.177772522 0 0 0 0 -19494323.904747859 28175223.688434161 0 28175223.688434161 7691586.0706021674 0 0 0 0 24167275.384929657 66025888.467741013 0 66025888.467741013 11771289.155029774 0 0 0 0 40917636.317013264 49193786.804572225 0 49193786.804572225 13676265.329612732 0 0 0 0 41632286.908308029 65058751.473965645 0 65058751.473965645 25406359.620735168 0 0 0 0 -27618902.244037095 24260417.083797175 0 24260417.083797175 14839002.023315001 0 0 0 0 10254446.103233337 32486759.390821457 0 32486759.390821457 22156880.410087824 0 0 0 0 29908142.796131134 52834931.05943203 0 52834931.05943203 17752437.994159698 0 0 0 0 11579808.208877563 38512206.367850304 0 38512206.367850304 -19128582.602806091 0 0 0 0 -3059312.1463826448 29621953.477112684 0 29621953.477112684 3596191.599610752 0 0 0 0 -37109164.058227539 13490723.809436798 0 13490723.809436798 26837481.261581421 0 0 0 0 16924574.82618618 73447125.390498161 0 73447125.390498161 -16010232.746921539 0 0 0 0 -28772239.139649831 28501955.582848303 0 28501955.582848303 486340.94141024351 0 0 0 0 -2273536.7486414127 17902067.055752255 0 17902067.055752255 4090787.5623477343 0 0 0 0 -25425.849964499474 -99972.03444404155 0 -99972.03444404155 362707.79757311894 0 0 0 0 -15400399.690406799 38543305.146565914 0 38543305.146565914 13817866.319889069 0 0 0 0 -23531976.241422653 66502945.675457001 0 66502945.675457001 20380833.564194202 0 0 0 0 -35729295.153850555 47294450.723379135 0 47294450.723379135 36725027.685323715 0 0 0 0 -63930908.974214554 42604222.988223076 0 42604222.988223076 49923606.856174469 0 0 0 0 -81806986.63070488 64737043.444056988 0 64737043.444056988 64678530.527378082 0 0 0 0 -46753355.726438522 107982413.99823284 0 107982413.99823284 -112300721.1758194 0 0 0 0 -47911812.11992836 70719476.471845627 0 70719476.471845627 -64022145.888278961 0 0 0 0 -25611276.253116608 27761039.23633194 0 27761039.23633194 -30320339.72429657 0 0 0 0 -19769725.532016754 54300692.33650589 0 54300692.33650589 -65321102.513877869 0 0 0 0 -22132437.934688091 46856992.367441654 0 46856992.367441654 -20374470.346862793 0 0 0 0 -162780183.39130592 -12231036.043764114 0 -12231036.043764114 89056369.445426941 0 0 0 0 -15509067.180020293 5457508.4339657128 0 5457508.4339657128 2809022.784701243 0 0 0 0 -94069549.289332509 38288606.986132503 0 38288606.986132503 35952618.612674713 0 0 0 0 -99316260.6980896 88651379.045406342 0 88651379.045406342 -13012624.992918015 0 0 0 0 -47469841.908095837 47493033.68005228 0 47493033.68005228 19581097.192848206 0 0 0 0 -58267307.491277695 37885574.670481682 0 37885574.670481682 41006339.937080383 0 0 0 0 -58522352.245040894 54768166.569633484 0 54768166.569633484 25300292.456249237 0 0 0 0 -78144098.081873894 30145127.128715515 0 30145127.128715515 38116062.647689819 0 0 0 0 -41742256.724411011 39357860.462070465 0 39357860.462070465 38850203.711284637 0 0 0 0 -12901061.570121765 15278334.179365158 0 15278334.179365158 39668430.563858032 0 0 0 0 -28546040.456806213 23983198.12225898 0 23983198.12225898 -1041151.0874150768 0 0 0 0 -24917682.898745418 32306346.242470678 0 32306346.242470678 -7185415.9468086511 0 0 0 0 -43875875.621597484 24850474.684623845 0 24850474.684623845 8590957.2272886261 0 0 0 0 18778646.934127808 86522757.696662903 0 86522757.696662903 48562811.667663574 0 0 0 0 -112631418.14430237 370888331.30903435 0 370888331.30903435 133059997.85801363 0 0 0 0 -587079619.60227966 -196511570.55249405 0 -196511570.55249405 -50619934.95166111 0 0 0 0 48241437.5181427 32636191.579027176 0 32636191.579027176 122502737.06095982 0 0 0 0 -212048248.5227356 -260188079.85255432 0 -260188079.85255432 131538457.36135864 0 0 0 0 225632130.68066406 -25946257.347501755 0 -25946257.347501755 -147062559.36443567 0 0 0 0 -6638012.3057098389 81077829.857170105 0 81077829.857170105 35273596.772208691 0 0 0 0 -248333615.1461792 163029042.56363297 0 163029042.56363297 222072391.83583832 0 0 0 0 -35923979.659362875 17118054.349566445 0 17118054.349566445 -1253463.9684877396 0 0 0 0 -303383.1352148056 281723.4750727769 0 281723.4750727769 567990.28428347874 0 0 0 0 19306984.272155762 -77818353.546458244 0 -77818353.546458244 21545809.330011576 0 0 0 0 1923656.7322998047 23916223.270816803 0 23916223.270816803 -41001417.444950104 0 0 0 0 -94267835.603637695 80054594.615577698 0 80054594.615577698 1230396.0433654785 0 0 0 0 -5856956.1776182652 421960.21481592953 0 421960.21481592953 6032569.0355445445 0 0 0 0 -1944802.9877557755 52283924.458804369 0 52283924.458804369 124622005.39934921 0 0 0 0 -3196833.1961517334 37677792.762378693 0 37677792.762378693 127019503.10853577 0 0 0 0 -5041824.1553337872 2713384.113833949 0 2713384.113833949 2143511.2999830134 0 0 0 0 -292786388.04562759 -53197063.828057289 0 -53197063.828057289 -6400334.7781066895 0 0 0 0 83810254.877609253 116082417.71480179 0 116082417.71480179 69765292.79775238 0 0 0 0 5613521.2236690521 59685926.364515305 0 59685926.364515305 155212526.03920364 0 0 0 0 -1044727.2735977173 86465763.105381727 0 86465763.105381727 71731291.080417633 0 0 0 0 1137709.6434307098 122790242.100806 0 122790242.100806 157317091.54937744 0 0 0 0 62573481.107040405 293322198.91277122 0 293322198.91277122 101521444.52417612 0 0 0 0 -155596280.31420898 306812717.03204441 0 306812717.03204441 65805985.721510887 0 0 0 0 -3169670.0028095245 157195282.59066176 0 157195282.59066176 -105107970.7275486 0 0 0 0 -364427141.94360352 273668751.96875095 0 273668751.96875095 118432890.0721817 0 0 0 0 -122359926.89816284 25026110.969135284 0 25026110.969135284 43061780.268707275 0 0 0 0 43833762.562826157 248027372.3429299 0 248027372.3429299 117763134.94075394 0 0 0 0 -1825706.7539003193 791906.46886581182 0 791906.46886581182 746724.01857704297 0 0 0 0 -111594860.69296265 94202750.652526855 0 94202750.652526855 207999033.13817263 0 0 0 0 -328210568.02239227 332942808.46185541 0 332942808.46185541 -30190371.891605377 0 0 0 0 303628486.38562012 64051637.660900116 0 64051637.660900116 -65022720.713245392 0 0 0 0 57360068.178291321 14249549.148920059 0 14249549.148920059 18476296.215835571 0 0 0 0 -7590341.5307312012 135114764.27769184 0 135114764.27769184 -84481079.378154755 0 0 0 0 -155211642.06329346 -14560978.653144836 0 -14560978.653144836 -103244218.51404715 0 0 0 0 -422901598.58666992 187477478.90407944 0 187477478.90407944 40026325.456520081 0 0 0 0 -139170933.62846375 177716357.4810791 0 177716357.4810791 -32735007.184776306 0 0 0 0 -1165008.6739389747 1228878.9948570281 0 1228878.9948570281 43837.041603673249 0 0 0 0 73813621.313919067 96652391.133271217 0 96652391.133271217 -2614356.5330257416 0 0 0 0 100948210.63305664 22429370.743707657 0 22429370.743707657 1253335.3500814438 0 0 0 0 62427477.495056152 15911249.686077118 0 15911249.686077118 33822816.515813828 0 0 0 0 77892407.516319275 49242308.18582058 0 49242308.18582058 10112046.820396423 0 0 0 0 50991432.500717163 4828711.6704101562 0 4828711.6704101562 -25667191.243629456 0 0 0 0 118837953.73080444 32870649.966220856 0 32870649.966220856 -20202614.713589668 0 0 0 0 189796848.78634644 88057204.393844604 0 88057204.393844604 10574442.476135254 0 0 0 0 75520665.518463135 31970560.914466858 0 31970560.914466858 34469218.669935226 0 0 0 0 94751531.059371948 49796365.893345356 0 49796365.893345356 50197255.478908539 0 0 0 0 95351443.719696045 102507153.68605042 0 102507153.68605042 18047462.13428688 0 0 0 0 -11888315.222753614 13203259.238512635 0 13203259.238512635 10876911.777808778 0 0 0 0 -13675551.745361328 17716513.325465083 0 17716513.325465083 14183999.337462425 0 0 0 0 -35092600.36757917 30269060.54812251 0 30269060.54812251 17585459.963332903 0 0 0 0 -45825523.677637756 45567307.191019207 0 45567307.191019207 33711759.254130758 0 0 0 0 -56111.849573910236 24197696.58256916 0 24197696.58256916 6269340.8121787198 0 0 0 0 196543646.75030518 85232485.876996994 0 85232485.876996994 -8606856.9816589355 0 0 0 0 217521050.88204956 52507776.257886887 0 52507776.257886887 31379546.359436035 0 0 0 0 13237667.828935623 44916498.654366016 0 44916498.654366016 20123091.95357132 0 0 0 0 194149259.40203857 94349822.573036194 0 94349822.573036194 -45210441.259919167 0 0 0 0 182506661.88658142 87826324.146344185 0 87826324.146344185 51054499.459594727 0 0 0 0 43385009.549713135 44995553.914215088 0 44995553.914215088 15764563.286026001 0 0 0 0 342426122.21713257 224240484.63504791 0 224240484.63504791 10933389.420806885 0 0 0 0 -31846894.750483662 37289217.135225892 0 37289217.135225892 6795048.0283999126 0 0 0 0 833342.11139826477 37931723.700909361 0 37931723.700909361 -8684947.3282019645 0 0 0 0 -28650333.646648407 35240135.250528336 0 35240135.250528336 -5000941.1738128662 0 0 0 0 -48331927.864297405 20014056.768316995 0 20014056.768316995 18016838.744971029 0 0 0 0 30831486.508918762 210335466.00934219 0 210335466.00934219 381948737.45943642 0 0 0 0 -28976214.303237915 198699266.6824131 0 198699266.6824131 493966604.97207642 0 0 0 0 166505454.79496765 566482656.0354166 0 566482656.0354166 1071836859.0371723 0 0 0 0 1047925609.0814667 144927285.89160061 0 144927285.89160061 366376662.46952438 0 0 0 0 -38484629.907226562 -114260110.83206272 0 -114260110.83206272 526409622.20559692 0 0 0 0 -519862.09678452462 3272557.3351671845 0 3272557.3351671845 2826772.546792455 0 0 0 0 1041356995.9569244 197109548.45630264 0 197109548.45630264 36620524.685997009 0 0 0 0 56503.784180253744 1406247.7986988351 0 1406247.7986988351 157608.72617954668 0 0 0 0 -4693710.1964573115 4770244.6728047999 0 4770244.6728047999 328857.69157769205 0 0 0 0 -1524695.3549194336 11841113.271396637 0 11841113.271396637 4706626.7673091888 0 0 0 0 125911045.8739624 -53614267.969818115 0 -53614267.969818115 -37674411.78408432 0 0 0 0 35633715.660873413 68511950.523471832 0 68511950.523471832 122906670.78053999 0 0 0 0 -4368566.4159746021 3722817.1137315943 0 3722817.1137315943 -530730.47775257751 0 0 0 0 1670744.3000946045 27466696.862524033 0 27466696.862524033 31435083.11548996 0 0 0 0 -4126410.4458164722 4161628.1885874458 0 4161628.1885874458 -550391.8248113431 0 0 0 0 -137961850.52185059 66844085.180683136 0 66844085.180683136 34534686.373344421 0 0 0 0 32480976.222793579 20439706.228441238 0 20439706.228441238 53965675.733448505 0 0 0 0 -14856901.876647949 -36155151.985210419 0 -36155151.985210419 26460784.179161072 0 0 0 0 3671668.017578125 -41593035.155883789 0 -41593035.155883789 27414845.188606262 0 0 0 0 -721383.66341052949 81232.622624650598 0 81232.622624650598 262798.82930799946 0 0 0 0 45495001.810699463 -1199151.1618118286 0 -1199151.1618118286 9987082.4358158112 0 0 0 0 -7796464.500038147 13586362.492274284 0 13586362.492274284 157026629.31352806 0 0 0 0 27789285.032363892 96032344.057693481 0 96032344.057693481 188570807.60918999 0 0 0 0 23342139.745330811 42114527.429641724 0 42114527.429641724 128305438.14287567 0 0 0 0 -38281525.537123203 69008588.833617806 0 69008588.833617806 229793169.87570572 0 0 0 0 124092114.03948975 253535174.7944479 0 253535174.7944479 326685017.74188757 0 0 0 0 71650055.059791565 163259820.07861137 0 163259820.07861137 221741090.38990402 0 0 0 0 84044830.406339645 94348952.68012476 0 94348952.68012476 159353211.98745918 0 0 0 0 258106765.44709778 116520598.74646664 0 116520598.74646664 195521234.70799732 0 0 0 0 364426318.7888546 381961251.64658308 0 381961251.64658308 212592542.18203545 0 0 0 0 126029187.20316315 453038689.96881104 0 453038689.96881104 277152839.35752964 0 0 0 0 134284766.63122559 434153911.96581745 0 434153911.96581745 468079826.8456459 0 0 0 0 98011727.680473328 333186820.45431137 0 333186820.45431137 205743449.73233986 0 0 0 0 396230397.32518005 360176745.80766487 0 360176745.80766487 171516929.83614731 0 0 0 0 256255675.13035583 312304289.72432137 0 312304289.72432137 335770376.43091917 0 0 0 0 247964069.08061218 69389960.242143631 0 69389960.242143631 -251407794.32073879 0 0 0 0 -73767568.125762939 160310912.00565052 0 160310912.00565052 156104231.82561803 0 0 0 0 4764257.6750057489 -210335.5645512417 0 -210335.5645512417 -835147.78378452547 0 0 0 0 -19321269.054485321 45205223.942011118 0 45205223.942011118 -41113278.286092758 0 0 0 0 35193633.235122681 215312094.14281464 0 215312094.14281464 -313772016.26807213 0 0 0 0 -42847314.827507019 11516794.628047466 0 11516794.628047466 31867747.779390335 0 0 0 0 -1836610.079360351 496267.25957835745 0 496267.25957835745 171688.01750877779 0 0 0 0 -7969645.6870117188 19362265.316953182 0 19362265.316953182 -10717668.708381176 0 0 0 0 145839158.65052414 80249875.675338268 0 80249875.675338268 60926435.197608948 0 0 0 0 -420527.44847106934 -21870890.57845974 0 -21870890.57845974 43345617.110647202 0 0 0 0 -58202690.750152588 16464372.369582415 0 16464372.369582415 48128268.553085327 0 0 0 0 232891290.20166016 -4184911.9486150742 0 -4184911.9486150742 -80575666.260704041 0 0 0 0 2244019.8232892007 -146938.74330690503 0 -146938.74330690503 -369809.55452082958 0 0 0 0 454176837.78913879 258969755.95045137 0 258969755.95045137 54860567.311250687 0 0 0 0 171920638.35394287 355813811.74079704 0 355813811.74079704 331205143.00657225 0 0 0 0 99883329.671470642 237218519.19810438 0 237218519.19810438 143124171.56444168 0 0 0 0 117135700.10029602 311789157.52344227 0 311789157.52344227 179246524.83872986 0 0 0 0 182571199.61340332 243267535.1999588 0 243267535.1999588 248831657.8577013 0 0 0 0 127702324.77226257 103613971.34138107 0 103613971.34138107 30862377.368015051 0 0 0 0 -887268.80825428665 147809.10328531079 0 147809.10328531079 48406.007963638753 0 0 0 0 37002488.079566956 55147713.617000103 0 55147713.617000103 -142057175.48189425 0 0 0 0 -451549.1764100194 -330202.5223740153 0 -330202.5223740153 253832.91739811236 0 0 0 0 19764998.781990051 -5459951.0192506313 0 -5459951.0192506313 -354369058.25247383 0 0 0 0 63567405.910812378 336449038.96921635 0 336449038.96921635 414064453.0220871 0 0 0 0 -18193112.215988159 187937810.46363211 0 187937810.46363211 -196130825.69905281 0 0 0 0 55282219.610824585 132672311.46580553 0 132672311.46580553 -63438952.282261848 0 0 0 0 18455827.823566437 140845927.67422116 0 140845927.67422116 93547930.153203011 0 0 0 0 32159707.046974182 107050496.49663591 0 107050496.49663591 35936530.728789806 0 0 0 0 9923185.1479854584 89756565.53217566 0 89756565.53217566 58293887.524484634 0 0 0 0 -6741406.467048645 34080984.450481892 0 34080984.450481892 -30637661.964501381 0 0 0 0 -1025649.5770237893 3860607.4561114833 0 3860607.4561114833 -334416.63443450443 0 0 0 0 80364501.352907181 50219675.512922868 0 50219675.512922868 7756291.7229957581 0 0 0 0 41487012.262199402 42378469.326062679 0 42378469.326062679 51027797.755405426 0 0 0 0 80571764.142284393 61470120.298137307 0 61470120.298137307 50161309.393766403 0 0 0 0 -25317442.405886609 22297700.165904798 0 22297700.165904798 20553533.55689228 0 0 0 0 77124553.25969696 27839560.737409592 0 27839560.737409592 43209725.944471359 0 0 0 0 98154798.610115051 142007253.84715748 0 142007253.84715748 88714169.87253952 0 0 0 0 94700461.692947388 183167086.72462034 0 183167086.72462034 75768699.81205368 0 0 0 0 44100914.878143311 301165406.45197868 0 301165406.45197868 83388394.687206268 0 0 0 0 -56136727.332801819 228516056.65569925 0 228516056.65569925 167207595.31282425 0 0 0 0 -280495198.90151978 74364776.571544647 0 74364776.571544647 120210472.03722382 0 0 0 0 13367953.357429504 128249696.09465885 0 128249696.09465885 120494228.16272163 0 0 0 0 5709157.7506866455 274188540.13767815 0 274188540.13767815 143375745.8754406 0 0 0 0 -44375293.136413574 203519788.09451389 0 203519788.09451389 130754077.01549721 0 0 0 0 77219684.820785522 370638710.92645311 0 370638710.92645311 217388381.63586283 0 0 0 0 51432290.069252014 229833170.23218155 0 229833170.23218155 177852334.29335403 0 0 0 0 -8550323.3678283691 207633894.57546914 0 207633894.57546914 19269339.011314392 0 0 0 0 -22752771.669473648 243404514.47204345 0 243404514.47204345 -25645024.113217831 0 0 0 0 119014389.66448212 246300691.05452609 0 246300691.05452609 -13912269.707395077 0 0 0 0 123979050.91705322 198221913.97500396 0 198221913.97500396 1598057.3015253544 0 0 0 0 89970595.650894165 228062882.12479115 0 228062882.12479115 -9075582.5776576996 0 0 0 0 79064972.406845093 208483269.79212928 0 208483269.79212928 56553125.775510788 0 0 0 0 193528156.40888977 202762318.82811022 0 202762318.82811022 -11085202.621445656 0 0 0 0 180456249.10997009 140548836.38210499 0 140548836.38210499 2834148.6997718811 0 0 0 0 351466563.83139038 113461790.04129934 0 113461790.04129934 -60570124.040476322 0 0 0 0 223485141.78662109 121619139.07356834 0 121619139.07356834 -46380037.702181816 0 0 0 0 237175266.59914207 67470009.222889602 0 67470009.222889602 18885346.333267212 0 0 0 0 134423650.06415558 15944807.135703564 0 15944807.135703564 -859982.85794067383 0 0 0 0 172046075.94161987 90464659.403565645 0 90464659.403565645 12246467.579488754 0 0 0 0 180894461.60096741 120209812.5956955 0 120209812.5956955 40843764.210590363 0 0 0 0 12410463.944854274 11527756.702718236 0 11527756.702718236 639902.5059808325 0 0 0 0 -26691.444434039295 11172815.839763895 0 11172815.839763895 -5702911.234178232 0 0 0 0 -1229778.6223279461 15995485.229228146 0 15995485.229228146 22558985.459697075 0 0 0 0 -106200146.33462524 78769408.115833282 0 78769408.115833282 94521844.159507751 0 0 0 0 -21838397.352493286 16023708.251253128 0 16023708.251253128 -8885512.0120697021 0 0 0 0 355222466.90059853 37005411.033480436 0 37005411.033480436 175373181.99968719 0 0 0 0 -42946548.438537598 -72880057.191222191 0 -72880057.191222191 -413170074.45817184 0 0 0 0 11344542.706539921 5089841.6088842899 0 5089841.6088842899 -7187800.6035322323 0 0 0 0 826340637.72782898 -29067884.256072313 0 -29067884.256072313 -116851281.38110435 0 0 0 0 926908580.75584412 156042902.99388409 0 156042902.99388409 7420220.4952850342 0 0 0 0 395697438.82221985 -450928642.05655909 0 -450928642.05655909 648081226.20965433 0 0 0 0 505843736.73806763 -28965173.524549633 0 -28965173.524549633 -82817000.866654396 0 0 0 0 10701727.486627229 11684907.560017295 0 11684907.560017295 -14699152.165548526 0 0 0 0 348486437.06996632 -49975001.67350927 0 -49975001.67350927 -82433181.01389122 0 0 0 0 332326357.26883602 106223140.27266699 0 106223140.27266699 -49019311.608720779 0 0 0 0 486313092.71919155 137789103.80264425 0 137789103.80264425 -43373376.350449562 0 0 0 0 568331255.14059448 83173459.485488892 0 83173459.485488892 -7371573.77825737 0 0 0 0 425245257.20075989 340092519.69857311 0 340092519.69857311 134961132.18960953 0 0 0 0 316131593.49536133 211628378.38772774 0 211628378.38772774 -2532835.4810886383 0 0 0 0 262450334.3851738 268593117.64317286 0 268593117.64317286 -10629371.455881119 0 0 0 0 3645049.5142424256 -298109.64409271441 0 -298109.64409271441 -434292.84128005605 0 0 0 0 887781271.47259521 -99720916.91571945 0 -99720916.91571945 -839783251.8710115 0 0 0 0 246554326.27334595 354907975.57452536 0 354907975.57452536 347771672.2140677 0 0 0 0 711951513.44259644 388716196.70220232 0 388716196.70220232 143180030.91465569 0 0 0 0 6084296.456741333 223878128.15789533 0 223878128.15789533 285636801.55452824 0 0 0 0 -23176356.769613266 67758071.611501127 0 67758071.611501127 -46289565.418194771 0 0 0 0 -46225641.023363113 131577183.00326723 0 131577183.00326723 -83535491.072049618 0 0 0 0 -21605357.987594604 218341493.16664505 0 218341493.16664505 75212252.193037987 0 0 0 0 -9926557.1019134521 134198360.34180212 0 134198360.34180212 -199948840.56483769 0 0 0 0 5862345.4548359513 1285795.9926230228 0 1285795.9926230228 -253481.50207854962 0 0 0 0 236902888.93113708 592932724.78804183 0 592932724.78804183 -373567323.25344497 0 0 0 0 70113212.235145569 324571092.89247817 0 324571092.89247817 -2340116.4837612808 0 0 0 0 10658666.353729248 626418680.15180612 0 626418680.15180612 519306072.963691 0 0 0 0 294345707.35925293 421666894.8906796 0 421666894.8906796 559489178.49906039 0 0 0 0 586064575.11959076 160583359.84618187 0 160583359.84618187 117089837.50784969 0 0 0 0 880018658.61700439 220052698.83785129 0 220052698.83785129 646843114.79127431 0 0 0 0 980975837.41304016 506168081.1433841 0 506168081.1433841 415479996.25000978 0 0 0 0 -292997654.72677612 264420492.51819652 0 264420492.51819652 107746422.6693399 0 0 0 0 657706717.51805115 -389262770.29745412 0 -389262770.29745412 -549322227.99492216 0 0 0 0 743694687.9790802 -152299052.4588877 0 -152299052.4588877 70224806.867239952 0 0 0 0 953917067.51737976 -21879505.260441422 0 -21879505.260441422 -211111323.84232426 0 0 0 0 1239656096.5194092 -353732667.13191462 0 -353732667.13191462 28562373.529786587 0 0 0 0 2233277.3952098638 3308163.4277308658 0 3308163.4277308658 6867966.5495006768 0 0 0 0 2181576673.259491 -60365339.444379807 0 -60365339.444379807 319186384.27588701 0 0 0 0 1128577397.3268433 -198450435.45935345 0 -198450435.45935345 -160220114.83419371 0 0 0 0 1069440850.9381256 -497181768.19794202 0 -497181768.19794202 283774416.39566946 0 0 0 0 881339999.68890381 -332867697.57066059 0 -332867697.57066059 268278093.61810398 0 0 0 0 228839496.74717331 -384030946.00558114 0 -384030946.00558114 577572970.96916389 0 0 0 0 146073816.97650909 -593847383.77258396 0 -593847383.77258396 -419311003.58326936 0 0 0 0 -8716612.8873201795 1877840.2609762028 0 1877840.2609762028 1510501.9952916317 0 0 0 0 132780423.24671173 -365588798.71426678 0 -365588798.71426678 919746356.15948486 0 0 0 0 35686158.558624268 -153455280.61162949 0 -153455280.61162949 335831474.96492767 0 0 0 0 75848657.600746155 -313896374.44327831 0 -313896374.44327831 614544345.48892593 0 0 0 0 133577207.800354 -254494792.17740536 0 -254494792.17740536 464064763.46005249 0 0 0 0 212883277.00360107 -345052661.25711823 0 -345052661.25711823 355115431.60048294 0 0 0 0 218222934.83015442 -229942653.29328728 0 -229942653.29328728 54861324.948020935 0 0 0 0 293340636.04104614 -317238798.95151329 0 -317238798.95151329 8104575.6492805481 0 0 0 0 243167955.15565491 -377658411.81581402 0 -377658411.81581402 144946524.36174011 0 0 0 0 6197707.8727221377 15203910.866984211 0 15203910.866984211 -12046138.045896288 0 0 0 0 -291293420.79017639 282049090.62992477 0 282049090.62992477 211066926.8357811 0 0 0 0 -53836747.428152084 12304707.690599024 0 12304707.690599024 -5667093.2412004471 0 0 0 0 751234491.58688354 -184823284.7766335 0 -184823284.7766335 -347987028.39076829 0 0 0 0 4901547.225612998 10555763.355656721 0 10555763.355656721 16628593.373028511 0 0 0 0 272791155.93917847 555644070.34249592 0 555644070.34249592 -43759535.633706093 0 0 0 0 225400845.78083038 443459709.8371948 0 443459709.8371948 79731106.153510511 0 0 0 0 -3469351.7970275879 392602215.67034113 0 392602215.67034113 534632812.00614548 0 0 0 0 -21063405.79177475 305978198.96051228 0 305978198.96051228 233990232.49472666 0 0 0 0 23897865.606330872 248556911.72967792 0 248556911.72967792 233958336.52049494 0 0 0 0 112113931.06141663 251162968.54091191 0 251162968.54091191 64266115.731454492 0 0 0 0 54229741.995433807 164617864.54527569 0 164617864.54527569 -7070728.1599020958 0 0 0 0 7739040.9124984741 179315678.24424815 0 179315678.24424815 6810613.3515281677 0 0 0 0 -5858585.7152137756 123906725.9707011 0 123906725.9707011 -85511945.758002281 0 0 0 0 -72192059.151489258 96811972.922016144 0 96811972.922016144 -93249151.682357907 0 0 0 0 -84927801.334327698 125253007.81751406 0 125253007.81751406 -63799608.627508044 0 0 0 0 149239629.75870514 222397559.10430157 0 222397559.10430157 -459183393.68620002 0 0 0 0 2420310.9121049196 601077.41061471496 0 601077.41061471496 105444.73407731616 0 0 0 0 -101124762.93397141 578139570.87232637 0 578139570.87232637 969279899.51428699 0 0 0 0 -72614123.677270889 476028075.13883591 0 476028075.13883591 508022767.45513266 0 0 0 0 -19152809.850875854 529742926.07420379 0 529742926.07420379 534034157.18997836 0 0 0 0 168727385.3868866 430594158.40674329 0 430594158.40674329 429502633.74305534 0 0 0 0 -86542112.461650848 183893563.93510133 0 183893563.93510133 493977618.68086243 0 0 0 0 -43871371.509395599 182540687.71462286 0 182540687.71462286 359670754.12068808 0 0 0 0 8698284.8674163818 189713714.31963897 0 189713714.31963897 296796459.88326991 0 0 0 0 144321183.06062317 207560890.5119018 0 207560890.5119018 294036764.47863638 0 0 0 0 70469612.621307373 229833892.03969336 0 229833892.03969336 293971470.22533536 0 0 0 0 -23664438.977954865 199307606.25531954 0 199307606.25531954 359170379.93600178 0 0 0 0 11360004.764709473 258977010.14992189 0 258977010.14992189 266722857.11681747 0 0 0 0 -15413631.679412842 270517983.78252888 0 270517983.78252888 358703735.26227969 0 0 0 0 12062461.075725555 255013737.20053595 0 255013737.20053595 287194159.10066175 0 0 0 0 10950918.927501678 229049114.14274311 0 229049114.14274311 255976142.95474434 0 0 0 0 7771208.251449585 228329673.35026455 0 228329673.35026455 270797196.27267247 0 0 0 0 24490383.65171814 243558102.02708054 0 243558102.02708054 186043374.91182423 0 0 0 0 48972391.963172913 309608361.69932294 0 309608361.69932294 371120232.94963646 0 0 0 0 14346446.809707642 232110809.9003129 0 232110809.9003129 365187900.86173725 0 0 0 0 24086543.15802002 226140474.11756468 0 226140474.11756468 409244637.04387212 0 0 0 0 13772042.721481323 238367066.36975288 0 238367066.36975288 317646983.79664898 0 0 0 0 4679511.6415863037 225777622.23357105 0 225777622.23357105 300330236.07115304 0 0 0 0 31491218.830680847 272281397.54325008 0 272281397.54325008 299996351.32288831 0 0 0 0 33172667.454849243 269905263.50950527 0 269905263.50950527 291071469.47738123 0 0 0 0 43679393.131263733 292641693.74483562 0 292641693.74483562 316887624.93048406 0 0 0 0 68559469.165924072 248702709.8233372 0 248702709.8233372 215354936.86221504 0 0 0 0 36659552.885082245 280157523.24295968 0 280157523.24295968 284097312.26425076 0 0 0 0 57520867.056694031 261156010.63691783 0 261156010.63691783 232481155.78673649 0 0 0 0 -2295514.818572998 168214694.75002491 0 168214694.75002491 322855203.26722306 0 0 0 0 18844391.566879272 122566756.66006362 0 122566756.66006362 109107509.95522101 0 0 0 0 96398409.14881897 172885372.25781059 0 172885372.25781059 80002406.409805536 0 0 0 0 66365058.965595245 104032508.28085142 0 104032508.28085142 85614970.642000198 0 0 0 0 87616737.907516479 147397820.10966468 0 147397820.10966468 107304727.72673273 0 0 0 0 137573330.22137642 137539568.41448176 0 137539568.41448176 110054137.16695595 0 0 0 0 116676060.58354187 193890187.14208841 0 193890187.14208841 180555629.29078579 0 0 0 0 46476545.390853882 226666662.93560219 0 226666662.93560219 226996836.18048263 0 0 0 0 36586020.532791138 251952839.92158413 0 251952839.92158413 218088555.97214556 0 0 0 0 15511483.86290741 230638761.61137879 0 230638761.61137879 230086923.18215942 0 0 0 0 -4977026.4052734375 9093833.6481916904 0 9093833.6481916904 -660601.84827047586 0 0 0 0 159407773.45700073 76582900.217756271 0 76582900.217756271 73458048.002846241 0 0 0 0 295367107.17204285 47362732.961690903 0 47362732.961690903 55512729.336103082 0 0 0 0 177256785.14996338 104388073.59500313 0 104388073.59500313 -35570176.365444183 0 0 0 0 180381407.25389099 133095958.15502977 0 133095958.15502977 93006034.956507921 0 0 0 0 270965422.02153015 132300762.63853073 0 132300762.63853073 90425392.988049984 0 0 0 0 178848263.23960257 107629021.35030022 0 107629021.35030022 84968245.216860771 0 0 0 0 -154346577.23339081 36569094.32092452 0 36569094.32092452 -5232702.9836743474 0 0 0 0 394581679.96598816 145397204.57145762 0 145397204.57145762 -3457094.2639608383 0 0 0 0 -333088.41026306152 283986373.42648101 0 283986373.42648101 -127854244.94902229 0 0 0 0 -535390.53313538432 1826321.4103261158 0 1826321.4103261158 -216071.92198744975 0 0 0 0 271011162.40150452 218653404.62973309 0 218653404.62973309 -21159657.127088547 0 0 0 0 113249079.52719116 255538388.17829514 0 255538388.17829514 148136213.42726088 0 0 0 0 -122039573.67375183 253346043.99361134 0 253346043.99361134 148513464.35370255 0 0 0 0 93056477.531524658 358857023.35941839 0 358857023.35941839 -29470408.144259453 0 0 0 0 105236903.6065979 342058966.96941805 0 342058966.96941805 161622417.07512194 0 0 0 0 192863602.78979492 219543414.92463493 0 219543414.92463493 160220621.43193552 0 0 0 0 217869387.57926941 181859973.37923318 0 181859973.37923318 44564089.134422302 0 0 0 0 215014486.33224487 197674611.36751175 0 197674611.36751175 149655320.57853985 0 0 0 0 215072519.47518539 293818421.28027916 0 293818421.28027916 200159278.84086037 0 0 0 0 150081195.27724457 236777879.02237916 0 236777879.02237916 347725253.67739868 0 0 0 0 273995671.53353882 249886747.49435329 0 249886747.49435329 348095868.21663868 0 0 0 0 194388.19725799561 278517288.51027822 0 278517288.51027822 433326797.37252617 0 0 0 0 124106106.53153992 287557688.84472799 0 287557688.84472799 263698776.92612219 0 0 0 0 112005415.56933594 270309218.90890646 0 270309218.90890646 278379280.9587388 0 0 0 0 99649751.468891144 248089961.13110328 0 248089961.13110328 257987905.96249485 0 0 0 0 172553750.15219116 216126627.07145977 0 216126627.07145977 171240253.93876433 0 0 0 0 163328070.55406189 200912873.34323263 0 200912873.34323263 182638736.04040241 0 0 0 0 170286760.01338196 287395255.43579054 0 287395255.43579054 260707464.21283132 0 0 0 0 199172843.57437134 239161443.5251503 0 239161443.5251503 389062949.80856645 0 0 0 0 151090001.47118378 286891007.09996033 0 286891007.09996033 379631960.83468723 0 0 0 0 198583265.45031738 312879659.64408636 0 312879659.64408636 375839578.57812595 0 0 0 0 114974988.45097351 294269275.53842139 0 294269275.53842139 373020460.690135 0 0 0 0 47916733.171638489 297781615.44360495 0 297781615.44360495 620405705.22147083 0 0 0 0 21783274.723175049 176092853.76714373 0 176092853.76714373 1318664211.3482237 0 0 0 0 2831436.7869384289 177794.07087024301 0 177794.07087024301 278753.70556366164 0 0 0 0 24275594.790992737 83559526.060536385 0 83559526.060536385 508146637.38867188 0 0 0 0 3639587.3386535645 69497660.893270016 0 69497660.893270016 554832035.83579803 0 0 0 0 11697377.27545166 211757284.78304529 0 211757284.78304529 597502651.09057903 0 0 0 0 149189858.75074768 287049621.95574522 0 287049621.95574522 566120223.3237133 0 0 0 0 377412490.63335419 402922750.35857964 0 402922750.35857964 598460359.21877766 0 0 0 0 254359476.02426147 121885991.0355196 0 121885991.0355196 612979226.70147026 0 0 0 0 -157331.01621246338 175021898.13281345 0 175021898.13281345 793667173.46781969 0 0 0 0 218781298.25149536 445878240.44408321 0 445878240.44408321 482257578.91429138 0 0 0 0 318011007.77831078 204309847.53630948 0 204309847.53630948 -3417502.47016716 0 0 0 0 156898338.59778976 49109293.517389297 0 49109293.517389297 70023684.099952698 0 0 0 0 -944090.53714685142 -1400817.3546622931 0 -1400817.3546622931 742778.20309915021 0 0 0 0 9561210.8109130859 134780119.66900015 0 134780119.66900015 291000852.27657127 0 0 0 0 296454.5955581665 76788961.31530714 0 76788961.31530714 94962014.271539688 0 0 0 0 6918212.2911275774 1968897.2087679952 0 1968897.2087679952 877369.53502250183 0 0 0 0 38923430.741378784 -18396617.623468399 0 -18396617.623468399 -5408707.3196592331 0 0 0 0 -34432711.673187256 73252407.411019802 0 73252407.411019802 -56508223.630239487 0 0 0 0 175882947.53164673 47664042.824777603 0 47664042.824777603 -157395373.98527622 0 0 0 0 -82597742.44115448 3773692.2521593571 0 3773692.2521593571 61671895.464809418 0 0 0 0 16093707.817573547 43410659.641093254 0 43410659.641093254 141935510.83511353 0 0 0 0 3383045.7714538574 -9864692.9187803268 0 -9864692.9187803268 51481112.60578537 0 0 0 0 22921755.910251617 16687986.869573593 0 16687986.869573593 -14738153.563111305 0 0 0 0 -60353650.494041443 14050406.382615089 0 14050406.382615089 73065034.43596077 0 0 0 0 -10812486.64024353 19950427.980886459 0 19950427.980886459 50927315.355056763 0 0 0 0 -2075200.2768186629 -1692477.1528552412 0 -1692477.1528552412 1307714.0062326239 0 0 0 0 15041287.114330292 25977709.159568787 0 25977709.159568787 9212457.7603616714 0 0 0 0 -1898665.866004616 1605270.8426295973 0 1605270.8426295973 3265857.1557079321 0 0 0 0 -19890208.209991455 -81372627.554250717 0 -81372627.554250717 -172012953.11559677 0 0 0 0 -18641119.10591507 40798803.142383575 0 40798803.142383575 31223639.558652878 0 0 0 0 24346572.066772461 48110736.480734825 0 48110736.480734825 204571846.25287771 0 0 0 0 15972104.110900879 7483042.2426834106 0 7483042.2426834106 -2012230.1041297913 0 0 0 0 9224554.9337609857 4893955.4401105866 0 4893955.4401105866 1471119.6374978498 0 0 0 0 -633097.55067443848 34562077.420975208 0 34562077.420975208 219459577.80610847 0 0 0 0 -90668916.187347412 -13912619.958370209 0 -13912619.958370209 -131828635.49766159 0 0 0 0 -823678.58274231851 3457187.6309423689 0 3457187.6309423689 4164159.0807167888 0 0 0 0 1099013.1994628906 4097497.08543396 0 4097497.08543396 4503216.5777282715 0 0 0 0 -3635837.0714758635 4718899.1951652393 0 4718899.1951652393 6311197.6584070362 0 0 0 0 -5870940.5763244629 -125202930.64844131 0 -125202930.64844131 -175966978.9088974 0 0 0 0 -95245097.7552948 -66209688.86727047 0 -66209688.86727047 -165063592.17014313 0 0 0 0 -39431220.959594727 -59563112.061157227 0 -59563112.061157227 -179966507.04878998 0 0 0 0 -34045191.425384521 -127545440.51912308 0 -127545440.51912308 -170153998.22615433 0 0 0 0 -86069111.091873169 -41596284.447526932 0 -41596284.447526932 -174326037.06752014 0 0 0 0 -8987061.3675910234 -784439.00583865866 0 -784439.00583865866 6588821.72890318 0 0 0 0 -74968157.676300049 -68714934.774169922 0 -68714934.774169922 -174800043.65297699 0 0 0 0 -21444942.001708984 -81494967.873855591 0 -81494967.873855591 -150344812.46570396 0 0 0 0 -3228507.8990020752 -94020124.850141525 0 -94020124.850141525 -167566499.67439651 0 0 0 0 -34700922.884017944 -112214502.11540794 0 -112214502.11540794 -134977199.49073792 0 0 0 0 40018630.459716797 -88431955.173019409 0 -88431955.173019409 -152976960.56705475 0 0 0 0 53599338.494018555 49270607.389894485 0 49270607.389894485 -345386866.37958813 0 0 0 0 39342553.970123291 -106067549.83507538 0 -106067549.83507538 -145888887.71992111 0 0 0 0 101163778.95306396 -12367345.850484848 0 -12367345.850484848 -351304168.50014114 0 0 0 0 4046317.4046634883 413584.27130771428 0 413584.27130771428 -245110.95881561562 0 0 0 0 7261246.0822143555 -29860722.573419571 0 -29860722.573419571 -213192476.23889923 0 0 0 0 86109708.161239624 -53525743.462517738 0 -53525743.462517738 -244819141.20074081 0 0 0 0 20284864.626037598 12774673.901094437 0 12774673.901094437 -259440793.24379444 0 0 0 0 -102220261.8145752 10963955.088172913 0 10963955.088172913 -182619375.2845459 0 0 0 0 -20075834.700195312 -20812658.809978485 0 -20812658.809978485 -212064183.71146011 0 0 0 0 -51531488.275756836 17414325.068252563 0 17414325.068252563 -241538082.8201828 0 0 0 0 -88105878.855407715 45853890.448059082 0 45853890.448059082 -220219151.98788452 0 0 0 0 27033355.804000854 -30104061.719187975 0 -30104061.719187975 -222489532.29623413 0 0 0 0 24230626.556015015 -95408361.491879463 0 -95408361.491879463 -265376679.31155396 0 0 0 0 40510962.650085449 -13057328.404447556 0 -13057328.404447556 -149001434.08788705 0 0 0 0 -4607314.7039470673 26417380.759297848 0 26417380.759297848 6493337.5368118286 0 0 0 0 -2006162.6073379517 3921201.7650647163 0 3921201.7650647163 14596842.003685951 0 0 0 0 11311257.953186035 -19738712.732312202 0 -19738712.732312202 -4788055.8015098572 0 0 0 0 2221598.1947937012 7899693.6411113739 0 7899693.6411113739 17523270.237467289 0 0 0 0 -2348125.8105560392 2266251.3353821803 0 2266251.3353821803 1522179.3550492181 0 0 0 0 1898974.1130981445 7519771.6724772453 0 7519771.6724772453 18419993.389102936 0 0 0 0 516033.80668276548 6778013.0803733915 0 6778013.0803733915 2544874.2965169717 0 0 0 0 -39600.274668157101 1476107.9657877907 0 1476107.9657877907 4231199.7484042868 0 0 0 0 9804576.6068267822 13390583.612984657 0 13390583.612984657 135664047.74044704 0 0 0 0 -5333870.7734603882 88509807.861951351 0 88509807.861951351 254356290.6453886 0 0 0 0 27636718.406890869 99380283.397192955 0 99380283.397192955 166321705.77376342 0 0 0 0 34895468.366012573 113567186.3330394 0 113567186.3330394 177956665.28613281 0 0 0 0 17459938.398757935 149558439.06685734 0 149558439.06685734 191784619.19640994 0 0 0 0 -487356.24843010306 104465.53975073993 0 104465.53975073993 1322775.9962817905 0 0 0 0 20947564.84249115 152491805.41279054 0 152491805.41279054 186989248.03929901 0 0 0 0 17953264.40517807 147936056.33328044 0 147936056.33328044 186408912.88078308 0 0 0 0 21085029.60836792 150264066.45780849 0 150264066.45780849 180441012.49020892 0 0 0 0 4576714.8693771362 151301852.39993572 0 151301852.39993572 248082251.95555592 0 0 0 0 10109470.982971191 158054561.59269214 0 158054561.59269214 255073973.95890236 0 0 0 0 -14889075.563316345 147469659.34903181 0 147469659.34903181 309345345.21082497 0 0 0 0 -8808705.3574676514 156684656.44451427 0 156684656.44451427 322366439.49665332 0 0 0 0 -23710820.231796265 163945445.58270931 0 163945445.58270931 500206573.27754498 0 0 0 0 23266856.515705109 235001016.33105564 0 235001016.33105564 352175545.01369095 0 0 0 0 -1316011.7169723511 31510125.676250935 0 31510125.676250935 329630417.99031258 0 0 0 0 19132234.588150024 28206589.998748779 0 28206589.998748779 223535254.4167757 0 0 0 0 -3391962.2379302979 65556188.436368942 0 65556188.436368942 345260491.74213982 0 0 0 0 908565.50561523438 81532135.222322464 0 81532135.222322464 215203346.68000603 0 0 0 0 142852199.55261421 -78400335.227054119 0 -78400335.227054119 -616891422.59373856 0 0 0 0 23947793.054039001 28732395.29205513 0 28732395.29205513 -293538284.0530262 0 0 0 0 -899053.75595584512 293811.28432442807 0 293811.28432442807 -388981.47939263657 0 0 0 0 -436450219.27982521 -358294054.48911572 0 -358294054.48911572 -371580122.23611259 0 0 0 0 -265613593.22211266 -681477266.29140949 0 -681477266.29140949 -899600772.70645142 0 0 0 0 93893270.819782257 -12059791.903234482 0 -12059791.903234482 -556925303.88435745 0 0 0 0 -69764598.361495972 20280895.444519043 0 20280895.444519043 -420596274.75041199 0 0 0 0 -92536927.428927422 -195408484.94080544 0 -195408484.94080544 -574864744.77429962 0 0 0 0 -2512571.1248435974 -104577688.59492493 0 -104577688.59492493 -764023468.54565907 0 0 0 0 -46887375.022830963 98315826.253883362 0 98315826.253883362 -395218771.17432404 0 0 0 0 19778486.058937073 -107455308.51670265 0 -107455308.51670265 -258807693.17879105 0 0 0 0 -2756127.7635345459 154392415.55925751 0 154392415.55925751 -70350435.998664856 0 0 0 0 69094093.12667942 -74060549.649950027 0 -74060549.649950027 142536463.48551369 0 0 0 0 103569428.32619476 -56624795.805360794 0 -56624795.805360794 -479846493.78206253 0 0 0 0 -138820778.66799736 -62547208.675621033 0 -62547208.675621033 -94091067.428060532 0 0 0 0 639018738.53182793 125296713.91833687 0 125296713.91833687 -233613552.3321104 0 0 0 0 43512796.519416809 228860651.16146278 0 228860651.16146278 75907701.362398148 0 0 0 0 138521116.7619046 178751546.27114254 0 178751546.27114254 -357649970.51366997 0 0 0 0 119952035.85664654 316349736.86083317 0 316349736.86083317 -100260070.95800018 0 0 0 0 -294432.46411478473 1740983.7914726995 0 1740983.7914726995 294822.52248584107 0 0 0 0 678909071.99668694 -59329809.21297884 0 -59329809.21297884 -480436868.79577923 0 0 0 0 4521029.1773796082 -31516886.10216713 0 -31516886.10216713 -251589167.80200768 0 0 0 0 -136435480.2744894 -226667034.07696581 0 -226667034.07696581 -339129918.17421722 0 0 0 0 93548433.551874161 34241113.180786133 0 34241113.180786133 -375779454.23492599 0 0 0 0 591681.97132778168 -60449943.510257721 0 -60449943.510257721 -263666720.3132987 0 0 0 0 -2700158.4010510743 5909853.2081229063 0 5909853.2081229063 -7488898.9112278763 0 0 0 0 -2635932.7457950525 1174641.6974153183 0 1174641.6974153183 1266033.6110617854 0 0 0 0 28568353.517860413 -72141698.233601809 0 -72141698.233601809 46928863.470673703 0 0 0 0 182490542.9494133 260578769.60803986 0 260578769.60803986 44856785.968327522 0 0 0 0 -749176.43247618526 2803694.3719347045 0 2803694.3719347045 -4330948.1781272516 0 0 0 0 -6711015.8102636337 -327738729.03128672 0 -327738729.03128672 -591714058.3913002 0 0 0 0 186987507.24427986 219980219.08784485 0 219980219.08784485 411379622.18141747 0 0 0 0 438039024.00244331 354488732.68465424 0 354488732.68465424 464538877.22225571 0 0 0 0 522719102.24178696 196689478.56738329 0 196689478.56738329 191044581.90457249 0 0 0 0 625963472.9076519 741602472.8686595 0 741602472.8686595 401478481.81823933 0 0 0 0 555518699.91550064 520412547.03952265 0 520412547.03952265 473869458.00833517 0 0 0 0 404109050.67256546 281961233.83807385 0 281961233.83807385 499959489.66900742 0 0 0 0 -1410098110.4195204 -212491016.61333078 0 -212491016.61333078 184101583.97771665 0 0 0 0 479593251.98601151 73817873.706694484 0 73817873.706694484 145105168.09539032 0 0 0 0 -2164487854.376884 619211030.68150842 0 619211030.68150842 -694029337.37690187 0 0 0 0 -3423827.0537139382 1867623.3231996056 0 1867623.3231996056 828216.7277424077 0 0 0 0 -1492222728.6273346 563399230.99349248 0 563399230.99349248 -36295346.458243966 0 0 0 0 857224895.71076965 365755553.2291708 0 365755553.2291708 -139223933.92964172 0 0 0 0 -1754350279.5096626 -597365574.41285801 0 -597365574.41285801 540649322.05619812 0 0 0 0 -2458727679.7609787 282135649.19133329 0 282135649.19133329 252140231.88245773 0 0 0 0 589240409.68137181 -820393744.7970376 0 -820393744.7970376 329048501.03435802 0 0 0 0 694411653.4937706 1105585444.9297838 0 1105585444.9297838 -118349467.32110882 0 0 0 0 626409845.86352158 362702355.49537086 0 362702355.49537086 295598419.6631012 0 0 0 0 554758634.37409592 455217665.59926701 0 455217665.59926701 439475284.47642708 0 0 0 0 364726452.77215576 297178922.67118835 0 297178922.67118835 507699279.29716206 0 0 0 0 -5339677.2129328027 5749513.8880589642 0 5749513.8880589642 -2319567.4858595319 0 0 0 0 512802193.40377426 296615432.10176086 0 296615432.10176086 353554715.81916332 0 0 0 0 37707475.533875883 43508001.134994574 0 43508001.134994574 24633841.384822018 0 0 0 0 -26924473.806289673 159846684.55220699 0 159846684.55220699 -127906251.04916763 0 0 0 0 44021025.518728256 10965257.233921558 0 10965257.233921558 -63844661.074811637 0 0 0 0 -32755676.280269623 129196194.77389395 0 129196194.77389395 -219500824.74784112 0 0 0 0 -121362385.62498093 649143129.2803998 0 649143129.2803998 -561682503.62511683 0 0 0 0 -207307184.74111557 317917456.67709625 0 317917456.67709625 -233048724.41578674 0 0 0 0 2303074.640814539 4924980.2815319039 0 4924980.2815319039 -205845.37586626085 0 0 0 0 49107305.659758568 -21034949.110276937 0 -21034949.110276937 79033614.125169277 0 0 0 0 256673412.05933762 343208789.43477964 0 343208789.43477964 -325235106.78668261 0 0 0 0 237148759.96961403 91720511.341651678 0 91720511.341651678 -190541545.4779377 0 0 0 0 -79713637.880503654 76542556.284472704 0 76542556.284472704 28681113.518867493 0 0 0 0 35386872.343802042 43881788.109351151 0 43881788.109351151 20827027.354302451 0 0 0 0 -75984896.065779686 63766786.753491879 0 63766786.753491879 42402940.837299347 0 0 0 0 -66889733.901496887 58475060.414834499 0 58475060.414834499 45201700.893539429 0 0 0 0 -67076566.605369568 54571614.652288437 0 54571614.652288437 3783952.2701396942 0 0 0 0 25507354.461516131 16963504.441362128 0 16963504.441362128 -3935112.8756175879 0 0 0 0 -835565593.48045349 1144055309.9866009 0 1144055309.9866009 876317859.22384644 0 0 0 0 87141625.036928177 46440554.740900517 0 46440554.740900517 114565189.67972136 0 0 0 0 104681650.25886154 55656748.436467171 0 55656748.436467171 -6936736.4365615845 0 0 0 0 28146435.883141074 46936934.448326893 0 46936934.448326893 5864375.2119037695 0 0 0 0 135131148.56800079 252541456.9737978 0 252541456.9737978 -431098358.45167828 0 0 0 0 -713767308.04396057 -755524997.8866291 0 -755524997.8866291 -245966215.22020245 0 0 0 0 29027865.637776412 9910878.5095230155 0 9910878.5095230155 -1963086.6300237551 0 0 0 0 -70133021.039985657 37844293.078325272 0 37844293.078325272 15951987.850716591 0 0 0 0 -68072635.745004654 40679390.834406853 0 40679390.834406853 17108027.641189575 0 0 0 0 -62824743.390823364 37583939.983488083 0 37583939.983488083 18905091.26202774 0 0 0 0 601707059.8120842 533022747.76107788 0 533022747.76107788 340033352.84396172 0 0 0 0 -13790461.081848145 -679949051.08974457 0 -679949051.08974457 -1316415689.1716843 0 0 0 0 791563675.93166351 513851408.97996902 0 513851408.97996902 -71279207.88596344 0 0 0 0 532016744.30929565 464143315.56762695 0 464143315.56762695 -145572140.92469788 0 0 0 0 322028979.26234436 350745318.53573799 0 350745318.53573799 -206417923.54927063 0 0 0 0 714495189.76098633 152008016.47220993 0 152008016.47220993 -765665236.54310608 0 0 0 0 878654175.22047424 430519131.91678619 0 430519131.91678619 -462447357.84561157 0 0 0 0 478862886.7195549 249319631.19483376 0 249319631.19483376 -29929216.897880554 0 0 0 0 565977572.76185608 425122059.12421608 0 425122059.12421608 274426422.70403862 0 0 0 0 521981948.39413834 284492712.59876823 0 284492712.59876823 263649898.958992 0 0 0 0 356668713.01756096 201799821.49702573 0 201799821.49702573 -39747992.173973083 0 0 0 0 -713972388.99263954 859994504.10889626 0 859994504.10889626 485882239.56468958 0 0 0 0 289922434.03572845 333680661.30405235 0 333680661.30405235 -277986364.44353485 0 0 0 0 -4999567.8812310137 3331315.2950170375 0 3331315.2950170375 324331.4643129129 0 0 0 0 374652567.00287628 372752815.86764145 0 372752815.86764145 25095862.750318527 0 0 0 0 331983385.00341797 135315449.57208443 0 135315449.57208443 235602792.66018677 0 0 0 0 219440128.12784576 426717438.67660141 0 426717438.67660141 -348220054.24289513 0 0 0 0 282370164.97999573 369315187.05294228 0 369315187.05294228 -338468947.04146481 0 0 0 0 428361607.12638855 367803390.60079956 0 367803390.60079956 -339713263.96731567 0 0 0 0 410783415.96389699 395057771.33951128 0 395057771.33951128 -696422755.97987366 0 0 0 0 403663867.38851929 299223014.14977264 0 299223014.14977264 -543162228.01815796 0 0 0 0 13118431.211176584 8594770.8222695477 0 8594770.8222695477 2539239.2991972379 0 0 0 0 386118786.76040649 466062386.0216713 0 466062386.0216713 -767446788.57394028 0 0 0 0 131253067.47617531 164559841.66970444 0 164559841.66970444 -536268482.76756358 0 0 0 0 113621655.68102121 242394564.08044863 0 242394564.08044863 -117860811.88736725 0 0 0 0 216746078.70679092 75937090.29317379 0 75937090.29317379 -712510567.40069938 0 0 0 0 315813333.34875298 377320465.9053545 0 377320465.9053545 -514104737.70559311 0 0 0 0 127430527.44192886 227260653.79276371 0 227260653.79276371 -495054495.29577637 0 0 0 0 54849232.766395807 188652616.86485398 0 188652616.86485398 -709940043.13677979 0 0 0 0 61177840.886773825 48111117.013633728 0 48111117.013633728 -978196993.22672272 0 0 0 0 36867904.060333252 -8179451.2768859863 0 -8179451.2768859863 -1077833843.198658 0 0 0 0 -12240954.341804504 138520327.47737122 0 138520327.47737122 -1154396835.1107407 0 0 0 0 12195252.906005859 -203072103.408638 0 -203072103.408638 -935009018.41197205 0 0 0 0 -167319426.72651672 -74352993.786668777 0 -74352993.786668777 -1026577153.5274506 0 0 0 0 189759441.98443604 479265499.13105011 0 479265499.13105011 -619085723.58999252 0 0 0 0 12112389.570446014 -203348711.5055275 0 -203348711.5055275 -1077508913.4712524 0 0 0 0 198797020.90512848 -50548657.340908051 0 -50548657.340908051 -1493024694.8128986 0 0 0 0 -21715901.261856079 95636891.248054504 0 95636891.248054504 -648782018.07966614 0 0 0 0 -124805103.9843502 15594703.070919037 0 15594703.070919037 -278643337.81523132 0 0 0 0 -61458938.752281189 62478593.606254578 0 62478593.606254578 -642978084.26368141 0 0 0 0 -95309734.129371643 111335328.96521568 0 111335328.96521568 -235165385.07808685 0 0 0 0 -106402202.82776165 129635136.94115353 0 129635136.94115353 -165475344.29564667 0 0 0 0 -76411515.063049316 40060183.108364105 0 40060183.108364105 -271268123.57408333 0 0 0 0 -45379968.657352448 78498430.194211483 0 78498430.194211483 12087227.027835846 0 0 0 0 -68961227.656417847 -22909083.80537796 0 -22909083.80537796 60261061.91841507 0 0 0 0 -12026876.607540131 38960212.483903885 0 38960212.483903885 -77505290.81477356 0 0 0 0 -124757594.02278137 29273546.156404495 0 29273546.156404495 -53619245.092460632 0 0 0 0 -29623675.369998932 10355383.280454159 0 10355383.280454159 133388869.80937195 0 0 0 0 69677488.1671772 -81240642.657798767 0 -81240642.657798767 57507912.329380035 0 0 0 0 12352886.734730149 30580816.053179629 0 30580816.053179629 25368558.727950118 0 0 0 0 8711360.8017001152 87501272.433063507 0 87501272.433063507 20315325.363616943 0 0 0 0 27707473.360061646 16950131.222664833 0 16950131.222664833 52819462.827606201 0 0 0 0 -31227.834386825562 20383002.298337936 0 20383002.298337936 60880815.909519196 0 0 0 0 -70619761.073219299 15990070.390800476 0 15990070.390800476 -7529448.9478820562 0 0 0 0 4027547.8900848776 1944884.5568894707 0 1944884.5568894707 -924011.27324629202 0 0 0 0 -52019805.913955688 25396384.716770172 0 25396384.716770172 -7895258.9269485474 0 0 0 0 192019017.2484169 75793305.598751068 0 75793305.598751068 -2716672.1221718788 0 0 0 0 9039224.2066683769 84422990.6733284 0 84422990.6733284 47386682.46169281 0 0 0 0 -4377759.2726725247 37920725.092380226 0 37920725.092380226 -23654167.144895162 0 0 0 0 150021462.84852028 -22573488.876421452 0 -22573488.876421452 -40245811.500751495 0 0 0 0 -244823611.9833889 127322195.57811975 0 127322195.57811975 -77315267.187210083 0 0 0 0 -228994332.6337204 395198431.99853897 0 395198431.99853897 83944608.340498924 0 0 0 0 -217228368.87507629 74631900.893341064 0 74631900.893341064 24178532.349617004 0 0 0 0 -22078832.695121765 11235376.146518707 0 11235376.146518707 -147373300.71328735 0 0 0 0 21443523.015426636 98199682.415039062 0 98199682.415039062 -186094952.95222187 0 0 0 0 148436526.58784485 149658564.66110229 0 149658564.66110229 59568194.560913086 0 0 0 0 56607685.527015686 349684011.36201859 0 349684011.36201859 39838977.153762817 0 0 0 0 79757239.190989494 172443058.17218781 0 172443058.17218781 132669710.36238098 0 0 0 0 -23050374.825285077 28113411.166217826 0 28113411.166217826 -24143959.033529688 0 0 0 0 181971139.81422806 296955786.7297821 0 296955786.7297821 377444521.40791321 0 0 0 0 3011583.2481699102 1850678.7469203956 0 1850678.7469203956 -3340475.6752855368 0 0 0 0 102023146.83846664 -1100027.9215536118 0 -1100027.9215536118 123597459.59230804 0 0 0 0 -6098544.5842323303 45006428.127256393 0 45006428.127256393 107168281.8219986 0 0 0 0 152334174.0412178 80525799.720651627 0 80525799.720651627 47240683.127098083 0 0 0 0 80067084.308959961 128819745.96487045 0 128819745.96487045 30121928.417449951 0 0 0 0 8136801.0438194275 93383320.909942627 0 93383320.909942627 148187992.50986481 0 0 0 0 50144175.430251002 68438696.579100609 0 68438696.579100609 27484738.876701355 0 0 0 0 -12543114.034673214 76005945.001237869 0 76005945.001237869 98884852.922935486 0 0 0 0 -18920540.960486412 -6658665.1315383911 0 -6658665.1315383911 -19671442.995422363 0 0 0 0 -58965283.543504715 17956031.941932678 0 17956031.941932678 54206235.363948822 0 0 0 0 -48356323.81556201 4485143.6483387947 0 4485143.6483387947 66754208.383583069 0 0 0 0 -29675807.032391071 91733325.784405231 0 91733325.784405231 174464908.70381165 0 0 0 0 -48271207.873182297 142803900.18113899 0 142803900.18113899 184788680.49838257 0 0 0 0 -149113659.15314674 -54074033.141475677 0 -54074033.141475677 104974163.72944641 0 0 0 0 60647151.550098419 118592304.961483 0 118592304.961483 110281325.57131195 0 0 0 0 41511300.003755569 218757528.75564575 0 218757528.75564575 428181334.57067871 0 0 0 0 145552275.84788132 118299933.04730988 0 118299933.04730988 155182260.19570923 0 0 0 0 183273485.11668396 290408004.24851227 0 290408004.24851227 324947685.10678101 0 0 0 0 264471230.18197441 439490208.53501511 0 439490208.53501511 439719981.54574585 0 0 0 0 -8586730.1545957234 1674840.8399918284 0 1674840.8399918284 7626279.8685445637 0 0 0 0 13195117.455006987 19690844.961691443 0 19690844.961691443 20555154.082618102 0 0 0 0 22263404.167608261 17624468.684078217 0 17624468.684078217 56119247.094486237 0 0 0 0 -41496533.698774338 22481237.679943085 0 22481237.679943085 31363657.387028217 0 0 0 0 -52663368.246808052 30900658.470585823 0 30900658.470585823 40005421.873817444 0 0 0 0 -735002.90789960581 9431413.9811708406 0 9431413.9811708406 3612110.5944271572 0 0 0 0 -48805887.107890129 -8177422.1977329254 0 -8177422.1977329254 14690491.014072418 0 0 0 0 74068551.204184532 -67549308.741809845 0 -67549308.741809845 126974149.92615891 0 0 0 0 3268618.3356918646 8779437.478547411 0 8779437.478547411 15490684.066549607 0 0 0 0 349626669.76535606 161922148.59696579 0 161922148.59696579 102929139.56546021 0 0 0 0 439646565.46441841 369251852.92286301 0 369251852.92286301 30347399.074996948 0 0 0 0 7290700.4457674809 3742330.071436543 0 3742330.071436543 7666324.0509692021 0 0 0 0 408033752.47837639 85076656.004383087 0 85076656.004383087 42391259.220773697 0 0 0 0 810125786.12296486 484728670.51484871 0 484728670.51484871 347194424.9929657 0 0 0 0 1057934807.2534904 361633340.31166077 0 361633340.31166077 -17229489.880802155 0 0 0 0 -304054.70734901633 2853627.1166914795 0 2853627.1166914795 559910.392068699 0 0 0 0 399730967.15781641 778186694.86894321 0 778186694.86894321 373447364.10715103 0 0 0 0 98537450.552033901 134173113.16181946 0 134173113.16181946 604905054.12966919 0 0 0 0 974558.26680503227 -268246.36430536583 0 -268246.36430536583 3066459.5787033178 0 0 0 0 53091544.036520004 -58417887.646877289 0 -58417887.646877289 70120762.348100662 0 0 0 0 52743564.346347809 45133555.12717247 0 45133555.12717247 46563561.0586586 0 0 0 0 27960297.262680054 9992197.1691112518 0 9992197.1691112518 1551055.1144332886 0 0 0 0 6380146.7015881538 41544412.163471222 0 41544412.163471222 77375443.060775757 0 0 0 0 18823574.992835999 24412348.5639534 0 24412348.5639534 57602309.76240921 0 0 0 0 72853790.94295311 131105026.16353416 0 131105026.16353416 17746726.860809326 0 0 0 0 346370607.06757927 -621500.54809188843 0 -621500.54809188843 -26688094.567184448 0 0 0 0 387991737.98341513 102285004.23816872 0 102285004.23816872 -80901745.386535645 0 0 0 0 264539959.01228857 145076397.03865194 0 145076397.03865194 -90160813.823417664 0 0 0 0 234136349.31837082 38713981.296541214 0 38713981.296541214 -33979012.17627573 0 0 0 0 211443471.54956436 350224909.73434639 0 350224909.73434639 37214153.48333931 0 0 0 0 602259222.73112011 261851644.67102718 0 261851644.67102718 -141079263.6876545 0 0 0 0 196895768.95525682 115196449.41738701 0 115196449.41738701 -122182426.21298218 0 0 0 0 -82637142.195703506 19910427.489593506 0 19910427.489593506 -43527890.291984558 0 0 0 0 -16891396.482364655 139798012.05560875 0 139798012.05560875 -82207932.001813889 0 0 0 0 -66950402.538033485 -4844943.0050592422 0 -4844943.0050592422 -173436831.4291687 0 0 0 0 23885284.253770828 77660034.378517151 0 77660034.378517151 12433629.785579681 0 0 0 0 398728944.25582528 668704045.1260972 0 668704045.1260972 481743385.13618088 0 0 0 0 -27749227.713729858 -41550383.000051498 0 -41550383.000051498 858919007.56242085 0 0 0 0 167585410.05229282 339523687.82824612 0 339523687.82824612 742260001.25924683 0 0 0 0 -654483.74046466593 4111731.030034529 0 4111731.030034529 669707.70323745906 0 0 0 0 257713701.05908489 621137486.41975784 0 621137486.41975784 79659451.891803741 0 0 0 0 2094756.2235975266 2555761.289318529 0 2555761.289318529 2362182.635724999 0 0 0 0 261716174.3829101 672370053.75900102 0 672370053.75900102 -352257259.18727112 0 0 0 0 -464540813.84070206 214104270.01894569 0 214104270.01894569 122203480.50780964 0 0 0 0 378147433.69050521 231357403.45711851 0 231357403.45711851 -487153574.77156067 0 0 0 0 1125644808.3658667 584667860.46926308 0 584667860.46926308 -82370023.876132965 0 0 0 0 380100851.47490597 167346843.76280975 0 167346843.76280975 -26643796.44399929 0 0 0 0 146049901.00476933 331143777.09528732 0 331143777.09528732 379260410.14769745 0 0 0 0 265130163.27437782 252247308.70770645 0 252247308.70770645 288938961.00410652 0 0 0 0 65018060.097583771 74412397.870769501 0 74412397.870769501 887196.60271263123 0 0 0 0 -249523339.56760097 217365115.73630619 0 217365115.73630619 222667063.24087143 0 0 0 0 -33483268.601666927 2588989.5024251938 0 2588989.5024251938 80373647.87830162 0 0 0 0 -225160108.65005684 216337798.63105392 0 216337798.63105392 -186586595.51568413 0 0 0 0 3907749.3024840681 6109102.1264713202 0 6109102.1264713202 5564447.2714973539 0 0 0 0 -514606943.61851978 559804756.26778412 0 559804756.26778412 -138180448.97414398 0 0 0 0 -13442541.136439655 10189699.824407831 0 10189699.824407831 14483556.931003537 0 0 0 0 -56798769.128624916 8779264.907992363 0 8779264.907992363 6074542.1124415398 0 0 0 0 -54995522.70022583 80398807.350751877 0 80398807.350751877 84411767.333613873 0 0 0 0 70445940.963760376 175255417.59335804 0 175255417.59335804 134445695.90554142 0 0 0 0 -36416125.940647885 32781606.857622039 0 32781606.857622039 5387355.0772382095 0 0 0 0 -63900928.633402824 10148482.718453884 0 10148482.718453884 37008929.07970047 0 0 0 0 -35750279.934119225 29390399.919729233 0 29390399.919729233 9958225.7733206749 0 0 0 0 -73475457.608937263 53260191.845513344 0 53260191.845513344 61537585.821190834 0 0 0 0 -81963889.526631355 94380545.144886017 0 94380545.144886017 24192125.277758598 0 0 0 0 -56280694.906807899 109353173.55326033 0 109353173.55326033 -31102451.488170624 0 0 0 0 -15664594.148132747 12150528.85092462 0 12150528.85092462 7376144.2020582967 0 0 0 0 -75956002.825747252 61495032.6334095 0 61495032.6334095 175284871.61141205 0 0 0 0 -64034352.021760941 155789227.91920471 0 155789227.91920471 104378574.57787704 0 0 0 0 -64837134.517848015 187556829.10914421 0 187556829.10914421 382352108.77038002 0 0 0 0 -19298414.454787731 54620281.70839262 0 54620281.70839262 77991147.572458267 0 0 0 0 -28961430.942914963 -12735379.723931313 0 -12735379.723931313 215469728.45527649 0 0 0 0 -41586779.964019775 39261901.652513981 0 39261901.652513981 -12953550.566172957 0 0 0 0 -29239886.991087407 2604495.1487808824 0 2604495.1487808824 10969638.674240325 0 0 0 0 155092285.16030884 12578417.714159012 0 12578417.714159012 -113503929.56038094 0 0 0 0 -85118305.065832138 -95971475.702783465 0 -95971475.702783465 313254409.183918 0 0 0 0 -68425665.475463867 -3839152.5521211624 0 -3839152.5521211624 196620759.62234688 0 0 0 0 39184789.962343693 -215354597.21170574 0 -215354597.21170574 369763366.56781006 0 0 0 0 -71666791.606933594 -56129306.003580093 0 -56129306.003580093 533212486.52398872 0 0 0 0 -111173218.33428192 -105674552.38256741 0 -105674552.38256741 594881153.77838898 0 0 0 0 -122643468.12550354 -10360556.05129528 0 -10360556.05129528 354754828.211555 0 0 0 0 -114078822.11608124 28819004.331547737 0 28819004.331547737 325924987.72145271 0 0 0 0 -149726406.25097656 -33173320.87818718 0 -33173320.87818718 450218914.09228325 0 0 0 0 -50777467.054428101 -66075769.790235996 0 -66075769.790235996 105900940.00454521 0 0 0 0 -41151718.055686951 30707260.633178711 0 30707260.633178711 50994751.102466583 0 0 0 0 -20210937.326665729 4848023.5957769174 0 4848023.5957769174 9068125.1139719971 0 0 0 0 -46121133.33455658 -7177901.657869339 0 -7177901.657869339 50991067.196510315 0 0 0 0 -64464248.665603638 74516602.713545799 0 74516602.713545799 154613751.28108978 0 0 0 0 -114194152.63246846 24988499.602296531 0 24988499.602296531 223949339.29248428 0 0 0 0 -151248459.15946198 126928067.32334614 0 126928067.32334614 387903428.6028471 0 0 0 0 -149076827.68135071 120035806.6473527 0 120035806.6473527 221083810.62930202 0 0 0 0 -41438610.309425354 130903446.59134007 0 130903446.59134007 183048580.32939529 0 0 0 0 -68227494.126771927 39011095.473827958 0 39011095.473827958 37921563.41078186 0 0 0 0 -44808415.505320072 63478762.212033272 0 63478762.212033272 -11232596.48433876 0 0 0 0 -42235283.743534252 38199673.921995029 0 38199673.921995029 3431173.7769030742 0 0 0 0 -88156344.531562805 14696232.97628212 0 14696232.97628212 37917300.987499304 0 0 0 0 -84011165.442345619 -20387436.801012993 0 -20387436.801012993 28586434.709117889 0 0 0 0 -61331202.617598534 36542465.535871506 0 36542465.535871506 110329416.85723114 0 0 0 0 -39713978.889289521 27907498.995945737 0 27907498.995945737 23308080.311260324 0 0 0 0 68065140.228622437 60891043.116528988 0 60891043.116528988 -8159601.2333240509 0 0 0 0 -5666297.8114318848 12409658.455378771 0 12409658.455378771 44130795.990606546 0 0 0 0 -32037277.824501537 22209276.359551426 0 22209276.359551426 19283277.616964608 0 0 0 0 -59772671.049297333 48405807.438028336 0 48405807.438028336 -6374919.3124694824 0 0 0 0 -5315684.0355453491 11733149.431553841 0 11733149.431553841 8685853.2484762669 0 0 0 0 -45512451.85710907 6080463.9666566849 0 6080463.9666566849 35055887.214123011 0 0 0 0 -84710754.515777588 -9212822.5819587708 0 -9212822.5819587708 30236751.517484665 0 0 0 0 12688347.11907959 54712458.477962732 0 54712458.477962732 -53193044.445629835 0 0 0 0 10021015.723730922 11654065.080912493 0 11654065.080912493 -337747.87585044606 0 0 0 0 -32185265.385545731 27889736.701165579 0 27889736.701165579 -2686638.5265276432 0 0 0 0 -88052116.32819891 58664808.494078964 0 58664808.494078964 2371007.2041897774 0 0 0 0 -30840993.259902954 5409481.700961113 0 5409481.700961113 -2384918.3380584717 0 0 0 0 -56037773.818374634 28588740.186662197 0 28588740.186662197 20391728.525577784 0 0 0 0 -31804078.845935822 24009926.321744084 0 24009926.321744084 862336.9529504776 0 0 0 0 -64444226.603721619 41920325.760180473 0 41920325.760180473 9511577.2186584473 0 0 0 0 77370556.155609131 52011787.163508415 0 52011787.163508415 24463580.786020279 0 0 0 0 -131400824.88603973 135631961.72785997 0 135631961.72785997 63820994.508963108 0 0 0 0 -98575841.742277145 47630416.574119329 0 47630416.574119329 28568416.588265419 0 0 0 0 -10132860.837894257 -2467659.4295854345 0 -2467659.4295854345 2170757.4505411726 0 0 0 0 -54676577.405410767 -4899907.3561563492 0 -4899907.3561563492 -5337023.0687427521 0 0 0 0 -140558636.14694214 -70296125.286587477 0 -70296125.286587477 17037134.996320248 0 0 0 0 -9920605.6161510069 28816684.993618272 0 28816684.993618272 21306432.329170074 0 0 0 0 -23348481.381622314 14627983.088560611 0 14627983.088560611 691851.38594388962 0 0 0 0 1641143.6146746352 17690104.103884235 0 17690104.103884235 8700636.1403329745 0 0 0 0 -19439510.625579834 7338920.1949942112 0 7338920.1949942112 -2377827.2862873077 0 0 0 0 25974085.398330569 32846395.409630317 0 32846395.409630317 14949132.173437458 0 0 0 0 1302685.4497217759 21862696.623219118 0 21862696.623219118 2042265.1188804326 0 0 0 0 -13599357.121086612 7930777.2419938371 0 7930777.2419938371 1312848.5960329671 0 0 0 0 47167320.732574463 10923110.787303925 0 10923110.787303925 318827.66597557068 0 0 0 0 8920006.9064771831 3606644.446429275 0 3606644.446429275 -7319.0173166897148 0 0 0 0 66381882.990715027 133748163.67346621 0 133748163.67346621 -10004245.223437309 0 0 0 0 -42251682.425300598 92014383.698148489 0 92014383.698148489 -89137278.357120514 0 0 0 0 -18658114.099967957 28748044.772989988 0 28748044.772989988 80405355.002895355 0 0 0 0 -173730628.57236481 -36689457.26804471 0 -36689457.26804471 36818081.194684029 0 0 0 0 -14405420.630935669 -20833005.134622693 0 -20833005.134622693 66459186.187520027 0 0 0 0 -119702314.60662079 80436847.065167308 0 80436847.065167308 91976719.550245583 0 0 0 0 -37282627.699289158 27147074.678368527 0 27147074.678368527 20387777.009340681 0 0 0 0 71072535.94093132 -66803225.82281208 0 -66803225.82281208 28661668.304377556 0 0 0 0 -93976338.127804756 -68435903.500000954 0 -68435903.500000954 49911197.320114136 0 0 0 0 -22181790.037893534 84256121.901302099 0 84256121.901302099 5413929.0089912415 0 0 0 0 -5135358.9304704666 64513331.982615471 0 64513331.982615471 -29169603.698574066 0 0 0 0 81479304.653306246 206592137.28775477 0 206592137.28775477 87816082.421977997 0 0 0 0 195294347.30514908 75492560.086976051 0 75492560.086976051 -12396327.240258217 0 0 0 0 1773549.0616153926 764337.59785849415 0 764337.59785849415 -161806.29820377566 0 0 0 0 21010418.946038246 14273232.226590157 0 14273232.226590157 -10920847.476966381 0 0 0 0 221924713.76755857 -2968431.5053690672 0 -2968431.5053690672 -13927315.632909775 0 0 0 0 19087530.662539482 100106728.44308376 0 100106728.44308376 23028007.970926285 0 0 0 0 9552595.1190433502 91975982.839014053 0 91975982.839014053 21873540.080762386 0 0 0 0 -61207175.617889404 123297775.3939991 0 123297775.3939991 212744383.37068272 0 0 0 0 138156741.52364469 196185916.0087285 0 196185916.0087285 91089083.394115448 0 0 0 0 49057687.220726013 106208747.64917099 0 106208747.64917099 -16600781.782382011 0 0 0 0 -37241330.636471063 28768137.755497809 0 28768137.755497809 20857299.671634745 0 0 0 0 -112159585.92519808 27507997.255792856 0 27507997.255792856 110270463.39513206 0 0 0 0 -379433.00194740295 92642894.750483513 0 92642894.750483513 40468289.667844772 0 0 0 0 6698659.2657849789 115678093.61541343 0 115678093.61541343 63859420.855195999 0 0 0 0 -87258706.211898804 35648410.894937456 0 35648410.894937456 55377012.314033508 0 0 0 0 -27809485.893959984 34750368.014027469 0 34750368.014027469 23782635.269952327 0 0 0 0 -37082429.354187012 67705406.147794366 0 67705406.147794366 39163758.769479275 0 0 0 0 7808320.1331429482 101077003.59367466 0 101077003.59367466 30067584.170377731 0 0 0 0 -77594763.545440674 73056690.907175899 0 73056690.907175899 68453228.232990503 0 0 0 0 50183473.401351929 46954429.589577675 0 46954429.589577675 42347781.981477737 0 0 0 0 -126003483.22257233 -24063128.231872499 0 -24063128.231872499 25769364.484489918 0 0 0 0 -9585605.4779704846 24910006.228508763 0 24910006.228508763 22023743.637638595 0 0 0 0 -68253125.673049927 -58397508.506103516 0 -58397508.506103516 27381461.707860351 0 0 0 0 -10639261.77682404 -4123912.3860019669 0 -4123912.3860019669 1962198.2001964748 0 0 0 0 34209033.503885269 207253209.32974434 0 207253209.32974434 20250476.285309792 0 0 0 0 147067947.35079801 245818117.98247582 0 245818117.98247582 -191346435.18037224 0 0 0 0 27165335.476714134 195872415.28201962 0 195872415.28201962 29236623.844820023 0 0 0 0 116053151.6363337 340023720.62069988 0 340023720.62069988 84550992.918613434 0 0 0 0 -49425657.1378479 169702586.70635986 0 169702586.70635986 115071940.5316925 0 0 0 0 -48244997.830938339 156023299.72305202 0 156023299.72305202 69267106.856500626 0 0 0 0 106218.33450889587 122732621.84459972 0 122732621.84459972 90084275.052933216 0 0 0 0 -7529104.9821009636 88378200.220093727 0 88378200.220093727 -29370380.346820831 0 0 0 0 -71261094.04580307 121627750.34791946 0 121627750.34791946 167061696.97008419 0 0 0 0 -13982709.281298637 75881176.932024956 0 75881176.932024956 -53315568.675670624 0 0 0 0 3470742.3100618795 2487533.0300356164 0 2487533.0300356164 366996.13914849609 0 0 0 0 -15988482.857514381 86505518.907043457 0 86505518.907043457 -58075048.719929695 0 0 0 0 -7065185.5247049332 50422772.917519569 0 50422772.917519569 -94970668.022454262 0 0 0 0 56591419.971754074 88933386.127671242 0 88933386.127671242 -71804263.992722511 0 0 0 0 58484509.336603165 45954331.03526783 0 45954331.03526783 -192208433.69374275 0 0 0 0 80040664.445881248 90145261.11566186 0 90145261.11566186 -146236139.78985023 0 0 0 0 14069861.485533714 -824487.4538269043 0 -824487.4538269043 -100725432.93221283 0 0 0 0 2547705.6528298855 12206838.382675529 0 12206838.382675529 -86624220.349380493 0 0 0 0 -3871582.2148568956 9226029.9241238032 0 9226029.9241238032 -10090585.019355707 0 0 0 0 44119794.318768501 66622818.078874826 0 66622818.078874826 47597986.004145384 0 0 0 0 38460362.872797012 68409875.332451105 0 68409875.332451105 49172637.538789034 0 0 0 0 35614322.659273148 24252965.243662596 0 24252965.243662596 24363641.184845924 0 0 0 0 9876171.7570648193 41322148.333420694 0 41322148.333420694 52621417.966181278 0 0 0 0 57345621.303082943 49462492.386910737 0 49462492.386910737 28689183.809567451 0 0 0 0 52577926.518285751 65845478.455920696 0 65845478.455920696 44135847.02822113 0 0 0 0 2813773.7318840027 62662888.281122208 0 62662888.281122208 142168272.16975975 0 0 0 0 -61889.601453301497 761971.78167534224 0 761971.78167534224 -1590425.7192777204 0 0 0 0 1450841.9431731701 22201422.486669958 0 22201422.486669958 -66053049.207933426 0 0 0 0 3782466.3432832435 5959866.2529340349 0 5959866.2529340349 -2552253.1949274708 0 0 0 0 1732590.2083806992 16864577.239058018 0 16864577.239058018 -20391899.727931976 0 0 0 0 26303869.638679504 8056100.858042717 0 8056100.858042717 -18658990.673359871 0 0 0 0 7321951.1159896851 30645648.260235786 0 30645648.260235786 -44479885.77774334 0 0 0 0 13097726.986737251 15940189.108839989 0 15940189.108839989 -33335514.703456879 0 0 0 0 -711371.25811004639 28654736.747406006 0 28654736.747406006 -22205187.285278678 0 0 0 0 3063876.3277072906 15286584.596386909 0 15286584.596386909 -13213242.077136993 0 0 0 0 192865.5885181427 25596063.045256615 0 25596063.045256615 -13393651.138666689 0 0 0 0 3058722.9694023132 17574855.57448864 0 17574855.57448864 -24007448.728233337 0 0 0 0 16109198.989116222 22439209.793224711 0 22439209.793224711 7245773.1618907042 0 0 0 0 5018611.3741922379 46123558.906246781 0 46123558.906246781 37150062.763572931 0 0 0 0 15482975.82781601 16493210.123109818 0 16493210.123109818 51089983.501571655 0 0 0 0 -3460221.457118988 20405873.402114868 0 20405873.402114868 50386779.471246719 0 0 0 0 6990074.0194478184 26904372.954456236 0 26904372.954456236 16818233.185428835 0 0 0 0 -825547.99218196049 4261486.4217043938 0 4261486.4217043938 13124322.578107446 0 0 0 0 8708735.5783805847 -10210744.578380585 0 -10210744.578380585 43865385.562431335 0 0 0 0 10119085.27637291 23724274.224933624 0 23724274.224933624 73300206.47514534 0 0 0 0 8208252.8240332603 14018318.667281628 0 14018318.667281628 30300257.85949707 0 0 0 0 18765975.185691833 -5914512.0557699203 0 -5914512.0557699203 55762089.664989471 0 0 0 0 34826839.384870529 18509273.360645294 0 18509273.360645294 23444261.747390747 0 0 0 0 14299739.846183587 20347029.066103965 0 20347029.066103965 6477007.6136276964 0 0 0 0 2983721.991081465 4388900.816707802 0 4388900.816707802 5570056.7156118006 0 0 0 0 91337119.006725788 170926652.33958912 0 170926652.33958912 314489472.52521133 0 0 0 0 22346669.077887356 9815916.9923925512 0 9815916.9923925512 -1733315.9790285267 0 0 0 0 45767756.840132713 20362379.092025161 0 20362379.092025161 -6549084.6184494495 0 0 0 0 10123477.544856071 13845448.104536176 0 13845448.104536176 2290387.3011723161 0 0 0 0 -5816934.265724523 15034734.859178668 0 15034734.859178668 -1982976.4085686803 0 0 0 0 15505156.068332672 20753103.386533976 0 20753103.386533976 27063342.452062607 0 0 0 0 21921148.58672452 43180225.086627066 0 43180225.086627066 17874650.525133014 0 0 0 0 -9146784.5957076661 17303327.409153875 0 17303327.409153875 5729232.6916312454 0 0 0 0 9539455.6781272888 47637740.224109173 0 47637740.224109173 34977688.828595161 0 0 0 0 37532614.390289307 35674669.656556249 0 35674669.656556249 21185901.019930899 0 0 0 0 24967372.738656998 48807637.319376588 0 48807637.319376588 35207167.332374394 0 0 0 0 26112860.809345245 53961543.883457556 0 53961543.883457556 26237607.977526188 0 0 0 0 4540436.8237247467 37824939.527509809 0 37824939.527509809 23274892.388785362 0 0 0 0 23409769.383624673 43993517.70634678 0 43993517.70634678 -20423145.290715456 0 0 0 0 21777958.771220207 29044837.220756054 0 29044837.220756054 -1803162.6705979109 0 0 0 0 -13055323.463590622 42621721.537055969 0 42621721.537055969 -5823591.2870304585 0 0 0 0 -10003999.865425065 32390079.488807999 0 32390079.488807999 -2129583.5535631701 0 0 0 0 -7032385.9095547199 41833919.909131289 0 41833919.909131289 -12456373.271194458 0 0 0 0 -10450838.033554077 38590772.453361511 0 38590772.453361511 -11746623.83228159 0 0 0 0 -6637907.15001297 38821335.442560196 0 38821335.442560196 -11733716.55313468 0 0 0 0 -10875.578109741211 43605464.491137505 0 43605464.491137505 24087811.498311996 0 0 0 0 3473467.3378458023 72214605.25557518 0 72214605.25557518 48648882.085835457 0 0 0 0 22318949.832195066 53095201.529775538 0 53095201.529775538 204777.0640542144 0 0 0 0 -4236361.9672698975 -11399279.390066504 0 -11399279.390066504 -11712377.040178776 0 0 0 0 -21513903.250565529 86911967.351046562 0 86911967.351046562 4325881.9304542542 0 0 0 0 3355367.9373755455 103429159.03917456 0 103429159.03917456 -27499257.167154312 0 0 0 0 17777475.370858192 100913872.99090385 0 100913872.99090385 8825071.1775741577 0 0 0 0 8928362.3560499027 35354982.112390831 0 35354982.112390831 20536931.439452503 0 0 0 0 530393.94280529022 45769274.153746605 0 45769274.153746605 -9548313.4984474182 0 0 0 0 1819591.8264961243 47388134.824079514 0 47388134.824079514 -17627773.498077393 0 0 0 0 11355930.310975956 27674658.054847788 0 27674658.054847788 18507857.253593698 0 0 0 0 45903608.989121437 70989098.520154476 0 70989098.520154476 -86676929.199338436 0 0 0 0 3162319.7411022186 53065933.037706375 0 53065933.037706375 10538651.288579941 0 0 0 0 9569492.3008995056 44040330.761180878 0 44040330.761180878 -55802441.71727562 0 0 0 0 76103991.257417187 92309792.177151874 0 92309792.177151874 -22859283.108299255 0 0 0 0 77573416.578118339 22766747.32964588 0 22766747.32964588 -37511239.490938187 0 0 0 0 -2751387.3085193634 47342431.044752121 0 47342431.044752121 -42776484.209287405 0 0 0 0 -54068545.345909119 66215120.818026543 0 66215120.818026543 42108152.120229721 0 0 0 0 529169.77460622787 35822785.37659061 0 35822785.37659061 26327885.995664597 0 0 0 0 -19624805.313516617 30927271.231460571 0 30927271.231460571 76503962.899467468 0 0 0 0 -50203157.489881516 88142172.248275757 0 88142172.248275757 54252915.263213158 0 0 0 0 8056846.5262546539 95521635.256530762 0 95521635.256530762 25355509.215567112 0 0 0 0 -57424441.202569962 114702000.9168663 0 114702000.9168663 7682460.969291687 0 0 0 0 -43885811.449562073 98712382.462333679 0 98712382.462333679 26509231.247426987 0 0 0 0 64969670.502727509 154938595.86141109 0 154938595.86141109 -14082610.839935303 0 0 0 0 9507585.1168518066 58453813.822841644 0 58453813.822841644 4464578.4852676392 0 0 0 0 5329677.7597074509 44609831.549171448 0 44609831.549171448 -12579246.905509949 0 0 0 0 3146388.0087852478 45593398.259994507 0 45593398.259994507 -11958726.934925079 0 0 0 0 23296483.776880264 57763584.450045586 0 57763584.450045586 -3601459.1657676697 0 0 0 0 16812022.363493443 64026035.474995613 0 64026035.474995613 -1887834.1090393066 0 0 0 0 16451625.788959503 63318388.445976257 0 63318388.445976257 -3013352.4023094177 0 0 0 0 106790328.40187454 53265349.973989487 0 53265349.973989487 -4026202.1175878048 0 0 0 0 21175220.591104507 45637880.48677063 0 45637880.48677063 19367416.385602951 0 0 0 0 -12217047.971069336 49071489.688545227 0 49071489.688545227 19883287.263949394 0 0 0 0 -34455427.31055069 51857962.024978638 0 51857962.024978638 28956739.264772415 0 0 0 0 -14850497.248775482 41042020.20318222 0 41042020.20318222 17030193.992744446 0 0 0 0 -41658110.451930523 65483707.903111935 0 65483707.903111935 -5142258.958190918 0 0 0 0 -9863851.5674514771 40697388.960445404 0 40697388.960445404 -21432911.246412277 0 0 0 0 10304922.219497681 37757413.457494736 0 37757413.457494736 -5924675.0801086426 0 0 0 0 -7031580.6663322449 47595700.08332634 0 47595700.08332634 -10004252.224662781 0 0 0 0 -2293188.4216270447 36887069.754832268 0 36887069.754832268 -17176145.333557129 0 0 0 0 -11611574.122364044 34346269.249958038 0 34346269.249958038 -23260100.077255249 0 0 0 0 24698136.709177017 32617611.345957756 0 32617611.345957756 51276209.837982178 0 0 0 0 -48435003.093925476 45507389.930516243 0 45507389.930516243 75569869.063312531 0 0 0 0 -59857119.125497818 19387007.190843582 0 19387007.190843582 56326696.566759109 0 0 0 0 -33084689.913602352 56869514.311624527 0 56869514.311624527 70303749.956424713 0 0 0 0 -8165890.5400485992 28523732.609606743 0 28523732.609606743 44779895.733455658 0 0 0 0 24303690.57873106 30952704.741201878 0 30952704.741201878 66256725.869987488 0 0 0 0 159141487.38728333 76250188.863779068 0 76250188.863779068 46525765.522754669 0 0 0 0 135584455.0598011 -6656485.6826200485 0 -6656485.6826200485 -7591731.2108020782 0 0 0 0 17432440.088969231 14815148.431870937 0 14815148.431870937 36715809.296504974 0 0 0 0 2019008.9798488617 -2994627.1476230621 0 -2994627.1476230621 -23039250.712120056 0 0 0 0 674709.95900752582 386955.11488175485 0 386955.11488175485 -3268838.7943132296 0 0 0 0 128239409.43591881 -16638426.559770584 0 -16638426.559770584 -2838152.4394021034 0 0 0 0 164000851.19883859 -41892899.463513911 0 -41892899.463513911 6966857.3006019592 0 0 0 0 797165.02096030861 261253.94432718679 0 261253.94432718679 -728625.98598091304 0 0 0 0 -94508717.923751831 151458547.3288517 0 151458547.3288517 -2364758.3466119766 0 0 0 0 -111936540.32661963 57069211.803961515 0 57069211.803961515 -27446135.546562195 0 0 0 0 -81355730.633235931 44280967.534790993 0 44280967.534790993 10763571.719486237 0 0 0 0 -73335955.772062302 88174415.665788651 0 88174415.665788651 -141901612.41641235 0 0 0 0 -107645666.78832436 82854591.978448868 0 82854591.978448868 1561787.3983879089 0 0 0 0 1989456.5302036256 2410850.2779148966 0 2410850.2779148966 1558117.4441583343 0 0 0 0 -170146455.77507877 108148715.58576393 0 108148715.58576393 -51858046.353477478 0 0 0 0 -114775189.16385078 175269728.41307831 0 175269728.41307831 -137678138.58137476 0 0 0 0 40023109.008115768 -18394106.448838234 0 -18394106.448838234 -17061630.971206665 0 0 0 0 39419111.758600235 -42167043.289975166 0 -42167043.289975166 32552629.654821396 0 0 0 0 262919.10041140951 294795.92737319227 0 294795.92737319227 -3137392.007210508 0 0 0 0 -33709868.487520218 -6209618.674284935 0 -6209618.674284935 19724850.69992733 0 0 0 0 35443301.338088989 -51240140.42047596 0 -51240140.42047596 -10551086.749874115 0 0 0 0 210409340.29829979 -10913134.489390373 0 -10913134.489390373 -18252189.623938322 0 0 0 0 -84462594.460152626 -184344491.9718914 0 -184344491.9718914 -43780309.824438095 0 0 0 0 -314390053.86688042 72231115.055214882 0 72231115.055214882 100844511.86131001 0 0 0 0 197107156.78471076 258006762.83341563 0 258006762.83341563 150932321.63764954 0 0 0 0 197657296.48895454 205135499.87638283 0 205135499.87638283 74054039.316396713 0 0 0 0 180337929.9734844 300567489.4066453 0 300567489.4066453 307915210.53304291 0 0 0 0 56450234.073638439 52816095.787713051 0 52816095.787713051 114193399.03611755 0 0 0 0 105521330.75858116 68303354.950366974 0 68303354.950366974 38574432.48922348 0 0 0 0 69711701.344722748 114923601.04972267 0 114923601.04972267 185958967.74752045 0 0 0 0 73672654.549190521 27649383.42093277 0 27649383.42093277 -2107109.5930747986 0 0 0 0 30951057.57421875 24124395.85823822 0 24124395.85823822 77257224.63476944 0 0 0 0 2294437.9750328064 -10139596.611544609 0 -10139596.611544609 47520191.626598358 0 0 0 0 -25045120.576510429 37347372.191475391 0 37347372.191475391 10214518.075881958 0 0 0 0 -67830882.632633209 24090475.860807419 0 24090475.860807419 8665951.8907585144 0 0 0 0 -42788998.317407608 78237656.296604156 0 78237656.296604156 -63537572.28371048 0 0 0 0 -62270876.901965141 52477927.414312363 0 52477927.414312363 -106893755.31749725 0 0 0 0 -25990826.793979645 96550382.468727112 0 96550382.468727112 -59565789.548603058 0 0 0 0 207359460.73181915 132820210.8279438 0 132820210.8279438 -68129758.187256813 0 0 0 0 -27763810.107328415 37812208.276275635 0 37812208.276275635 26558169.619953156 0 0 0 0 410969775.69613647 273951742.76093483 0 273951742.76093483 -167928392.15366936 0 0 0 0 -34295638.537702084 31511073.196131706 0 31511073.196131706 -87885984.036838531 0 0 0 0 -109563265.31365204 212673208.74600601 0 212673208.74600601 -137881684.41705704 0 0 0 0 2079419.4414707497 2159118.555919949 0 2159118.555919949 1531698.1985817403 0 0 0 0 346427.8582777977 47123426.136096954 0 47123426.136096954 -8311446.5480422974 0 0 0 0 125622811.90554237 46481691.981351852 0 46481691.981351852 -15856489.448945999 0 0 0 0 28744952.241099358 76227332.611226082 0 76227332.611226082 152771701.1320343 0 0 0 0 1124801.8162133135 949680.31769375131 0 949680.31769375131 535372.29178678989 0 0 0 0 123871717.86061478 387612749.96420002 0 387612749.96420002 483522881.32640457 0 0 0 0 284704874.09283161 479675358.09781265 0 479675358.09781265 317418275.76483917 0 0 0 0 239148391.94826508 337652335.6733675 0 337652335.6733675 83567062.947361946 0 0 0 0 239402863.53628469 332812415.25596958 0 332812415.25596958 146604987.73583221 0 0 0 0 330520350.34799194 275941417.9400959 0 275941417.9400959 178433361.67010212 0 0 0 0 274570431.38639355 186781136.91872931 0 186781136.91872931 49078226.334831238 0 0 0 0 921308.78349266946 448869.61261408031 0 448869.61261408031 -217278.44750090316 0 0 0 0 388489532.19233656 33229956.451521873 0 33229956.451521873 10050010.862846375 0 0 0 0 538580887.97730827 177557655.80879116 0 177557655.80879116 -219230282.79167175 0 0 0 0 636325542.34713745 26873043.747690201 0 26873043.747690201 -203481647.28548813 0 0 0 0 581849498.6300087 289856291.0093441 0 289856291.0093441 51406088.231266618 0 0 0 0 423499051.2374258 423617341.55060005 0 423617341.55060005 177729712.28350449 0 0 0 0 40108267.37569809 -2946738.3706550598 0 -2946738.3706550598 34870629.548088074 0 0 0 0 34571026.381926537 -23667798.620689392 0 -23667798.620689392 -34252366.451072693 0 0 0 0 -15527950.51048851 39779658.298482895 0 39779658.298482895 37595806.895975113 0 0 0 0 123835628.26407051 57753102.990737915 0 57753102.990737915 39888082.125123978 0 0 0 0 23322977.546531677 -22074441.730133057 0 -22074441.730133057 18111205.946537018 0 0 0 0 60084665.574620247 -14706029.391777992 0 -14706029.391777992 15919920.877939224 0 0 0 0 6672977.903124582 9928516.5145278759 0 9928516.5145278759 5670262.5275275223 0 0 0 0 14517004.924837112 6357214.1052103043 0 6357214.1052103043 34065391.586853027 0 0 0 0 -7568901.701366581 4191461.9190954957 0 4191461.9190954957 5817087.2484691404 0 0 0 0 5997339.3739989474 9130553.4862388894 0 9130553.4862388894 1689163.7290411461 0 0 0 0 4577.4126839637756 8392800.6375904083 0 8392800.6375904083 1596591.4767074585 0 0 0 0 -14493580.757637024 -17865975.194374084 0 -17865975.194374084 51535780.124647141 0 0 0 0 2523089.5367846107 14245594.761434384 0 14245594.761434384 1672569.8425306492 0 0 0 0 -68278349.756854355 86998073.227484703 0 86998073.227484703 108369334.02919388 0 0 0 0 63799816.81842804 -723788985.84354401 0 -723788985.84354401 -313489572.95961571 0 0 0 0 -81841615.878749847 -65248114.746566772 0 -65248114.746566772 22062860.063539982 0 0 0 0 56561574.695478439 -295365435.72812176 0 -295365435.72812176 -382487748.29067993 0 0 0 0 -163799822.37275791 115217043.33599234 0 115217043.33599234 -17414053.682693481 0 0 0 0 1102418162.8063011 -38154375.243972778 0 -38154375.243972778 -716776601.52445984 0 0 0 0 176425461.09507895 622609.021474123 0 622609.021474123 -76069758.927078247 0 0 0 0 385572085.70729065 788286836.84563828 0 788286836.84563828 1949109128.2538109 0 0 0 0 1388000188.3669701 -659342720.38024139 0 -659342720.38024139 321464379.94521713 0 0 0 0 -554117731.39295197 206602564.46419239 0 206602564.46419239 400587033.23247433 0 0 0 0 2602085.7146391869 5077499.2040369511 0 5077499.2040369511 20343441.789896965 0 0 0 0 -2629384.4039902743 15418414.266625065 0 15418414.266625065 16737454.197578903 0 0 0 0 801643381.90533066 428398783.83523941 0 428398783.83523941 -50583170.817840576 0 0 0 0 1641263413.0191956 650274204.79718399 0 650274204.79718399 -294808101.17952347 0 0 0 0 9592871.9340022709 1730673.2959036045 0 1730673.2959036045 -750031.06242773123 0 0 0 0 408302609.54218864 836750502.33067799 0 836750502.33067799 1431078014.7619076 0 0 0 0 158629237.17757225 206108099.95059013 0 206108099.95059013 213671188.61456299 0 0 0 0 -41499446.760966301 72682470.177263975 0 72682470.177263975 122769578.14920092 0 0 0 0 -40904380.684650898 48154248.612834215 0 48154248.612834215 -657924.93873715401 0 0 0 0 634262596.88717258 446803425.41181195 0 446803425.41181195 -23825959.151685715 0 0 0 0 923970662.35000992 649398093.30925083 0 649398093.30925083 78196855.635920525 0 0 0 0 637668501.99809003 425715446.31077302 0 425715446.31077302 -95987955.692075729 0 0 0 0 1020375024.7617912 467909716.86499119 0 467909716.86499119 -315863861.9963789 0 0 0 0 1202124174.5273418 -213956370.22366047 0 -213956370.22366047 -162837556.9448204 0 0 0 0 1690100115.0465775 702646553.89683104 0 702646553.89683104 -251345061.52605438 0 0 0 0 373117735.07979202 756967951.92509079 0 756967951.92509079 199591124.62175655 0 0 0 0 986671026.45463276 386864729.7371068 0 386864729.7371068 -389684395.1870079 0 0 0 0 22101399.7444911 1346409.6925852299 0 1346409.6925852299 1075261.1148576736 0 0 0 0 -234322050.34332466 158487378.44946003 0 158487378.44946003 -74322561.300739288 0 0 0 0 -7492243.4212360382 2199252.6611938477 0 2199252.6611938477 19540856.153237343 0 0 0 0 2143830.9078456797 14270899.4580184 0 14270899.4580184 9584528.2870022152 0 0 0 0 19339563.848531723 6583224.3577537537 0 6583224.3577537537 -6310032.0168809891 0 0 0 0 23216762.391946793 42534942.765087366 0 42534942.765087366 6311048.6491528153 0 0 0 0 1189463.2593946457 22289837.655924797 0 22289837.655924797 -464198.49249839783 0 0 0 0 8010808.3012046814 10202543.991009235 0 10202543.991009235 20061426.433122158 0 0 0 0 2314359203.506134 265262235.89698052 0 265262235.89698052 -58713472.193315625 0 0 0 0 1363611852.650547 637215416.29621983 0 637215416.29621983 -315932684.67151642 0 0 0 0 1068069138.5943336 278414951.96209621 0 278414951.96209621 133049441.47712708 0 0 0 0 500914.34711918235 1515293.3982644929 0 1515293.3982644929 1877774.8503613621 0 0 0 0 943061828.51391983 557450661.62605953 0 557450661.62605953 141550704.70376968 0 0 0 0 159880.83006718475 4441634.6227277014 0 4441634.6227277014 3632302.7663769308 0 0 0 0 1019277051.4743495 -408695085.42663771 0 -408695085.42663771 1028113294.0113897 0 0 0 0 926260154.55827332 1003272129.1354549 0 1003272129.1354549 919082448.07006836 0 0 0 0 1924834992.7559528 925491462.8555305 0 925491462.8555305 207221861.95995855 0 0 0 0 7207460.9358959198 115483837.52332748 0 115483837.52332748 875225576.23528612 0 0 0 0 -5002949.0032976437 7768324.4701176044 0 7768324.4701176044 1661359.6183953194 0 0 0 0 483906587.25792933 1241509961.3796515 0 1241509961.3796515 616866932.68928862 0 0 0 0 -2436366.2537566945 2580995.5623275302 0 2580995.5623275302 -457775.52083440358 0 0 0 0 585014268.61268997 227416024.15318596 0 227416024.15318596 -194035032.15298581 0 0 0 0 685082921.53672791 597665988.48307848 0 597665988.48307848 -372107053.519665 0 0 0 0 688493098.54953539 411687855.65273684 0 411687855.65273684 -104550149.44802737 0 0 0 0 457332358.98248672 488514282.41915774 0 488514282.41915774 -99256246.020165592 0 0 0 0 57204129.550031841 119356345.86956535 0 119356345.86956535 47106233.973570824 0 0 0 0 22438426.68556881 -676489.60101339221 0 -676489.60101339221 11731298.906287596 0 0 0 0 48269800.94507122 61951876.411217213 0 61951876.411217213 5844902.234028697 0 0 0 0 171963324.7312355 -419733261.40207338 0 -419733261.40207338 378761239.65838099 0 0 0 0 598025971.20114326 252701265.55254865 0 252701265.55254865 -135625122.86906409 0 0 0 0 -5889148.38606764 4413806.1381737795 0 4413806.1381737795 -1130444.1290445137 0 0 0 0 404051703.49840927 282107770.2288003 0 282107770.2288003 379380758.87643552 0 0 0 0 -362085392.6948719 153053889.03500938 0 153053889.03500938 123394904.01948881 0 0 0 0 -482837924.34362221 188829610.40580654 0 188829610.40580654 125374844.1738534 0 0 0 0 -368900848.36317635 171673487.15440559 0 171673487.15440559 117883143.62125492 0 0 0 0 -191608232.71413517 119976503.88494527 0 119976503.88494527 22781282.510507584 0 0 0 0 -208563059.49181938 96152429.829322338 0 96152429.829322338 74875569.904785156 0 0 0 0 -298408426.71005249 189701292.13263142 0 189701292.13263142 70460781.085140467 0 0 0 0 -157787427.35175133 195415972.30649471 0 195415972.30649471 21175770.589348376 0 0 0 0 -27470388.324691772 136729919.67934573 0 136729919.67934573 -16254376.526752234 0 0 0 0 -154968636.63668537 195494790.7917963 0 195494790.7917963 -5203521.2565073967 0 0 0 0 -324191628.10272217 375994315.49274415 0 375994315.49274415 -152915942.35362244 0 0 0 0 -359933587.60144806 202383852.69180208 0 202383852.69180208 68314348.695949525 0 0 0 0 -364199654.96842813 233522506.10474089 0 233522506.10474089 91908862.643555045 0 0 0 0 -532257044.54631042 370915808.57112837 0 370915808.57112837 -20136268.450984836 0 0 0 0 -467705400.13669014 272868541.29945832 0 272868541.29945832 89297061.132196188 0 0 0 0 -1016738032.9033251 -235012324.19861284 0 -235012324.19861284 175528638.88924104 0 0 0 0 -154864156.84913063 -144578573.04473972 0 -144578573.04473972 111240445.46528733 0 0 0 0 -5676028.782724632 4661634.210019961 0 4661634.210019961 323001.94801651814 0 0 0 0 -49127681.373641014 30926679.829430699 0 30926679.829430699 19674079.994381189 0 0 0 0 684019782.61424065 626995395.30905867 0 626995395.30905867 55287346.139051944 0 0 0 0 576468915.8998704 232553813.41446614 0 232553813.41446614 232657151.41535091 0 0 0 0 -63155070.012771606 -9738158.4521269798 0 -9738158.4521269798 18264062.475006402 0 0 0 0 26206485.650568724 21359051.074009776 0 21359051.074009776 -23697350.667721748 0 0 0 0 -161455603.58439445 40700783.563680172 0 40700783.563680172 63041733.903146029 0 0 0 0 -481987342.3689062 22100936.081829224 0 22100936.081829224 113360711.58680296 0 0 0 0 -161359459.70081329 39455147.224513441 0 39455147.224513441 27526517.151939392 0 0 0 0 -305622265.35608482 152476673.10922003 0 152476673.10922003 17318045.729904175 0 0 0 0 -161536983.24524498 124360959.08378983 0 124360959.08378983 22651030.291398048 0 0 0 0 -43393099.936515808 34621231.416279316 0 34621231.416279316 -22481003.62430954 0 0 0 0 -21414105.694972992 98193.30326128006 0 98193.30326128006 -986683.42446470261 0 0 0 0 -57116761.656675339 12814377.149644852 0 12814377.149644852 775603.23584270477 0 0 0 0 -7264268.9931602478 17638670.866938114 0 17638670.866938114 -14577211.373511314 0 0 0 0 -93261138.355428696 3619843.3075489998 0 3619843.3075489998 16041749.825850487 0 0 0 0 -80972884.246197701 100568055.05989325 0 100568055.05989325 -93624292.869355202 0 0 0 0 11759271.513544083 111993504.47246122 0 111993504.47246122 -233962535.94521272 0 0 0 0 -607239794.47507858 252211449.69062948 0 252211449.69062948 144630477.18145967 0 0 0 0 -330853836.51202106 351977595.36464834 0 351977595.36464834 -187688702.55488396 0 0 0 0 -367886177.16752625 178089782.59118366 0 178089782.59118366 107332583.62076187 0 0 0 0 -194544590.46203518 35904743.752110124 0 35904743.752110124 53970586.052268028 0 0 0 0 -196485022.76672745 12981523.328309059 0 12981523.328309059 114962456.83776855 0 0 0 0 -389113925.54840851 85933874.099061966 0 85933874.099061966 99626429.78041029 0 0 0 0 -537016620.6383667 52683048.945087433 0 52683048.945087433 195695561.68670797 0 0 0 0 -10347727.116340637 255166381.84173441 0 255166381.84173441 -576010554.08220196 0 0 0 0 -7217834.9380228519 -16936.806630025152 0 -16936.806630025152 1148906.7003614102 0 0 0 0 -40179.153605528176 -3299840.5261136894 0 -3299840.5261136894 799284.92658393842 0 0 0 0 -1781688770.2210617 309400380.52898693 0 309400380.52898693 -9222449.0129613876 0 0 0 0 -269056740.15905762 -62899549.440518856 0 -62899549.440518856 224353518.44707298 0 0 0 0 -1029515179.3391094 -160590686.12521759 0 -160590686.12521759 335578044.20347595 0 0 0 0 -1136068895.9141974 789062349.82174623 0 789062349.82174623 -183464508.47171402 0 0 0 0 -337054999.19622421 -325970098.1121285 0 -325970098.1121285 308299810.42605114 0 0 0 0 -843310525.96790886 263787070.42603779 0 263787070.42603779 96249133.531246185 0 0 0 0 -262473319.68231583 -345074177.15148544 0 -345074177.15148544 212995140.01520157 0 0 0 0 -240415402.10498047 -371614231.70305061 0 -371614231.70305061 193329839.16797638 0 0 0 0 -253696468.39264297 -376813876.57860565 0 -376813876.57860565 223350014.57611656 0 0 0 0 -237193034.29606628 -361138368.57669449 0 -361138368.57669449 168620472.26636124 0 0 0 0 -238151318.23844337 652711106.68968582 0 652711106.68968582 -1018632845.5253372 0 0 0 0 -5723641.3106295206 -3336233.7269681618 0 -3336233.7269681618 -1924054.7077770475 0 0 0 0 -1386485031.9698429 742973324.26839733 0 742973324.26839733 24710882.963417053 0 0 0 0 -211963683.10784531 -318048387.45241928 0 -318048387.45241928 150048153.22543335 0 0 0 0 -505441249.01955605 -91510671.899601936 0 -91510671.899601936 164295476.53457642 0 0 0 0 147312314.01729393 -70134362.231091499 0 -70134362.231091499 164979097.33833313 0 0 0 0 -16849964.93674542 10742680.90687491 0 10742680.90687491 3512301.8381101452 0 0 0 0 -14849998.595029831 8201661.4285187721 0 8201661.4285187721 55168579.078682899 0 0 0 0 173695578.31785583 143638238.26581573 0 143638238.26581573 121589916.46660423 0 0 0 0 -11605613.003684998 -14863849.78765583 0 -14863849.78765583 15382170.010469913 0 0 0 0 -42531445.140693665 58778710.093550205 0 58778710.093550205 53673763.669390202 0 0 0 0 -15770807.218176369 3344989.7396518104 0 3344989.7396518104 1414108.8935804944 0 0 0 0 -537590300.29705095 589244397.93891478 0 589244397.93891478 449158882.97047043 0 0 0 0 467752530.08078289 -373913773.0079689 0 -373913773.0079689 -507360817.55691671 0 0 0 0 363113654.43101996 210917440.37145424 0 210917440.37145424 -577588152.8552494 0 0 0 0 215041864.26098156 -214834716.88401985 0 -214834716.88401985 104121442.13846397 0 0 0 0 164777163.76600504 28313900.84040451 0 28313900.84040451 -20293902.571752548 0 0 0 0 378721959.35866618 103018979.8694129 0 103018979.8694129 2944420.829914093 0 0 0 0 2361130.2456316948 10074688.79511261 0 10074688.79511261 8178141.9320220947 0 0 0 0 -5209533.0667762756 11627119.89088726 0 11627119.89088726 19438569.924980164 0 0 0 0 7702075.7567868354 4362581.0932923965 0 4362581.0932923965 526501.33766915742 0 0 0 0 -3463108.1784934998 20375197.791126251 0 20375197.791126251 13140593.442918777 0 0 0 0 12486791.921164751 5206950.0486278534 0 5206950.0486278534 -24212332.487926483 0 0 0 0 -31804147.14195919 -40399103.002349854 0 -40399103.002349854 -37424087.969148159 0 0 0 0 -16754702.075419426 -3403737.5962667465 0 -3403737.5962667465 3718944.9344778061 0 0 0 0 3018294.9955983162 12365470.226592064 0 12365470.226592064 -9794947.1613903046 0 0 0 0 -137527702.44880009 152151529.94524956 0 152151529.94524956 -238109001.25105882 0 0 0 0 -103720109.42227221 355343213.25314808 0 355343213.25314808 -263792095.09980774 0 0 0 0 144541855.76936197 109291734.23823214 0 109291734.23823214 -853439248.14255142 0 0 0 0 -798369065.35044861 75638654.139431 0 75638654.139431 247590743.28633499 0 0 0 0 2042258.9691097271 -791602.49901921488 0 -791602.49901921488 -453964.51078725792 0 0 0 0 -55737448.351122856 -57723507.973268509 0 -57723507.973268509 -30671195.389568329 0 0 0 0 -203300304.66994953 -18033878.197967529 0 -18033878.197967529 -16691608.747375488 0 0 0 0 -78258831.861339569 -72250568.091833115 0 -72250568.091833115 -34916137.007434845 0 0 0 0 -257714266.24340177 120589308.86613846 0 120589308.86613846 -159584301.2624855 0 0 0 0 -159797974.43752193 -45451534.453483582 0 -45451534.453483582 -72450511.454212189 0 0 0 0 -108139035.43278217 -30562655.873884201 0 -30562655.873884201 69190043.272803307 0 0 0 0 -162930144.88252163 8696676.5753498077 0 8696676.5753498077 44618224.383079529 0 0 0 0 -57960234.475182056 -24990446.733044624 0 -24990446.733044624 23048951.118370056 0 0 0 0 -62138950.233062506 -41817274.910068035 0 -41817274.910068035 19492022.71635437 0 0 0 0 -81605302.072701931 -18565040.394607544 0 -18565040.394607544 63165146.235610962 0 0 0 0 -70045061.044297218 13178948.832695007 0 13178948.832695007 91892938.211837769 0 0 0 0 30010951.567110062 66748038.637465477 0 66748038.637465477 79171945.605821609 0 0 0 0 -63524475.603320003 47047427.581357956 0 47047427.581357956 140642288.8214798 0 0 0 0 -15858881.822517872 57548015.561374664 0 57548015.561374664 103208801.605299 0 0 0 0 -5188418.9811923504 46307663.781998158 0 46307663.781998158 57475551.623023987 0 0 0 0 -42369223.272035599 40879024.799131393 0 40879024.799131393 74933215.988529205 0 0 0 0 39658906.783061028 68474021.49926728 0 68474021.49926728 18194810.555278778 0 0 0 0 -15141092.81710434 44937205.226604462 0 44937205.226604462 32607120.727457285 0 0 0 0 141461476.64895248 80799743.08508873 0 80799743.08508873 -15607151.838432312 0 0 0 0 35263411.436073303 122111958.38860607 0 122111958.38860607 95022300.859965324 0 0 0 0 -21340142.820720285 27720199.745962899 0 27720199.745962899 -32199094.38926759 0 0 0 0 150618853.76927185 -998647.27896118164 0 -998647.27896118164 -118160883.05133057 0 0 0 0 8065115.1656837463 81818705.775918961 0 81818705.775918961 1524789.6577377319 0 0 0 0 8579420.0047454834 70242736.072059631 0 70242736.072059631 -37367978.833854675 0 0 0 0 113304802.89292812 145743863.23601866 0 145743863.23601866 9272520.8177490234 0 0 0 0 -5522478.4170303345 49565515.582988739 0 49565515.582988739 7370846.2184553146 0 0 0 0 -24278321.336952209 -70729151.915172577 0 -70729151.915172577 -93760884.405562401 0 0 0 0 -8440016.0325241089 12961576.214305878 0 12961576.214305878 -37104769.643547058 0 0 0 0 56220878.279323578 42701593.621582031 0 42701593.621582031 -23621643.624214172 0 0 0 0 -19041835.656194687 58081593.57075882 0 58081593.57075882 -11124897.781301498 0 0 0 0 -74555292.92723465 -1556819.3303127289 0 -1556819.3303127289 14655254.633712769 0 0 0 0 -39995370.30883503 22297620.346036911 0 22297620.346036911 23232081.454055786 0 0 0 0 -103056668.5222702 6505908.7569503784 0 6505908.7569503784 42467673.477996826 0 0 0 0 -80414127.098390579 30780239.014856339 0 30780239.014856339 49362150.379196167 0 0 0 0 -114119129.97226453 30079671.138066292 0 30079671.138066292 45762893.199745178 0 0 0 0 3220428.6903655753 9960158.2240802702 0 9960158.2240802702 11314086.159950987 0 0 0 0 112223401.120502 -13223672.78958714 0 -13223672.78958714 1689216.6947135925 0 0 0 0 762682.23049307428 480422.39749789238 0 480422.39749789238 -128748.59393880144 0 0 0 0 121697196.59950066 96068890.012151718 0 96068890.012151718 86152047.43592453 0 0 0 0 -40288691.675361633 134378740.60880566 0 134378740.60880566 18681558.664913177 0 0 0 0 -54365469.09717083 -17041461.840373993 0 -17041461.840373993 37368201.152194023 0 0 0 0 -54637229.608176231 -6005366.3194618225 0 -6005366.3194618225 10086180.830135852 0 0 0 0 -66532936.852638245 3850971.564245224 0 3850971.564245224 49906915.31246984 0 0 0 0 -54722697.417149544 5100637.1721897125 0 5100637.1721897125 33424058.708850861 0 0 0 0 -79924364.412742615 29266162.473585129 0 29266162.473585129 11041204.072135925 0 0 0 0 106384575.18181133 -20941577.430234432 0 -20941577.430234432 -27216015.626590729 0 0 0 0 3897011.4000301785 9538751.8692268413 0 9538751.8692268413 8602892.8934651911 0 0 0 0 -39493652.037748337 -11120616.939334869 0 -11120616.939334869 2953100.0721931458 0 0 0 0 25341818.646907806 32634725.307060242 0 32634725.307060242 2185120.9696073532 0 0 0 0 1372703.7354203127 872725.12491443008 0 872725.12491443008 -75475.248646631837 0 0 0 0 48764473.677921414 3713998.2690094709 0 3713998.2690094709 -11055360.613208771 0 0 0 0 131800410.39238358 -44744250.285503387 0 -44744250.285503387 -46186985.431612015 0 0 0 0 52556325.154921174 42717464.417218924 0 42717464.417218924 -66153815.600059509 0 0 0 0 18724588.763587952 -41133431.671022415 0 -41133431.671022415 8975187.0308418274 0 0 0 0 71240837.857738495 -14872866.017940521 0 -14872866.017940521 -78643318.339002132 0 0 0 0 126660909.83848572 133777553.02878189 0 133777553.02878189 116099139.62428474 0 0 0 0 262891754.21039963 97408544.666823387 0 97408544.666823387 33902048.250957489 0 0 0 0 134574433.46764946 -45327465.179796219 0 -45327465.179796219 -6142389.382247448 0 0 0 0 149181495.60363102 -38785938.325604439 0 -38785938.325604439 -70683138.128833771 0 0 0 0 130661763.99817371 6098380.2237501144 0 6098380.2237501144 -43197937.517551422 0 0 0 0 97944324.405677795 -12907409.370794296 0 -12907409.370794296 -712205.59569835663 0 0 0 0 -67577625.961484909 17052867.110782623 0 17052867.110782623 -33719584.246397495 0 0 0 0 167147320.04514313 -42212453.943990707 0 -42212453.943990707 -70070779.383234024 0 0 0 0 188451086.71104813 -97104265.472398758 0 -97104265.472398758 -19713899.504180908 0 0 0 0 585123356.22739029 81281845.257350922 0 81281845.257350922 -5762511.6432819366 0 0 0 0 65288810.087702751 -30710386.014174461 0 -30710386.014174461 -22223553.540641785 0 0 0 0 71312637.525100708 -37064933.489082336 0 -37064933.489082336 -99404747.956615448 0 0 0 0 -63659833.74990654 102025846.2844553 0 102025846.2844553 45336671.20892334 0 0 0 0 -42119838.564162254 10085042.366724968 0 10085042.366724968 -11371062.122283936 0 0 0 0 93871431.377223969 111018725.14624596 0 111018725.14624596 21992448.872268677 0 0 0 0 87336710.786497116 4831610.8288211823 0 4831610.8288211823 -63872248.603736877 0 0 0 0 145893793.85406303 -7948740.8787841797 0 -7948740.8787841797 -65458377.362388611 0 0 0 0 145234071.98541641 -8493179.405500412 0 -8493179.405500412 -65608451.165280342 0 0 0 0 170942463.47375679 203440691.29293633 0 203440691.29293633 94057075.51134491 0 0 0 0 392627862.817173 24981418.757263184 0 24981418.757263184 -62217392.984135151 0 0 0 0 -39214509.966964722 106976221.5611496 0 106976221.5611496 123083985.82452965 0 0 0 0 -3553511.0981826782 39739642.181695938 0 39739642.181695938 9943283.2824249268 0 0 0 0 13345342.270568848 91078459.23135376 0 91078459.23135376 38777236.021957397 0 0 0 0 5698002.018904686 103363029.05142689 0 103363029.05142689 53360550.228141785 0 0 0 0 -2261610.7694396973 89075819.747592926 0 89075819.747592926 27745703.475738525 0 0 0 0 -14471450.489585876 44658548.551307678 0 44658548.551307678 46254563.958020687 0 0 0 0 -5894397.3906040192 50390585.77538681 0 50390585.77538681 8699979.6321258545 0 0 0 0 -19130383.739421844 22837266.428245544 0 22837266.428245544 -8588232.589012146 0 0 0 0 -16986195.230989456 26052290.547094345 0 26052290.547094345 -24280702.689163208 0 0 0 0 -25211681.457859039 21332250.850749969 0 21332250.850749969 -17538951.606435776 0 0 0 0 -13023459.905997276 42402743.094660759 0 42402743.094660759 9200345.0238800049 0 0 0 0 -1611284.444153551 2748574.3816136345 0 2748574.3816136345 -43205.659784965217 0 0 0 0 470500767.01204681 204899831.76836967 0 204899831.76836967 73889283.972129822 0 0 0 0 -101449369.62285995 40164145.873189926 0 40164145.873189926 56536001.701446533 0 0 0 0 -993641.64632182568 1488533.9226300679 0 1488533.9226300679 -558205.29130794853 0 0 0 0 -22229633.651654243 27780530.298130035 0 27780530.298130035 -41020907.534317017 0 0 0 0 402653466.75690079 -210870503.01658821 0 -210870503.01658821 -179197127.06975937 0 0 0 0 219810630.89721298 203396934.49793434 0 203396934.49793434 464040035.33447266 0 0 0 0 -9728025.5572109222 13197878.842575073 0 13197878.842575073 -12631220.022315979 0 0 0 0 943243.21187739447 7439762.0243979841 0 7439762.0243979841 -9286991.5264580846 0 0 0 0 -21412449.133213043 29581470.261508942 0 29581470.261508942 -27130236.983913422 0 0 0 0 -7505858.29858841 10990793.318963014 0 10990793.318963014 -1230814.6257839575 0 0 0 0 -23929438.410549164 25309010.702489853 0 25309010.702489853 -26397814.533401489 0 0 0 0 -27658949.86895752 46868206.264572144 0 46868206.264572144 -41510670.176879227 0 0 0 0 -7335203.3454346545 4277379.146894373 0 4277379.146894373 2924495.311402604 0 0 0 0 -32430941.674907684 41438066.998394012 0 41438066.998394012 -28337703.596401215 0 0 0 0 3956503.7462594695 2771453.5262609981 0 2771453.5262609981 1176374.7567760833 0 0 0 0 -130205773.4296422 191207144.52075386 0 191207144.52075386 -120084673.83088112 0 0 0 0 -91051550.347172737 143370902.58996582 0 143370902.58996582 -179397674.78942108 0 0 0 0 26001445.386579514 -162986048.91467476 0 -162986048.91467476 36087927.68497467 0 0 0 0 -70338268.715415955 160654922.7030735 0 160654922.7030735 170027482.92746735 0 0 0 0 555542764.94889927 136469874.08377934 0 136469874.08377934 -184788861.45736313 0 0 0 0 2200095.3802314959 1101063.5915255547 0 1101063.5915255547 169425.05391279981 0 0 0 0 -103718540.49146175 54491705.974266052 0 54491705.974266052 28761080.00756073 0 0 0 0 -140756054.56903124 90115877.559948444 0 90115877.559948444 1447040.8950500488 0 0 0 0 836991.04777145386 116013955.59731865 0 116013955.59731865 5594708.8316917419 0 0 0 0 -148015527.51857758 102020127.73662376 0 102020127.73662376 90656244.446208954 0 0 0 0 2206258.6765913963 177527045.81484032 0 177527045.81484032 -2725142.9903335571 0 0 0 0 210190670.01487732 335141269.37753296 0 335141269.37753296 116244480.31857681 0 0 0 0 203456150.92051315 126611374.47006607 0 126611374.47006607 -43420310.915435791 0 0 0 0 36022221.839163303 82407237.281190872 0 82407237.281190872 4799152.9750289917 0 0 0 0 47585787.75303936 101911723.79523277 0 101911723.79523277 -47323756.663406372 0 0 0 0 -83679023.968270302 54743656.616065025 0 54743656.616065025 23426402.74760437 0 0 0 0 -55960853.664211273 121515758.16971779 0 121515758.16971779 14472943.393733978 0 0 0 0 1120080.1127796173 11852608.853429794 0 11852608.853429794 -8733098.7267284393 0 0 0 0 -9091192.4630361069 17011662.873978786 0 17011662.873978786 -15070688.875605568 0 0 0 0 -1528714.9696731567 15798010.151675224 0 15798010.151675224 -7493555.5702896118 0 0 0 0 -7816560.0663743019 15979415.543618202 0 15979415.543618202 -7440939.0699920654 0 0 0 0 -7010187.8761763573 10023901.971064568 0 10023901.971064568 -8991546.8773498535 0 0 0 0 -1425443.7373484746 12862044.917820828 0 12862044.917820828 -15259407.052624941 0 0 0 0 49453089.36242485 7620384.3899993896 0 7620384.3899993896 -57195380.973243713 0 0 0 0 631725372.19577217 134926576.75239182 0 134926576.75239182 -312055798.99676132 0 0 0 0 153580187.86169815 -9476704.4649734497 0 -9476704.4649734497 -200462736.04106331 0 0 0 0 90382741.054738998 60673810.145843506 0 60673810.145843506 -10685781.68132019 0 0 0 0 -14357181.591590405 41807082.737586975 0 41807082.737586975 -18148329.148337245 0 0 0 0 -4301430.6540384293 22177541.845603943 0 22177541.845603943 -17761572.259895682 0 0 0 0 -15453436.827548802 30136046.775062799 0 30136046.775062799 -17516088.39225769 0 0 0 0 -26445636.709005356 44346657.397155762 0 44346657.397155762 -15970748.709903717 0 0 0 0 -27032152.659488678 37122263.863449097 0 37122263.863449097 -21711663.215827942 0 0 0 0 -3502408.9757569907 13050227.741012804 0 13050227.741012804 134630.77578444034 0 0 0 0 -4373649.0289478302 20646951.63716507 0 20646951.63716507 -6901777.505273819 0 0 0 0 484492.5476334095 33612283.295524597 0 33612283.295524597 -20240342.33147049 0 0 0 0 2777481.3920106888 16178159.948272705 0 16178159.948272705 -7353729.0788803101 0 0 0 0 -5464741.7656955719 12270125.515663147 0 12270125.515663147 -8408838.734413147 0 0 0 0 -5062318.7847651476 6262131.801716391 0 6262131.801716391 5077065.8394936919 0 0 0 0 2781061.9388246443 8108309.3688666001 0 8108309.3688666001 -8390460.2651355863 0 0 0 0 -9556100.3975553513 16797531.483930588 0 16797531.483930588 -13128059.772842407 0 0 0 0 -26945837.860888071 32739670.838297009 0 32739670.838297009 -10801396.207191467 0 0 0 0 27417339.196825981 -15502753.365524292 0 -15502753.365524292 8513681.8553314209 0 0 0 0 16813875.665764809 7217715.436706543 0 7217715.436706543 -8200636.6449012756 0 0 0 0 -6389947.4175958633 -4440453.4693145752 0 -4440453.4693145752 -1308267.2205963135 0 0 0 0 32209966.707916498 -2269341.6879367828 0 -2269341.6879367828 -34374650.676292419 0 0 0 0 -3518260.9605913162 5399644.8783988953 0 5399644.8783988953 23013431.910491943 0 0 0 0 18738820.002832413 6274973.084072113 0 6274973.084072113 -44329014.629196167 0 0 0 0 -536374.64550733799 1216822.3325900808 0 1216822.3325900808 781491.96915836632 0 0 0 0 135356687.03836334 101115303.35518551 0 101115303.35518551 -15545752.194839478 0 0 0 0 24114395.639518738 75634815.458637238 0 75634815.458637238 3829578.1944961548 0 0 0 0 111341230.55409145 34988248.961765289 0 34988248.961765289 -43366079.460235596 0 0 0 0 47482920.563882828 60808854.303649902 0 60808854.303649902 -51127221.687530518 0 0 0 0 8534790.3929395676 58595609.302947998 0 58595609.302947998 390671.23131561279 0 0 0 0 31231249.493993301 19382893.401073471 0 19382893.401073471 -613851.93870595843 0 0 0 0 15031272.995737195 28546391.884895325 0 28546391.884895325 -57831933.874446869 0 0 0 0 -8240556.1670572758 24039508.721643448 0 24039508.721643448 -34021044.614425659 0 0 0 0 25560347.542299271 58037164.256872177 0 58037164.256872177 -45215323.612342834 0 0 0 0 16861250.909109589 17373184.592027154 0 17373184.592027154 -2377051.8452259637 0 0 0 0 40303810.944220543 16916828.428812027 0 16916828.428812027 -41264209.431396484 0 0 0 0 7522332.2748537064 48628993.133182526 0 48628993.133182526 -28258967.584350586 0 0 0 0 45397767.594749451 46585307.954454422 0 46585307.954454422 -16449274.084957123 0 0 0 0 -12335256.275355875 27723738.655902207 0 27723738.655902207 -27541542.164686617 0 0 0 0 34427430.041539192 36335839.015441895 0 36335839.015441895 -25923083.193069458 0 0 0 0 28621608.470875263 55324893.339754105 0 55324893.339754105 -30180796.022888184 0 0 0 0 -33210825.207211494 74347696.300425529 0 74347696.300425529 21070716.418346405 0 0 0 0 -93819252.917367935 2564970.7790031433 0 2564970.7790031433 -1120586.501625061 0 0 0 0 -2350621.3082763962 17663406.648816399 0 17663406.648816399 10103287.926373366 0 0 0 0 -31998514.026281357 70380149.400614738 0 70380149.400614738 33860012.037847102 0 0 0 0 -66110895.767497063 32117759.691594243 0 32117759.691594243 -9040059.7601470947 0 0 0 0 -65028352.781629205 8241144.8820215464 0 8241144.8820215464 -14160383.920005798 0 0 0 0 -33056152.050590515 16878831.465591431 0 16878831.465591431 -14329052.447273254 0 0 0 0 -27096123.60294342 19651570.27230072 0 19651570.27230072 -16124052.672546387 0 0 0 0 -12210083.052679062 33232835.55238533 0 33232835.55238533 -15331245.03074646 0 0 0 0 -24617074.720397949 28311754.809425354 0 28311754.809425354 -10021133.146816254 0 0 0 0 -55915811.650238276 36658833.963260174 0 36658833.963260174 -16885941.981124878 0 0 0 0 -34188416.020298004 26789755.395198822 0 26789755.395198822 -20402134.721473694 0 0 0 0 -53604068.512229919 17879331.802192688 0 17879331.802192688 -12267171.186637878 0 0 0 0 -36908479.471260071 26724298.210708618 0 26724298.210708618 -20390899.171867371 0 0 0 0 -48296920.265148163 33247095.33808136 0 33247095.33808136 -18702234.017715454 0 0 0 0 481847.16345214844 19153703.712051392 0 19153703.712051392 -6442800.7309150696 0 0 0 0 -25238667.632949829 27495413.229206085 0 27495413.229206085 -17541411.936683655 0 0 0 0 -9984568.6082355417 19773216.902966477 0 19773216.902966477 -9400472.2664330527 0 0 0 0 -32382053.654510498 32851029.581676483 0 32851029.581676483 -21468646.594032288 0 0 0 0 -21253982.9770419 34632539.800156206 0 34632539.800156206 -21067830.820831299 0 0 0 0 -24162460.334037781 25932345.564815521 0 25932345.564815521 -24238819.135270596 0 0 0 0 -24282735.468040466 27185122.836753845 0 27185122.836753845 -24333369.74861908 0 0 0 0 3773813.4567260742 12191089.996520996 0 12191089.996520996 4318379.863494873 0 0 0 0 -7460588.6441116333 16277339.126937866 0 16277339.126937866 -26274480.41872406 0 0 0 0 3599895.5239111367 12535959.901215926 0 12535959.901215926 -13472784.990686104 0 0 0 0 -45612146.651184082 34538169.218852997 0 34538169.218852997 -24512205.51499176 0 0 0 0 -2042655.7558432254 25081225.296295922 0 25081225.296295922 -621770.91875004768 0 0 0 0 -5703072.5128278434 5531273.6081006005 0 5531273.6081006005 228386.1104012467 0 0 0 0 -39159167.922912598 24085773.007080078 0 24085773.007080078 -28923840.820419312 0 0 0 0 -792390.88145248382 24098091.768887449 0 24098091.768887449 -16359307.284275755 0 0 0 0 828635.47084903717 11243415.128475189 0 11243415.128475189 -3802881.2000732422 0 0 0 0 -4779469.4083685828 21186271.023970574 0 21186271.023970574 -17321313.960573226 0 0 0 0 -209466934.48839283 -168816922.43678379 0 -168816922.43678379 -20146074.055328369 0 0 0 0 267930620.49011421 -38286800.1553936 0 -38286800.1553936 -98476051.615032196 0 0 0 0 -50571707.882400513 -23391087.648709297 0 -23391087.648709297 -51804439.672863007 0 0 0 0 -177092262.74149704 28991899.263210297 0 28991899.263210297 -57500667.265100479 0 0 0 0 -155870.82859942224 890744.80210590549 0 890744.80210590549 -606371.5305030942 0 0 0 0 116682374.30910969 213134498.20713902 0 213134498.20713902 -37928883.694816589 0 0 0 0 89894417.563238144 24080559.580070496 0 24080559.580070496 -53767481.754314423 0 0 0 0 -149274710.46246147 -33778268.200416565 0 -33778268.200416565 -44716359.446177483 0 0 0 0 -155360064.33300591 227162074.09228706 0 227162074.09228706 -130009814.5262413 0 0 0 0 1711.7742198305205 924775.89351041056 0 924775.89351041056 -2181690.2104098946 0 0 0 0 307874202.42075157 1531948.5824108124 0 1531948.5824108124 -98677184.998437405 0 0 0 0 16127463.934535742 27088146.781808853 0 27088146.781808853 46692343.342674255 0 0 0 0 169431886.65698433 139046833.02683067 0 139046833.02683067 70208143.927770853 0 0 0 0 253199764.24768353 267050235.46852875 0 267050235.46852875 -75241043.911804199 0 0 0 0 603513983.22784901 452206012.22408199 0 452206012.22408199 16233693.115557671 0 0 0 0 665207757.33609772 144250127.66368198 0 144250127.66368198 -186502073.0479002 0 0 0 0 279354470.29638863 202369614.02185059 0 202369614.02185059 65127054.143634796 0 0 0 0 220054638.56598091 210298066.41024971 0 210298066.41024971 -73356825.738568306 0 0 0 0 -37249206.008358002 54312338.475014687 0 54312338.475014687 10323711.0038414 0 0 0 0 1912560.0488831885 1250567.4033030793 0 1250567.4033030793 480627.62359480187 0 0 0 0 392637807.80174565 71781122.137065411 0 71781122.137065411 -266122652.16099548 0 0 0 0 300248979.55570984 392074751.93932104 0 392074751.93932104 223776638.36914825 0 0 0 0 455495381.85484314 383102712.42826557 0 383102712.42826557 -10057816.642771721 0 0 0 0 163550785.77394342 113789377.83991051 0 113789377.83991051 220367578.23506355 0 0 0 0 436699495.92314911 297421904.96796989 0 297421904.96796989 200716453.41271257 0 0 0 0 361975409.02142525 418825976.60450649 0 418825976.60450649 167127492.35653305 0 0 0 0 -41419503.395347595 352763986.31579971 0 352763986.31579971 357263991.26762962 0 0 0 0 397159177.69487977 443848501.07685947 0 443848501.07685947 183544757.35078812 0 0 0 0 201608204.6666851 193203761.31189156 0 193203761.31189156 325482548.23106527 0 0 0 0 211015632.14097595 231070707.58748531 0 231070707.58748531 169266505.48295021 0 0 0 0 -7143815.2098865509 103956777.15651894 0 103956777.15651894 190421804.19753575 0 0 0 0 -16095540.298360825 186165192.1789093 0 186165192.1789093 -190134814.2725296 0 0 0 0 5498303.1342639923 13161396.711460114 0 13161396.711460114 -24208010.372802734 0 0 0 0 -43670788.187610626 192754965.23849106 0 192754965.23849106 -206650626.73218155 0 0 0 0 3904976.7633087412 2846245.0954683051 0 2846245.0954683051 1263865.7118712068 0 0 0 0 -111886671.39137936 152019835.83558464 0 152019835.83558464 -8371835.9900093079 0 0 0 0 -77729503.725177765 41184879.934961319 0 41184879.934961319 -30860344.465259552 0 0 0 0 23575223.59081459 121129492.41304016 0 121129492.41304016 30358915.55553627 0 0 0 0 1012006.2795938971 131868.59280754626 0 131868.59280754626 128967.96672092378 0 0 0 0 -262602729.97630692 15930669.539796829 0 15930669.539796829 43375982.095336914 0 0 0 0 -69902290.306838989 47486150.513114929 0 47486150.513114929 5134567.6115550995 0 0 0 0 -91802919.261552811 41074882.371530533 0 41074882.371530533 29978365.655261993 0 0 0 0 731995.4330661837 10959458.178246275 0 10959458.178246275 6449710.4770491645 0 0 0 0 26835070.490966797 67356865.678256989 0 67356865.678256989 59357321.529499054 0 0 0 0 6368184.3841176368 5709006.0078986399 0 5709006.0078986399 -12687051.695716374 0 0 0 0 162138621.99121094 44110076.671406269 0 44110076.671406269 -33464260.514785767 0 0 0 0 179092621.10288572 116980866.19488811 0 116980866.19488811 14514174.504825592 0 0 0 0 113001476.98731232 92844183.560201645 0 92844183.560201645 31863229.566356659 0 0 0 0 123302285.84100533 55822046.79740715 0 55822046.79740715 -7254997.0836486816 0 0 0 0 129027098.41953278 110380363.10279465 0 110380363.10279465 -8782093.8794975281 0 0 0 0 65713955.258888245 51178160.075740814 0 51178160.075740814 63562056.416164398 0 0 0 0 -4112127.1006755829 45012057.67121315 0 45012057.67121315 -30542853.639305115 0 0 0 0 42400073.61894989 97668865.307402611 0 97668865.307402611 -3288396.7666397095 0 0 0 0 77051817.802984238 29754683.360582352 0 29754683.360582352 -9763359.4674835205 0 0 0 0 -10628829.305490494 81444169.453077316 0 81444169.453077316 21747389.625030518 0 0 0 0 114932861.57681465 90619814.103479385 0 90619814.103479385 17430278.709655762 0 0 0 0 47881591.758094072 27004049.700286388 0 27004049.700286388 15433037.149101257 0 0 0 0 83070350.400348663 46363348.737855911 0 46363348.737855911 26080265.841423035 0 0 0 0 134992532.60435867 70073675.697665215 0 70073675.697665215 -75277448.377048492 0 0 0 0 114593374.18448067 139186453.00247836 0 139186453.00247836 98438114.149024963 0 0 0 0 320511569.60015321 516610359.4824338 0 516610359.4824338 251255320.30367279 0 0 0 0 1422657.193796522 3172251.5369852148 0 3172251.5369852148 3322839.2825804576 0 0 0 0 -474752375.72098351 70584169.243005753 0 70584169.243005753 219636335.30802155 0 0 0 0 2193987703.8496675 273054687.65522075 0 273054687.65522075 29762978.880298615 0 0 0 0 -103286869.77064514 306976506.53860664 0 306976506.53860664 365825627.42088318 0 0 0 0 -96631862.920125961 144631094.99447155 0 144631094.99447155 -36619144.798488617 0 0 0 0 -18924561.172906876 53678078.702300072 0 53678078.702300072 -52848075.318439484 0 0 0 0 -285243475.04356194 68180076.690450668 0 68180076.690450668 17865451.145419121 0 0 0 0 2793077.7914397097 8228102.0190573893 0 8228102.0190573893 11215243.163659677 0 0 0 0 2000280554.5245714 -377804510.8578124 0 -377804510.8578124 -296532513.47040558 0 0 0 0 426686438.42752457 -361981623.40507126 0 -361981623.40507126 460107321.65327454 0 0 0 0 656434885.05588913 -20869625.614109039 0 -20869625.614109039 336547487.84484673 0 0 0 0 1105700538.0937691 285602371.12638474 0 285602371.12638474 62277732.192077637 0 0 0 0 300574477.94078827 39711576.436737061 0 39711576.436737061 78207350.838745117 0 0 0 0 439349454.99280548 655110175.03269958 0 655110175.03269958 -430891528.82201767 0 0 0 0 348203992.90532732 45110082.478730202 0 45110082.478730202 -646868752.36547852 0 0 0 0 -192526171.73376274 208314975.31857681 0 208314975.31857681 26703066.391697645 0 0 0 0 522543069.32633781 408475625.29950523 0 408475625.29950523 168280971.62775803 0 0 0 0 57072184.38866806 82412279.370552063 0 82412279.370552063 36306251.177503586 0 0 0 0 -55319482.63044548 142539996.61105347 0 142539996.61105347 175422741.56359863 0 0 0 0 -325218431.58028984 -93633127.125080109 0 -93633127.125080109 266046590.61478329 0 0 0 0 -52109917.979679108 98687639.147861481 0 98687639.147861481 514405650.1157608 0 0 0 0 531062934.56045723 421429350.82036018 0 421429350.82036018 574197435.96370888 0 0 0 0 259081268.37415886 -92302031.242630005 0 -92302031.242630005 242338583.61890793 0 0 0 0 251467794.65041351 -78965273.690493584 0 -78965273.690493584 312355453.45802689 0 0 0 0 -54544297.025823593 -157741088.31612015 0 -157741088.31612015 174666170.25161743 0 0 0 0 -1904155.4905281067 107780044.123312 0 107780044.123312 189418945.50905228 0 0 0 0 36407651.81192933 9352575.9629212245 0 9352575.9629212245 -5092102.0734560117 0 0 0 0 197699389.35170174 -9793193.5057373047 0 -9793193.5057373047 -43752947.223907471 0 0 0 0 282088455.16923141 98558435.184463501 0 98558435.184463501 -120774283.31227589 0 0 0 0 -585010.48305892944 34779897.176345825 0 34779897.176345825 -5509774.3800811768 0 0 0 0 338740478.23213577 82732942.022514343 0 82732942.022514343 -119267236.14689827 0 0 0 0 400571812.59799957 -89363266.418464661 0 -89363266.418464661 -387380784.33952332 0 0 0 0 295395566.31884193 -912171880.50539398 0 -912171880.50539398 1084736834.8005371 0 0 0 0 958317433.21020508 -1686214884.3499832 0 -1686214884.3499832 -1073928297.362215 0 0 0 0 577020738.03748322 554452937.58274078 0 554452937.58274078 -170482183.46447754 0 0 0 0 760167326.20114136 456191856.40010071 0 456191856.40010071 -842886606.74554634 0 0 0 0 857217550.65357971 199788021.66195679 0 199788021.66195679 -228670018.76107788 0 0 0 0 480006576.87643433 195307473.28466034 0 195307473.28466034 -203196890.52339554 0 0 0 0 575596261.06648636 300555505.11653137 0 300555505.11653137 -89826192.227844238 0 0 0 0 390863262.73679018 204712287.50409317 0 204712287.50409317 -46503893.491622925 0 0 0 0 575950144.27850175 253677346.02396125 0 253677346.02396125 15929277.132171631 0 0 0 0 600693442.71521759 347955671.28242493 0 347955671.28242493 -167878170.76663208 0 0 0 0 627765091.64723969 379523309.22546005 0 379523309.22546005 155448754.30442429 0 0 0 0 619936303.50541687 273985965.7168808 0 273985965.7168808 23884177.486747742 0 0 0 0 701743102.6912899 211239953.91681671 0 211239953.91681671 64700132.827011108 0 0 0 0 405392276.46269608 257841270.57955933 0 257841270.57955933 89059676.757507324 0 0 0 0 222747636.89201736 265553987.0296402 0 265553987.0296402 141888759.41735458 0 0 0 0 438344636.19725609 245711064.40063095 0 245711064.40063095 -43079017.241821289 0 0 0 0 124698768.83964539 93878423.9856987 0 93878423.9856987 -17543946.391784668 0 0 0 0 89201075.225517273 42098760.629608154 0 42098760.629608154 -14953775.39250946 0 0 0 0 186544919.65529156 175488307.22525787 0 175488307.22525787 -2988247.6309356689 0 0 0 0 29120114.695842743 124737536.90232086 0 124737536.90232086 -5858567.4050292969 0 0 0 0 -45733144.133935928 19406219.062446594 0 19406219.062446594 -38859531.009597778 0 0 0 0 -10193415.164432526 130196320.26409912 0 130196320.26409912 97929463.950469971 0 0 0 0 -54251716.924575806 63801866.189838409 0 63801866.189838409 7225900.075920105 0 0 0 0 27880958.916999817 -3354224.8465194702 0 -3354224.8465194702 49215782.282981873 0 0 0 0 22265188.657283783 72580386.906173706 0 72580386.906173706 231765979.41355896 0 0 0 0 -93148409.062116742 98024897.171208382 0 98024897.171208382 132431128.25921631 0 0 0 0 -86905448.973783493 193762872.90517426 0 193762872.90517426 -49728311.466094971 0 0 0 0 -4463614.5160655975 31263085.362686157 0 31263085.362686157 60090451.830833435 0 0 0 0 -58167182.681687355 -34991319.956466675 0 -34991319.956466675 203057939.81474304 0 0 0 0 -4014917.0055391006 -4651526.9474276118 0 -4651526.9474276118 -74195.849890270038 0 0 0 0 103331003.33561325 159077370.09260559 0 159077370.09260559 404030877.33769655 0 0 0 0 596357183.37508774 372263223.28794098 0 372263223.28794098 -1007493287.4813957 0 0 0 0 660261792.25714874 154192237.77964401 0 154192237.77964401 61340168.349327087 0 0 0 0 240872194.37578773 315232370.19190598 0 315232370.19190598 496535983.61458588 0 0 0 0 164111.90909991041 -5327882.8492972329 0 -5327882.8492972329 566509.38247246901 0 0 0 0 555750080.05934143 335109808.29253006 0 335109808.29253006 65635510.589141846 0 0 0 0 350061265.44819832 10484520.924751282 0 10484520.924751282 -428172797.12641907 0 0 0 0 654579484.72789001 196060741.91808319 0 196060741.91808319 109389956.59599495 0 0 0 0 781947517.99777222 70535092.483963013 0 70535092.483963013 144591089.4020462 0 0 0 0 661067126.33042526 202687879.31300735 0 202687879.31300735 87817996.809173584 0 0 0 0 -175799266.93618011 73942765.025925636 0 73942765.025925636 44844571.382736206 0 0 0 0 1627455462.6946015 171439683.5168581 0 171439683.5168581 -298750980.06015015 0 0 0 0 2627050.4435937316 12655430.738990834 0 12655430.738990834 24072990.230961554 0 0 0 0 962938025.7277832 742724186.21537018 0 742724186.21537018 -424863170.29064941 0 0 0 0 -69249029.598495483 58801249.141711235 0 58801249.141711235 7624296.8449554443 0 0 0 0 -83721643.890068054 85559984.511791229 0 85559984.511791229 -12770506.967346191 0 0 0 0 -22075524.048578262 93952781.503564835 0 93952781.503564835 3603938.5931091309 0 0 0 0 -93962046.966171265 16839338.887769699 0 16839338.887769699 23865903.452964783 0 0 0 0 -10764720.161182404 63589836.811004639 0 63589836.811004639 10372573.810171127 0 0 0 0 -10835382.789669037 48509729.033145905 0 48509729.033145905 78574152.091888428 0 0 0 0 -26656382.509626389 88170973.074922562 0 88170973.074922562 64352752.106189728 0 0 0 0 334422364.15153503 42059571.075286865 0 42059571.075286865 249691790.5127902 0 0 0 0 7633129.9172073156 25416087.766788702 0 25416087.766788702 -29581438.30203148 0 0 0 0 -31669837.336641312 86950561.45157814 0 86950561.45157814 91389891.56627655 0 0 0 0 662559153.88765907 197756646.73875427 0 197756646.73875427 104032448.67622375 0 0 0 0 -300550.10840574279 23804820.550137386 0 23804820.550137386 40135108.096539661 0 0 0 0 642223382.74363708 202978776.41333008 0 202978776.41333008 107004236.67658997 0 0 0 0 628006055.67345428 260445158.34378052 0 260445158.34378052 44676143.252029419 0 0 0 0 616488079.54430389 280870172.12728882 0 280870172.12728882 103133216.66766357 0 0 0 0 634746542.76679802 226891731.85339165 0 226891731.85339165 197335190.42181396 0 0 0 0 -33748530.848373413 749633858.84475327 0 749633858.84475327 -329277371.50175476 0 0 0 0 2473226.6867519598 8771272.3458397053 0 8771272.3458397053 -1597167.728430897 0 0 0 0 -181722793.03804016 -472934225.62606812 0 -472934225.62606812 -1294729735.730011 0 0 0 0 1435647225.3889465 236051854.49934387 0 236051854.49934387 -2095745999.471283 0 0 0 0 581520394.83405304 515471073.60369873 0 515471073.60369873 -50762082.720367432 0 0 0 0 -3720336.8130262904 8081001.3566158861 0 8081001.3566158861 7741787.9343221337 0 0 0 0 593381676.29562378 440676073.32963181 0 440676073.32963181 167511447.07629395 0 0 0 0 2964194572.7633133 1516432694.7522583 0 1516432694.7522583 -1564700121.7917442 0 0 0 0 447436.49326930381 -232136.23156508617 0 -232136.23156508617 1691067.615474239 0 0 0 0 -174239706.30486298 120499846.97003937 0 120499846.97003937 15670466.63293457 0 0 0 0 -21265671.894485474 879210279.73680496 0 879210279.73680496 -165158274.87090302 0 0 0 0 -189569744.18949461 33551660.985425949 0 33551660.985425949 -1029506.0795593262 0 0 0 0 -25912998.260528564 456301828.94082642 0 456301828.94082642 219648202.23785591 0 0 0 0 -56912108.624916077 92097985.101997375 0 92097985.101997375 239925.22817230225 0 0 0 0 -89850279.620807648 214443080.59630585 0 214443080.59630585 120246089.94030762 0 0 0 0 -84429858.871643066 92401487.778007507 0 92401487.778007507 -67204096.459625244 0 0 0 0 -143662643.64759064 131485316.05172729 0 131485316.05172729 -16697683.028274536 0 0 0 0 -123082931.03494549 68384491.53783989 0 68384491.53783989 -27613582.601226807 0 0 0 0 -291711674.91537094 93770041.877716064 0 93770041.877716064 -18318563.151916504 0 0 0 0 -268526379.52386856 -44153830.763526917 0 -44153830.763526917 -51423594.760409355 0 0 0 0 -152624847.25264168 18916212.75421524 0 18916212.75421524 -50247834.769317627 0 0 0 0 -210319052.07356644 60123028.339187622 0 60123028.339187622 34916690.830581665 0 0 0 0 -53104152.487354279 72788503.449394226 0 72788503.449394226 4798409.7826385498 0 0 0 0 -162778954.43571663 -31313235.338750839 0 -31313235.338750839 51815547.53061676 0 0 0 0 10449743.087722778 103916596.82608795 0 103916596.82608795 107533595.15904999 0 0 0 0 -123505428.51088715 129584287.38410187 0 129584287.38410187 115236882.25666809 0 0 0 0 89868166.671283722 278413098.33958435 0 278413098.33958435 91892390.490081787 0 0 0 0 81554205.389015198 97419495.842449188 0 97419495.842449188 16063417.009719849 0 0 0 0 50715783.758414268 140248892.71511269 0 140248892.71511269 41514477.183841705 0 0 0 0 7024905.2790837735 26178540.133996073 0 26178540.133996073 -35844730.613382638 0 0 0 0 -28424495.817684174 114228259.72610474 0 114228259.72610474 6893661.1648731232 0 0 0 0 46235147.579190254 103034953.60500431 0 103034953.60500431 -13832271.325805664 0 0 0 0 46917724.630514145 95023678.114735603 0 95023678.114735603 34223147.549152374 0 0 0 0 -17260539.996002197 83132724.182926178 0 83132724.182926178 26990214.41701889 0 0 0 0 59964620.602584839 98666121.580533981 0 98666121.580533981 -8982985.0752468109 0 0 0 0 96070856.301056862 39906920.776988983 0 39906920.776988983 -33388063.894069672 0 0 0 0 62008504.563291073 49619363.436004639 0 49619363.436004639 -3092993.0554504395 0 0 0 0 4140494.3582305908 227273499.26311111 0 227273499.26311111 163038903.4637413 0 0 0 0 -68279623.226993561 76668557.529750824 0 76668557.529750824 139075168.41637421 0 0 0 0 45455992.749959946 86079479.102890015 0 86079479.102890015 12913623.797981262 0 0 0 0 -400987.58146208804 15374764.165795911 0 15374764.165795911 22926805.312044367 0 0 0 0 3716564.5575815514 28337752.279768467 0 28337752.279768467 -28807686.309148043 0 0 0 0 -32304836.955760956 36747402.912792206 0 36747402.912792206 32956763.416909218 0 0 0 0 4139020.3327700719 20632112.073104084 0 20632112.073104084 34163216.616763145 0 0 0 0 -50739200.709789276 70057222.709819794 0 70057222.709819794 27171794.839941978 0 0 0 0 -60260226.988986969 28773611.445343018 0 28773611.445343018 31186511.386333466 0 0 0 0 -37750201.474899769 51638948.406833649 0 51638948.406833649 33665720.8960495 0 0 0 0 -46631687.823937416 36188510.943596601 0 36188510.943596601 101808532.60468292 0 0 0 0 -43586715.878383636 54940198.181346416 0 54940198.181346416 41118734.204071045 0 0 0 0 4640440.3988171741 27333845.542897228 0 27333845.542897228 32396633.064327456 0 0 0 0 -30387911.111814499 16731679.271364212 0 16731679.271364212 19809506.754806519 0 0 0 0 29315524.034500122 -21414732.025421143 0 -21414732.025421143 14451633.733264923 0 0 0 0 2235611.4353218079 -25688299.394008636 0 -25688299.394008636 90772355.300300598 0 0 0 0 -33461052.816141129 15046657.102138519 0 15046657.102138519 47416040.003204346 0 0 0 0 269656.52801320981 -172075.8306393344 0 -172075.8306393344 8243203.7773775607 0 0 0 0 -219820683.62573624 3126967.7310142517 0 3126967.7310142517 48940170.118927002 0 0 0 0 37843233.99716568 -38001573.156906128 0 -38001573.156906128 43770818.534553528 0 0 0 0 238227132.04397202 345466613.76738167 0 345466613.76738167 20819763.922561646 0 0 0 0 452739615.78062439 -353333652.86801147 0 -353333652.86801147 56649227.699565887 0 0 0 0 -233331157.09632874 9453982.9242553711 0 9453982.9242553711 351415194.81193542 0 0 0 0 -181428.8556233421 3310896.8818060309 0 3310896.8818060309 4717137.4495000392 0 0 0 0 -229650211.58164215 38701317.372192383 0 38701317.372192383 33386143.694122314 0 0 0 0 263966.8765530698 2307708.5655827299 0 2307708.5655827299 4231001.3788278401 0 0 0 0 53940810.079040527 35747452.079177856 0 35747452.079177856 10786244.424499512 0 0 0 0 35177806.616024017 49682235.656108856 0 49682235.656108856 47779352.685699463 0 0 0 0 -2636974.9971783645 12054078.707123134 0 12054078.707123134 2917046.7793025225 0 0 0 0 16073764.023017883 30663663.671066284 0 30663663.671066284 19066093.667945862 0 0 0 0 33253524.04011178 -384934.93535089493 0 -384934.93535089493 -109617320.96121216 0 0 0 0 1800810.8349170685 39386434.022174835 0 39386434.022174835 34116089.202651978 0 0 0 0 11621590.977794647 39372213.005943298 0 39372213.005943298 34028060.577644348 0 0 0 0 37891940.55314827 37594476.8043046 0 37594476.8043046 18600439.017822266 0 0 0 0 -160285744.55955124 -20038004.065162659 0 -20038004.065162659 31179163.039838791 0 0 0 0 -127614044.5358963 -57112994.066978455 0 -57112994.066978455 30369700.090316772 0 0 0 0 99024332.943832397 215080905.86439514 0 215080905.86439514 -210218842.72606659 0 0 0 0 -690350.04658346251 2463853.7680037953 0 2463853.7680037953 -2083816.416637972 0 0 0 0 173439199.92882633 866171658.75582886 0 866171658.75582886 -485737063.31726074 0 0 0 0 -325542642.84151077 322277457.93164825 0 322277457.93164825 -89692515.075496674 0 0 0 0 -391268364.34753323 8136592.8240098953 0 8136592.8240098953 295737758.94911194 0 0 0 0 -276485662.03765678 271222760.49556732 0 271222760.49556732 -38019038.974227905 0 0 0 0 -206031016.36680984 472812615.26942825 0 472812615.26942825 -185025370.39257812 0 0 0 0 -2885270.648141861 -21851340.406726837 0 -21851340.406726837 118197453.99109268 0 0 0 0 -1590010.4097135365 359588.84762747586 0 359588.84762747586 1903596.5531739742 0 0 0 0 -1202195.4031658173 80492774.822383881 0 80492774.822383881 152888773.82722473 0 0 0 0 -5301464.1636986732 368680915.16401577 0 368680915.16401577 -274191117.20877838 0 0 0 0 75519821.715623856 173994296.28833389 0 173994296.28833389 328384.7073135376 0 0 0 0 -281024069.92045975 57098036.04189682 0 57098036.04189682 82813885.477539062 0 0 0 0 41282937.252948761 123944658.01021194 0 123944658.01021194 209799590.36092377 0 0 0 0 59455866.308979034 179080978.43398285 0 179080978.43398285 -164211240.09582901 0 0 0 0 266511.62030414864 1383102.851624921 0 1383102.851624921 856867.52101649344 0 0 0 0 -59568531.112283707 69430861.963718414 0 69430861.963718414 -83630943.365158081 0 0 0 0 -4867618.7920722961 51283330.243034363 0 51283330.243034363 -63958107.278839111 0 0 0 0 -6321157.6444511414 26632617.35597229 0 26632617.35597229 -66251233.552719116 0 0 0 0 -48607307.07793808 33625992.397697449 0 33625992.397697449 -17372312.156059265 0 0 0 0 1889925.7438606508 2593157.2489738613 0 2593157.2489738613 1387790.9886131212 0 0 0 0 18496296.574156761 49986220.336130142 0 49986220.336130142 87447.000152587891 0 0 0 0 44518794.146360397 26932066.490875244 0 26932066.490875244 15617076.019065857 0 0 0 0 888044.52749254927 -1700919.405722294 0 -1700919.405722294 568993.19237872958 0 0 0 0 -19526538.037930489 16955946.24399662 0 16955946.24399662 -5114451.7333984375 0 0 0 0 3951825.227858074 3021451.9014612436 0 3021451.9014612436 1550590.6699549109 0 0 0 0 10311253.099739552 5669640.2246961594 0 5669640.2246961594 1901113.6464233398 0 0 0 0 -134769800.9240036 34882582.350097656 0 34882582.350097656 12754740.059280396 0 0 0 0 1531585.9427657435 -209129.02843406051 0 -209129.02843406051 248090.15478125215 0 0 0 0 -6069262.6760234833 21963496.98116684 0 21963496.98116684 -39321612.749923706 0 0 0 0 28209110.556221008 58474981.673934937 0 58474981.673934937 -62395153.976547241 0 0 0 0 23959928.13079834 29963223.693840027 0 29963223.693840027 -66357222.671927929 0 0 0 0 -84793276.146213531 169949808.08277893 0 169949808.08277893 -172331027.59169006 0 0 0 0 -328982708.3824234 250928068.77516937 0 250928068.77516937 -87844310.980052948 0 0 0 0 -567298149.46015549 30579979.246368408 0 30579979.246368408 31904524.339309692 0 0 0 0 -331765.99454750866 916686.3202871494 0 916686.3202871494 2370607.3331222236 0 0 0 0 755842572.57327652 394560483.13983727 0 394560483.13983727 -425971888.58337402 0 0 0 0 -143093205.08143616 135974166.07116318 0 135974166.07116318 -88514761.230232239 0 0 0 0 -84351406.635431409 95658088.203548789 0 95658088.203548789 -15165999.453399658 0 0 0 0 37084015.062478065 5522482.7118730545 0 5522482.7118730545 -6738306.9492797852 0 0 0 0 215282.08491451014 -402421.68551930413 0 -402421.68551930413 124946.08187565207 0 0 0 0 -116220135.48618317 109635243.64252472 0 109635243.64252472 -109187638.24023438 0 0 0 0 -215487368.54683495 96038946.614814758 0 96038946.614814758 -74363539.492553711 0 0 0 0 -54320484.745124817 76676044.771354675 0 76676044.771354675 -61804230.831214905 0 0 0 0 -21625019.94581604 -12734043.712211609 0 -12734043.712211609 11540445.199352264 0 0 0 0 12796897.078170776 7011704.6746292114 0 7011704.6746292114 -4904956.4730987549 0 0 0 0 -528351618.47840881 -40253324.475826263 0 -40253324.475826263 777994725.72747803 0 0 0 0 628760236.87272263 1700807902.3554001 0 1700807902.3554001 1005031116.2677002 0 0 0 0 1729184916.7527847 -938518035.01720428 0 -938518035.01720428 935768456.50939178 0 0 0 0 3504440.0080747306 -81939.697405295447 0 -81939.697405295447 914688.30718426406 0 0 0 0 6310825.7748696133 3937922.0728690624 0 3937922.0728690624 1287693.8309960961 0 0 0 0 2386741.2634391785 117169.53667449951 0 117169.53667449951 5142621.4214630127 0 0 0 0 1210090.999458313 8644073.3053359985 0 8644073.3053359985 1843469.3928565979 0 0 0 0 3698958.427532196 8942669.3762283325 0 8942669.3762283325 -8219026.0203704834 0 0 0 0 6224552.8692302704 12120347.982744217 0 12120347.982744217 -25837796.162536621 0 0 0 0 11489632.991516113 22631849.958118439 0 22631849.958118439 -17545013.706954956 0 0 0 0 -3404444.7207145691 26681032.522064209 0 26681032.522064209 -279518.9316221085 0 0 0 0 29415847.386566162 -37097771.981529236 0 -37097771.981529236 -179188192.95349121 0 0 0 0 11988874.627923965 23625659.96875 0 23625659.96875 -36989760.479125977 0 0 0 0 4662282.9350780472 -230574.88121648878 0 -230574.88121648878 -2249625.4638563395 0 0 0 0 11837310.580448151 511796.55889129639 0 511796.55889129639 -33072860.202484131 0 0 0 0 7713095.6930580139 2980439.8555831909 0 2980439.8555831909 -5751758.2560462952 0 0 0 0 225770387.98205948 -220133451.69132996 0 -220133451.69132996 139169684.3805542 0 0 0 0 647211322.72061157 214781555.53959656 0 214781555.53959656 -115512361.56016159 0 0 0 0 598343955.4704361 254606987.00189209 0 254606987.00189209 -57168216.822242737 0 0 0 0 586516742.71272278 136317863.33189392 0 136317863.33189392 3070875.0038833618 0 0 0 0 1924950.9424066767 -877489.68925866857 0 -877489.68925866857 -1339924.2265292257 0 0 0 0 587914469.84986877 141857375.45350647 0 141857375.45350647 24717269.833114624 0 0 0 0 531984051.28065491 197058817.12598419 0 197058817.12598419 149336259.25471449 0 0 0 0 664937270.19890976 266718534.08448029 0 266718534.08448029 33799058.410538197 0 0 0 0 588964224.92145538 381811942.09649277 0 381811942.09649277 196603107.64558792 0 0 0 0 385132638.10238647 186504765.35887146 0 186504765.35887146 -12654883.915100098 0 0 0 0 584671999.73073959 699700145.5872612 0 699700145.5872612 927348983.44563293 0 0 0 0 775872573.42537689 -226338326.15383148 0 -226338326.15383148 50642641.709129333 0 0 0 0 2367466.7259112373 2431627.0487484708 0 2431627.0487484708 1141497.1323131174 0 0 0 0 1324740881.9222336 280633406.8992157 0 280633406.8992157 -102421160.6987381 0 0 0 0 1060572140.2430305 918966796.86153412 0 918966796.86153412 204007693.2306366 0 0 0 0 755934892.27993393 856773670.14313889 0 856773670.14313889 283793535.67524338 0 0 0 0 13602962.057167675 605871.63541463017 0 605871.63541463017 -1076600.2103651799 0 0 0 0 709513064.52365303 1062785270.4622602 0 1062785270.4622602 711021863.2884903 0 0 0 0 275271768.29825592 -107412871.04037476 0 -107412871.04037476 138871834.93526459 0 0 0 0 244133196.60743332 26028049.659210205 0 26028049.659210205 -199539202.70880127 0 0 0 0 -90949174.94630909 9102337.9343261719 0 9102337.9343261719 13891548.85867691 0 0 0 0 -56939528.001723289 38083362.52872467 0 38083362.52872467 23577391.12131691 0 0 0 0 -79534458.995646477 5247079.9459152222 0 5247079.9459152222 -5533722.641746521 0 0 0 0 -43894415.608701706 36723393.469730377 0 36723393.469730377 16562740.219085693 0 0 0 0 -40276397.482081413 33010395.897895813 0 33010395.897895813 -11345326.961982727 0 0 0 0 -108254331.1586256 29449416.638336182 0 29449416.638336182 -11164256.786568403 0 0 0 0 -11410524.242190838 62218435.475315094 0 62218435.475315094 -51478811.041549683 0 0 0 0 -93781761.909479618 18660192.383995056 0 18660192.383995056 -11256518.232299805 0 0 0 0 -105954698.16091728 -4278798.4002113342 0 -4278798.4002113342 -27179541.094169617 0 0 0 0 -8598444.3201535493 10546093.056778017 0 10546093.056778017 -2109919.1290117353 0 0 0 0 86619703.849458694 39238210.94797039 0 39238210.94797039 -29615232.885940552 0 0 0 0 132903443.40049076 60354722.048583984 0 60354722.048583984 123705428.62530518 0 0 0 0 165152129.46565104 -83727198.118854523 0 -83727198.118854523 36823475.829292297 0 0 0 0 15669287.125845432 49017250.691562653 0 49017250.691562653 6623702.9445953369 0 0 0 0 6558108.9935792368 9512183.4793699533 0 9512183.4793699533 -14603695.229411185 0 0 0 0 54650284.862844706 24629143.963535309 0 24629143.963535309 -27221700.905639648 0 0 0 0 53096760.299131393 -16406221.749414444 0 -16406221.749414444 -51352946.633621216 0 0 0 0 11705617.965898884 169901.86246955395 0 169901.86246955395 -12112636.823539309 0 0 0 0 53672241.491166115 22251134.078208923 0 22251134.078208923 -56077963.348937988 0 0 0 0 69483871.033996582 -11412361.53975296 0 -11412361.53975296 8430195.7889709473 0 0 0 0 47314498.27881813 61718971.674362183 0 61718971.674362183 93629269.951538086 0 0 0 0 51467780.246013522 6691926.5372958183 0 6691926.5372958183 -14682813.270217896 0 0 0 0 74026.632515673758 1487204.978252288 0 1487204.978252288 1121225.7902936786 0 0 0 0 -120496098.27110529 -4361622.6554203033 0 -4361622.6554203033 9150346.8331298828 0 0 0 0 131720483.34309483 83669846.454399109 0 83669846.454399109 52325687.863098145 0 0 0 0 520090732.23966026 71370825.123352051 0 71370825.123352051 -127832902.63511658 0 0 0 0 148661.14613905665 304217.46267263219 0 304217.46267263219 121828.22914767265 0 0 0 0 248981.97354452894 3101260.7612038106 0 3101260.7612038106 1639381.8241970837 0 0 0 0 1416525.8549090624 -5376709.0317821503 0 -5376709.0317821503 -5544638.0074462891 0 0 0 0 -80649171.715531588 22209938.580507278 0 22209938.580507278 18860783.13180542 0 0 0 0 238650005.6608386 85184602.639770508 0 85184602.639770508 -24499845.580657959 0 0 0 0 281800.36009801365 1167097.9037046395 0 1167097.9037046395 1250013.8639479429 0 0 0 0 13827875.244159698 157657330.46319962 0 157657330.46319962 60512411.109336853 0 0 0 0 180151499.12622929 106495376.16999817 0 106495376.16999817 -9793372.4489974976 0 0 0 0 6211309.6920803487 -23310523.623731256 0 -23310523.623731256 41051325.826377869 0 0 0 0 -10154423.25748538 12922396.36262621 0 12922396.36262621 -5345971.4076874554 0 0 0 0 205894298.60048866 37548754.703495026 0 37548754.703495026 -59968924.78515625 0 0 0 0 117489833.41483355 5887618.4574699402 0 5887618.4574699402 -52660603.070114136 0 0 0 0 138661423.97488117 -36812395.362365723 0 -36812395.362365723 27649518.482284546 0 0 0 0 54930153.510172963 72873170.161501884 0 72873170.161501884 81813624.26763916 0 0 0 0 77440379.912600517 95099824.614520073 0 95099824.614520073 63971509.836959839 0 0 0 0 2222960.7377338409 110565101.18844604 0 110565101.18844604 -3275593.8754882812 0 0 0 0 51001775.708068848 54650475.233581543 0 54650475.233581543 48111798.917510986 0 0 0 0 85151930.889200211 74430823.657600403 0 74430823.657600403 -4200881.5718154907 0 0 0 0 331983.37661099434 21242496.200250626 0 21242496.200250626 9049006.0703735352 0 0 0 0 -649506.96576466644 6105965.9995860942 0 6105965.9995860942 2997087.973460719 0 0 0 0 31374802.454019547 -4822445.0320281982 0 -4822445.0320281982 -19137909.97442627 0 0 0 0 44863418.288919449 37634031.703323364 0 37634031.703323364 21650064.880889893 0 0 0 0 28431795.853834152 -21433923.095840454 0 -21433923.095840454 6108971.3921661377 0 0 0 0 -1993226.4667392755 1176363.8034832291 0 1176363.8034832291 93174.57461733371 0 0 0 0 -38372712.057182312 38919536.340669632 0 38919536.340669632 -3646209.290473938 0 0 0 0 -43530464.520294189 32150731.627288818 0 32150731.627288818 -10565821.242040634 0 0 0 0 -52521377.612445831 34742488.813505173 0 34742488.813505173 4653441.7927703857 0 0 0 0 -34698299.662202835 42717355.638584137 0 42717355.638584137 -2075888.818649292 0 0 0 0 -55467691.924844742 48115207.237768173 0 48115207.237768173 30439940.447143555 0 0 0 0 -69866276.94830513 20130408.185085297 0 20130408.185085297 -5262655.3511009216 0 0 0 0 -86507049.960587025 11557535.743190765 0 11557535.743190765 22204704.629165649 0 0 0 0 -15181087.57725811 83115925.391178131 0 83115925.391178131 56811023.157217026 0 0 0 0 -13817626.728092194 58387039.283512115 0 58387039.283512115 46669912.417648315 0 0 0 0 -40136842.676179409 23115831.799789429 0 23115831.799789429 34971840.852302551 0 0 0 0 -15517071.089734793 49052639.864831924 0 49052639.864831924 -63482766.856109619 0 0 0 0 14119472.051711082 16191531.980705261 0 16191531.980705261 -73245762.474489212 0 0 0 0 -3836798.4567416506 15300257.613181598 0 15300257.613181598 -10414051.531230047 0 0 0 0 -12837763.270583153 72843199.012807846 0 72843199.012807846 85357353.501235962 0 0 0 0 2196448.743943241 1711810.5528679043 0 1711810.5528679043 -2297330.9931076691 0 0 0 0 13518400.20996809 11861163.718811035 0 11861163.718811035 -55617496.611099243 0 0 0 0 7490573.0399692059 29096283.161944389 0 29096283.161944389 9825871.3104057312 0 0 0 0 -1054841.3320424184 13759023.323771041 0 13759023.323771041 -24310321.3296974 0 0 0 0 55332912.975624084 78622767.630580902 0 78622767.630580902 -16613335.466204643 0 0 0 0 23583435.273849487 -5416837.7865447998 0 -5416837.7865447998 2387899.4427471161 0 0 0 0 -14102375.457321092 8427812.3732176796 0 8427812.3732176796 -2135834.82626497 0 0 0 0 16348806.685733795 47352232.779090881 0 47352232.779090881 -8344551.6752605438 0 0 0 0 2063665.8716926575 48900178.398246765 0 48900178.398246765 3294055.5849914551 0 0 0 0 57983657.493805885 92023769.49697113 0 92023769.49697113 24627632.945236206 0 0 0 0 71291892.950113297 28558962.292610168 0 28558962.292610168 35635698.15296936 0 0 0 0 -2346675.9517459869 31490779.350212097 0 31490779.350212097 102986409.15852356 0 0 0 0 94261347.564544678 79644447.617782593 0 79644447.617782593 81272410.165805817 0 0 0 0 -27399605.892484665 21151787.489273071 0 21151787.489273071 119134059.70697021 0 0 0 0 -1312540.2145656559 1463942.9484823905 0 1463942.9484823905 -279303.33967140317 0 0 0 0 -14660441.953306198 53495985.80443573 0 53495985.80443573 26394233.218357086 0 0 0 0 -12666752.832799911 89074137.191911697 0 89074137.191911697 6470150.0373225212 0 0 0 0 44770545.252595901 47358527.742460251 0 47358527.742460251 31050481.794723511 0 0 0 0 -31000625.047235489 21574672.514198303 0 21574672.514198303 58589792.028266907 0 0 0 0 25246945.801255003 81673134.430314541 0 81673134.430314541 5798684.2581329346 0 0 0 0 -541329.70012957416 3304439.6085631773 0 3304439.6085631773 5885462.1856212392 0 0 0 0 8007039.9455337524 60233414.108140945 0 60233414.108140945 18313013.303756714 0 0 0 0 -6693059.6554883942 20733605.263109222 0 20733605.263109222 -9913990.8526299372 0 0 0 0 2556087.2768096924 83099050.915193558 0 83099050.915193558 29485141.903316379 0 0 0 0 41451723.770248413 50477311.256729126 0 50477311.256729126 44122727.517425537 0 0 0 0 3814962.7603607178 12412072.017150879 0 12412072.017150879 10151881.917785645 0 0 0 0 -2962182.8785778806 10733576.488227144 0 10733576.488227144 20033238.855138868 0 0 0 0 10475039.414984085 9797232.62513116 0 9797232.62513116 3411006.6540306807 0 0 0 0 16507953.103881836 16414623.11114502 0 16414623.11114502 23736393.357498169 0 0 0 0 -1661104.8866153173 23688791.544808574 0 23688791.544808574 -5957875.6971219257 0 0 0 0 7055290.0910670925 25646554.186395463 0 25646554.186395463 14225098.698615223 0 0 0 0 -388431219.08769608 48095429.445404053 0 48095429.445404053 10770065.279556274 0 0 0 0 -10057466.541563127 10742452.871894676 0 10742452.871894676 1987204.2544735521 0 0 0 0 43282019.347148418 300555952.25628281 0 300555952.25628281 -3380592.0243256092 0 0 0 0 297697357.01815701 -127145375.32306671 0 -127145375.32306671 -60828195.71169281 0 0 0 0 -32339717.655977726 -25858074.332019806 0 -25858074.332019806 145515662.24547291 0 0 0 0 -118173040.79346323 56356671.381607056 0 56356671.381607056 132616660.39070129 0 0 0 0 -8422211.0345840454 75315767.251197815 0 75315767.251197815 -31508846.163838387 0 0 0 0 46705406.215249062 -98627233.889449194 0 -98627233.889449194 -24553256.691978455 0 0 0 0 1588709.2824064465 845054.88924689591 0 845054.88924689591 40718.427784979343 0 0 0 0 5827475.9642181396 46842442.989307404 0 46842442.989307404 2134836.1340789795 0 0 0 0 6950453.6019970234 22369209.603482533 0 22369209.603482533 18150742.554510102 0 0 0 0 6570400.1410522461 42677208.378555298 0 42677208.378555298 15710985.344223022 0 0 0 0 -2390219.9814682007 28462180.811668396 0 28462180.811668396 4727094.9045944214 0 0 0 0 5079178.3480415344 39942215.229434967 0 39942215.229434967 22371176.879470825 0 0 0 0 7322831.2014093399 37242135.033409119 0 37242135.033409119 17843550.949418068 0 0 0 0 10405193.574518204 45895961.621368408 0 45895961.621368408 -34287296.606216431 0 0 0 0 12161905.761470795 28741439.721221924 0 28741439.721221924 15761406.421546936 0 0 0 0 2882073.9579424858 54502016.981414795 0 54502016.981414795 27407102.710784912 0 0 0 0 30843593.552758217 63795994.074424744 0 63795994.074424744 12424829.711349487 0 0 0 0 -5441099.912940979 28990816.416103363 0 28990816.416103363 45884175.439590454 0 0 0 0 -12463566.412174225 76921760.735580444 0 76921760.735580444 63166707.681060791 0 0 0 0 -5153492.3239068985 85577914.653152466 0 85577914.653152466 28899451.743320465 0 0 0 0 -53046358.677603722 122052401.53115845 0 122052401.53115845 14607409.813241005 0 0 0 0 7510434.1992111206 29152919.090824127 0 29152919.090824127 -8618153.5211486816 0 0 0 0 638613.03726119362 1870175.8336564153 0 1870175.8336564153 1656968.0872725099 0 0 0 0 6318922.7939324379 9182064.9910888672 0 9182064.9910888672 3932995.2878932953 0 0 0 0 5266100.4817237854 3393832.4069023132 0 3393832.4069023132 -26694004.042105198 0 0 0 0 1389883.6481358493 6704806.264183566 0 6704806.264183566 5776534.6157641858 0 0 0 0 5581072.6725463867 20689565.196418762 0 20689565.196418762 -8963404.0289033651 0 0 0 0 3858038.5240115663 3138944.2241737992 0 3138944.2241737992 379697.36926150322 0 0 0 0 31316329.420891285 -1350871.6982917786 0 -1350871.6982917786 -8279007.8046722412 0 0 0 0 -13846396.903703839 16166318.825344205 0 16166318.825344205 13783078.689102173 0 0 0 0 6235390.1408014148 11711436.845243469 0 11711436.845243469 14034600.016478837 0 0 0 0 -5775724.2813606262 9591467.188117981 0 9591467.188117981 17426736.743095398 0 0 0 0 1200467.6972150803 12625358.606050491 0 12625358.606050491 200253.85015106201 0 0 0 0 2910768.5182032585 6187461.0912456512 0 6187461.0912456512 1872726.0037689209 0 0 0 0 2448540.1987645905 4280542.2397465929 0 4280542.2397465929 2968227.3782295585 0 0 0 0 3433127.3458527057 8794533.2178303115 0 8794533.2178303115 1109683.0475848019 0 0 0 0 3941528.4819278717 28947899.563304901 0 28947899.563304901 24095685.822525024 0 0 0 0 -8739622.5230350494 37125935.371253967 0 37125935.371253967 31186236.919631958 0 0 0 0 9534284.5852128938 15505883.676737182 0 15505883.676737182 17224462.848405659 0 0 0 0 -21320592.300657272 40752231.526252747 0 40752231.526252747 8846730.8297119141 0 0 0 0 -20762116.878067017 28122838.413700104 0 28122838.413700104 25754973.106163025 0 0 0 0 -15077087.263656616 18125425.114997864 0 18125425.114997864 18918835.81362915 0 0 0 0 -13894290.870053947 14393961.395609021 0 14393961.395609021 27413798.990356445 0 0 0 0 -13432304.595821381 5027971.5544891357 0 5027971.5544891357 18792455.421356201 0 0 0 0 -10815554.024230957 -2016283.5161361694 0 -2016283.5161361694 39752990.034572601 0 0 0 0 -16307686.812326431 17580199.848653793 0 17580199.848653793 37483060.743377686 0 0 0 0 2167383.2225952148 -18626733.8307724 0 -18626733.8307724 49633504.312858582 0 0 0 0 -12940231.775463104 16570995.246170044 0 16570995.246170044 33285246.906013489 0 0 0 0 -8646625.8721923828 31524879.573787689 0 31524879.573787689 77335362.605575562 0 0 0 0 -2399240.7660255432 4051231.5908279419 0 4051231.5908279419 4735431.6072921753 0 0 0 0 -1698673.4344863892 -4205779.5441322327 0 -4205779.5441322327 8163566.0778656006 0 0 0 0 -6054970.3516235352 803048.55599975586 0 803048.55599975586 9850899.2803039551 0 0 0 0 -12797393.497177124 5147479.3563728333 0 5147479.3563728333 14721279.252685547 0 0 0 0 -14444506.636314392 8354462.3887786865 0 8354462.3887786865 14750019.129943848 0 0 0 0 -9797003.0616989136 4756184.1117553711 0 4756184.1117553711 14528334.868041992 0 0 0 0 -10776791.705869675 7883100.7951507568 0 7883100.7951507568 7625419.3564453125 0 0 0 0 -6501081.5187807083 2601317.0824069977 0 2601317.0824069977 7198745.0625305176 0 0 0 0 -8963975.632232666 5704417.5912628174 0 5704417.5912628174 3315665.2195739746 0 0 0 0 -6397949.6164855957 3940274.9255142212 0 3940274.9255142212 5446785.9943618774 0 0 0 0 -4733236.013967514 3340086.3275709152 0 3340086.3275709152 4552318.7095794678 0 0 0 0 -5663042.2567272186 205813.08659744263 0 205813.08659744263 -3851561.8819580078 0 0 0 0 -403769246.11875153 760942968.95310974 0 760942968.95310974 -1415219592.7868652 0 0 0 0 -2332338.3084306754 4421449.2975834683 0 4421449.2975834683 1039114.7757577952 0 0 0 0 1199498.9533913191 3786284.7490164563 0 3786284.7490164563 3603538.2649465948 0 0 0 0 -357229294.7448771 213918127.54046345 0 213918127.54046345 225715485.86411285 0 0 0 0 -3603200.326482486 392717.14885365963 0 392717.14885365963 2919401.2228389084 0 0 0 0 1459240.3906421661 5750626.8990631104 0 5750626.8990631104 4031527.4212741852 0 0 0 0 1197834.1904598977 4020354.3762028143 0 4020354.3762028143 1398621.5028730985 0 0 0 0 6097044.9863300323 8677149.5245666504 0 8677149.5245666504 3805229.3605270386 0 0 0 0 10480.995164871216 5124235.1354255676 0 5124235.1354255676 8316925.7508239746 0 0 0 0 965565.72129318863 346000.82184066623 0 346000.82184066623 -1176058.6662237942 0 0 0 0 1374941.9964491688 4627232.0457306802 0 4627232.0457306802 5835195.9196703434 0 0 0 0 2658505.4835643768 4372714.965297699 0 4372714.965297699 985673.37877655029 0 0 0 0 -12013034.310429573 744282.22383499146 0 744282.22383499146 12166192.906005859 0 0 0 0 553306.2112413384 2491546.8294729143 0 2491546.8294729143 394523.46124598943 0 0 0 0 1983310.9846324921 6576509.7528915405 0 6576509.7528915405 4010256.8081140518 0 0 0 0 748878.52926254272 3745488.5415592194 0 3745488.5415592194 -768.94668579101562 0 0 0 0 2751798.4233235847 4527441.8407328799 0 4527441.8407328799 89308.776113982312 0 0 0 0 1524375.279624939 3581782.1513061523 0 3581782.1513061523 -30364.748279571533 0 0 0 0 3110490.8817386627 6275399.3856391907 0 6275399.3856391907 3965483.7728881836 0 0 0 0 -208870.14503133949 3178235.0293798633 0 3178235.0293798633 1817562.0678170919 0 0 0 0 1581083.7688007355 3533078.0879020691 0 3533078.0879020691 2522.0723724365234 0 0 0 0 940235.15873944759 3482356.7494549006 0 3482356.7494549006 -909492.22319086455 0 0 0 0 5603447.9454841614 5213559.2080802917 0 5213559.2080802917 -1175047.8600311279 0 0 0 0 1921702.345539242 4676402.0260767937 0 4676402.0260767937 1973344.5949707031 0 0 0 0 -948073.48708724976 3877478.6353607178 0 3877478.6353607178 162617.5390625 0 0 0 0 1856004.3033466339 3503078.4293060303 0 3503078.4293060303 793052.568359375 0 0 0 0 708122.56328315847 627914.9371817112 0 627914.9371817112 719811.24082219601 0 0 0 0 -83735897.396343231 257492770.21261597 0 257492770.21261597 608810.23088806472 0 0 0 0 1418264.4843263626 5439334.9080276489 0 5439334.9080276489 1191888.7595443726 0 0 0 0 7406522.6537060142 -11546980.274141788 0 -11546980.274141788 18557662.363449097 0 0 0 0 4685239.8408961296 8943316.5188293457 0 8943316.5188293457 3172665.0665817261 0 0 0 0 1054635.7571862275 1638580.2935970277 0 1638580.2935970277 -1164612.6165190265 0 0 0 0 9085475.0098028183 10698224.762771606 0 10698224.762771606 22429.586112976074 0 0 0 0 2353171.1216110764 2673038.9270538464 0 2673038.9270538464 -2740307.4677764475 0 0 0 0 -500134.74945729226 3691102.3976924494 0 3691102.3976924494 -1169358.8976270407 0 0 0 0 4185455.1532583237 5124293.891242981 0 5124293.891242981 -489155.64082336426 0 0 0 0 1142646.9906049222 5175208.058522895 0 5175208.058522895 -4972733.6195005178 0 0 0 0 1952457.8052768707 2438315.8157653809 0 2438315.8157653809 -5468110.2460479736 0 0 0 0 -709125987.81514549 236477628.40139008 0 236477628.40139008 594447773.97901917 0 0 0 0 1634029.3693415811 9599118.9940875694 0 9599118.9940875694 -7224258.2989150994 0 0 0 0 2711205.8644557903 3965840.7230742499 0 3965840.7230742499 -3129845.8131252974 0 0 0 0 -694969.07283210754 2424620.4864501953 0 2424620.4864501953 -4540837.1558837891 0 0 0 0 6209119.1070914268 7277022.1375102997 0 7277022.1375102997 47697.401290893555 0 0 0 0 2241261.4873905182 5189055.7370758057 0 5189055.7370758057 1972952.0040206909 0 0 0 0 2165335.1297262777 5214698.4596261829 0 5214698.4596261829 662791.20398951322 0 0 0 0 5454318.5808615685 4222279.6462612152 0 4222279.6462612152 1477726.0428924561 0 0 0 0 -678995.2484703064 9588497.4143218994 0 9588497.4143218994 -856848.21221923828 0 0 0 0 35073109.973781586 85378562.347175598 0 85378562.347175598 -16756654.552656174 0 0 0 0 105277759.67425251 -142465493.49661255 0 -142465493.49661255 45163908.771316528 0 0 0 0 2628253.5612698011 8273897.5014608353 0 8273897.5014608353 2160654.0757744089 0 0 0 0 4557205.0602317331 1640026.3986155428 0 1640026.3986155428 -3124598.73790434 0 0 0 0 -174210244.43428862 93645580.985679388 0 93645580.985679388 131153304.83935547 0 0 0 0 -37731571.8273983 -257586109.17791748 0 -257586109.17791748 -91078846.655944824 0 0 0 0 221051708.19248295 70160270.063591003 0 70160270.063591003 -396435659.14195251 0 0 0 0 371877406.48378181 -22793472.661712646 0 -22793472.661712646 -414560795.67153931 0 0 0 0 -175398210.54027748 113146869.44071579 0 113146869.44071579 27056935.707336426 0 0 0 0 -182432.43411733489 584107.69840658829 0 584107.69840658829 356189.32852517068 0 0 0 0 -93222385.82140255 144355086.13302994 0 144355086.13302994 -37814996.641624451 0 0 0 0 -303191356.37603235 13124336.211730957 0 13124336.211730957 37124895.870254517 0 0 0 0 -86095593.669310629 26987197.421674728 0 26987197.421674728 6530833.2770080566 0 0 0 0 -20079853.49821806 34367528.848133087 0 34367528.848133087 2577647.7293395996 0 0 0 0 39323923.061254501 -35780444.74956131 0 -35780444.74956131 7267134.4635696411 0 0 0 0 10227420.687218666 -3009285.8418731689 0 -3009285.8418731689 -18334470.413497925 0 0 0 0 41592666.839132786 29787257.728378296 0 29787257.728378296 -31500742.111907959 0 0 0 0 39148760.714591891 2732005.4231953621 0 2732005.4231953621 -42052402.861877441 0 0 0 0 -644210.72156429291 -36955184.559680939 0 -36955184.559680939 -13909511.670166016 0 0 0 0 337335716.94823265 154726958.76592255 0 154726958.76592255 -110934980.32937622 0 0 0 0 74839932.892645597 60134356.872470856 0 60134356.872470856 -66011770.319921494 0 0 0 0 16352569.950279534 -777274.23335821182 0 -777274.23335821182 -8367913.6096068397 0 0 0 0 43384584.196416855 3056921.8449935913 0 3056921.8449935913 19943493.648834229 0 0 0 0 -7026203.5036783516 10162593.223889664 0 10162593.223889664 230963.20308890939 0 0 0 0 252599014.40779114 150241355.72834778 0 150241355.72834778 -1926023.2658691406 0 0 0 0 3158332.6879799697 8804339.5203905329 0 8804339.5203905329 -19454745.782923788 0 0 0 0 14591744.645774126 3098624.1483001709 0 3098624.1483001709 -44949979.943161011 0 0 0 0 30930536.033531189 32823599.666259766 0 32823599.666259766 -14635735.424194336 0 0 0 0 3621083.5989074139 -1205498.4720883965 0 -1205498.4720883965 -5124886.3777768463 0 0 0 0 -55019341.702234298 -69663438.572345734 0 -69663438.572345734 3053516.1544189453 0 0 0 0 3297591.9374707043 11408192.67520719 0 11408192.67520719 -19656768.215320975 0 0 0 0 344425494.02968502 276116845.32741547 0 276116845.32741547 69497976.936986923 0 0 0 0 12665556.444900513 23354261.054515839 0 23354261.054515839 -27098891.15852356 0 0 0 0 2592276.4216041565 15696890.620635986 0 15696890.620635986 -29035625.299758911 0 0 0 0 5264565.8995595574 -11595222.942009449 0 -11595222.942009449 -40663379.249481201 0 0 0 0 3144846.2335619926 2196644.8944892883 0 2196644.8944892883 -11117261.282844543 0 0 0 0 1683893.730599761 -1024758.6231327057 0 -1024758.6231327057 -5054387.153793335 0 0 0 0 16608937.936002433 37813819.19880867 0 37813819.19880867 46964428.840667725 0 0 0 0 1548986.60871315 4687056.6840362549 0 4687056.6840362549 -4899737.6133081913 0 0 0 0 2685171.0542359599 2965181.5262584239 0 2965181.5262584239 -3200480.9412708282 0 0 0 0 3418733.6310911179 2834577.4389343262 0 2834577.4389343262 -11205271.097732544 0 0 0 0 20317820.034402847 23003693.202819824 0 23003693.202819824 19127124.225799561 0 0 0 0 4051514.2710619736 1293045.4557511881 0 1293045.4557511881 -5016348.081337316 0 0 0 0 796123.19307327271 5500397.1490478516 0 5500397.1490478516 -7369993.4588623047 0 0 0 0 3585036.1105213165 3614442.3779907227 0 3614442.3779907227 -6694663.9613761902 0 0 0 0 2536076.3001003265 700678.02420806885 0 700678.02420806885 -4527444.4221105576 0 0 0 0 13379928.473999977 26655602.676895142 0 26655602.676895142 23556761.000183105 0 0 0 0 -210094.11812983174 166492.21043388546 0 166492.21043388546 -109424.86300769448 0 0 0 0 14662854.208465755 22260711.661084175 0 22260711.661084175 21096723.692764282 0 0 0 0 67826667.556366861 45574601.246173859 0 45574601.246173859 12456796.254470825 0 0 0 0 40829185.418923616 27057691.039779663 0 27057691.039779663 31863.038436889648 0 0 0 0 22012433.617879629 21129658.561859131 0 21129658.561859131 21115321.906677246 0 0 0 0 69841887.133556008 60182562.033023834 0 60182562.033023834 32479230.297286987 0 0 0 0 141932566.95363617 67445234.714328766 0 67445234.714328766 8660011.6685562134 0 0 0 0 109426502.65545869 48814640.544139862 0 48814640.544139862 8643.9549713134766 0 0 0 0 91984130.049120426 73290749.198242188 0 73290749.198242188 44571052.251617432 0 0 0 0 118363539.2684412 79694837.20715332 0 79694837.20715332 45712829.83140564 0 0 0 0 48757710.30615449 46929749.215084076 0 46929749.215084076 48455663.802974701 0 0 0 0 40070129.494897366 49880370.096557617 0 49880370.096557617 65260328.579620361 0 0 0 0 59968941.246058941 81322628.351448059 0 81322628.351448059 99008772.55178833 0 0 0 0 2593391.7054135548 2746149.7386663929 0 2746149.7386663929 -3315867.6508640125 0 0 0 0 90333928.654349476 63667755.295948982 0 63667755.295948982 31953715.917495728 0 0 0 0 21457600.890090942 -23006002.716236115 0 -23006002.716236115 -21200559.80557251 0 0 0 0 129895053.80634618 41712958.16475296 0 41712958.16475296 -6660977.7487564087 0 0 0 0 118391880.90582085 50164168.481586456 0 50164168.481586456 -52160.422420236282 0 0 0 0 219185727.86681461 96336113.226676941 0 96336113.226676941 7633741.8747138977 0 0 0 0 118241905.91978264 52004864.123479843 0 52004864.123479843 -3689562.8230133057 0 0 0 0 -39323718.399863243 -64297465.595436096 0 -64297465.595436096 -27482800.379724383 0 0 0 0 186701104.60543656 114539477.96949196 0 114539477.96949196 -31278440.890274048 0 0 0 0 133911049.20221615 22571662.981939316 0 22571662.981939316 29342690.335906982 0 0 0 0 326632403.26625443 114335355.72498322 0 114335355.72498322 -28709042.562843323 0 0 0 0 269872427.59309888 274324900.51619816 0 274324900.51619816 233234013.18130493 0 0 0 0 1632007.0359259313 587113.96064395458 0 587113.96064395458 -1174328.1573522389 0 0 0 0 182759962.26035213 122857300.75873566 0 122857300.75873566 121625140.7877655 0 0 0 0 182701203.97123814 12452252.92209053 0 12452252.92209053 -84090635.328445435 0 0 0 0 246829480.49470091 130904814.63599396 0 130904814.63599396 10586649.919586182 0 0 0 0 203824063.00780487 25257522.798294067 0 25257522.798294067 -37085323.238986969 0 0 0 0 -35698700.257128716 94649100.530075073 0 94649100.530075073 51856439.70535475 0 0 0 0 62205336.731323242 165296625.80205536 0 165296625.80205536 51499717.59367758 0 0 0 0 -1212027.9492795914 391509.13906889409 0 391509.13906889409 1693992.3333150446 0 0 0 0 15702572.099716663 -6943377.7556152344 0 -6943377.7556152344 -66426924.556747437 0 0 0 0 2724140.6294157631 -95012.182976469398 0 -95012.182976469398 -1468004.8971998394 0 0 0 0 -10347888.976666451 -13651587.438323975 0 -13651587.438323975 -52760345.938777924 0 0 0 0 97629379.003226757 119382358.33795929 0 119382358.33795929 126757832.31749725 0 0 0 0 3683952.7197547574 912326.42747563124 0 912326.42747563124 -2782775.1808754876 0 0 0 0 134091286.69552708 103303329.75984955 0 103303329.75984955 72813255.143127441 0 0 0 0 133345537.75570059 97443090.747093201 0 97443090.747093201 90387291.851242065 0 0 0 0 9784061.8882780075 -30693835.304298401 0 -30693835.304298401 -97849048.526443481 0 0 0 0 18764525.323931694 12292267.395645142 0 12292267.395645142 -79163166.603466034 0 0 0 0 4626862.042927742 -74948405.427780151 0 -74948405.427780151 -122069750.24636078 0 0 0 0 19133122.695396423 -13194487.452651978 0 -13194487.452651978 -29154784.246170044 0 0 0 0 5575346.9659194946 14857068.957626343 0 14857068.957626343 -17883374.061752319 0 0 0 0 6026655.4528012276 19762286.573242188 0 19762286.573242188 -9995006.3131065369 0 0 0 0 12511071.315961838 6988440.947013855 0 6988440.947013855 -33645331.067205429 0 0 0 0 -3956125.964427948 3653047.5130996704 0 3653047.5130996704 -32856418.134613037 0 0 0 0 14238733.863344193 9239499.279296875 0 9239499.279296875 -52073703.82098341 0 0 0 0 59343933.580202103 31464192.532394409 0 31464192.532394409 -28407116.697784424 0 0 0 0 16148064.560934067 83389517.153785706 0 83389517.153785706 -7451021.1486816406 0 0 0 0 16456185.168675423 -3461573.8348884583 0 -3461573.8348884583 -39257991.082138062 0 0 0 0 -19829696.234092712 15045224.733802795 0 15045224.733802795 26798810.055084229 0 0 0 0 28433804.04876709 34104472.545555115 0 34104472.545555115 41216586.902069092 0 0 0 0 -17805268.56108284 -53023391.637153625 0 -53023391.637153625 -15831166.740921021 0 0 0 0 2283663.768799983 6119338.1121647209 0 6119338.1121647209 2328233.381954357 0 0 0 0 10626754.095376488 5561552.6348559335 0 5561552.6348559335 -23649109.754630014 0 0 0 0 28234169.488395691 6153217.084854126 0 6153217.084854126 -42430294.938503265 0 0 0 0 86381577.11139679 61402587.217063904 0 61402587.217063904 29907175.086875916 0 0 0 0 -18482141.370770454 10124873.677833557 0 10124873.677833557 36370122.941955566 0 0 0 0 730354.7462536972 3048145.4687393606 0 3048145.4687393606 2157401.7622690797 0 0 0 0 60273929.443990529 5489171.3151574135 0 5489171.3151574135 -31345407.336547852 0 0 0 0 36347759.884647369 69407806.115226746 0 69407806.115226746 29988298.786153793 0 0 0 0 6861234.9449741142 6464406.1024573073 0 6464406.1024573073 -24784914.908812165 0 0 0 0 83418198.089827418 10800404.158023834 0 10800404.158023834 -53167650.9894104 0 0 0 0 -44554361.101668358 7787423.2388839722 0 7787423.2388839722 -17598296.661941528 0 0 0 0 43378541.93629837 36800668.96131897 0 36800668.96131897 -54456816.179184914 0 0 0 0 77223684.678172112 -46339.342613220215 0 -46339.342613220215 -42404104.440368652 0 0 0 0 160618530.88013291 49298958.781064987 0 49298958.781064987 -45115674.624801636 0 0 0 0 123659150.11804199 30958427.969116211 0 30958427.969116211 -43866611.567490578 0 0 0 0 140900867.1509037 -2509250.6974487305 0 -2509250.6974487305 -49293853.006820679 0 0 0 0 152236039.5180912 40516982.042060852 0 40516982.042060852 -52260416.917114258 0 0 0 0 136013332.61392403 20289873.838478088 0 20289873.838478088 -54721757.163619995 0 0 0 0 82166009.903883696 14201399.457670212 0 14201399.457670212 -41703111.63168335 0 0 0 0 95223463.094085693 109206832.7928772 0 109206832.7928772 -27268203.182653427 0 0 0 0 219059613.43506324 134526399.61223507 0 134526399.61223507 -29071655.577667236 0 0 0 0 136905860.04844666 97520921.51725769 0 97520921.51725769 -41041506.558792114 0 0 0 0 45925915.318936586 111019198.371171 0 111019198.371171 9495906.6079559326 0 0 0 0 50837637.892351151 91262976.282699585 0 91262976.282699585 -12648197.230148315 0 0 0 0 39143672.151039124 63168718.682327271 0 63168718.682327271 -9226886.7713165283 0 0 0 0 88397967.850070953 79826102.401489258 0 79826102.401489258 -27768637.553665161 0 0 0 0 77171072.129400253 74392334.065071106 0 74392334.065071106 -26185594.568099976 0 0 0 0 103769469.92477894 22936748.714309692 0 22936748.714309692 -41648634.341384888 0 0 0 0 102156276.22718525 44787132.591621399 0 44787132.591621399 -41360228.617973328 0 0 0 0 77261636.816867828 46313171.114013672 0 46313171.114013672 -21640359.423629761 0 0 0 0 87279982.961027145 46669776.185453415 0 46669776.185453415 -23288030.351577759 0 0 0 0 86445659.702852249 36868454.202442169 0 36868454.202442169 -16960063.590332031 0 0 0 0 101763821.18148994 67575942.223693848 0 67575942.223693848 17543031.551895142 0 0 0 0 64115211.346395493 31120850.46339035 0 31120850.46339035 -14719210.229278564 0 0 0 0 1734341.8118661828 -404047.24675878137 0 -404047.24675878137 -4356502.9257522523 0 0 0 0 6778329.1964931544 7877618.1584196351 0 7877618.1584196351 -28829320.267415702 0 0 0 0 68559110.33673954 186401810.05360794 0 186401810.05360794 -132156159.49475098 0 0 0 0 83698314.577776909 26101690.185791016 0 26101690.185791016 -28701456.530807495 0 0 0 0 67088211.698230743 43784204.910820007 0 43784204.910820007 -6442517.9186172485 0 0 0 0 59129639.281791687 54313996.805702209 0 54313996.805702209 -12876966.063522339 0 0 0 0 71642553.191952705 51299043.947692871 0 51299043.947692871 -15167880.459327698 0 0 0 0 60537611.166152954 56940816.40112114 0 56940816.40112114 -10659403.238601685 0 0 0 0 34203009.483722687 60831739.893203735 0 60831739.893203735 -9136080.9817371368 0 0 0 0 26689076.500497818 55175750.613616943 0 55175750.613616943 -3404262.1600494385 0 0 0 0 32763737.925771713 36636661.295314789 0 36636661.295314789 -22792576.806503296 0 0 0 0 19541981.405574799 51178333.35383606 0 51178333.35383606 -3623935.4882931709 0 0 0 0 122703195.16879535 -21009121.876730919 0 -21009121.876730919 -29307701.848175049 0 0 0 0 7313156.1821250785 11527700.699943859 0 11527700.699943859 -30390975.509469002 0 0 0 0 39659045.756518364 46302169.523468018 0 46302169.523468018 -14957318.281219482 0 0 0 0 566321.18737411499 -91586515.58045578 0 -91586515.58045578 19198843.511947632 0 0 0 0 119048309.84683228 -52091516.397285461 0 -52091516.397285461 -71866342.573944092 0 0 0 0 58242127.367043495 42646014.781253815 0 42646014.781253815 -14313175.549133301 0 0 0 0 91067202.653478622 -24594793.405380249 0 -24594793.405380249 2702504.6236534119 0 0 0 0 53762862.449933052 -54223494.614929199 0 -54223494.614929199 -41138267.264343262 0 0 0 0 57811467.546367645 -42003833.041564941 0 -42003833.041564941 -5971012.5085601807 0 0 0 0 -29499838.569459915 5922803.6171569824 0 5922803.6171569824 -52543776.538085938 0 0 0 0 -559085.60077285767 40223043.989906311 0 40223043.989906311 -137967615.18406773 0 0 0 0 65852092.669361115 -48875724.026504517 0 -48875724.026504517 -27360743.465682983 0 0 0 0 -54828431.523468018 36886020.360336304 0 36886020.360336304 -29886248.002334595 0 0 0 0 -127219882.38354111 97911484.237930298 0 97911484.237930298 -79162057.337554932 0 0 0 0 -118679863.10045433 -4413414.9700164795 0 -4413414.9700164795 1238946.5588874817 0 0 0 0 -49138826.527246475 107241315.51557922 0 107241315.51557922 -158646280.53608704 0 0 0 0 -45782433.451171875 97477962.028549194 0 97477962.028549194 -99290785.12386322 0 0 0 0 -40654612.818874359 80507894.796356201 0 80507894.796356201 -109133344.45005798 0 0 0 0 264099.14395523071 107748363.05693054 0 107748363.05693054 -141141042.36811066 0 0 0 0 81332030.23459816 193287015.85244751 0 193287015.85244751 -45946737.318832397 0 0 0 0 -12411772.03531456 127255962.29512787 0 127255962.29512787 251808677.65412903 0 0 0 0 91031604.353183746 -77446024.024688721 0 -77446024.024688721 94214041.530006409 0 0 0 0 -7194958.1677248478 166389907.01301765 0 166389907.01301765 -17822531.410797119 0 0 0 0 11592577.803226471 134568788.2611084 0 134568788.2611084 -124347349.71970367 0 0 0 0 -8409729.4558792114 3038852.8239135742 0 3038852.8239135742 73959354.931037903 0 0 0 0 -39563172.03516674 90718644.756362915 0 90718644.756362915 -29451107.059112549 0 0 0 0 -35788603.290290833 -5748640.8216552734 0 -5748640.8216552734 -16848823.090957642 0 0 0 0 -14778957.122344971 46481114.814567566 0 46481114.814567566 -79764794.731918335 0 0 0 0 32384312.415000916 -40972083.506774902 0 -40972083.506774902 -8020569.6656284332 0 0 0 0 23718189.782171249 -18660169.123790741 0 -18660169.123790741 -57133846.522125244 0 0 0 0 191527665.11237144 -44398068.55178833 0 -44398068.55178833 -33940027.303482056 0 0 0 0 73865663.942295074 1068363.1154174805 0 1068363.1154174805 -20422186.584716797 0 0 0 0 55195403.533716202 -16477183.059774399 0 -16477183.059774399 -36401225.468307495 0 0 0 0 102452391.19606781 33720962.182266235 0 33720962.182266235 -31656250.624511719 0 0 0 0 -79601885.563688278 -20379134.314804077 0 -20379134.314804077 -4386042.5031890869 0 0 0 0 523263.90105004609 1034366.3673115224 0 1034366.3673115224 -383238.93262451887 0 0 0 0 25278347.183135986 -98058.778553009033 0 -98058.778553009033 48556578.430633545 0 0 0 0 -71985555.129085541 -71091810.051116943 0 -71091810.051116943 -81959185.655441284 0 0 0 0 -31070400.804706573 4410286.7413253784 0 4410286.7413253784 -174074253.3067894 0 0 0 0 3111728.3669929504 34836625.997814178 0 34836625.997814178 9970612.6600952148 0 0 0 0 -21596415.777088165 -46977740.015703201 0 -46977740.015703201 32406122.618370056 0 0 0 0 -1262642.1204919741 1212226.8319680765 0 1212226.8319680765 812382.80753927305 0 0 0 0 8718422.4594955444 49764025.697242737 0 49764025.697242737 -35861494.358127594 0 0 0 0 -38576644.989196777 -18061314.405340195 0 -18061314.405340195 -11262915.771934509 0 0 0 0 -935126.48610831797 2850750.3396548908 0 2850750.3396548908 2613472.1233919561 0 0 0 0 -82320443.460346222 29745958.29813385 0 29745958.29813385 44406883.145118713 0 0 0 0 -12339742.151047707 60101047.941112518 0 60101047.941112518 9765982.6885032654 0 0 0 0 -15532886.212331057 8911089.2661875188 0 8911089.2661875188 14252862.052733883 0 0 0 0 9589860.7169335149 25006286.840842225 0 25006286.840842225 30879119.863472044 0 0 0 0 10936598.652667046 47071222.852392197 0 47071222.852392197 10883910.284667969 0 0 0 0 -8309454.000123024 54212597.108028412 0 54212597.108028412 9515869.9349975586 0 0 0 0 -11391379.416534424 68122781.729675293 0 68122781.729675293 5327234.1117324829 0 0 0 0 17828438.061580658 65477726.935157776 0 65477726.935157776 4192130.2408752441 0 0 0 0 -9672728.4463005066 56184975.479904175 0 56184975.479904175 6735415.6359329224 0 0 0 0 -64441241.86235714 64241338.038368225 0 64241338.038368225 20556848.115760803 0 0 0 0 -11020656.172086716 79260851.044792175 0 79260851.044792175 4324470.4703178406 0 0 0 0 33670009.742648602 84679846.966632843 0 84679846.966632843 -4760660.5185089111 0 0 0 0 -44831332.712480545 56857800.521896362 0 56857800.521896362 7252473.425365448 0 0 0 0 -16635693.318655014 92398788.169986725 0 92398788.169986725 -1343750.5321655273 0 0 0 0 -6663487.850440979 82070848.253261566 0 82070848.253261566 11983117.520782471 0 0 0 0 -105825868.58774567 60970167.662612915 0 60970167.662612915 12796953.724964142 0 0 0 0 -242915684.49873161 64597985.764404297 0 64597985.764404297 151755230.59546661 0 0 0 0 10404838.86627749 20240764.261215463 0 20240764.261215463 29763805.474672079 0 0 0 0 -69002786.331761837 74812523.57866478 0 74812523.57866478 8630219.6867980957 0 0 0 0 48528130.887038231 -155189142.50040007 0 -155189142.50040007 240193536.70510864 0 0 0 0 441639.45425333083 790245.41648810729 0 790245.41648810729 757782.62743879855 0 0 0 0 -3131218.8163375854 132464940.74030685 0 132464940.74030685 341982036.9029007 0 0 0 0 -28680286.551177979 10603735.291061401 0 10603735.291061401 -3208479.5906982422 0 0 0 0 52889902.663948059 191727403.68172455 0 191727403.68172455 -30137110.386585236 0 0 0 0 71055864.271788597 73904238.670360088 0 73904238.670360088 -75764257.25402832 0 0 0 0 5557508.9958190918 18833053.338920593 0 18833053.338920593 -52175012.11289978 0 0 0 0 -127936394.36553192 156435076.7034874 0 156435076.7034874 -36288.524543762207 0 0 0 0 -3801536.4343803935 3010985.5925368145 0 3010985.5925368145 4421736.4682815149 0 0 0 0 -124494533.45956421 95110327.094116211 0 95110327.094116211 -20021832.429016113 0 0 0 0 -143200860.72105408 66762562.5521698 0 66762562.5521698 13891378.486999512 0 0 0 0 11606905.351320829 19017400.646542601 0 19017400.646542601 24333199.240070477 0 0 0 0 -88486328.89673233 90269637.090417862 0 90269637.090417862 -58201837.453582764 0 0 0 0 -82760629.458024979 73884867.378107071 0 73884867.378107071 -32434652.905975342 0 0 0 0 -95681553.111045837 86442133.918457031 0 86442133.918457031 -48071178.887786865 0 0 0 0 -176514342.46498871 130935132.18670654 0 130935132.18670654 -55880007.451343536 0 0 0 0 -71587279.533128738 88477049.330093384 0 88477049.330093384 -130108616.6673584 0 0 0 0 -77944524.78609848 83503639.397090912 0 83503639.397090912 -78016368.304168701 0 0 0 0 -116780625.84335327 86909213.426559448 0 86909213.426559448 -89549551.210708618 0 0 0 0 -41538781.844416618 52531303.129465103 0 52531303.129465103 -79899039.653930664 0 0 0 0 -67314095.05537796 69970723.518981934 0 69970723.518981934 -68485683.456726074 0 0 0 0 -64473724.960548401 72254880.797119141 0 72254880.797119141 -72444875.716964722 0 0 0 0 -46100510.861186981 70679359.119194031 0 70679359.119194031 -98907516.081268311 0 0 0 0 -74755801.49230957 70156261.712509155 0 70156261.712509155 -73624428.213882446 0 0 0 0 -56262558.145965576 87524764.113090515 0 87524764.113090515 -96878261.207824707 0 0 0 0 23563210.648963697 16866919.966759652 0 16866919.966759652 9788484.126987204 0 0 0 0 -57342814.74514389 101664027.08477402 0 101664027.08477402 -102053422.73881531 0 0 0 0 -69304215.871143341 80544884.33380127 0 80544884.33380127 -81853538.143035889 0 0 0 0 -56989817.114486694 110598140.77574158 0 110598140.77574158 -88638042.180847168 0 0 0 0 5972855.5933322906 79213117.423233032 0 79213117.423233032 -151713189.1736908 0 0 0 0 -34517082.827311516 119934377.97526741 0 119934377.97526741 -118265564.24660492 0 0 0 0 -189869802.79502201 233016383.30882835 0 233016383.30882835 -189909375.98724365 0 0 0 0 -214758516.93537903 242573318.36965942 0 242573318.36965942 -186310864.11200333 0 0 0 0 4115016.4371584579 2869101.5029060207 0 2869101.5029060207 -2786884.7335066348 0 0 0 0 -64382424.676755905 128235938.06194305 0 128235938.06194305 -193627944.68981934 0 0 0 0 -49905843.695380211 31731917.327877045 0 31731917.327877045 -13167914.777324677 0 0 0 0 -33816108.769153595 93163388.102607727 0 93163388.102607727 31050406.285522461 0 0 0 0 -59078196.336862564 68866208.218414307 0 68866208.218414307 -32406355.281509399 0 0 0 0 -57046851.303476334 76455440.633453369 0 76455440.633453369 -23636468.356674194 0 0 0 0 -44549742.568414688 40483869.911590576 0 40483869.911590576 -25103947.746795416 0 0 0 0 -53908912.003616333 56143411.883880615 0 56143411.883880615 -54496218.500411987 0 0 0 0 -51278986.605219841 57157906.729133606 0 57157906.729133606 -66243558.340087891 0 0 0 0 -50671141.705347061 50065338.725002289 0 50065338.725002289 -59298941.22807312 0 0 0 0 -33159607.411260605 44922730.541118622 0 44922730.541118622 -67035588.13415122 0 0 0 0 -32173521.607650757 34727413.303524017 0 34727413.303524017 -66413603.2290802 0 0 0 0 -48509738.451537907 82968313.548548937 0 82968313.548548937 -24275486.73638916 0 0 0 0 -1661171.8018162511 623791.15791079402 0 623791.15791079402 2408611.4913859218 0 0 0 0 -32983451.315345764 47686902.927818298 0 47686902.927818298 -64814742.87134552 0 0 0 0 -52579797.383628845 12279600.314014435 0 12279600.314014435 -13637065.567779064 0 0 0 0 -1481752.9012381062 278299.67007020116 0 278299.67007020116 1745590.7013880163 0 0 0 0 -38451521.250243187 43004427.022638321 0 43004427.022638321 6615887.317276001 0 0 0 0 -2861163.8687512875 40412185.842020035 0 40412185.842020035 25962.737335205078 0 0 0 0 -40426902.732709885 105691265.27591324 0 105691265.27591324 -29107232.90814209 0 0 0 0 -19025820.580532074 89132666.494514465 0 89132666.494514465 -51625487.215503693 0 0 0 0 -43992992.839330673 92310067.102556229 0 92310067.102556229 -40311677.967727661 0 0 0 0 -50530267.330163956 80338744.712142944 0 80338744.712142944 -53863889.195983887 0 0 0 0 -42302541.200645447 91856788.826431274 0 91856788.826431274 -77639963.508071899 0 0 0 0 -36917856.52435112 93321260.360649109 0 93321260.360649109 -84484367.184844971 0 0 0 0 -18678913.101463318 73530736.79082489 0 73530736.79082489 -64860544.853271484 0 0 0 0 -34748628.25771904 31707522.72681427 0 31707522.72681427 -37699698.498245239 0 0 0 0 -46958013.985702515 57410098.373397827 0 57410098.373397827 -72686215.51256752 0 0 0 0 -33822213.356462479 65227299.83618927 0 65227299.83618927 -38514670.441703796 0 0 0 0 30761501.672979832 92222339.727005959 0 92222339.727005959 -29460908.702377319 0 0 0 0 16989609.954065323 24797936.520744324 0 24797936.520744324 -40623843.431463242 0 0 0 0 54041289.136642456 51446714.924102783 0 51446714.924102783 52606.177696228027 0 0 0 0 -30755559.372135162 95625554.122009277 0 95625554.122009277 18610386.178970337 0 0 0 0 -32112443.826369286 85546094.256299973 0 85546094.256299973 -20518094.924629211 0 0 0 0 -47537296.206775665 85969847.332050323 0 85969847.332050323 8077.3423080444336 0 0 0 0 -25781825.592063904 87376278.603088379 0 87376278.603088379 -96115353.125213623 0 0 0 0 -22668879.430078506 74986506.259140015 0 74986506.259140015 -46825845.610656738 0 0 0 0 18432543.478040367 13422890.050696105 0 13422890.050696105 7798462.5300356522 0 0 0 0 -43389445.682050705 68842230.496067047 0 68842230.496067047 -40214274.873104095 0 0 0 0 -41252534.465204239 56636090.702983856 0 56636090.702983856 -93805.221072117944 0 0 0 0 3276978.8075069301 136401.39718024246 0 136401.39718024246 -730404.01238076389 0 0 0 0 101868536.72533321 -37175929.267446041 0 -37175929.267446041 -103513786.26937103 0 0 0 0 7910645.0255414695 3623277.7337229624 0 3623277.7337229624 -579980.21054638922 0 0 0 0 7357495.6197357178 82039198.749382019 0 82039198.749382019 191160.38829040527 0 0 0 0 25966687.609138489 32834803.326042175 0 32834803.326042175 -60311067.3021698 0 0 0 0 70322450.276603699 126209876.15615845 0 126209876.15615845 -89754785.046356201 0 0 0 0 2084381.7572308667 1510571.3492878117 0 1510571.3492878117 391579.44281280041 0 0 0 0 3550022.0782852173 -10491769.576080322 0 -10491769.576080322 -141338716.06939316 0 0 0 0 175939861.05054951 66.444297790527344 0 66.444297790527344 -44002705.150741577 0 0 0 0 3293558.1863945592 3924589.4733620659 0 3924589.4733620659 -8735352.6295975298 0 0 0 0 32952409.445539474 -11721001.021639824 0 -11721001.021639824 24550377.597602844 0 0 0 0 12120827.105372638 9939427.0472309664 0 9939427.0472309664 4131250.2660036907 0 0 0 0 14467977.026203156 11740118.917045593 0 11740118.917045593 -7201107.1482391357 0 0 0 0 24411163.244125366 19941642.873117447 0 19941642.873117447 -16474402.138153076 0 0 0 0 27266281.948858261 236018.71119308472 0 236018.71119308472 -16784888.303230286 0 0 0 0 1265321.2055595536 3583536.1162860245 0 3583536.1162860245 -9918638.9791281968 0 0 0 0 22521253.050617218 -3222564.4662475586 0 -3222564.4662475586 -13191333.238016129 0 0 0 0 16785860.805416107 2590265.6214866638 0 2590265.6214866638 -16443847.483299255 0 0 0 0 -31872575.613254547 23511899.516136169 0 23511899.516136169 -46765862.984076023 0 0 0 0 16148771.852267265 -2221560.6409893036 0 -2221560.6409893036 -44777966.328674316 0 0 0 0 299634.87932998314 -192440.77523494512 0 -192440.77523494512 -522702.40446139872 0 0 0 0 136630078.60160065 75899338.059810638 0 75899338.059810638 -90089488.641387939 0 0 0 0 -37929547.106158257 128004859.59449446 0 128004859.59449446 -92838342.151535034 0 0 0 0 185523620.90259933 -77908982.474369049 0 -77908982.474369049 -34226828.827533722 0 0 0 0 56011048.954555511 84656050.510185242 0 84656050.510185242 -93901584.580539703 0 0 0 0 -25448030.991424561 11198228.089759827 0 11198228.089759827 40928421.103439331 0 0 0 0 5528124.1935462952 29300120.422935486 0 29300120.422935486 -33279986.400596619 0 0 0 0 74307962.073028564 6758827.8803596497 0 6758827.8803596497 -67725159.360023499 0 0 0 0 7118302.7404114902 1383099.1387474053 0 1383099.1387474053 -6181561.3378881514 0 0 0 0 192965177.71294403 -218587499.00437164 0 -218587499.00437164 161643329.23471832 0 0 0 0 165785328.97311401 77468854.132041931 0 77468854.132041931 -196664702.19159698 0 0 0 0 -199414030.07115078 117582970.35604668 0 117582970.35604668 -46463540.474197388 0 0 0 0 -3484578.4436234087 1693124.516218856 0 1693124.516218856 -125501.16859104019 0 0 0 0 -341410095.48999786 393144424.43622971 0 393144424.43622971 -383423853.98091888 0 0 0 0 -247963698.35018921 2843310.2542419434 0 2843310.2542419434 423903594.97826385 0 0 0 0 -606314885.71256256 506668184.12352753 0 506668184.12352753 1223111.0158538818 0 0 0 0 -274649683.92289162 704270030.4354229 0 704270030.4354229 -259857730.66351318 0 0 0 0 -621948416.96566772 316979364.4253006 0 316979364.4253006 160475071.68695068 0 0 0 0 -189119450.18165207 164106869.56655598 0 164106869.56655598 74312813.654632568 0 0 0 0 -210890803.5114975 328154888.23986816 0 328154888.23986816 -68627895.114639282 0 0 0 0 -192356227.3634491 228800019.29833984 0 228800019.29833984 -189431553.71800232 0 0 0 0 364186794.87300777 -126511162.48872948 0 -126511162.48872948 -11562245.426452637 0 0 0 0 612921856.66486359 333915235.42421722 0 333915235.42421722 -236366603.11714935 0 0 0 0 947459218.84125519 470350389.12084198 0 470350389.12084198 -464102447.65292358 0 0 0 0 1126085225.1283927 -649898463.93355417 0 -649898463.93355417 192912511.1186676 0 0 0 0 2498299.8141725734 1266584.7814918384 0 1266584.7814918384 690861.67807370424 0 0 0 0 -16632331.047691345 31797868.665008545 0 31797868.665008545 -148469.5560565792 0 0 0 0 -14281464.889259338 29462931.413864136 0 29462931.413864136 -57894804.35635376 0 0 0 0 271225445.37024689 -93908899.384235382 0 -93908899.384235382 37565743.137065887 0 0 0 0 281194978.89070892 -25470735.061717987 0 -25470735.061717987 -134451791.99172974 0 0 0 0 253832550.96165466 70314611.624099731 0 70314611.624099731 -124425296.37564898 0 0 0 0 239538254.99789429 51649164.780984879 0 51649164.780984879 -46769906.91519165 0 0 0 0 82365164.370353699 91306185.82611084 0 91306185.82611084 81065995.390960693 0 0 0 0 112781009.56827545 138471543.92493439 0 138471543.92493439 -26142219.859612465 0 0 0 0 1982826.0783906877 510549.89041324705 0 510549.89041324705 -788608.87178376317 0 0 0 0 -153818194.32912445 302550130.36130524 0 302550130.36130524 1033294067.6072922 0 0 0 0 90338262.288803101 229949823.20233154 0 229949823.20233154 105885571.83019638 0 0 0 0 249743728.78891277 251477784.28091526 0 251477784.28091526 -806481815.17721558 0 0 0 0 257605177.72518158 392075291.53845978 0 392075291.53845978 -189493787.82383728 0 0 0 0 292222721.76475525 77234329.245788574 0 77234329.245788574 -343394551.07759094 0 0 0 0 137559874.29115295 211099638.81378555 0 211099638.81378555 -229728238.57380676 0 0 0 0 -34055574.259536743 188264670.60694122 0 188264670.60694122 -229694211.72452927 0 0 0 0 -370163414.18638849 414052009.35944223 0 414052009.35944223 -372009274.40673828 0 0 0 0 -287245663.10887146 -43373313.439758301 0 -43373313.439758301 -371421254.2383194 0 0 0 0 -28165764.889770508 778419025.50769043 0 778419025.50769043 -90329619.3853302 0 0 0 0 19928736.8254776 302435475.45137024 0 302435475.45137024 386799247.85366917 0 0 0 0 -2641012.7381788976 2041991.572730124 0 2041991.572730124 -1177647.8050573915 0 0 0 0 -219464568.68518829 97661451.574655056 0 97661451.574655056 416411805.36873627 0 0 0 0 -48001066.195034027 -11918287.99224472 0 -11918287.99224472 6911038.7090301514 0 0 0 0 74068825.251808167 5202160.6494140625 0 5202160.6494140625 -184842422.0443573 0 0 0 0 65434753.729049683 80441030.449726105 0 80441030.449726105 -519226968.9487381 0 0 0 0 50186393.716590881 82632944.500946045 0 82632944.500946045 -322326211.19511414 0 0 0 0 7504314.2722358704 228601739.8947525 0 228601739.8947525 -345733740.94030762 0 0 0 0 -61878601.744802475 238158067.42518806 0 238158067.42518806 -263501196.20561218 0 0 0 0 110541740.00146484 218536442.42887974 0 218536442.42887974 193030161.43843079 0 0 0 0 116191258.41409683 162297430.88262558 0 162297430.88262558 19632004.246810913 0 0 0 0 176332529.56308556 348237585.67326689 0 348237585.67326689 270416602.27198792 0 0 0 0 154533395.28860283 239827487.72477913 0 239827487.72477913 181578640.24452209 0 0 0 0 144796399.64500046 304068684.56150436 0 304068684.56150436 24831448.988174438 0 0 0 0 1091966.6590423584 381822819.57423401 0 381822819.57423401 211854274.855896 0 0 0 0 -30498042.249641418 127701911.48364258 0 127701911.48364258 102473735.58746147 0 0 0 0 -60920202.003742218 196495802.47441101 0 196495802.47441101 -8623280.6291122437 0 0 0 0 -195483956.78648376 106946627.1022644 0 106946627.1022644 7667858.4034042358 0 0 0 0 -7515244.6998519897 312920728.71377468 0 312920728.71377468 -325044946.43512726 0 0 0 0 -155038596.93886948 154179042.18141174 0 154179042.18141174 20399383.66506958 0 0 0 0 -166172920.97639465 120738685.74106598 0 120738685.74106598 -76089754.762634277 0 0 0 0 4730579.42580764 2778008.4109763131 0 2778008.4109763131 -3448571.3587608412 0 0 0 0 531373.72310249507 4028895.7029081434 0 4028895.7029081434 -4944098.0614542067 0 0 0 0 -197371526.86331177 77646466.143611908 0 77646466.143611908 -18690072.113536835 0 0 0 0 -191336600.74390793 98232768.685239792 0 98232768.685239792 25974895.840103149 0 0 0 0 -592331984.51777649 48278512.469837189 0 48278512.469837189 46716912.35355854 0 0 0 0 -452124.09514839202 1601426.0880444869 0 1601426.0880444869 -1488525.1125315428 0 0 0 0 -6661079.8482627869 -11889922.033993721 0 -11889922.033993721 -22868001.491622925 0 0 0 0 -36380448.270551682 -174947916.65352249 0 -174947916.65352249 180210077.28358841 0 0 0 0 24388879.65221405 -80109730.975105286 0 -80109730.975105286 -183072114.86129093 0 0 0 0 -125220586.61919212 56184954.821517944 0 56184954.821517944 18432393.345367432 0 0 0 0 -245823232.0268631 270451816.53079987 0 270451816.53079987 -105437557.33139801 0 0 0 0 -776639.29888010025 40233280.643277168 0 40233280.643277168 107270905.30489349 0 0 0 0 -7732668.0665397644 80601325.115974426 0 80601325.115974426 -78307807.718803406 0 0 0 0 56244614.784980774 99658818.390066147 0 99658818.390066147 -47209515.45450592 0 0 0 0 -152024557.9447937 49116000.013183594 0 49116000.013183594 157807032.08503723 0 0 0 0 47444765.955394745 94922369.235218048 0 94922369.235218048 167535514.37939835 0 0 0 0 47253553.038345337 108041278.49019814 0 108041278.49019814 129808754.38366699 0 0 0 0 94286703.674695015 -41416650.839393616 0 -41416650.839393616 30336235.156517029 0 0 0 0 1370830.5368973836 201476.71779387072 0 201476.71779387072 -317209.55601345003 0 0 0 0 30409466.252426147 104683762.60257339 0 104683762.60257339 215653581.90195847 0 0 0 0 51505380.499320984 120030217.25584412 0 120030217.25584412 346375111.92862701 0 0 0 0 177959998.25601578 134185201.23143005 0 134185201.23143005 233080249.18351746 0 0 0 0 182236490.8807869 -74911353.444200993 0 -74911353.444200993 -12118719.605499268 0 0 0 0 226816934.10037613 214927465.92621231 0 214927465.92621231 38259729.055007935 0 0 0 0 89563552.949569702 81050261.066238403 0 81050261.066238403 -145419744.41431046 0 0 0 0 89100959.974182129 -42270595.921859741 0 -42270595.921859741 -56317324.284287453 0 0 0 0 16250761.710132599 -27506976.514278412 0 -27506976.514278412 30897562.051967621 0 0 0 0 13331883.133411407 -15385761.927207947 0 -15385761.927207947 -18856251.753815174 0 0 0 0 3237824.9972008318 1631455.4175361916 0 1631455.4175361916 -2922232.6626900285 0 0 0 0 16692696.848434448 -7186890.6426372528 0 -7186890.6426372528 1021020.4566688538 0 0 0 0 31124955.386032104 11442107.697887421 0 11442107.697887421 -11084666.831230164 0 0 0 0 4084367.340054512 7329774.4086833 0 7329774.4086833 -5236450.0850601196 0 0 0 0 109020647.53012085 130256191.75356674 0 130256191.75356674 -4370702.3761730194 0 0 0 0 -5359866.1499137878 25452162.239264488 0 25452162.239264488 49179409.446578979 0 0 0 0 79193151.194862366 188338792.68963623 0 188338792.68963623 85157552.08133316 0 0 0 0 81915363.240432739 153833737.36754799 0 153833737.36754799 -127789702.93798447 0 0 0 0 85087587.770542145 45721439.421283722 0 45721439.421283722 -62748152.030761719 0 0 0 0 48658703.160232544 103622791.26575089 0 103622791.26575089 75308254.965148926 0 0 0 0 101306190.6699276 142109130.04476547 0 142109130.04476547 28009958.074874878 0 0 0 0 152768840.31271362 204093186.11119843 0 204093186.11119843 81142519.662940979 0 0 0 0 49360462.24797821 111734592.57863617 0 111734592.57863617 36121239.00063324 0 0 0 0 53078781.042182922 127772618.31611633 0 127772618.31611633 54754934.48677063 0 0 0 0 8507281.5689582825 -49591493.471450806 0 -49591493.471450806 4641369.6042966843 0 0 0 0 222847228.36309242 70134228.413658142 0 70134228.413658142 22097891.720977783 0 0 0 0 -48005027.076915741 15592758.312469482 0 15592758.312469482 81155323.498058319 0 0 0 0 -12284923.034615643 5905959.178141281 0 5905959.178141281 -476025.2173615545 0 0 0 0 -177709449.014534 190772576.21694183 0 190772576.21694183 -327288611.92037964 0 0 0 0 -288383.64939729124 1150700.9575309232 0 1150700.9575309232 -1946449.9400391653 0 0 0 0 19721871.501502991 -62254702.077613831 0 -62254702.077613831 -469227235.79113388 0 0 0 0 -30093319.282035828 273541389.89047241 0 273541389.89047241 45587362.703865051 0 0 0 0 60313950.920536041 39800090.404979706 0 39800090.404979706 -516510530.26397324 0 0 0 0 4650675.2874011993 34348505.087636948 0 34348505.087636948 -341578044.73090744 0 0 0 0 33992773.861505508 140819799.43243408 0 140819799.43243408 247605007.21967316 0 0 0 0 -9261192.8696298599 5117500.1664365157 0 5117500.1664365157 -581686.45817294391 0 0 0 0 -92725439.883546829 -10977724.991632462 0 -10977724.991632462 -240166063.20823669 0 0 0 0 66983767.812110901 42183120.104225159 0 42183120.104225159 -509484267.0864675 0 0 0 0 -15740319.670115948 90541329.446532249 0 90541329.446532249 -39609334.212112427 0 0 0 0 44466667.452789307 85237087.216213226 0 85237087.216213226 -220672376.04407263 0 0 0 0 -1107079.4322801381 2199500.9465809204 0 2199500.9465809204 22935.28010578081 0 0 0 0 -44743200.111994267 -24341970.111854792 0 -24341970.111854792 42863307.65271759 0 0 0 0 -61333452.863517761 4004605.1597557068 0 4004605.1597557068 -1379563.9085235596 0 0 0 0 -165820792.69772339 -47151729.584815979 0 -47151729.584815979 3983162.3623199463 0 0 0 0 -242064.50479099154 519590.59540659562 0 519590.59540659562 -255546.21193761379 0 0 0 0 164817972.92735672 108335257.25880051 0 108335257.25880051 22060790.881828308 0 0 0 0 157309485.99010849 160482645.03897476 0 160482645.03897476 101604628.25370789 0 0 0 0 200034826.69861603 134206002.40896988 0 134206002.40896988 80717499.272907257 0 0 0 0 -879043.13874869421 3130967.2989233136 0 3130967.2989233136 -3897210.9536760673 0 0 0 0 82230228.928152084 43461799.537538528 0 43461799.537538528 91105424.785415649 0 0 0 0 5771257.4611778259 122957857.64425468 0 122957857.64425468 66623194.833114624 0 0 0 0 -27642081.900600433 111066601.22380066 0 111066601.22380066 144180366.32756042 0 0 0 0 32020249.915687561 -136242908.40032959 0 -136242908.40032959 -221252614.13812637 0 0 0 0 -246554023.86263132 -33131760.460080624 0 -33131760.460080624 -222647688.78572845 0 0 0 0 46319166.800395966 164229802.44185448 0 164229802.44185448 -291050435.52035522 0 0 0 0 -80945149.958734512 252370847.96201515 0 252370847.96201515 -217191215.14328003 0 0 0 0 -213669662.18114853 119224532.26481247 0 119224532.26481247 91100870.755821228 0 0 0 0 -169200011.09903526 -30518593.503211975 0 -30518593.503211975 584981393.80514145 0 0 0 0 -2384844.1210754067 239721.88672216982 0 239721.88672216982 -189882.62121829903 0 0 0 0 -332097184.19950104 329256170.91701508 0 329256170.91701508 -287845796.87742615 0 0 0 0 154415682.10831451 111589613.26031113 0 111589613.26031113 -988275920.26185608 0 0 0 0 -170649512.54454231 -47750004.57321167 0 -47750004.57321167 -367605393.63667679 0 0 0 0 -6262554.8634866476 2931025.8596090823 0 2931025.8596090823 -366368.17097220523 0 0 0 0 -283547358.88739014 186283118.34262276 0 186283118.34262276 598970037.21538162 0 0 0 0 110868695.17957306 53876359.785461426 0 53876359.785461426 -665142437.58908725 0 0 0 0 -1798105.0302295834 836153.70010418445 0 836153.70010418445 533014.29205164313 0 0 0 0 -95037548.015137672 -66142429.647711754 0 -66142429.647711754 124072814.92060852 0 0 0 0 -101897519.99095917 182217104.74642563 0 182217104.74642563 -166515408.27604103 0 0 0 0 -60867036.942253113 113321616.69584656 0 113321616.69584656 -73030942.941017151 0 0 0 0 -138606544.84315109 157027684.09848022 0 157027684.09848022 -116750787.95979691 0 0 0 0 154929312.07735443 133433866.59689713 0 133433866.59689713 -316153993.21032524 0 0 0 0 -226422571.87195206 -167922164.71447182 0 -167922164.71447182 175711675.26027679 0 0 0 0 -717669.39929684997 13843.133275672793 0 13843.133275672793 -103332.09882756323 0 0 0 0 -98912961.90918541 300896812.65932655 0 300896812.65932655 -471811826.15647507 0 0 0 0 -317495781.33761597 190573838.38474274 0 190573838.38474274 -11042313.022928238 0 0 0 0 -15306011.58373642 16634373.647865295 0 16634373.647865295 -69630563.239198685 0 0 0 0 -11329500.688241959 -57128664.189159393 0 -57128664.189159393 -227773657.98188019 0 0 0 0 -17921116.074934959 -55563241.348790646 0 -55563241.348790646 101411618.34343719 0 0 0 0 -39419512.527896881 60675157.100318909 0 60675157.100318909 97811113.524467468 0 0 0 0 -66719231.855629444 59176609.246798038 0 59176609.246798038 116296063.74289322 0 0 0 0 -156427101.80336952 18578926.958475113 0 18578926.958475113 98000904.436092377 0 0 0 0 -900506.9728730619 360478.64370775968 0 360478.64370775968 -8708.0709586087614 0 0 0 0 46784107.048885345 45111005.528324127 0 45111005.528324127 -26827506.492024422 0 0 0 0 -29666087.59595871 -44572697.36088562 0 -44572697.36088562 13611857.32742691 0 0 0 0 33561874.661495209 119415720.28116608 0 119415720.28116608 -158960499.53164673 0 0 0 0 -665233.57889264077 259904.13616599888 0 259904.13616599888 -21012.80857507512 0 0 0 0 -91621155.387390137 228336786.28551292 0 228336786.28551292 -225344304.01734924 0 0 0 0 -342893503.57025146 236144391.376297 0 236144391.376297 -73092279.582441479 0 0 0 0 -337954695.68121338 354905485.44763184 0 354905485.44763184 -133463580.03774261 0 0 0 0 -206132946.47537231 115621132.37561417 0 115621132.37561417 181713775.21146774 0 0 0 0 -248729946.34401703 -37003852.55657196 0 -37003852.55657196 -88242110.099754333 0 0 0 0 -191642964.4886055 27755380.175842285 0 27755380.175842285 -7743819.9331932068 0 0 0 0 -71090390.569087982 69138899.805526733 0 69138899.805526733 -55741285.42842865 0 0 0 0 -23655088.226820469 67875536.363787174 0 67875536.363787174 -15197634.139228821 0 0 0 0 -24489358.776958466 13423581.987337112 0 13423581.987337112 35661975.308141708 0 0 0 0 12582188.948022842 -24006668.539646626 0 -24006668.539646626 -32551734.871315002 0 0 0 0 67880496.062677383 17865980.194072723 0 17865980.194072723 -42807176.39981842 0 0 0 0 947545.83972167969 30158589.653064728 0 30158589.653064728 -12516492.84576416 0 0 0 0 24903446.270553589 19758720.126829147 0 19758720.126829147 -8801077.2064819336 0 0 0 0 21729480.493801117 12913109.599435806 0 12913109.599435806 40856749.087944031 0 0 0 0 15292244.574337006 16879619.943305969 0 16879619.943305969 13558226.356369019 0 0 0 0 36600222.134010315 7694103.7301445007 0 7694103.7301445007 -10107831.404937744 0 0 0 0 -4965875.0314993858 821169.96749830246 0 821169.96749830246 -10570386.334693909 0 0 0 0 114134352.76060867 62312185.928726196 0 62312185.928726196 -108167730.50341034 0 0 0 0 88816354.19090271 74030046.757102966 0 74030046.757102966 -52430955.774742126 0 0 0 0 76965432.816204071 5924097.5360908508 0 5924097.5360908508 -68938898.736524582 0 0 0 0 27070971.220882416 31878697.272251129 0 31878697.272251129 -67201994.901580811 0 0 0 0 32954875.977972031 88268800.764359474 0 88268800.764359474 -19056290.381202698 0 0 0 0 98291784.097618103 26302987.831886292 0 26302987.831886292 39375874.760139465 0 0 0 0 87213697.936103821 71681398.483413696 0 71681398.483413696 84504260.517084122 0 0 0 0 97101311.434387207 132574409.88362122 0 132574409.88362122 206641048.70438766 0 0 0 0 94641019.215370178 39521221.031974792 0 39521221.031974792 -2150536.0997409821 0 0 0 0 204968232.16700745 104086071.78379822 0 104086071.78379822 19190646.95766449 0 0 0 0 -1941294.3644670732 2088197.9374271333 0 2088197.9374271333 -761113.52568418533 0 0 0 0 51139955.660194397 48532366.71270752 0 48532366.71270752 -15321559.658826828 0 0 0 0 95093099.981107712 146327671.80956078 0 146327671.80956078 112488062.06632996 0 0 0 0 90852263.306686401 99199529.745758057 0 99199529.745758057 137975344.6801033 0 0 0 0 136624606.93523407 61868183.966449738 0 61868183.966449738 -51378857.838851929 0 0 0 0 7862989.9350662231 -28374064.952148438 0 -28374064.952148438 -27728841.623806 0 0 0 0 -385495043.16661835 165282998.64273834 0 165282998.64273834 -50916195.790168762 0 0 0 0 -209115824.75247192 -74120119.506061554 0 -74120119.506061554 56979973.216812134 0 0 0 0 -641170.37625417113 795664.91018633544 0 795664.91018633544 -623512.14529394358 0 0 0 0 115368401.76818848 130403573.28858566 0 130403573.28858566 -237484863.32493591 0 0 0 0 -83631849.52469635 329123329.23390198 0 329123329.23390198 -261012499.04185581 0 0 0 0 16777509.781848907 152541066.24990082 0 152541066.24990082 -120387155.99010468 0 0 0 0 -421764166.15165138 175793238.01878738 0 175793238.01878738 -29169751.899932861 0 0 0 0 90887183.191467285 55242338.210494995 0 55242338.210494995 -51910587.057128906 0 0 0 0 114370884.09922194 20279939.012510985 0 20279939.012510985 -26018321.747589111 0 0 0 0 117891527.69480133 126352462.79999924 0 126352462.79999924 -206806449.7170639 0 0 0 0 44833545.563541412 155460982.85196686 0 155460982.85196686 -127790581.49203491 0 0 0 0 24063139.511537075 92922815.016319275 0 92922815.016319275 -94388423.582046509 0 0 0 0 -95305979.967559814 163579346.1931076 0 163579346.1931076 -47762369.253513336 0 0 0 0 -82191135.305362701 140639582.51792145 0 140639582.51792145 -32757102.109225273 0 0 0 0 -40941205.722175598 119140715.55291367 0 119140715.55291367 -31693040.291721344 0 0 0 0 -48888251.879520416 87645944.759971619 0 87645944.759971619 -42064535.706218719 0 0 0 0 19737264.064186096 82271778.486192703 0 82271778.486192703 -76771718.275619507 0 0 0 0 24269157.906852007 41586600.293381453 0 41586600.293381453 -39412021.225944519 0 0 0 0 10325050.152347565 22052623.505918503 0 22052623.505918503 -65522268.661720276 0 0 0 0 689540.18962478638 79676256.234260559 0 79676256.234260559 -42179480.516505957 0 0 0 0 15361716.71603775 55524918.16576004 0 55524918.16576004 -14105012.387001038 0 0 0 0 11780762.992818832 50897137.189546585 0 50897137.189546585 12965471.138473511 0 0 0 0 -19497839.008118153 61376835.36745739 0 61376835.36745739 29210734.341133118 0 0 0 0 -3938510.9967422485 2535666.8494262695 0 2535666.8494262695 -66954223.997489929 0 0 0 0 -6721173.9969520569 36527007.349212646 0 36527007.349212646 -302004.37436294556 0 0 0 0 -757955.67352867126 -4156514.7517204285 0 -4156514.7517204285 -113144155.16055298 0 0 0 0 -45813151.824817657 36237718.107898712 0 36237718.107898712 -80410917.888519287 0 0 0 0 17508448.644779205 67743999.916804314 0 67743999.916804314 -220032428.07898712 0 0 0 0 -598284.27173299342 609019.51020459458 0 609019.51020459458 108237.03264565766 0 0 0 0 36900964.757774353 82201040.796295643 0 82201040.796295643 -183761071.12654114 0 0 0 0 -138761.09705424309 281729.47638542205 0 281729.47638542205 58966.247280701995 0 0 0 0 32093422.021547318 109900846.61707497 0 109900846.61707497 -133177193.45169067 0 0 0 0 -15147104.354530334 65046514.924985886 0 65046514.924985886 -160532197.10787964 0 0 0 0 -46911427.837234497 71795330.620330811 0 71795330.620330811 -73275294.963708878 0 0 0 0 -47058876.615978241 69067480.812076569 0 69067480.812076569 -106434173.08752441 0 0 0 0 6826843.8294410706 -30393854.359481812 0 -30393854.359481812 -103231341.8842392 0 0 0 0 208401408.81593323 84900858.961181641 0 84900858.961181641 -172756672.63842773 0 0 0 0 -2139101.734262906 601337.78437023982 0 601337.78437023982 186057.14605968818 0 0 0 0 107663322.79693604 7083546.5961608887 0 7083546.5961608887 -148183026.92093849 0 0 0 0 12988827.105080724 201612677.23771018 0 201612677.23771018 -17993653.276641846 0 0 0 0 373595486.68761826 134602850.80059433 0 134602850.80059433 -57383270.683792114 0 0 0 0 -137374.89504276123 104480.21916864067 0 104480.21916864067 340420.03869894147 0 0 0 0 22730221.007621765 81142365.754589081 0 81142365.754589081 60799093.553466797 0 0 0 0 80079792.846775055 62589652.12834549 0 62589652.12834549 9167134.4617977142 0 0 0 0 -710079.16111464612 -266245.7908285372 0 -266245.7908285372 662469.42278288305 0 0 0 0 215829248.75379944 118589932.5844841 0 118589932.5844841 9023888.0995941162 0 0 0 0 82702603.161443949 101011617.07191682 0 101011617.07191682 94051354.179214478 0 0 0 0 -154396630.84417725 29977260.837854385 0 29977260.837854385 141677368.5722084 0 0 0 0 -126994207.36715698 18899216.690151215 0 18899216.690151215 -130967504.78636551 0 0 0 0 90577165.801855326 163422866.76286197 0 163422866.76286197 39661599.601966858 0 0 0 0 -11025544.244190216 28735460.21308136 0 28735460.21308136 -23239734.641771317 0 0 0 0 -202393347.45135117 40727795.98052597 0 40727795.98052597 -4546709.3669567108 0 0 0 0 -403230712.01224136 -47559353.001373291 0 -47559353.001373291 112145542.33830261 0 0 0 0 -79397439.852738619 118050560.43488216 0 118050560.43488216 64911886.376010895 0 0 0 0 -64443316.897681236 62375933.637162209 0 62375933.637162209 177333089.38577843 0 0 0 0 129948108.96991777 461187300.32740879 0 461187300.32740879 236381609.45047718 0 0 0 0 52738497.49661994 386934035.33870673 0 386934035.33870673 229602169.79675293 0 0 0 0 -25626634.227284372 31966184.063393511 0 31966184.063393511 -36329470.269017026 0 0 0 0 316090396.07142687 127240967.45658231 0 127240967.45658231 -265950513.71746063 0 0 0 0 -308187967.4692955 219981883.95376587 0 219981883.95376587 307387647.36267471 0 0 0 0 31590114.370593861 231161269.56220192 0 231161269.56220192 225190188.57982063 0 0 0 0 299158713.97496414 341052263.37985992 0 341052263.37985992 -7954262.9583435059 0 0 0 0 123297729.94390106 127448716.64090347 0 127448716.64090347 74989765.439498901 0 0 0 0 -24190479.100883052 30589676.564861618 0 30589676.564861618 -35410064.488327757 0 0 0 0 165541635.94618225 68791421.805274963 0 68791421.805274963 -195987635.38228607 0 0 0 0 31634441.935932159 62723076.576213837 0 62723076.576213837 -94200425.464233398 0 0 0 0 -2583478.4075031281 177004010.54491615 0 177004010.54491615 -372924982.26219177 0 0 0 0 7662120.5383653641 -25024523.90399456 0 -25024523.90399456 -34893477.858352661 0 0 0 0 13456434.359500885 -772624.13010406494 0 -772624.13010406494 -50150509.971765518 0 0 0 0 31937697.990304947 -59137590.04551506 0 -59137590.04551506 -110055765.90887451 0 0 0 0 115925371.7864151 16862398.969535828 0 16862398.969535828 -55249860.818901062 0 0 0 0 100281734.59072781 17320044.105934143 0 17320044.105934143 -31546416.365036011 0 0 0 0 -182344970.33715057 79038604.509033203 0 79038604.509033203 -112249722.56550598 0 0 0 0 -110028544.33408356 842855652.91897583 0 842855652.91897583 -592111919.9873333 0 0 0 0 456958845.06359863 325040795.59587097 0 325040795.59587097 -446775289.74740601 0 0 0 0 368434510.99811554 35599772.314254761 0 35599772.314254761 -297371374.21176147 0 0 0 0 -882400909.95904541 113855194.23852539 0 113855194.23852539 -419010443.97860718 0 0 0 0 -2083186.898678638 886070.5391247794 0 886070.5391247794 427886.60879525542 0 0 0 0 49477263.380329132 167193875.42366028 0 167193875.42366028 -638971029.80006409 0 0 0 0 -34643607.932922363 -128269045.59528351 0 -128269045.59528351 -470050705.44122124 0 0 0 0 -1095188127.0085258 334843973.04841614 0 334843973.04841614 29525582.070831299 0 0 0 0 1004048.7579686977 1197016.6330814287 0 1197016.6330814287 -2558852.9312952012 0 0 0 0 -68719230.144294739 -131222253.86782455 0 -131222253.86782455 -146393965.8866539 0 0 0 0 -81331232.179779053 78345303.177993774 0 78345303.177993774 -39877158.046123505 0 0 0 0 -16645185.341350555 204302283.52378082 0 204302283.52378082 -212593957.81997681 0 0 0 0 -471324858.72614288 176040909.7699585 0 176040909.7699585 -42524532.235779524 0 0 0 0 -111213644.24484634 537549983.54812241 0 537549983.54812241 -413844614.76728821 0 0 0 0 115121475.00550079 206510948.22861481 0 206510948.22861481 -242753397.98091125 0 0 0 0 -41757157.96686554 93907000.578887939 0 93907000.578887939 -49479414.051185608 0 0 0 0 -38999218.07900238 95232522.5666008 0 95232522.5666008 -49974105.964500427 0 0 0 0 -161306541.58564186 144387456.19466209 0 144387456.19466209 -54797044.242179871 0 0 0 0 -68052197.058261871 111961573.53558254 0 111961573.53558254 -55493628.620162964 0 0 0 0 -32325293.740715027 17605351.832702637 0 17605351.832702637 -10258570.019582748 0 0 0 0 -95417789.672367096 69029079.782112122 0 69029079.782112122 -27154735.985282898 0 0 0 0 5522473.9937022142 4576701.7352746911 0 4576701.7352746911 -6498555.0925894454 0 0 0 0 19055128.260215435 15644397.470146704 0 15644397.470146704 2508477.1456774324 0 0 0 0 22813619.576622009 23997185.97580719 0 23997185.97580719 1468853.6729354858 0 0 0 0 43174461.791475296 35257079.410240173 0 35257079.410240173 -6459908.4592132568 0 0 0 0 6923468.9834465981 37100132.890480042 0 37100132.890480042 13997928.909118652 0 0 0 0 5953712.2072811127 33475120.113601685 0 33475120.113601685 4375793.546585083 0 0 0 0 16190841.817671165 15818951.009632722 0 15818951.009632722 6988082.3369064257 0 0 0 0 5603079.4245910645 24500967.116958618 0 24500967.116958618 -15438760.174797535 0 0 0 0 53960690.784309387 47828461.582962036 0 47828461.582962036 -71021909.735549927 0 0 0 0 15215926.355567932 52094584.491027832 0 52094584.491027832 -21078048.191818237 0 0 0 0 -39238516.36668396 111829932.4515686 0 111829932.4515686 -77525408.10168457 0 0 0 0 -10959106.875495911 91591054.430328369 0 91591054.430328369 -75858476.028999329 0 0 0 0 -29331516.459186554 69191380.713478088 0 69191380.713478088 -10225076.793457031 0 0 0 0 58867426.097770691 -17224566.329681396 0 -17224566.329681396 -49417049.501252651 0 0 0 0 93450546.566732407 13794174.399291992 0 13794174.399291992 -39571089.991989136 0 0 0 0 43906539.797609329 -12442212.791915894 0 -12442212.791915894 -14872906.186977386 0 0 0 0 3916259.4179470018 326981.95022213086 0 326981.95022213086 -4084689.4099021107 0 0 0 0 12895350.035135653 -1402989.915820621 0 -1402989.915820621 -20295241.325369857 0 0 0 0 46120261.165866852 333623.8429145813 0 333623.8429145813 -23416901.823913574 0 0 0 0 54594046.344842911 6418200.8166275024 0 6418200.8166275024 -28248773.378112793 0 0 0 0 43891518.329006195 19407719.877735138 0 19407719.877735138 -40206930.960289001 0 0 0 0 38959299.568067551 30173187.078762054 0 30173187.078762054 -28360229.191762716 0 0 0 0 43611709.229200363 33290711.522357941 0 33290711.522357941 -52598455.744409561 0 0 0 0 14505150.291187884 3163664.1972964257 0 3163664.1972964257 -24871227.326776162 0 0 0 0 73892156.73499918 41193520.394269943 0 41193520.394269943 4226680.8084259033 0 0 0 0 78877786.426727772 48182102.47628212 0 48182102.47628212 -3080789.579498291 0 0 0 0 -16820870.256879807 50272611.60459137 0 50272611.60459137 45490776.87789917 0 0 0 0 112085351.66462708 -95214223.851257324 0 -95214223.851257324 -45908094.189941406 0 0 0 0 186690426.25027847 78094094.315170288 0 78094094.315170288 93586331.540634155 0 0 0 0 -629135.97658095136 296127.01935312897 0 296127.01935312897 344456.56264678389 0 0 0 0 -32304980.392772675 100490169.34535217 0 100490169.34535217 124999021.09339905 0 0 0 0 25349379.804489136 94313139.43598938 0 94313139.43598938 69937200.207702637 0 0 0 0 17925940.713292599 133394877.98372746 0 133394877.98372746 102506124.73345947 0 0 0 0 -75618036.94631958 62947325.7084198 0 62947325.7084198 104135708.57811737 0 0 0 0 238270320.39600754 73047769.147476196 0 73047769.147476196 -25462106.368652344 0 0 0 0 548054.72619466297 722921.78338439018 0 722921.78338439018 -3949567.8240980655 0 0 0 0 133457345.46359444 86928786.588241577 0 86928786.588241577 135876612.66531372 0 0 0 0 -5084688.5460629826 17556235.541230693 0 17556235.541230693 -8269462.5002543926 0 0 0 0 -32312084.328127384 25037058.579629898 0 25037058.579629898 20611069.400146484 0 0 0 0 39507320.150126219 20506205.64529705 0 20506205.64529705 -36052734.291221619 0 0 0 0 2060092.946937561 22604622.047897339 0 22604622.047897339 10522787.669342041 0 0 0 0 4319932.8674507141 11424518.78780365 0 11424518.78780365 983244.61566162109 0 0 0 0 9210775.5738430098 11276335.997003429 0 11276335.997003429 641857.55139611661 0 0 0 0 7319917.5747642517 6779864.2763748169 0 6779864.2763748169 294477.09872436523 0 0 0 0 6770669.5984477699 11842645.435577869 0 11842645.435577869 4351430.8367542028 0 0 0 0 21735092.270797729 12612683.750167847 0 12612683.750167847 19242506.373535156 0 0 0 0 5430865.0739462338 12800719.030333731 0 12800719.030333731 5091840.1264029294 0 0 0 0 2640073.9538404159 3208850.7922106609 0 3208850.7922106609 2530305.7191001326 0 0 0 0 13387039.355506897 33696095.150634766 0 33696095.150634766 -99475.968841552734 0 0 0 0 -855483.38166713715 16738785.020904541 0 16738785.020904541 1546877.7596282959 0 0 0 0 -43522.911659240723 22682274.336776733 0 22682274.336776733 20590036.928630829 0 0 0 0 -10220685.69865036 6661895.1326599121 0 6661895.1326599121 13855223.64125061 0 0 0 0 -6778123.873210907 47624665.67755127 0 47624665.67755127 43080644.671829224 0 0 0 0 2697195.1382923126 22296767.728309631 0 22296767.728309631 15861710.931106567 0 0 0 0 30018984.310714722 4224957.1817016602 0 4224957.1817016602 -3554940.5731658936 0 0 0 0 614132.36849555373 1804540.9675548077 0 1804540.9675548077 -4995805.5874152575 0 0 0 0 1038467.9838110693 4627144.4125064909 0 4627144.4125064909 481655.03302431107 0 0 0 0 -5596697.1351509094 22284576.000579834 0 22284576.000579834 22600953.220848083 0 0 0 0 36850750.252829552 -39923366.880134583 0 -39923366.880134583 24434456.192657471 0 0 0 0 -78553411.724459052 20085253.88782835 0 20085253.88782835 79286832.371673584 0 0 0 0 -40092393.598762512 4152783.5980834961 0 4152783.5980834961 42224978.432861328 0 0 0 0 -211703880.22315788 114041711.96827316 0 114041711.96827316 -14680944.093658447 0 0 0 0 11604786.948745728 598529.15933227539 0 598529.15933227539 -15144462.616821289 0 0 0 0 -459561.24693267792 1406635.0392089337 0 1406635.0392089337 -1404801.5625044219 0 0 0 0 6982010.0879729688 15574899.065503746 0 15574899.065503746 -4732672.6207884047 0 0 0 0 5350758.4255280457 5162808.0463023558 0 5162808.0463023558 -6962757.9610585272 0 0 0 0 355274.81718254089 1456895.5107574463 0 1456895.5107574463 -5323671.9485473633 0 0 0 0 3224229.2881176174 12134784.995650943 0 12134784.995650943 -331578.38952676952 0 0 0 0 1654925.2030409891 10644393.319775365 0 10644393.319775365 3893000.7776337266 0 0 0 0 8194996.7516307831 13758177.610309601 0 13758177.610309601 773492.60057067871 0 0 0 0 -1275218.0431556702 13617195.701629639 0 13617195.701629639 6274708.3635864258 0 0 0 0 6589022.2643585205 11149091.127937317 0 11149091.127937317 3613522.2341308594 0 0 0 0 4329361.2142116949 7166717.3176183067 0 7166717.3176183067 108376.53727595508 0 0 0 0 6022544.3094167709 13156683.521810532 0 13156683.521810532 -3185981.957359314 0 0 0 0 -816158.5556640625 10707821.925415039 0 10707821.925415039 -1468756.3478660583 0 0 0 0 -719250.20576095581 8874893.2486495972 0 8874893.2486495972 -3646373.6464233398 0 0 0 0 2410229.577835083 14545854.742156982 0 14545854.742156982 -1173957.0240077972 0 0 0 0 4046252.3521764278 15070209.913927913 0 15070209.913927913 -1252770.1851272583 0 0 0 0 10376138.847071793 22124825.482025728 0 22124825.482025728 4509051.1628626212 0 0 0 0 700219.99660393596 10323982.127912067 0 10323982.127912067 8691883.2871372867 0 0 0 0 533673.61271088943 327921.79992311075 0 327921.79992311075 -1062977.4703088403 0 0 0 0 8179763.6377372742 134513411.23814011 0 134513411.23814011 25327109.96210289 0 0 0 0 3271447.3084294889 9517944.3844696954 0 9517944.3844696954 6283744.0085293651 0 0 0 0 25404.240230560303 10760842.997512817 0 10760842.997512817 -2248233.1490707397 0 0 0 0 144914087.41747284 63047994.868415833 0 63047994.868415833 -300245251.93302917 0 0 0 0 -544492244.02490234 -63940213.190483093 0 -63940213.190483093 -43971207.60144043 0 0 0 0 551139.46215892583 807749.27140446007 0 807749.27140446007 168586.66092249751 0 0 0 0 15603443.630783081 24653869.25743103 0 24653869.25743103 -4401221.0679321289 0 0 0 0 9052843.8222477697 9297673.834847562 0 9297673.834847562 3328099.6802693009 0 0 0 0 -830027.14231606573 3886357.1224656273 0 3886357.1224656273 -3401831.038118124 0 0 0 0 -31122456.774459839 101321897.12734604 0 101321897.12734604 -63410480.011161804 0 0 0 0 -28779010.945724487 165600861.18759918 0 165600861.18759918 -26557919.295902252 0 0 0 0 -22498516.155380249 136309699.44503784 0 136309699.44503784 -90941585.492141724 0 0 0 0 57852148.800079346 230857099.9254303 0 230857099.9254303 -93552343.969749451 0 0 0 0 -3399571.099281311 17170346.134567261 0 17170346.134567261 1843899.1743927002 0 0 0 0 -12292582.442288876 9903030.5541987419 0 9903030.5541987419 -20673141.91796875 0 0 0 0 17336881.638168335 22268531.068954468 0 22268531.068954468 -20336641.090942383 0 0 0 0 -402340.96510321647 14952097.297411777 0 14952097.297411777 6899706.1046474651 0 0 0 0 10266603.082128249 17191237.783579379 0 17191237.783579379 -10118097.137008846 0 0 0 0 1231343.2687225342 14220650.685882568 0 14220650.685882568 -838827.60699462891 0 0 0 0 2227503.8592014313 18052165.097328186 0 18052165.097328186 -678987.83555603027 0 0 0 0 1524498.2067342326 15743997.294331037 0 15743997.294331037 7456704.3385583507 0 0 0 0 -13988818.575667992 7581941.1959480047 0 7581941.1959480047 1614786.685833395 0 0 0 0 -3989410.421806626 11463753.679561034 0 11463753.679561034 -369968.64462603629 0 0 0 0 -32653539.154319763 63821219.26927948 0 63821219.26927948 -140717613.38449097 0 0 0 0 -16784939.020877838 -7400735.6729850769 0 -7400735.6729850769 -59364724.726802826 0 0 0 0 -24135675.677030563 11777704.634166718 0 11777704.634166718 11530035.571071625 0 0 0 0 32633989.062355042 -132815777.07572937 0 -132815777.07572937 -202004422.65083313 0 0 0 0 68281153.901176453 -151091259.14366913 0 -151091259.14366913 -433666799.06336975 0 0 0 0 126979624.93479919 66299889.358840942 0 66299889.358840942 -595428346.75266266 0 0 0 0 102179790.47740173 92339234.09198761 0 92339234.09198761 -282990914.41111755 0 0 0 0 -4461958.5030670166 201448099.6851387 0 201448099.6851387 -143325956.44376755 0 0 0 0 -5947089.9565086365 336305917.37231827 0 336305917.37231827 -345579848.89899063 0 0 0 0 26469719.050533295 105196751.08599472 0 105196751.08599472 -112794813.96512604 0 0 0 0 42356008.25925827 113615077.02497864 0 113615077.02497864 -228703850.35295868 0 0 0 0 -23137390.551261902 128693767.27118683 0 128693767.27118683 -122122066.85879517 0 0 0 0 -14180080.525932312 156152364.15111542 0 156152364.15111542 -115935256.90715599 0 0 0 0 -10692239.265480042 174308534.11886978 0 174308534.11886978 -69005380.6979599 0 0 0 0 -21108804.222671509 136482021.10591888 0 136482021.10591888 -70480699.731582403 0 0 0 0 -14281521.872772217 189748991.82185745 0 189748991.82185745 -53465383.416275024 0 0 0 0 -13650185.822078705 106425699.44371033 0 106425699.44371033 52558917.613391876 0 0 0 0 -39396930.148051977 205401152.83106518 0 205401152.83106518 -35801952.289039612 0 0 0 0 -33634296.799690247 57010620.610523224 0 57010620.610523224 129958934.26345062 0 0 0 0 -20759852.849712372 44680898.722106934 0 44680898.722106934 38776460.970619202 0 0 0 0 -30269134.879293442 146265816.74992561 0 146265816.74992561 -19110357.995742798 0 0 0 0 -25874877.833364487 68196377.012465477 0 68196377.012465477 -55672203.046913147 0 0 0 0 -38472043.85477829 88330001.215896606 0 88330001.215896606 -84567565.710960388 0 0 0 0 -31331197.36889267 139083715.3939476 0 139083715.3939476 -55812626.389480591 0 0 0 0 -55289684.765132904 77033730.508563995 0 77033730.508563995 -74940795.224090576 0 0 0 0 -66912386.803487778 105055379.25169563 0 105055379.25169563 -101694092.58015442 0 0 0 0 -39710556.132141113 89218742.767974854 0 89218742.767974854 -92546222.450931549 0 0 0 0 -40657229.171867371 124546301.79842377 0 124546301.79842377 -121681430.2431488 0 0 0 0 -78344587.277709961 140959709.94490051 0 140959709.94490051 -111722537.88359833 0 0 0 0 -77870722.934313774 151011500.37795544 0 151011500.37795544 -81966096.218185425 0 0 0 0 -61695632.413944244 115841635.79188156 0 115841635.79188156 -84289726.85798645 0 0 0 0 -98921539.772315979 108705489.995911 0 108705489.995911 -134979220.52989197 0 0 0 0 -118305838.81292725 123920931.06476593 0 123920931.06476593 -85408730.101671219 0 0 0 0 -99912259.235542297 149196115.85314941 0 149196115.85314941 -83283759.245071411 0 0 0 0 -29262470.606025696 119362534.2759552 0 119362534.2759552 -87661083.304702759 0 0 0 0 2041343.0485687256 131916036.58599472 0 131916036.58599472 -133620984.64840698 0 0 0 0 35463621.603786469 24531972.556182861 0 24531972.556182861 -58912309.733596802 0 0 0 0 47740479.244155884 -1683269.8118362427 0 -1683269.8118362427 -10078521.441444397 0 0 0 0 -281977261.9380188 183164808.59463501 0 183164808.59463501 -155329592.74864197 0 0 0 0 -218404613.52322388 209550856.70256805 0 209550856.70256805 -175998733.2971344 0 0 0 0 2968768.8881374523 2132513.9502499364 0 2132513.9502499364 -2187078.3480799347 0 0 0 0 -180955821.58243942 -12030692.524887085 0 -12030692.524887085 -186058095.60046387 0 0 0 0 -22940643.137443542 119146997.37862778 0 119146997.37862778 -139923989.06871033 0 0 0 0 -10738704.677696228 130865361.21823883 0 130865361.21823883 -168483765.63624573 0 0 0 0 -4002639.8287887573 169897310.2467804 0 169897310.2467804 -93334791.482048035 0 0 0 0 -14961395.107934952 155935666.4630146 0 155935666.4630146 -109774066.67550659 0 0 0 0 -40519904.585510254 118392796.76586533 0 118392796.76586533 -98139284.650726318 0 0 0 0 -38701961.423820496 116169518.46710205 0 116169518.46710205 -100566506.01143265 0 0 0 0 -70465854.548734665 76091367.233224869 0 76091367.233224869 -146204138.81529236 0 0 0 0 543362.30842590332 326553231.07640171 0 326553231.07640171 118614807.9119339 0 0 0 0 211366458.26272583 199128583.48905563 0 199128583.48905563 -137797532.10302734 0 0 0 0 -107743.38880973682 1490849.7851622328 0 1490849.7851622328 -1356790.9533349574 0 0 0 0 150571690.86715698 224460399.97310638 0 224460399.97310638 -45159777.619226456 0 0 0 0 21503901.713371277 5931477.82695961 0 5931477.82695961 42891575.793067932 0 0 0 0 128172693.97253036 55217052.558069229 0 55217052.558069229 -30041917.651195526 0 0 0 0 461345033.56330109 134226791.59399414 0 134226791.59399414 -19816328.055236816 0 0 0 0 421328063.54018497 129728294.46529818 0 129728294.46529818 19688449.788375854 0 0 0 0 133212143.71868896 77854989.085075378 0 77854989.085075378 -25573083.40755558 0 0 0 0 865571.1465034429 1502223.0689075887 0 1502223.0689075887 -4977903.2499266118 0 0 0 0 -4497958.2205896378 22386258.086669445 0 22386258.086669445 14267994.127906799 0 0 0 0 349630512.53128052 26507728.819255829 0 26507728.819255829 196858448.18691254 0 0 0 0 6739000.3352748677 6588622.5364787802 0 6588622.5364787802 -9023972.4436640292 0 0 0 0 -102661700.9756012 -31910523.981262207 0 -31910523.981262207 51931608.413452148 0 0 0 0 -57998572.568115234 -45674897.856895447 0 -45674897.856895447 11612529.987754822 0 0 0 0 1016862675.4785919 273714012.97430992 0 273714012.97430992 -131102273.79465485 0 0 0 0 836075930.55857849 861047828.27462006 0 861047828.27462006 339802103.44911575 0 0 0 0 725953171.93490601 490207389.79919434 0 490207389.79919434 83095997.222114563 0 0 0 0 262108112.36382389 558881251.77061415 0 558881251.77061415 246755091.02245712 0 0 0 0 702272963.80669785 673232610.00405693 0 673232610.00405693 667169752.26781464 0 0 0 0 929056.70593645412 1442300978.3123226 0 1442300978.3123226 951654070.07396698 0 0 0 0 709268981.88767385 771944948.30319786 0 771944948.30319786 1208915963.3942871 0 0 0 0 1624875972.7319832 1690218280.488163 0 1690218280.488163 -1366936.4403991699 0 0 0 0 1804119665.3032684 1269789606.5159836 0 1269789606.5159836 41920231.498561859 0 0 0 0 3191214689.2253418 1192624874.0037003 0 1192624874.0037003 9516305.2516365051 0 0 0 0 -50944853.487141609 9718807.2627801895 0 9718807.2627801895 27340653.5962677 0 0 0 0 3051966.0288777556 1560626.0416925997 0 1560626.0416925997 4053092.9718771875 0 0 0 0 1728549584.2196426 1142836026.1176224 0 1142836026.1176224 415765331.76595306 0 0 0 0 3750127.7458165418 6888839.5472435281 0 6888839.5472435281 12933802.632429063 0 0 0 0 -2459233.699804306 23651601.83246994 0 23651601.83246994 31780858.074676514 0 0 0 0 24293736.251678467 13416528.792564392 0 13416528.792564392 16126149.433355659 0 0 0 0 1550657062.2965088 1409356471.5428429 0 1409356471.5428429 359385810.07259369 0 0 0 0 1571012052.3298798 1184749474.3672981 0 1184749474.3672981 1142890301.6049194 0 0 0 0 3720876.5784178525 2888011.7649141923 0 2888011.7649141923 1326547.1526596555 0 0 0 0 1499529900.3479757 -345943029.23388243 0 -345943029.23388243 -173853718.14712524 0 0 0 0 1654791065.7039337 1032841630.2829437 0 1032841630.2829437 326832875.4738121 0 0 0 0 17831443.892242432 60911077.450180054 0 60911077.450180054 -46567037.93321228 0 0 0 0 22328704.681673735 19084788.556105524 0 19084788.556105524 3657982.5406692401 0 0 0 0 -164549630.91304016 -155983928.33065796 0 -155983928.33065796 -196198265.15312195 0 0 0 0 1198110732.6555176 87869988.872894287 0 87869988.872894287 -307306275.2868576 0 0 0 0 25117453.14868851 17028738.119565234 0 17028738.119565234 -2542879.2632746068 0 0 0 0 -140403805.82203674 564637635.65010834 0 564637635.65010834 163963578.98539734 0 0 0 0 -298331917.81286621 99199676.198387146 0 99199676.198387146 177463739.73400879 0 0 0 0 -713507415.04327393 -322934790.83060455 0 -322934790.83060455 -250747576.92660522 0 0 0 0 910329.12720926106 3218983.8322076797 0 3218983.8322076797 4404730.5772355497 0 0 0 0 -110570703.23291779 -217893528.50557327 0 -217893528.50557327 17926405.579565048 0 0 0 0 23890608.722923279 20150670.052167892 0 20150670.052167892 19131550.149787903 0 0 0 0 6784197.7605329826 5936518.188716054 0 5936518.188716054 4851603.9851159155 0 0 0 0 24283574.356613159 21649609.853500366 0 21649609.853500366 23773330.215363741 0 0 0 0 25625005.27191925 43100989.400985718 0 43100989.400985718 22562848.573257446 0 0 0 0 19262251.605148315 26485881.462772369 0 26485881.462772369 -2985320.4706802368 0 0 0 0 20636881.018043518 17110343.274307251 0 17110343.274307251 33949952.083778381 0 0 0 0 19936121.194980621 24909997.322124481 0 24909997.322124481 19941093.27394104 0 0 0 0 3381676.882421948 665634.28430378437 0 665634.28430378437 -1461133.2214030921 0 0 0 0 50600270.143825531 54068152.20167923 0 54068152.20167923 13955612.940574646 0 0 0 0 55176390.675254822 33702871.837282181 0 33702871.837282181 39245.270179748535 0 0 0 0 32847960.704025269 18384959.26342392 0 18384959.26342392 18153679.673387051 0 0 0 0 10751293.958950043 43527019.802757263 0 43527019.802757263 -32268.360969543457 0 0 0 0 16653618.314277649 54934746.442939758 0 54934746.442939758 2464810.4499588013 0 0 0 0 25725299.383895874 55756672.537117004 0 55756672.537117004 -58783.342681884766 0 0 0 0 -13280261.612766266 22201904.101306915 0 22201904.101306915 19532826.541404724 0 0 0 0 2308084.4649073258 -176143.8816703856 0 -176143.8816703856 -1907013.8586812615 0 0 0 0 21006240.117179871 26190406.391468048 0 26190406.391468048 19726174.491132736 0 0 0 0 26636959.019035339 50667794.491706848 0 50667794.491706848 31771.158782958984 0 0 0 0 24537612.370901108 26701664.778202057 0 26701664.778202057 15506683.906112671 0 0 0 0 25865240.996862411 30044923.136612892 0 30044923.136612892 11208683.849151611 0 0 0 0 23316601.982933044 23077637.044445038 0 23077637.044445038 13108839.46647644 0 0 0 0 22140221.3645401 22168973.230911255 0 22168973.230911255 13818732.578819275 0 0 0 0 -4523764.8623809814 161408080.10974884 0 161408080.10974884 -14300272.460948631 0 0 0 0 25186890.194696471 19222626.129290625 0 19222626.129290625 -408054.40261399379 0 0 0 0 192669472.0462532 38464789.027093887 0 38464789.027093887 5976911.3464660645 0 0 0 0 152148528.75863647 -74642626.679999352 0 -74642626.679999352 113854861.73924255 0 0 0 0 24458428.538687125 18474941.923833035 0 18474941.923833035 480388.79970718379 0 0 0 0 -1113461682.5030518 179931087.83642578 0 179931087.83642578 142213263.39431763 0 0 0 0 96759009.349151611 -14169579.881240845 0 -14169579.881240845 63611514.836738586 0 0 0 0 33038470.874229431 22009194.534919739 0 22009194.534919739 -1470352.7370986938 0 0 0 0 -165269789.40489388 -264139591.3076694 0 -264139591.3076694 -20570672.397521973 0 0 0 0 189634.33382321894 1144102.7334042937 0 1144102.7334042937 -3039330.4040547907 0 0 0 0 51353126.363601685 63414056.954719543 0 63414056.954719543 -27476495.875038147 0 0 0 0 1243689.7940657437 186658.15855562687 0 186658.15855562687 1410224.5889388621 0 0 0 0 -63486452.482093811 127653768.32525253 0 127653768.32525253 -9395336.6651916504 0 0 0 0 153489754.99979019 205506947.34784126 0 205506947.34784126 39662915.342208862 0 0 0 0 -19790053.318359375 -19225430.234527588 0 -19225430.234527588 27677208.926452637 0 0 0 0 -21966796.032073975 -24279437.353782654 0 -24279437.353782654 92595731.440429688 0 0 0 0 -193751112.15593529 -88416982.558794498 0 -88416982.558794498 32289596.855148315 0 0 0 0 -3418077.7675601617 7910078.455919221 0 7910078.455919221 -2216602.7577722967 0 0 0 0 -204799480.28430176 27627104.748073578 0 27627104.748073578 52977785.594520569 0 0 0 0 -43260183.916748047 65075628.053739548 0 65075628.053739548 22850848.201263428 0 0 0 0 70922080.541091919 111461520.61394119 0 111461520.61394119 -21841604.969680786 0 0 0 0 -189574695.11515045 105030908.09074593 0 105030908.09074593 73773167.816902161 0 0 0 0 -525867.22131973505 1014212.9385608137 0 1014212.9385608137 3315345.735515371 0 0 0 0 903491758.46231079 129537906.32679749 0 129537906.32679749 -203096002.93334579 0 0 0 0 286450440.01792908 -42111850.305107117 0 -42111850.305107117 37194161.84954834 0 0 0 0 173075767.88150024 196059541.10844421 0 196059541.10844421 111033657.23093224 0 0 0 0 130696253.30315399 56369801.396774292 0 56369801.396774292 50196611.800391197 0 0 0 0 -7743156.0236816406 42013236.740718842 0 42013236.740718842 25312474.044504166 0 0 0 0 213235846.02296829 35495265.327165604 0 35495265.327165604 -14779519.067878723 0 0 0 0 -3038561.9262871891 8241911.5802976042 0 8241911.5802976042 6610258.7743308246 0 0 0 0 -9200461.2604397982 18665426.223453298 0 18665426.223453298 -17179118.493391015 0 0 0 0 191935715.62349701 85729507.042568207 0 85729507.042568207 -5888990.2872686386 0 0 0 0 158023875.82811737 22433905.900184631 0 22433905.900184631 -32043389.616821289 0 0 0 0 -24486357.769191742 79897030.660610199 0 79897030.660610199 34104458.093639374 0 0 0 0 -41025193.502731323 10829410.844768524 0 10829410.844768524 -6280934.4309616089 0 0 0 0 -122801494.70854187 65461674.100618362 0 65461674.100618362 48644838.759841919 0 0 0 0 -5405223.4220478758 9208667.6230136231 0 9208667.6230136231 25366828.211722568 0 0 0 0 13206488.853090286 -24291722.058775902 0 -24291722.058775902 25531254.851470947 0 0 0 0 33429706.044692993 62358989.936416626 0 62358989.936416626 6839552.7732391357 0 0 0 0 -9837481.0148364864 14636297.104903877 0 14636297.104903877 13429467.54074277 0 0 0 0 254154619.17232132 63041636.727268219 0 63041636.727268219 42405559.807891846 0 0 0 0 72164473.669433594 142325199.7654686 0 142325199.7654686 122827898.27513123 0 0 0 0 -64977356.283447266 39688323.376068115 0 39688323.376068115 51118441.980026245 0 0 0 0 283490901.45541382 -110487239.65638351 0 -110487239.65638351 6150293.0556488037 0 0 0 0 -61859903.281570435 19081389.360694885 0 19081389.360694885 170640842.95736694 0 0 0 0 -62448118.499755859 40104348.146812439 0 40104348.146812439 86156875.025154114 0 0 0 0 -73270619.337158203 63778721.89465332 0 63778721.89465332 14767945.52898407 0 0 0 0 -101139531.00332642 -35613015.665397644 0 -35613015.665397644 -16438181.438404083 0 0 0 0 27139030.530273438 67619456.631378174 0 67619456.631378174 73039241.560852051 0 0 0 0 40731704.85609436 32107353.192001343 0 32107353.192001343 -34839658.568460464 0 0 0 0 4788507.9556860104 3908317.0241201222 0 3908317.0241201222 3068077.7843680531 0 0 0 0 137162819.06951904 123890610.04521942 0 123890610.04521942 147377391.77973938 0 0 0 0 101970866.00505066 49821940.025253296 0 49821940.025253296 39136406.965087891 0 0 0 0 39735480.148010254 35056060.721488953 0 35056060.721488953 -35499716.51439476 0 0 0 0 62645861.954406738 92765814.984466553 0 92765814.984466553 30675921.840896606 0 0 0 0 5224329.3300552368 5696454.7105178833 0 5696454.7105178833 -6024641.7345275879 0 0 0 0 137025510.78674316 107392609.74545288 0 107392609.74545288 24365436.870452881 0 0 0 0 167430804.99815369 84739146.158462524 0 84739146.158462524 13726783.015075684 0 0 0 0 244825142.87155151 113021481.91462708 0 113021481.91462708 16815127.307254791 0 0 0 0 251653822.78829956 127486908.84533691 0 127486908.84533691 43332437.445251465 0 0 0 0 200769057.36103058 128720173.50338745 0 128720173.50338745 52481678.105316162 0 0 0 0 265804350.29685974 102890100.08512878 0 102890100.08512878 49051489.155578613 0 0 0 0 291371588.10075378 114686149.4331665 0 114686149.4331665 54452554.986816406 0 0 0 0 270253741.8699646 141018775.96356964 0 141018775.96356964 109178538.28305054 0 0 0 0 242745230.50102234 126176080.68151855 0 126176080.68151855 51792250.588687897 0 0 0 0 242493984.97001648 108067619.36352539 0 108067619.36352539 70614092.038085938 0 0 0 0 285472406.6552887 233179920.25040054 0 233179920.25040054 164424834.81977081 0 0 0 0 285280049.24353027 71603533.310409546 0 71603533.310409546 -158242313.05210686 0 0 0 0 34764452.071296692 -74770141.519283295 0 -74770141.519283295 -179642925.25361633 0 0 0 0 -830770.54373839498 282169.02612007409 0 282169.02612007409 2219547.5660814047 0 0 0 0 371930640.73937988 179967316.51206207 0 179967316.51206207 47939754.330047607 0 0 0 0 393039408.6108551 47256950.769989014 0 47256950.769989014 -100890360.39654541 0 0 0 0 37309293.220779419 32112906.270568848 0 32112906.270568848 -28201527.573944092 0 0 0 0 33702602.712214589 34703634.569654703 0 34703634.569654703 -29762959.921020508 0 0 0 0 -118152953.36837387 27312974.917671204 0 27312974.917671204 138249752.45068502 0 0 0 0 42856723.107650757 31251790.187923431 0 31251790.187923431 -32276871.395111084 0 0 0 0 -1764277.4913494103 2848771.3493120726 0 2848771.3493120726 -1869188.2353935093 0 0 0 0 -84316814.588302612 -71417990.237442017 0 -71417990.237442017 61691504.762130737 0 0 0 0 -181633257.74490356 39014025.928588867 0 39014025.928588867 2251058.3219947815 0 0 0 0 -129769433.05611038 -28303671.974906921 0 -28303671.974906921 -77619269.423202515 0 0 0 0 -85396341.084445953 15609326.35152626 0 15609326.35152626 -5186522.7456130981 0 0 0 0 -129328950.80822372 38812634.265167236 0 38812634.265167236 -10700178.420501709 0 0 0 0 -80767190.207893372 8027029.9627609253 0 8027029.9627609253 7123801.0509872437 0 0 0 0 -89866910.82434082 -1261901.3878479004 0 -1261901.3878479004 -1352610.6879119873 0 0 0 0 -8120019.4496596754 29299513.701324008 0 29299513.701324008 -2791623.4807246327 0 0 0 0 -17855158.709887609 7908412.7953767646 0 7908412.7953767646 -2927355.8584913909 0 0 0 0 -91567041.626342773 22436392.976257324 0 22436392.976257324 -5741226.2734375 0 0 0 0 -64000470.869939804 51761332.743232727 0 51761332.743232727 12740563.841827393 0 0 0 0 43671202.717056274 33134523.391633987 0 33134523.391633987 -28552043.69708252 0 0 0 0 36296358.15032959 24170749.809738159 0 24170749.809738159 37288336.215454102 0 0 0 0 3922215.3590223938 2833839.228659749 0 2833839.228659749 -773883.69688034803 0 0 0 0 22938256.164520264 -10178225.252929688 0 -10178225.252929688 -31108329.007034302 0 0 0 0 38185909.060546875 10585225.510604858 0 10585225.510604858 -29127054.060974121 0 0 0 0 -35011514.883544922 -10047438.466400146 0 -10047438.466400146 -16564179.479797363 0 0 0 0 47358717.925827026 3642666.7988433838 0 3642666.7988433838 -27290383.800720215 0 0 0 0 36153890.24798584 -39623956.076080322 0 -39623956.076080322 -42815555.211486816 0 0 0 0 46002680.381120682 33262348.207363129 0 33262348.207363129 5444191.2618713379 0 0 0 0 -59029289.504699707 -51234085.609893799 0 -51234085.609893799 -26199774.054122925 0 0 0 0 -4303924.731159633 18671905.703177467 0 18671905.703177467 4074940.2565546483 0 0 0 0 -118204092.26077271 -22096173.404327393 0 -22096173.404327393 -3459116.2860107422 0 0 0 0 4673245.8640327454 11420672.214229584 0 11420672.214229584 -1599363.7711181641 0 0 0 0 -1447259.0793726891 32254436.927148536 0 32254436.927148536 6783996.2430870533 0 0 0 0 -37525325.418476105 -24798973.171043396 0 -24798973.171043396 -22913711.306762695 0 0 0 0 28990802.053162813 15657795.804128036 0 15657795.804128036 -4819160.9125295877 0 0 0 0 -29022452.00441863 18812380.48181916 0 18812380.48181916 14923645.15716663 0 0 0 0 -14328992.513430826 14790544.51821278 0 14790544.51821278 -1528104.9316896945 0 0 0 0 -58543983.479301453 38801161.500865936 0 38801161.500865936 60384716.280776978 0 0 0 0 -14675583.895004272 -9679806.1632499695 0 -9679806.1632499695 -40284048.919067383 0 0 0 0 87347852.438354492 983657.23602294922 0 983657.23602294922 -21879476.735229492 0 0 0 0 120590684.08113861 60475825.33706665 0 60475825.33706665 -5015201.4014282227 0 0 0 0 -28160166.264526367 10103462.35723877 0 10103462.35723877 -20270870.136291504 0 0 0 0 -55768407.942428589 10517551.572219849 0 10517551.572219849 -12408026.652454376 0 0 0 0 -12061467.987381421 13820321.79550913 0 13820321.79550913 -3862632.867258966 0 0 0 0 34361823.978363037 61049140.120513916 0 61049140.120513916 57219702.122833252 0 0 0 0 -82573720.930862427 -25336163.47543335 0 -25336163.47543335 -13219358.525993347 0 0 0 0 -66004973.566158295 -7949969.8621864319 0 -7949969.8621864319 -1097761.7082214355 0 0 0 0 -71611271.782142639 9273194.8454742432 0 9273194.8454742432 -11827481.595870972 0 0 0 0 -38182292.432678223 -19458240.806510925 0 -19458240.806510925 -40490704.01852417 0 0 0 0 -2750819.8204174675 280484.4087825343 0 280484.4087825343 1977978.3592312783 0 0 0 0 -61300670.775672913 -18832302.252418518 0 -18832302.252418518 -35912386.157791138 0 0 0 0 9056925.7738847733 83811718.312004089 0 83811718.312004089 75185672.745910645 0 0 0 0 12856168.825759888 49232577.355171204 0 49232577.355171204 10586939.287902832 0 0 0 0 30446575.210144043 54832443.289955139 0 54832443.289955139 59775157.219589233 0 0 0 0 -1521381.9200659171 12510652.890513271 0 12510652.890513271 -14948160.341265634 0 0 0 0 -47647424.514282227 12885807.21105957 0 12885807.21105957 57779194.608989716 0 0 0 0 -35171094.913078308 78523010.999847412 0 78523010.999847412 17670308.808181763 0 0 0 0 58564386.187591553 57518635.659950256 0 57518635.659950256 32869870.018859863 0 0 0 0 -6170914.7629816039 4661002.2158769593 0 4661002.2158769593 12897983.465017885 0 0 0 0 -97491584.604125977 66948764.85577774 0 66948764.85577774 52201202.579223633 0 0 0 0 119523058.88941956 52200984.580711365 0 52200984.580711365 51722949.556167603 0 0 0 0 -116459917.10832977 27773490.542793274 0 27773490.542793274 76793165.884017944 0 0 0 0 -5935144.7242947109 7055550.7453843094 0 7055550.7453843094 8889162.3814690262 0 0 0 0 -32793140.394648552 21145491.376704693 0 21145491.376704693 -47052018.550064087 0 0 0 0 144657403.20687866 44231971.201583862 0 44231971.201583862 175940758.44976807 0 0 0 0 316128755.08239746 -51486221.384414673 0 -51486221.384414673 191157029.88443375 0 0 0 0 316047484.68330383 21638138.422286987 0 21638138.422286987 107024223.80360413 0 0 0 0 195031237.06359863 833430.6849822998 0 833430.6849822998 206829154.91703415 0 0 0 0 236692162.26221466 63201984.483772278 0 63201984.483772278 75508606.41506958 0 0 0 0 223973908.09042358 80272185.098480225 0 80272185.098480225 72482648.180358887 0 0 0 0 278388840.01200867 83346980.278717041 0 83346980.278717041 46538804.727493286 0 0 0 0 126531900.92495728 78205511.737686157 0 78205511.737686157 114723056.72946167 0 0 0 0 171589183.81149292 82724567.330474854 0 82724567.330474854 70857548.281784058 0 0 0 0 174322819.50450134 63461527.90057373 0 63461527.90057373 40936097.071716309 0 0 0 0 116609230.80635071 55799086.308639526 0 55799086.308639526 41136064.421939373 0 0 0 0 167283914.33468628 84637443.10987854 0 84637443.10987854 1268480.8254089355 0 0 0 0 227374902.28062439 85943178.356117249 0 85943178.356117249 27100489.340652466 0 0 0 0 215577735.39188385 105196902.52959442 0 105196902.52959442 40551605.181945801 0 0 0 0 160999232.07116699 97680829.308532715 0 97680829.308532715 26267829.475646973 0 0 0 0 202691183.11245728 88573822.697685242 0 88573822.697685242 1956371.9739074707 0 0 0 0 140953474.96496582 102516857.1153717 0 102516857.1153717 7343957.6744537354 0 0 0 0 219284261.30557251 124954156.83033371 0 124954156.83033371 1325304.641204834 0 0 0 0 218390887.84727478 105131046.76109314 0 105131046.76109314 262835.74084472656 0 0 0 0 180852562.89486694 119495129.56031799 0 119495129.56031799 16945959.694556236 0 0 0 0 168086044.91296387 82487365.476463318 0 82487365.476463318 -12690070.611907959 0 0 0 0 88707445.398284912 66427958.450881958 0 66427958.450881958 9824871.226146698 0 0 0 0 116439026.2467804 53247174.552886963 0 53247174.552886963 -3154880.954284668 0 0 0 0 124864584.25734806 12313517.694846153 0 12313517.694846153 25871467.476730347 0 0 0 0 -10526274.719785191 14650496.050347477 0 14650496.050347477 16694452.152095288 0 0 0 0 266021904.85012817 128302803.74475861 0 128302803.74475861 6410383.4606781006 0 0 0 0 255632837.88790894 127269148.57188416 0 127269148.57188416 25796140.656463623 0 0 0 0 258588916.44795227 122814214.962677 0 122814214.962677 -4584222.9119262695 0 0 0 0 231104307.23880005 133909902.53955078 0 133909902.53955078 16125067.237232208 0 0 0 0 257005739.33566284 115141448.11927795 0 115141448.11927795 3001651.9145965576 0 0 0 0 257152056.2411499 108856688.75511169 0 108856688.75511169 27677487.904632568 0 0 0 0 227563964.62133789 116971533.15118408 0 116971533.15118408 8353963.514465332 0 0 0 0 8058316.2596038021 6266045.7732204124 0 6266045.7732204124 7701872.3231871128 0 0 0 0 69103854.550788879 60892019.615352631 0 60892019.615352631 27636104.711762071 0 0 0 0 -8146343.6158752367 15060447.276960306 0 15060447.276960306 18866577.879985243 0 0 0 0 322158766.89620972 64857259.339050293 0 64857259.339050293 97827682.051940918 0 0 0 0 295331140.63593102 99535289.521009445 0 99535289.521009445 53759701.045013428 0 0 0 0 251098837.64331055 123741980.19172668 0 123741980.19172668 42660244.59815979 0 0 0 0 57032386.534917831 28290174.079019547 0 28290174.079019547 17799678.467453003 0 0 0 0 -167050334.34079707 815606595.42922401 0 815606595.42922401 -90201414.548400879 0 0 0 0 305809348.08207703 68056199.038208008 0 68056199.038208008 137312592.79394531 0 0 0 0 28342415.351324603 17168852.480050869 0 17168852.480050869 1784023.6641768208 0 0 0 0 25471865.231246948 20480443.345046997 0 20480443.345046997 14659529.925537765 0 0 0 0 -42217648.859485626 45279232.178585052 0 45279232.178585052 240017704.18737793 0 0 0 0 611933.1120692417 2467462.4112130851 0 2467462.4112130851 2357123.6257358491 0 0 0 0 1159928129.6094055 7313996.5983734131 0 7313996.5983734131 -939573704.63284302 0 0 0 0 464591256.22232056 -55019818.867172241 0 -55019818.867172241 132771921.58197021 0 0 0 0 395906186.4994278 310646510.9498024 0 310646510.9498024 -133628672.40246582 0 0 0 0 -137885.99043382704 2390596.0968942419 0 2390596.0968942419 856453.27616718202 0 0 0 0 716431072.17637634 894355627.26239014 0 894355627.26239014 -2550201180.12391 0 0 0 0 341269138.96903992 -142326541.86182404 0 -142326541.86182404 1029893761.9653015 0 0 0 0 7602485.3931902647 6069068.1140694693 0 6069068.1140694693 -972928.60752423108 0 0 0 0 75855671.126163483 45080282.13224411 0 45080282.13224411 1387439.9532318115 0 0 0 0 178160319.69438171 372738028.85447693 0 372738028.85447693 193816808.64809418 0 0 0 0 29584710.362380981 202328605.46678925 0 202328605.46678925 380150005.13027954 0 0 0 0 35782435.272089005 63922589.375534058 0 63922589.375534058 9673151.9007110596 0 0 0 0 46774470.653694153 33046807.033039093 0 33046807.033039093 6791658.3233032227 0 0 0 0 10732088.315710776 7814724.4020057768 0 7814724.4020057768 2263785.8294447511 0 0 0 0 11307391.980049133 22589525.15455246 0 22589525.15455246 30061038.000823975 0 0 0 0 83526539.965034485 42454383.356342316 0 42454383.356342316 1076933.6770935059 0 0 0 0 -42804669.947021484 19217801.806612968 0 19217801.806612968 54147705.393753052 0 0 0 0 3136885.4207607247 -558851.33197397739 0 -558851.33197397739 -563954.00777506828 0 0 0 0 1971839.5407857448 -576911.64557853341 0 -576911.64557853341 -1617314.0618565381 0 0 0 0 145907453.62490463 71090674.927119255 0 71090674.927119255 -44942591.485092163 0 0 0 0 135016824.06493378 35868157.981506348 0 35868157.981506348 -43139902.769775391 0 0 0 0 94828692.970550537 30255041.941955566 0 30255041.941955566 -37531045.286376953 0 0 0 0 59338197.12134552 67717769.525054932 0 67717769.525054932 170513.81911468506 0 0 0 0 109311833.67016411 79315942.506435394 0 79315942.506435394 -25664659.957946777 0 0 0 0 -25948686.380065918 127226231.94221497 0 127226231.94221497 -41292229.571113586 0 0 0 0 34401095.065666199 50088933.368034363 0 50088933.368034363 -2233104.7663383484 0 0 0 0 34175933.860038757 48103861.992500305 0 48103861.992500305 -13712781.423522949 0 0 0 0 -119172669.43021584 393221096.32413387 0 393221096.32413387 54404808.14050293 0 0 0 0 -105569012.47147942 382966474.98576546 0 382966474.98576546 -296937225.40180969 0 0 0 0 353535409.811203 179760286.44425964 0 179760286.44425964 -537204.01238652423 0 0 0 0 64809535.726518631 -84148370.10956192 0 -84148370.10956192 -182828803.57080078 0 0 0 0 231261.73721523955 -1249033.7413328961 0 -1249033.7413328961 2378354.5955603421 0 0 0 0 -129655815.17181778 99339950.582069397 0 99339950.582069397 254939560.91693115 0 0 0 0 495885700.87768936 221323366.82172394 0 221323366.82172394 -169917656.78230667 0 0 0 0 -21701478.527618408 -62176222.972476959 0 -62176222.972476959 -62284756.798332214 0 0 0 0 -163252169.85979462 -45496592.39112854 0 -45496592.39112854 121567857.82817364 0 0 0 0 -160788959.90405107 -80861734.165951014 0 -80861734.165951014 -285766512.06500244 0 0 0 0 -185235150.28408051 -47077178.729251862 0 -47077178.729251862 25348979.280319214 0 0 0 0 -80802319.25353241 -26761118.610549927 0 -26761118.610549927 20666181.393062592 0 0 0 0 144260865.78033066 307320915.42049408 0 307320915.42049408 69110049.24432373 0 0 0 0 -4975841.5724182129 105660458.47515106 0 105660458.47515106 125971711.2667408 0 0 0 0 -415285.3501190003 -2384645.6650712788 0 -2384645.6650712788 7278840.2208698988 0 0 0 0 36310177.812858582 62844092.521037102 0 62844092.521037102 167720373.68588257 0 0 0 0 -141745728.4561038 -43411987.734687805 0 -43411987.734687805 38565950.054855347 0 0 0 0 -1114187.7062606812 -26446017.275390625 0 -26446017.275390625 -23480160.253471375 0 0 0 0 -83997558.79032135 18494920.80418396 0 18494920.80418396 71145410.294807434 0 0 0 0 -66278047.003051758 -5174731.705871582 0 -5174731.705871582 78182878.095367432 0 0 0 0 3522862.6159322262 760280.96086468548 0 760280.96086468548 -3755559.3825271428 0 0 0 0 -8341793.0278884061 10375241.36577595 0 10375241.36577595 -10809121.452714607 0 0 0 0 87189186.886756897 165279642.80228424 0 165279642.80228424 127819313.16365814 0 0 0 0 105553067.57801819 108425925.52580261 0 108425925.52580261 46493435.053131104 0 0 0 0 123423008.12083817 -5258440.1616706848 0 -5258440.1616706848 -71209117.708572388 0 0 0 0 -30911632.859489441 69967312.176467896 0 69967312.176467896 132291447.97756958 0 0 0 0 -32154884.530670166 112653972.11352539 0 112653972.11352539 208526429.17956543 0 0 0 0 27701626.344482422 72462760.194091797 0 72462760.194091797 213311687.87808228 0 0 0 0 156711444.58424377 40539849.225944519 0 40539849.225944519 180659271.32870483 0 0 0 0 40864045.026321411 142305279.71697998 0 142305279.71697998 114661515.15982056 0 0 0 0 -12587382.076751709 53415249.212608337 0 53415249.212608337 93176958.016433716 0 0 0 0 -3079491.9676233083 609659.974329561 0 609659.974329561 399323.61235613376 0 0 0 0 15133789.454559326 -18123692.001266479 0 -18123692.001266479 -134779937.21108246 0 0 0 0 -72306278.048938751 -352021725.08969879 0 -352021725.08969879 -226815911.64030457 0 0 0 0 -114913613.76272583 87683179.935241699 0 87683179.935241699 1606931.6423034668 0 0 0 0 -46732754.416809082 -37554513.408508301 0 -37554513.408508301 47627932.863220215 0 0 0 0 -95716491.106971741 65660857.893024445 0 65660857.893024445 -159761622.81791687 0 0 0 0 -155742850.96242905 160632503.45458603 0 160632503.45458603 -122116597.7865448 0 0 0 0 -256042554.7771225 89062421.082565308 0 89062421.082565308 50409427.89932251 0 0 0 0 214636126.76559019 316067928.96633196 0 316067928.96633196 37740814.140380859 0 0 0 0 -3116476.9207707308 5833777.4780565947 0 5833777.4780565947 -9274180.0780480355 0 0 0 0 252917180.03191376 60398455.63142395 0 60398455.63142395 74071779.371002197 0 0 0 0 46952461.159510136 293578518.4970808 0 293578518.4970808 96363474.144348145 0 0 0 0 -107011879.96796989 34316340.786344528 0 34316340.786344528 121509965.16288757 0 0 0 0 187647583.52532196 110936003.13065338 0 110936003.13065338 62123637.67489624 0 0 0 0 -86643748.875450134 165055672.64228058 0 165055672.64228058 65174472.9245224 0 0 0 0 67968635.03633976 167280764.75586128 0 167280764.75586128 -20935972.170120239 0 0 0 0 -72145143.292877197 32028831.268959045 0 32028831.268959045 -15440247.891311646 0 0 0 0 -54329498.079841614 -6808397.62109375 0 -6808397.62109375 11526619.622329712 0 0 0 0 -195229464.19042206 442805395.70510864 0 442805395.70510864 -445305366.68406105 0 0 0 0 -205559275.39125061 -24137239.046325684 0 -24137239.046325684 -38911031.076469421 0 0 0 0 -628100099.81088257 127646715.45523834 0 127646715.45523834 -82679613.743133545 0 0 0 0 -254888790.90982056 265275957.44059753 0 265275957.44059753 -47738438.684890747 0 0 0 0 120365823.32415771 117618745.15550995 0 117618745.15550995 -14473790.246170044 0 0 0 0 281762168.87906647 294612994.03874207 0 294612994.03874207 -745050354.60778046 0 0 0 0 102309684.56996918 200337621.61557007 0 200337621.61557007 -388605784.36373901 0 0 0 0 248873031.24870682 24499662.037577629 0 24499662.037577629 -489609409.70462036 0 0 0 0 498007757.8794632 63467744.742202759 0 63467744.742202759 -498524348.81556129 0 0 0 0 -87616250.612707138 37231680.303741455 0 37231680.303741455 209363099.11012268 0 0 0 0 -2756436.8931312487 3198089.6054259092 0 3198089.6054259092 -542930.71714735217 0 0 0 0 -335310415.07073975 267526367.16744995 0 267526367.16744995 429306.05897121888 0 0 0 0 -4473303.9234313965 -10810584.679214478 0 -10810584.679214478 -870374.15995788574 0 0 0 0 -1094738386.5612335 142873037.75999451 0 142873037.75999451 214106878.59981537 0 0 0 0 16287753.692451477 29111320.935081482 0 29111320.935081482 61832255.438362122 0 0 0 0 -6367375.1727905273 3923543.4328754842 0 3923543.4328754842 -380411.19201363437 0 0 0 0 51533618.000379562 59200781.443918228 0 59200781.443918228 190417.02519989014 0 0 0 0 -201527.46202018112 1609500.7398272157 0 1609500.7398272157 -4107172.9240561277 0 0 0 0 290332827.81353378 -179734249.58505535 0 -179734249.58505535 -521783049.88067627 0 0 0 0 -352567.60595531296 567052.27962747216 0 567052.27962747216 -851015.44222766161 0 0 0 0 -1325539360.00354 117626062.42520142 0 117626062.42520142 217332004.01879883 0 0 0 0 -657454769.08359528 1015700904.2226944 0 1015700904.2226944 -975723619.40634155 0 0 0 0 -105168457.84286499 -258850755.88697815 0 -258850755.88697815 -68687210.50680542 0 0 0 0 -857627679.9476757 354586479.64608383 0 354586479.64608383 -5509230.6486816406 0 0 0 0 179306971.11111069 -3396947.5278625488 0 -3396947.5278625488 -306260555.81930542 0 0 0 0 507286439.89573169 -169104284.94500136 0 -169104284.94500136 -556473821.95880127 0 0 0 0 444811711.00526428 678422379.33873749 0 678422379.33873749 -586042945.34128571 0 0 0 0 -388115158.57370758 750285079.06880951 0 750285079.06880951 -282645644.63230896 0 0 0 0 642790067.03556061 -82794945.753463745 0 -82794945.753463745 -284287309.30747986 0 0 0 0 14991971.382156372 259535345.49099731 0 259535345.49099731 -332446335.56725311 0 0 0 0 48377185.932674408 291250451.67984772 0 291250451.67984772 -326630659.90223694 0 0 0 0 -73307653.530136108 338541071.48285675 0 338541071.48285675 -324200210.43364716 0 0 0 0 -304644599.21370888 96322620.097673416 0 96322620.097673416 -84460683.325897217 0 0 0 0 -53738656.891921997 4242560.9411087036 0 4242560.9411087036 -96184524.813942909 0 0 0 0 -235792512.47613907 10635103.003070831 0 10635103.003070831 354111450.33831787 0 0 0 0 -225375112.04305267 319830455.15552521 0 319830455.15552521 159875401.67797852 0 0 0 0 36901679.019329071 -338206692.92111969 0 -338206692.92111969 -27548373.440307617 0 0 0 0 -827004.92259113956 1597834.5357739553 0 1597834.5357739553 40074.649398043752 0 0 0 0 -68231880.733390808 22899705.751144409 0 22899705.751144409 -26923962.167770386 0 0 0 0 218398755.05503082 168667736.37989044 0 168667736.37989044 -662745016.73068237 0 0 0 0 -202278689.93024445 -374254723.95576859 0 -374254723.95576859 273147734.68217468 0 0 0 0 -89735094.914634705 87754449.992324829 0 87754449.992324829 -105260155.4070282 0 0 0 0 -15530117.042926788 88349682.765224457 0 88349682.765224457 51967581.987190247 0 0 0 0 -5905218.5786189176 5777286.0249842182 0 5777286.0249842182 -4234467.7557965219 0 0 0 0 -9706482.9460991621 -13262859.289129019 0 -13262859.289129019 -5030418.8108520508 0 0 0 0 251416307.77865219 286912267.84899521 0 286912267.84899521 199757187.03055573 0 0 0 0 228173957.35044098 180679959.65128326 0 180679959.65128326 175043927.20221519 0 0 0 0 -5053326.3429597095 4676757.0460965782 0 4676757.0460965782 5936109.3201127201 0 0 0 0 -8058092.2795744799 9118098.234362781 0 9118098.234362781 -5760307.6432428956 0 0 0 0 -31712158.043762207 17671656.491104126 0 17671656.491104126 45053409.531188965 0 0 0 0 141553441.52057171 93768338.370185852 0 93768338.370185852 -10781070.34602356 0 0 0 0 -51855029.764221191 106201791.81466675 0 106201791.81466675 153938843.96622086 0 0 0 0 -125806926.2720108 40839041.76537323 0 40839041.76537323 -125462337.97057343 0 0 0 0 -67284306.635528564 -37060190.185058594 0 -37060190.185058594 -31545524.330108643 0 0 0 0 -6389554.3457814008 3996720.5847059339 0 3996720.5847059339 -1181783.1964062378 0 0 0 0 -124735070.65366364 -99313077.979789734 0 -99313077.979789734 -67937149.431365967 0 0 0 0 -22723556.104598999 1625902.3094291687 0 1625902.3094291687 6139674.276260376 0 0 0 0 990883.25769042969 11979941.888092041 0 11979941.888092041 -447340.43045043945 0 0 0 0 -202944329.37153435 -41100665.856887817 0 -41100665.856887817 -2123164.7827911377 0 0 0 0 -14238644.046622459 4220053.6093842164 0 4220053.6093842164 5983522.6242752522 0 0 0 0 -91367021.364887238 -55767849.676628113 0 -55767849.676628113 -34401917.54057312 0 0 0 0 -56084696.831634521 -32596336.761001587 0 -32596336.761001587 -77944046.247938156 0 0 0 0 -97859516.192354679 -8051251.3520483971 0 -8051251.3520483971 26657457.688171387 0 0 0 0 -82397879.940056801 -27698817.272842407 0 -27698817.272842407 12617390.704772949 0 0 0 0 11589727.316608429 662003.95306396484 0 662003.95306396484 24640805.850357056 0 0 0 0 -72269976.615341187 63506228.402526855 0 63506228.402526855 19621822.050502777 0 0 0 0 -95686051.975654602 -31780081.482635498 0 -31780081.482635498 -17122708.877872467 0 0 0 0 -14841342.849445343 50468445.317127228 0 50468445.317127228 272504142.304245 0 0 0 0 -10067170.621678345 7255943.3525678888 0 7255943.3525678888 -924848.83280482143 0 0 0 0 -3591072.2310218811 12277960.375732422 0 12277960.375732422 -1336544.5787582397 0 0 0 0 -19455616.640472412 55333670.348892212 0 55333670.348892212 47681325.894021988 0 0 0 0 -95228031.912334442 -19360585.083346367 0 -19360585.083346367 27076997.421379089 0 0 0 0 -52921037.438591003 -31341377.417064667 0 -31341377.417064667 12778153.541656494 0 0 0 0 -90060928.423721611 -12037087.539520979 0 -12037087.539520979 13097348.922027588 0 0 0 0 133827365.48830795 252955419.96351242 0 252955419.96351242 222236474.36552429 0 0 0 0 -109704458.74426651 24406264.310005188 0 24406264.310005188 5359417.3495063782 0 0 0 0 -7446647.4372230917 4137402.9657066017 0 4137402.9657066017 -429478.8449703306 0 0 0 0 167547108.07025051 217265877.9246788 0 217265877.9246788 126016399.39326477 0 0 0 0 240161760.62000656 300761977.95256042 0 300761977.95256042 220506090.85758209 0 0 0 0 323084715.72857666 182512628.64689255 0 182512628.64689255 18475051.295864105 0 0 0 0 161226884.57886887 140905965.27214622 0 140905965.27214622 270834463.73629761 0 0 0 0 180395612.62633133 97261517.711997986 0 97261517.711997986 86565091.768257141 0 0 0 0 41137041.403934479 175370779.37129593 0 175370779.37129593 44714862.232570648 0 0 0 0 248417081.48356247 207698870.03206253 0 207698870.03206253 169744279.75785255 0 0 0 0 161436486.32217407 270670649.71059418 0 270670649.71059418 224124931.08874512 0 0 0 0 460501232.61946869 389248918.57749176 0 389248918.57749176 275730617.72454834 0 0 0 0 -3968579.2699988484 4488936.0607034452 0 4488936.0607034452 2062330.1752316505 0 0 0 0 113063459.5801506 32155615.150913239 0 32155615.150913239 -158249537.92197609 0 0 0 0 227814583.15969658 114987489.35819435 0 114987489.35819435 -222728584.86043549 0 0 0 0 194288243.42386246 109225595.29576874 0 109225595.29576874 -190847.06224822998 0 0 0 0 123033677.62006378 162834616.25611877 0 162834616.25611877 129211277.78941441 0 0 0 0 232908843.92301941 174304044.22276688 0 174304044.22276688 -3123615.5724868774 0 0 0 0 91603038.733675003 157133794.26205826 0 157133794.26205826 278510547.64624023 0 0 0 0 191924389.88945007 48185437.112823486 0 48185437.112823486 124263678.32131958 0 0 0 0 141337290.2032547 168192992.34108734 0 168192992.34108734 99384535.411987305 0 0 0 0 141489577.21373749 79895593.469787598 0 79895593.469787598 81053508.901296616 0 0 0 0 173666857.14214706 140721067.62002563 0 140721067.62002563 -20230246.848602295 0 0 0 0 140552261.07181516 166345217.01555327 0 166345217.01555327 -3251455.8218078613 0 0 0 0 94934011.093372345 56405800.855407715 0 56405800.855407715 -93986849.298751831 0 0 0 0 45500109.743583679 204614558.99289131 0 204614558.99289131 -70375399.528701782 0 0 0 0 172045513.05188751 129320426.28374481 0 129320426.28374481 -32229409.881546021 0 0 0 0 184340076.24372101 69808917.309185028 0 69808917.309185028 -121763307.03025818 0 0 0 0 141619480.01688004 52183042.811065674 0 52183042.811065674 -114473402.67573929 0 0 0 0 156624336.20827675 73565938.531003952 0 73565938.531003952 -145523572.16486359 0 0 0 0 73145362.168138504 17572159.303649902 0 17572159.303649902 -148448768.53883362 0 0 0 0 327387.17374474148 1095415.945384901 0 1095415.945384901 -613640.8264914602 0 0 0 0 149595589.58606863 53414000.422836035 0 53414000.422836035 -15342730.754371643 0 0 0 0 -74612222.892230988 111396742.68022728 0 111396742.68022728 -86016818.554088593 0 0 0 0 53596892.528459549 16758170.615848541 0 16758170.615848541 -30797426.577659607 0 0 0 0 -1494616.2511367798 9050696.5239219666 0 9050696.5239219666 -27193787.796902657 0 0 0 0 200995642.84089279 -104996656.17214966 0 -104996656.17214966 -55014205.186230659 0 0 0 0 38322679.511768341 -64228599.474098206 0 -64228599.474098206 -46743798.800899982 0 0 0 0 213437742.07685661 18213005.972896576 0 18213005.972896576 -153100343.78499603 0 0 0 0 217209132.70191765 41214149.735579014 0 41214149.735579014 -247690085.82868958 0 0 0 0 311292444.86916351 -32549416.070711136 0 -32549416.070711136 -203975845.4380188 0 0 0 0 154494487.27376556 150975759.15306091 0 150975759.15306091 4690883.2078828812 0 0 0 0 165515254.89175415 -105493730.82618713 0 -105493730.82618713 82636330.695732117 0 0 0 0 404515628.79457283 51610680.197431564 0 51610680.197431564 -6521625.8167495728 0 0 0 0 250438602.95627403 229523620.80573463 0 229523620.80573463 196649118.81989288 0 0 0 0 797033.16401339322 -757917.76462265849 0 -757917.76462265849 1097308.8807071671 0 0 0 0 95612303.943332672 101295226.73793793 0 101295226.73793793 138319226.45526123 0 0 0 0 119925800.85189438 126181682.29351425 0 126181682.29351425 61420098.698547363 0 0 0 0 112540885.66633606 -2052606.8502044678 0 -2052606.8502044678 69806490.3416996 0 0 0 0 115300421.48202515 116179242.52017212 0 116179242.52017212 -1377376.5473632812 0 0 0 0 75702594.674671173 113744210.60222244 0 113744210.60222244 73129960.660964966 0 0 0 0 126862082.19645691 110738151.1391983 0 110738151.1391983 5255118.8784332275 0 0 0 0 -56618.206324446946 160737.16893651336 0 160737.16893651336 233498.13205471635 0 0 0 0 179189162.17045975 29029149.666046143 0 29029149.666046143 97467126.711029053 0 0 0 0 73242827.342460632 29373497.805900574 0 29373497.805900574 -127298585.50741768 0 0 0 0 -262312.51890431345 8575.8462328463793 0 8575.8462328463793 21482.915075011551 0 0 0 0 30233493.401473999 -17027485.889167786 0 -17027485.889167786 -53368808.823539734 0 0 0 0 55317375.688138962 16604754.483142853 0 16604754.483142853 -8329603.2159347534 0 0 0 0 167220.15391273424 27946.052877351642 0 27946.052877351642 157868.70388138294 0 0 0 0 103732272.30767393 25092309.841114998 0 25092309.841114998 -10266774.212844849 0 0 0 0 90394878.359687805 -16440019.914608002 0 -16440019.914608002 9191246.3234405518 0 0 0 0 126743589.06597137 77534658.345024109 0 77534658.345024109 -10376420.477096558 0 0 0 0 76782671.406686783 20138415.93580246 0 20138415.93580246 1074799.9864273071 0 0 0 0 48055531.965381622 -1237815.6612281799 0 -1237815.6612281799 876797.01623153687 0 0 0 0 36301090.646118164 11035613.92429924 0 11035613.92429924 1971103.5997161865 0 0 0 0 133161883.4491272 35306336.927757263 0 35306336.927757263 121560479.73371124 0 0 0 0 183466166.85324097 91918939.360055923 0 91918939.360055923 32967479.298156738 0 0 0 0 59187922.700912476 143201012.03141785 0 143201012.03141785 129218592.5536499 0 0 0 0 68424404.120437622 65852319.43901825 0 65852319.43901825 30108623.577838898 0 0 0 0 135447505.51190948 69805092.980735779 0 69805092.980735779 14741190.702035904 0 0 0 0 114878378.91313362 84437547.041166306 0 84437547.041166306 82768623.814147949 0 0 0 0 73481831.277130127 36979212.392055511 0 36979212.392055511 38302907.785964966 0 0 0 0 118897146.88738251 75410491.041297913 0 75410491.041297913 44843725.006118774 0 0 0 0 75035824.610954285 72225444.406024933 0 72225444.406024933 87191893.031318665 0 0 0 0 111740464.88258362 83302691.7057724 0 83302691.7057724 33518164.261108398 0 0 0 0 121918526.10192871 98322271.906890869 0 98322271.906890869 50589640.014940262 0 0 0 0 130893208.26787186 92445753.786273956 0 92445753.786273956 37238834.128585815 0 0 0 0 145360737.20962524 80038266.265563965 0 80038266.265563965 32808767.003555298 0 0 0 0 155495560.8290863 28509576.47479248 0 28509576.47479248 -9312654.8971405029 0 0 0 0 180414925.6975174 103498965.17281342 0 103498965.17281342 40266939.730407715 0 0 0 0 167847704.12902832 86024333.818580627 0 86024333.818580627 15972773.617828369 0 0 0 0 150640116.62719727 111831052.14898682 0 111831052.14898682 53233206.144042969 0 0 0 0 170091308.42548752 142850458.01667023 0 142850458.01667023 132066481.67723083 0 0 0 0 -45683509.008318365 -28231283.505322039 0 -28231283.505322039 69981697.569625854 0 0 0 0 370494560.10852814 79774862.73664093 0 79774862.73664093 17963068.217163086 0 0 0 0 -241794.11932447227 -53113.248495616019 0 -53113.248495616019 305847.23915584385 0 0 0 0 347728234.58496094 131017061.3730011 0 131017061.3730011 41916164.689727783 0 0 0 0 -5970980.9731009603 246320.29598800093 0 246320.29598800093 1868507.5284395218 0 0 0 0 355108077.70195007 46654390.122558594 0 46654390.122558594 -82267620.969787598 0 0 0 0 -190311.79739229381 -17088.079281482846 0 -17088.079281482846 155010.73005180061 0 0 0 0 2475923.5870527448 -190665.62644577771 0 -190665.62644577771 1668653.9968812019 0 0 0 0 569258.70719987154 2421216.2686674595 0 2421216.2686674595 1980714.3908843994 0 0 0 0 112256575.29076004 88262354.177078247 0 88262354.177078247 62969901.138492584 0 0 0 0 100914803.57939529 52620832.868015289 0 52620832.868015289 40821889.669265747 0 0 0 0 13368966.311041597 5340160.077248387 0 5340160.077248387 2130416.19286713 0 0 0 0 121549705.82751465 75143036.080196381 0 75143036.080196381 60569280.081863403 0 0 0 0 132080621.79647827 79837679.724891663 0 79837679.724891663 34745061.654594421 0 0 0 0 120023866.39322662 107317036.35365295 0 107317036.35365295 28244044.635742188 0 0 0 0 128818901.44324589 92876678.180455208 0 92876678.180455208 37170505.901306152 0 0 0 0 121051169.57112122 99728599.952651978 0 99728599.952651978 59497405.312347412 0 0 0 0 106474806.99643326 93101898.183979034 0 93101898.183979034 61697671.457943916 0 0 0 0 106300544.77597046 94858183.572502136 0 94858183.572502136 79054116.823932648 0 0 0 0 119800928.08598137 119563352.84671021 0 119563352.84671021 62852947.790863037 0 0 0 0 69285391.482031941 23169875.061195374 0 23169875.061195374 -1365987.7227935791 0 0 0 0 3442450.0605821819 1882717.8748970404 0 1882717.8748970404 -1666355.9603320062 0 0 0 0 4255591.9010510109 -1329062.3419315666 0 -1329062.3419315666 2001910.3514463603 0 0 0 0 8660552.1951944679 11701257.765839189 0 11701257.765839189 -27573099.064125061 0 0 0 0 25889750.540725157 27917051.356134042 0 27917051.356134042 6014825.4837514907 0 0 0 0 46084741.957759857 17356582.50056076 0 17356582.50056076 -386295.74967193604 0 0 0 0 51716900.312316895 32391009.753238678 0 32391009.753238678 -948108.49124836922 0 0 0 0 55865006.266853333 47375560.732585907 0 47375560.732585907 -9487477.0735301971 0 0 0 0 53496803.904644012 -4300674.647102356 0 -4300674.647102356 18095167.908721924 0 0 0 0 7210153.2698669434 50702607.292800903 0 50702607.292800903 36431969.601104736 0 0 0 0 186199234.54721069 70256919.184989929 0 70256919.184989929 -30190461.045944214 0 0 0 0 16312477.563034058 16523160.003299713 0 16523160.003299713 9862633.9380340576 0 0 0 0 4385447.3903656006 19214530.493087769 0 19214530.493087769 18799194.575805664 0 0 0 0 45789893.079647064 117743132.35592556 0 117743132.35592556 5092401.0506057739 0 0 0 0 8659854.6396446228 52905553.868625641 0 52905553.868625641 4210137.2604675293 0 0 0 0 29184138.05569458 25805643.113540649 0 25805643.113540649 2905592.0258178711 0 0 0 0 25462914.761505127 17915251.546669006 0 17915251.546669006 12989166.620941162 0 0 0 0 45543526.150390625 6990648.7189178467 0 6990648.7189178467 3483635.6407623291 0 0 0 0 24393304.605384827 12479958.414093018 0 12479958.414093018 10530883.785751343 0 0 0 0 4696075.0617855527 1084653.0015814006 0 1084653.0015814006 -217069.1480665952 0 0 0 0 25390977.232391357 27298845.52961731 0 27298845.52961731 8637285.3693065643 0 0 0 0 1867114.9590800926 15873952.33949481 0 15873952.33949481 3697320.8172519654 0 0 0 0 5386355.7472229153 16323425.05388055 0 16323425.05388055 4901546.2324448228 0 0 0 0 14315860.713607788 9990745.6040534973 0 9990745.6040534973 1433882.6644821167 0 0 0 0 -4403060.3258213699 13787576.972689949 0 13787576.972689949 9586974.3586532325 0 0 0 0 -17769894.61794281 22343404.673530579 0 22343404.673530579 -5218990.4696807861 0 0 0 0 -11303539.159502029 -4689461.1229248047 0 -4689461.1229248047 -21253751.1277771 0 0 0 0 -631228.0139465332 33560175.840393066 0 33560175.840393066 -1190296.2734870911 0 0 0 0 -32424162.740455627 5599267.0591936111 0 5599267.0591936111 25642144.740829468 0 0 0 0 -7011600.6280212402 80368687.085250854 0 80368687.085250854 170100510.93806458 0 0 0 0 -8805878.1444501877 -3107794.3061990738 0 -3107794.3061990738 47543651.382049561 0 0 0 0 -25427394.004882812 25080792.850914001 0 25080792.850914001 95367159.625915527 0 0 0 0 -8358916.3980484009 35257332.914680481 0 35257332.914680481 33679108.896514893 0 0 0 0 -22829136.141563416 27551717.569961548 0 27551717.569961548 -3816978.787979126 0 0 0 0 -20577838.70499602 17052976.468272887 0 17052976.468272887 10572993.659133345 0 0 0 0 10283069.922710463 8317287.3013876528 0 8317287.3013876528 -414473.15749350935 0 0 0 0 -69496579.170860291 40797892.77015686 0 40797892.77015686 26097932.720170975 0 0 0 0 -30058678.008422852 133465356.29967117 0 133465356.29967117 -44893663.631858826 0 0 0 0 -158287050.25378799 153540333.90429878 0 153540333.90429878 11023980.788986206 0 0 0 0 -43321781.723243713 -75825650.805164337 0 -75825650.805164337 84922460.794998169 0 0 0 0 52946808.839736938 -67529816.511619568 0 -67529816.511619568 67624621.397403717 0 0 0 0 -204069634.79241943 24142610.559394836 0 24142610.559394836 174109087.02667236 0 0 0 0 18172486.629867554 171341458.1840744 0 171341458.1840744 36638870.209438324 0 0 0 0 41629715.60471344 105318770.84259796 0 105318770.84259796 36620373.566917419 0 0 0 0 3874600.0137023926 79768811.638397217 0 79768811.638397217 61675600.032821655 0 0 0 0 45825738.123428345 90763045.515604019 0 90763045.515604019 58927521.505813599 0 0 0 0 -18316347.637794495 9542204.2381668091 0 9542204.2381668091 8223279.8433685303 0 0 0 0 22434805.073730469 85555264.692474365 0 85555264.692474365 -46005658.309036255 0 0 0 0 264728133.23627472 286967238.42377853 0 286967238.42377853 33123866.156761169 0 0 0 0 -4947454.9953384399 169231400.19607925 0 169231400.19607925 55345710.126777649 0 0 0 0 157758155.85289001 181316580.10360336 0 181316580.10360336 33306592.497663498 0 0 0 0 144137837.43389893 38284774.634239197 0 38284774.634239197 -20579700.130103111 0 0 0 0 122974758.8539238 -164614014.33488464 0 -164614014.33488464 148193212.06342316 0 0 0 0 447131450.1000061 21085064.546554565 0 21085064.546554565 -29865783.216636658 0 0 0 0 1241491567.3709488 -173277477.40846062 0 -173277477.40846062 -269944646.33814621 0 0 0 0 258103242.51208496 289904936.03011322 0 289904936.03011322 411716877.26163864 0 0 0 0 134882565.20050812 33953076.277637482 0 33953076.277637482 -114096999.86074829 0 0 0 0 -182569189.43258667 171678849.21259308 0 171678849.21259308 238790800.94406891 0 0 0 0 1529822.3560978919 1746648.8237739317 0 1746648.8237739317 1231057.6526394635 0 0 0 0 -220693213.77191544 316444775.03938484 0 316444775.03938484 127651539.03287506 0 0 0 0 -52243702.627876282 296981199.78326416 0 296981199.78326416 38475666.990560532 0 0 0 0 -308651655.88523865 288914675.72457886 0 288914675.72457886 323106750.78463936 0 0 0 0 354684085.65223694 167669995.86616135 0 167669995.86616135 95284728.44094944 0 0 0 0 -594790283.50238037 112289248.68479919 0 112289248.68479919 375970678.33997345 0 0 0 0 1573130.9756257581 1584633.5825575963 0 1584633.5825575963 -1285875.7842107862 0 0 0 0 -310894188.97531128 106608972.33890533 0 106608972.33890533 203252041.52087402 0 0 0 0 482357631.59785461 169203005.35335541 0 169203005.35335541 -446491393.44234467 0 0 0 0 362715537.77378845 -258013086.01734161 0 -258013086.01734161 173140922.48118591 0 0 0 0 99560551.870681763 124825862.3543129 0 124825862.3543129 -29413940.550506592 0 0 0 0 120854318.73708344 -98097959.820306778 0 -98097959.820306778 -61488292.268943787 0 0 0 0 9780750.5965205841 5974077.3131862357 0 5974077.3131862357 -4260969.7101958692 0 0 0 0 -140259907.67792511 37470842.716381073 0 37470842.716381073 71264703.052139282 0 0 0 0 323211119.49766541 -26265101.635040283 0 -26265101.635040283 -35146091.207687378 0 0 0 0 655920205.29975128 -158124348.23512268 0 -158124348.23512268 -62795440.633529663 0 0 0 0 3318268.6790958084 5287254.5027216636 0 5287254.5027216636 7151267.9046664089 0 0 0 0 -103691413.61933136 -326304857.02852249 0 -326304857.02852249 -1287592497.6837921 0 0 0 0 272801786.37475586 -75348337.611930847 0 -75348337.611930847 110574052.29681396 0 0 0 0 314123085.61509705 28202007.910621643 0 28202007.910621643 36806162.424152374 0 0 0 0 271705774.08156586 -24006702.031932831 0 -24006702.031932831 -26373081.691177368 0 0 0 0 284399380.98152161 21825370.216758728 0 21825370.216758728 -33227525.14998436 0 0 0 0 301663475.36718655 -48666604.182821274 0 -48666604.182821274 -26282568.83065033 0 0 0 0 118447764.70849609 -36058469.483642578 0 -36058469.483642578 14015330.439094543 0 0 0 0 316848557.74256516 -7272487.0366516113 0 -7272487.0366516113 -26038641.979614258 0 0 0 0 271526930.43697357 -75271022.210346222 0 -75271022.210346222 -14585289.505249023 0 0 0 0 -2059760.7581870258 6178035.7078019734 0 6178035.7078019734 852646.10738434643 0 0 0 0 -36195461.155193329 3195345.9536590576 0 3195345.9536590576 -20475977.74584198 0 0 0 0 90097306.950282097 74045600.512185097 0 74045600.512185097 -18744413.091362 0 0 0 0 94561559.894924164 -10754918.068897247 0 -10754918.068897247 -29992090.3360672 0 0 0 0 177754423.22320557 70519607.78931427 0 70519607.78931427 -4055512.5696468353 0 0 0 0 22675974.054867085 29780369.978597693 0 29780369.978597693 5228619.3518406749 0 0 0 0 23110034.068721771 37715845.379837036 0 37715845.379837036 16342525.832397461 0 0 0 0 51924728.395038605 35603981.446949005 0 35603981.446949005 14683835.295412064 0 0 0 0 49535971.948505402 25535331.874702454 0 25535331.874702454 17714391.152305603 0 0 0 0 59941216.767566681 12001133.502788544 0 12001133.502788544 15927080.518455982 0 0 0 0 146999252.96063995 -99970813.391658783 0 -99970813.391658783 97530524.414779663 0 0 0 0 9035419.9091835022 52957802.940696716 0 52957802.940696716 9866289.6525497437 0 0 0 0 6756774.7001084378 28018071.653819598 0 28018071.653819598 -3352224.762596786 0 0 0 0 -361535593.79236221 532387174.37859344 0 532387174.37859344 -559628916.85957336 0 0 0 0 -368104352.37857056 -58912041.394325256 0 -58912041.394325256 389591330.42417908 0 0 0 0 54800851.989469528 123547846.085495 0 123547846.085495 103003266.25719452 0 0 0 0 41976359.560211182 177747148.60666656 0 177747148.60666656 -125924095.70075226 0 0 0 0 78948661.326728821 280612794.65558624 0 280612794.65558624 -106157039.99163246 0 0 0 0 -255621966.95138597 363489325.0649786 0 363489325.0649786 -82022068.569953918 0 0 0 0 169805680.7272644 200067153.66300201 0 200067153.66300201 -61678594.097736359 0 0 0 0 -3433742.9741280377 1348641.9156043455 0 1348641.9156043455 544362.55724497885 0 0 0 0 -143209840.74478912 -233872028.2547226 0 -233872028.2547226 -94795385.923950195 0 0 0 0 -194355339.91205597 -161876156.39782715 0 -161876156.39782715 7227080.3586540222 0 0 0 0 21472567.35022831 56767410.587424278 0 56767410.587424278 -212513429.16238403 0 0 0 0 -277321862.74860382 -194430750.35483551 0 -194430750.35483551 67975793.631622314 0 0 0 0 -3368818.1076015616 27398181.225536339 0 27398181.225536339 -4512851.5948185772 0 0 0 0 -252153390.06345367 -53425323.351066589 0 -53425323.351066589 129237648.28622627 0 0 0 0 -32565804.163862705 54327982.283989906 0 54327982.283989906 51083121.365280151 0 0 0 0 27888815.206619263 69623623.476806641 0 69623623.476806641 -30301108.208729506 0 0 0 0 29146961.691020966 76264026.664880753 0 76264026.664880753 -311056.10244750977 0 0 0 0 264879239.34320068 197104165.82036209 0 197104165.82036209 60551949.062549591 0 0 0 0 270276175.17179871 82651061.940872192 0 82651061.940872192 -90275115.271255493 0 0 0 0 455237203.96455383 43494852.316959381 0 43494852.316959381 -82201680.984954834 0 0 0 0 -3648103.8275146484 111370539.96951294 0 111370539.96951294 161203362.24556351 0 0 0 0 439102929.75174713 -113119055.19472885 0 -113119055.19472885 -37642556.438272476 0 0 0 0 -12471988.773773193 29070164.330089569 0 29070164.330089569 108072400.38955688 0 0 0 0 2752823.436234206 2032851.3330810592 0 2032851.3330810592 -1467718.53690359 0 0 0 0 -1955770.0990524292 -15661284.90209198 0 -15661284.90209198 -10287073.608100891 0 0 0 0 14932984.746253967 73170365.015304565 0 73170365.015304565 28832295.789367676 0 0 0 0 -99514397.600799561 753446.66847610474 0 753446.66847610474 6748601.209318161 0 0 0 0 405050825.63515711 157167388.49640584 0 157167388.49640584 1773056.3667144775 0 0 0 0 -8277213.8249381632 22717964.7034944 0 22717964.7034944 13989403.104521811 0 0 0 0 -9639347.1874351501 -38820591.233667374 0 -38820591.233667374 144323792.15174866 0 0 0 0 157732222.4815979 -155348630.45314026 0 -155348630.45314026 205970469.58240509 0 0 0 0 273363075.16035461 82911630.859764099 0 82911630.859764099 -111094272.9744072 0 0 0 0 -8309972.4046450779 3482085.0698971227 0 3482085.0698971227 24219137.878178462 0 0 0 0 -44966235.581939697 52237903.022129059 0 52237903.022129059 -2277046.0690498352 0 0 0 0 -97231974.66078186 49736726.398053169 0 49736726.398053169 45630187.472213745 0 0 0 0 -53178447.931137085 12487198.309602737 0 12487198.309602737 28693036.131301165 0 0 0 0 63131149.425865173 75080278.34262085 0 75080278.34262085 28606109.914382935 0 0 0 0 68023555.21681881 140397012.58691251 0 140397012.58691251 49719691.563728333 0 0 0 0 -6816901.8305746987 12133498.289382294 0 12133498.289382294 -18026106.505408876 0 0 0 0 82796760.871253967 48918967.378023148 0 48918967.378023148 15474183.065177917 0 0 0 0 9855684.3754138947 111979318.79271984 0 111979318.79271984 72903232.320072174 0 0 0 0 -91820980.821914673 54352095.141572952 0 54352095.141572952 44626709.050392151 0 0 0 0 -32291225.687179565 31014824.341903687 0 31014824.341903687 27481940.718322277 0 0 0 0 -119677848.56535339 30767796.977060318 0 30767796.977060318 -15113667.686080933 0 0 0 0 -108925003.40384674 10821537.810028076 0 10821537.810028076 19864906.351175308 0 0 0 0 -55612581.719566345 133929610.82517004 0 133929610.82517004 -18282636.591537476 0 0 0 0 2487649.1087646484 67464851.883678436 0 67464851.883678436 -47565412.014644623 0 0 0 0 -250532256.61953163 -40090170.428697586 0 -40090170.428697586 -36865236.08367157 0 0 0 0 -135606298.88951874 172167731.06822491 0 172167731.06822491 -99750555.0234375 0 0 0 0 187283895.95435333 82358376.22807312 0 82358376.22807312 -116837501.67564392 0 0 0 0 6953588.4720458984 18424707.256065369 0 18424707.256065369 166996630.75495911 0 0 0 0 34528605.323345184 107097432.3711195 0 107097432.3711195 6553336.273651123 0 0 0 0 -156636300.62080383 80277.276744842529 0 80277.276744842529 27418407.747816086 0 0 0 0 760311.10530599952 8573037.6411248371 0 8573037.6411248371 -6445356.0134699047 0 0 0 0 -1348989.7650974877 17640690.083990227 0 17640690.083990227 32670749.506283641 0 0 0 0 87025893.85622406 100306978.93294907 0 100306978.93294907 33248414.00592804 0 0 0 0 371722942.69639206 -30235024.000587463 0 -30235024.000587463 -38914498.761909485 0 0 0 0 3865889.9115620293 10321035.733398039 0 10321035.733398039 18956030.511142418 0 0 0 0 -68232369.033309937 -39353260.326148987 0 -39353260.326148987 127717165.38676453 0 0 0 0 -94350369.41178894 13824991.975236893 0 13824991.975236893 209907885.6985321 0 0 0 0 -137574138.76577759 156497212.08581161 0 156497212.08581161 439169705.50253296 0 0 0 0 -300754579.2563324 790928667.62631226 0 790928667.62631226 27084858.101238251 0 0 0 0 258520433.8862381 419746825.58845901 0 419746825.58845901 -655144594.96244812 0 0 0 0 -145134942.25149155 219377748.44867229 0 219377748.44867229 -64639656.32081604 0 0 0 0 182127162.80085373 51605223.499774456 0 51605223.499774456 -278689782.57157135 0 0 0 0 1378022.8670993894 -999317.02328054607 0 -999317.02328054607 -5042419.8843322992 0 0 0 0 305335149.8093338 224020255.65867996 0 224020255.65867996 -349775085.93963361 0 0 0 0 87964992.104293823 241569673.6295433 0 241569673.6295433 -347929235.14926147 0 0 0 0 444894204.26978302 61201808.129829407 0 61201808.129829407 -452352743.38497925 0 0 0 0 -35453777.449905396 -66065237.062030792 0 -66065237.062030792 -81848466.629917145 0 0 0 0 -199082287.08824921 -36795413.24578476 0 -36795413.24578476 93350750.382156372 0 0 0 0 23186023.869098663 24912262.933740616 0 24912262.933740616 2725649.708366394 0 0 0 0 -4838401.796106711 3071235.3553133681 0 3071235.3553133681 -1459145.0427283719 0 0 0 0 -198315423.01026917 -163572589.03165436 0 -163572589.03165436 -120864386.36038971 0 0 0 0 -589573899.42591858 -86933604.362773895 0 -86933604.362773895 247270740.69169617 0 0 0 0 -360346776.44874573 -175179185.29473114 0 -175179185.29473114 -24825636.061508179 0 0 0 0 -315375886.58952332 60529959.989982605 0 60529959.989982605 117106461.3111763 0 0 0 0 -171332145.25794983 112783418.48706055 0 112783418.48706055 121847798.16335678 0 0 0 0 -175829334.372473 -7153097.1544404626 0 -7153097.1544404626 66354756.923301697 0 0 0 0 -162774011.04919052 123218455.73506069 0 123218455.73506069 90571951.581886292 0 0 0 0 -76264033.832848072 3641249.9832533598 0 3641249.9832533598 37496383.808525085 0 0 0 0 -73660492.280128479 41911785.836669922 0 41911785.836669922 77395626.815246582 0 0 0 0 -46026153.893474579 50970216.558811188 0 50970216.558811188 60946348.827087402 0 0 0 0 -21921313.165290833 34857298.307735443 0 34857298.307735443 53958818.312210083 0 0 0 0 -68830562.404663086 102632975.73810577 0 102632975.73810577 74697845.84928894 0 0 0 0 -42666334.128852844 54306164.091495514 0 54306164.091495514 63842834.1426754 0 0 0 0 -2360275.2895545959 158010033.71287441 0 158010033.71287441 98081914.146034241 0 0 0 0 -1122040.2193984985 30596614.345050812 0 30596614.345050812 20182710.285058975 0 0 0 0 -6088760.679505825 20050417.582737565 0 20050417.582737565 13725467.935081482 0 0 0 0 -24154846.849525452 24984320.958633423 0 24984320.958633423 30422905.385753632 0 0 0 0 -5997376.0007858276 21465791.065326691 0 21465791.065326691 23547804.892066956 0 0 0 0 -10446472.848487854 16685299.347743988 0 16685299.347743988 29252691.888397217 0 0 0 0 -9137706.0284614563 20120799.601880074 0 20120799.601880074 23026121.505844116 0 0 0 0 -21346642.594398499 -5171585.5497512817 0 -5171585.5497512817 385536.34651184082 0 0 0 0 -10710294.027545929 13638971.272657394 0 13638971.272657394 20781172.422012329 0 0 0 0 161326366.34091187 -104312522.25911999 0 -104312522.25911999 43410770.673171997 0 0 0 0 -13715619.762338266 4814956.89041242 0 4814956.89041242 -1134239.8855645508 0 0 0 0 -10458456.141651154 33152940.895990372 0 33152940.895990372 37859593.41343689 0 0 0 0 -2094838.8094940186 186235283.49913406 0 186235283.49913406 -131998221.97518539 0 0 0 0 -700205497.13922119 -62843863.927238464 0 -62843863.927238464 419895432.64162064 0 0 0 0 -522782581.01111603 9614008.1088733673 0 9614008.1088733673 37234352.363040924 0 0 0 0 -340618564.67979813 281195296.97790813 0 281195296.97790813 -102194789.75112152 0 0 0 0 -61480308.033447266 91692164.520030975 0 91692164.520030975 -75221173.100982666 0 0 0 0 -63782436.682411194 84564878.718652725 0 84564878.718652725 -94499284.493610382 0 0 0 0 283314890.84809875 297022473.3567543 0 297022473.3567543 9729190.6547012329 0 0 0 0 636963.97531029582 817182.36950208992 0 817182.36950208992 -624114.37386131287 0 0 0 0 30723323.493301392 -7779907.9967079163 0 -7779907.9967079163 -72221201.016418457 0 0 0 0 119777701.97016907 980343266.08919525 0 980343266.08919525 223839419.95148087 0 0 0 0 356302347.99678802 -20342425.627178192 0 -20342425.627178192 -293795408.08613014 0 0 0 0 -16993705.567443848 32407700.991512299 0 32407700.991512299 59070013.917179108 0 0 0 0 373743.89293131232 313269.94471678138 0 313269.94471678138 681922.05845226347 0 0 0 0 27497855.050922394 -69806562.394654274 0 -69806562.394654274 -20018545.460670471 0 0 0 0 45444704.810180664 47889059.318305969 0 47889059.318305969 35929017.431503296 0 0 0 0 -50463049.219398499 -3088800.9760780334 0 -3088800.9760780334 168355005.48824501 0 0 0 0 -36057254.744171143 14633635.76354599 0 14633635.76354599 100858590.8085022 0 0 0 0 27458417.652114868 -2837836.4388809204 0 -2837836.4388809204 105460860.77682114 0 0 0 0 -16909666.177038148 8816549.7868188098 0 8816549.7868188098 978573.06369135156 0 0 0 0 -11897837.321159363 17229402.152858734 0 17229402.152858734 10627559.083677292 0 0 0 0 -1497119.8431632891 3326554.3848448098 0 3326554.3848448098 789867.11486768723 0 0 0 0 3013550.2124023438 30610523.866859436 0 30610523.866859436 31516360.508354187 0 0 0 0 -5738263.7668984458 15473762.06809362 0 15473762.06809362 8684649.9559458941 0 0 0 0 17675580.495306015 10595700.23016119 0 10595700.23016119 2116667.767791748 0 0 0 0 22197479.966308594 17069982.312576294 0 17069982.312576294 11182014.420141935 0 0 0 0 -9812984.9149017334 20784695.187671661 0 20784695.187671661 6286262.0866889954 0 0 0 0 -30392166.906632423 14604903.056710482 0 14604903.056710482 16893398.516429901 0 0 0 0 -4164651.1941070557 18847089.448158264 0 18847089.448158264 -5602519.247543335 0 0 0 0 -14245133.444641113 10842892.5378685 0 10842892.5378685 -4653184.2540817261 0 0 0 0 -11594574.999481201 15911793.615596771 0 15911793.615596771 4917758.8600769043 0 0 0 0 1308624.476390928 1345066.877348043 0 1345066.877348043 -2362510.4788394049 0 0 0 0 26662400.724662781 13120593.637994766 0 13120593.637994766 -2568648.008934021 0 0 0 0 -20266070.625991821 23604520.325077057 0 23604520.325077057 6374056.6964607239 0 0 0 0 22129906.785987854 10415806.827552795 0 10415806.827552795 -1034439.3451499939 0 0 0 0 4176407.0177633762 7270449.2293284312 0 7270449.2293284312 -1364726.4695724323 0 0 0 0 -15073930.936248779 18609114.010215759 0 18609114.010215759 29429623.950587273 0 0 0 0 -716013.97576904297 937310.70571899414 0 937310.70571899414 -4188458.9851722717 0 0 0 0 -32216050.657012939 19766113.192382812 0 19766113.192382812 47831760.675086975 0 0 0 0 -37323176.109100342 1420675.3506011963 0 1420675.3506011963 24841830.856838226 0 0 0 0 -1213353.5904541016 14484178.428672791 0 14484178.428672791 28194158.497442245 0 0 0 0 890102.69689458609 2383265.7625433616 0 2383265.7625433616 7382101.0449007973 0 0 0 0 -5176691.2350769043 13304609.323654175 0 13304609.323654175 -11786131.411230087 0 0 0 0 10741396.041454315 -2193121.9154949188 0 -2193121.9154949188 8716274.834312439 0 0 0 0 -2039.527717590332 15298533.661254883 0 15298533.661254883 -12501893.831863403 0 0 0 0 -19866641.605865479 21640753.018577576 0 21640753.018577576 -6792642.646987915 0 0 0 0 -5160138.5132446289 15180552.701850891 0 15180552.701850891 -16849688.621772766 0 0 0 0 2715495.1460732296 3140528.4086875692 0 3140528.4086875692 -5384638.7734123096 0 0 0 0 -5640721.2800350189 10058575.294545174 0 10058575.294545174 -17356475.332550049 0 0 0 0 -2202506.869545877 -136923.60307910293 0 -136923.60307910293 8228276.614387773 0 0 0 0 -2356.4752197265625 1260500.7771492004 0 1260500.7771492004 5667310.0201377869 0 0 0 0 1602957.1276626587 19376302.788481712 0 19376302.788481712 816210974.71706009 0 0 0 0 2707704.9161681309 -904668.09750525653 0 -904668.09750525653 1053401.5606966019 0 0 0 0 -515239405.25196838 -161100250.42874146 0 -161100250.42874146 826419834.43009663 0 0 0 0 1243271.4325591922 -2719345.502668418 0 -2719345.502668418 4861022.7838533446 0 0 0 0 -10898240.589813232 -14212422.671009064 0 -14212422.671009064 7142371.6772794724 0 0 0 0 -49348359.575500488 6564088.4488677979 0 6564088.4488677979 44726573.928281784 0 0 0 0 -44340149.624420166 -6468228.8146209717 0 -6468228.8146209717 31526724.195011139 0 0 0 0 63174.627634048462 268789246.24440002 0 268789246.24440002 -125236962.04478073 0 0 0 0 -120240772.67089653 174595066.23451233 0 174595066.23451233 151960380.39037514 0 0 0 0 -1947343.9582713991 2782543.1184380502 0 2782543.1184380502 -3691930.8907410726 0 0 0 0 10146765.558998108 -118801481.58960342 0 -118801481.58960342 -175628372.68594551 0 0 0 0 46869901.817638397 163184511.26289845 0 163184511.26289845 -49616690.583465576 0 0 0 0 211001055.73527527 72954643.56096077 0 72954643.56096077 -44652937.520462036 0 0 0 0 -5120912.9266794249 8093929.8939772993 0 8093929.8939772993 -11185267.192591928 0 0 0 0 131015985.69377136 123036798.5497303 0 123036798.5497303 -48777044.114736319 0 0 0 0 106418591.33116722 274291568.71968365 0 274291568.71968365 180299954.13584137 0 0 0 0 269297871.63051605 90320253.662310898 0 90320253.662310898 -279024733.6643219 0 0 0 0 272386574.75727081 251447146.72913742 0 251447146.72913742 61594013.4024086 0 0 0 0 -52335393.92616272 108354849.19265747 0 108354849.19265747 199566686.35938883 0 0 0 0 63562297.083843231 54709932.16784668 0 54709932.16784668 -110684892.17412567 0 0 0 0 79073517.653265953 195250466.95158529 0 195250466.95158529 50320952.216152191 0 0 0 0 226729219.90565491 269037645.76291633 0 269037645.76291633 -23987382.45847702 0 0 0 0 145055307.82103348 162382585.59043884 0 162382585.59043884 25382596.635135651 0 0 0 0 94831447.181526184 49825323.289683342 0 49825323.289683342 -128570410.63324738 0 0 0 0 953300.90414552391 1876676.8832956105 0 1876676.8832956105 613604.11229666322 0 0 0 0 -299205688.61437988 79719934.226680756 0 79719934.226680756 -2274498.9545898438 0 0 0 0 -242069804.06956482 315320893.6165905 0 315320893.6165905 -325130465.98573685 0 0 0 0 35987264.752593994 -31413390.817390442 0 -31413390.817390442 -108699588.41824341 0 0 0 0 -146201766.99023438 -37025195.17754364 0 -37025195.17754364 3680040.1303939819 0 0 0 0 -10391242.638793945 79579639.610275269 0 79579639.610275269 6293393.4436950684 0 0 0 0 -28361034.532104492 32435467.564098358 0 32435467.564098358 -112080283.49203205 0 0 0 0 -86708494.692581177 119550593.12238503 0 119550593.12238503 -132813218.66114044 0 0 0 0 -120087185.89881897 120661834.91987038 0 120661834.91987038 -99165682.729141235 0 0 0 0 -81017317.34425354 162887689.78707695 0 162887689.78707695 -162565628.84658051 0 0 0 0 -165124030.4851532 207138516.09596443 0 207138516.09596443 -152286133.85536957 0 0 0 0 -180588503.9881897 163389575.39422607 0 163389575.39422607 -155422204.89308929 0 0 0 0 -214288171.88461304 203966395.85887527 0 203966395.85887527 -133143111.82228851 0 0 0 0 -306481.79741668701 204524242.36537933 0 204524242.36537933 -554988726.5108223 0 0 0 0 -160730710.1089325 283285495.28658485 0 283285495.28658485 -240884051.11236525 0 0 0 0 -24387658.304191589 375060656.76669216 0 375060656.76669216 -1096103277.2863884 0 0 0 0 -132728861.51593781 272386100.28019142 0 272386100.28019142 -373411915.31926727 0 0 0 0 -105949864.24728394 420616017.66440868 0 420616017.66440868 -1121758946.7428083 0 0 0 0 -709408492.68186951 703992630.038661 0 703992630.038661 -630143641.40013313 0 0 0 0 -206112771.0112915 592159697.12512779 0 592159697.12512779 -1122028957.2788124 0 0 0 0 -589841862.87882996 405270600.05603409 0 405270600.05603409 -42001370.692253828 0 0 0 0 -319596303.01901245 112633235.84591484 0 112633235.84591484 84877695.599349976 0 0 0 0 -659532598.1841507 -900611745.05566216 0 -900611745.05566216 -1094843407.5380707 0 0 0 0 -129507.52191372961 1461733.9896047711 0 1461733.9896047711 -7778676.7791127227 0 0 0 0 -383045042.68994522 -715812020.51458454 0 -715812020.51458454 -568935960.72622299 0 0 0 0 -93806061.033172607 -351643830.35653496 0 -351643830.35653496 -409461567.42855167 0 0 0 0 -314882757.47386169 -173100188.30293846 0 -173100188.30293846 74976613.020530701 0 0 0 0 -440712190.76946068 -461961124.34637308 0 -461961124.34637308 -235972304.97426224 0 0 0 0 158327009.16591644 -717964948.12365484 0 -717964948.12365484 -1437494684.6028309 0 0 0 0 25144973.134979248 -480928120.49824142 0 -480928120.49824142 -682999094.48638535 0 0 0 0 -124014817.12062073 -390997677.09924793 0 -390997677.09924793 -399220972.97110748 0 0 0 0 366139351.93336487 -242666298.33523941 0 -242666298.33523941 -916484844.01841545 0 0 0 0 373350491.48623657 -328190689.43054962 0 -328190689.43054962 -887878244.46763706 0 0 0 0 180704682.07087708 -136495490.67109299 0 -136495490.67109299 -394319565.20962143 0 0 0 0 52818823.340759277 -158016517.93781757 0 -158016517.93781757 -273125638.02959824 0 0 0 0 88355131.253234863 -271257744.25318146 0 -271257744.25318146 -590473163.26787233 0 0 0 0 15747087.532707214 -137494118.7258935 0 -137494118.7258935 -283582813.62896347 0 0 0 0 51984910.347915649 -21995130.63079834 0 -21995130.63079834 -139211007.21251297 0 0 0 0 80259557.760803223 18961408.907753944 0 18961408.907753944 -171703223.2908783 0 0 0 0 68419504.556610107 -91966460.377443314 0 -91966460.377443314 -403366058.69617939 0 0 0 0 190498072.06295013 44233951.266437054 0 44233951.266437054 -65192708.630500793 0 0 0 0 50025766.349960327 -209699465.4465332 0 -209699465.4465332 59847335.874987721 0 0 0 0 2431009.1440047547 3300112.6896203384 0 3300112.6896203384 -20426905.868154887 0 0 0 0 300574253.94517517 24547785.530856609 0 24547785.530856609 -178231062.76969051 0 0 0 0 55858080.272018433 115227270.70732117 0 115227270.70732117 -67878696.753275871 0 0 0 0 139760230.26183319 110314759.88410568 0 110314759.88410568 -16860039.873813152 0 0 0 0 10700405.940126445 16005651.058646575 0 16005651.058646575 -25832243.162765622 0 0 0 0 40544392.610397339 -21241400.744068146 0 -21241400.744068146 22697495.058792114 0 0 0 0 91955869.543701172 -32868596.07886982 0 -32868596.07886982 9608435.0762825012 0 0 0 0 63022929.667022705 88139402.371792793 0 88139402.371792793 36589589.644606113 0 0 0 0 65979222.003103256 27575428.620645881 0 27575428.620645881 -173610232.98823547 0 0 0 0 101432431.02947235 -28148428.598331213 0 -28148428.598331213 -150609065.94150925 0 0 0 0 82781963.658599854 92968826.682194233 0 92968826.682194233 -56693017.454973221 0 0 0 0 23709548.204478696 30485105.308727905 0 30485105.308727905 -6837326.1892972738 0 0 0 0 28557161.122161865 35228867.417888641 0 35228867.417888641 44782855.536273956 0 0 0 0 36806500.592281342 78811027.845248938 0 78811027.845248938 58827991.718755245 0 0 0 0 84037441.025367737 20301913.111588478 0 20301913.111588478 -12985688.006576538 0 0 0 0 18642149.21332179 6003935.8273958042 0 6003935.8273958042 -67061.307221055031 0 0 0 0 7439567.3877731767 12200011.552131802 0 12200011.552131802 8819620.8596468046 0 0 0 0 37831663.526428223 58511365.113325119 0 58511365.113325119 -5851474.4463233948 0 0 0 0 15408667.531479448 26549724.446986802 0 26549724.446986802 -1250401.4431529306 0 0 0 0 1404906.1159820557 12963970.487602234 0 12963970.487602234 13714956.261932373 0 0 0 0 12718585.228074921 26280440.456738681 0 26280440.456738681 11293959.078078553 0 0 0 0 13875339.611290753 13520400.347250108 0 13520400.347250108 -5532533.4693098068 0 0 0 0 9048741.5917053223 14837339.353778839 0 14837339.353778839 5322541.3409805298 0 0 0 0 16240519.33095926 17290043.382365 0 17290043.382365 2062135.5675772547 0 0 0 0 8701800.1122779846 11734983.278696537 0 11734983.278696537 4064178.3785858154 0 0 0 0 -8456683.8334960938 16503350.867298126 0 16503350.867298126 31660068.127590537 0 0 0 0 -124315.22181148827 4188327.9967027083 0 4188327.9967027083 7882704.2997813066 0 0 0 0 13831675.082901001 19019976.291599274 0 19019976.291599274 8254319.3925176859 0 0 0 0 12406805.177085876 12511584.628846407 0 12511584.628846407 18882907.978797913 0 0 0 0 5329599.5915863514 4832688.3661022782 0 4832688.3661022782 1720667.8890216053 0 0 0 0 1885777.6558698416 3042734.759673506 0 3042734.759673506 4652197.9081097096 0 0 0 0 37031677.652633667 -19780714.596509933 0 -19780714.596509933 48373826.073255539 0 0 0 0 12703485.714889526 29718093.913230896 0 29718093.913230896 19983130.984374285 0 0 0 0 21917738.182006836 11666855.032393456 0 11666855.032393456 5503473.1349601746 0 0 0 0 28172182.571311951 -3114325.1176643372 0 -3114325.1176643372 -59760235.123641968 0 0 0 0 -14019641.10395813 -45242946.53368187 0 -45242946.53368187 37089844.472442627 0 0 0 0 -129878.82356262207 49513865.344404221 0 49513865.344404221 -26815680.337528229 0 0 0 0 -63507446.534088135 160702264.27561569 0 160702264.27561569 -211251451.01400185 0 0 0 0 -64591876.781448364 34867890.117588043 0 34867890.117588043 37493806.534160614 0 0 0 0 -840092.84982068837 406255.13095419854 0 406255.13095419854 2187185.8713912629 0 0 0 0 -40270874.878433228 123261920.66107559 0 123261920.66107559 -146212645.54596901 0 0 0 0 63244.866204768419 -2034155.0474588871 0 -2034155.0474588871 2789811.1584246596 0 0 0 0 -23743624.560371399 29346010.488640785 0 29346010.488640785 -17041845.687416077 0 0 0 0 -5094470.0615921021 5664615.4910001755 0 5664615.4910001755 12472493.867183685 0 0 0 0 -5265018.5671234131 12486773.978786469 0 12486773.978786469 66994650.820510983 0 0 0 0 10449.694923400879 22979368.118364334 0 22979368.118364334 36563319.20432663 0 0 0 0 -14489848.798622131 12450939.216863632 0 12450939.216863632 31655990.58405304 0 0 0 0 -3364514.1929969788 12892632.939394951 0 12892632.939394951 30497517.281486511 0 0 0 0 -5411305.0682220459 18307470.062057495 0 18307470.062057495 34088982.105480194 0 0 0 0 -6065822.4708509445 13690924.403156757 0 13690924.403156757 20287327.25730896 0 0 0 0 1183460.8892364502 22092881.210281372 0 22092881.210281372 23100212.551925659 0 0 0 0 -1326235.9623565674 20504696.145227432 0 20504696.145227432 20491501.981483459 0 0 0 0 -1354291.5332565308 20284308.405425072 0 20284308.405425072 21967715.776603699 0 0 0 0 2720.6327056884766 23901807.715902328 0 23901807.715902328 22890099.921957016 0 0 0 0 1345167.9246902466 18193906.170125961 0 18193906.170125961 29734623.303733826 0 0 0 0 1384492.1826019287 22235344.79725647 0 22235344.79725647 17642176.86938858 0 0 0 0 361870.45919036865 21578461.945800781 0 21578461.945800781 17113490.526248932 0 0 0 0 1045054.3562698364 23203844.505184174 0 23203844.505184174 20733961.269956589 0 0 0 0 2051668.8957672119 31549431.656389236 0 31549431.656389236 8104253.556306839 0 0 0 0 12011661.59249115 20357144.561714172 0 20357144.561714172 14816862.558933258 0 0 0 0 -9792.0663523860494 24920037.987529803 0 24920037.987529803 15677490.58322525 0 0 0 0 -3356868.2301635742 17761934.622003555 0 17761934.622003555 4671007.2771296501 0 0 0 0 -8385491.3188934326 17693035.589351654 0 17693035.589351654 12965278.757972717 0 0 0 0 16164479.147052765 37788340.002428055 0 37788340.002428055 13857308.483078003 0 0 0 0 -3275154.8120118342 14539173.931670561 0 14539173.931670561 14104459.549684115 0 0 0 0 -31791590.476791382 14062911.736776352 0 14062911.736776352 18516745.176002502 0 0 0 0 13937323.555435181 21130920.507518768 0 21130920.507518768 11018402.068849921 0 0 0 0 -3073413.663520813 11967861.685758591 0 11967861.685758591 1063284.2955169678 0 0 0 0 16816413.459243774 39517817.296524048 0 39517817.296524048 15118901.282121658 0 0 0 0 22301861.734573364 32403624.260221243 0 32403624.260221243 23261071.168869019 0 0 0 0 68344408.230407715 82965907.282230377 0 82965907.282230377 64743296.020992279 0 0 0 0 -59608924.685329437 -20470804.867828369 0 -20470804.867828369 40631669.737991333 0 0 0 0 -1215353.8500061035 20747046.501281738 0 20747046.501281738 20969029.261299133 0 0 0 0 -2591695.966181986 14080134.289464779 0 14080134.289464779 19514290.570549712 0 0 0 0 114187803.77403641 -50986199.183452606 0 -50986199.183452606 -4689176.9662780762 0 0 0 0 22173108.553939819 19562603.549175262 0 19562603.549175262 26259366.410422266 0 0 0 0 5809500.9911706857 9143846.5814317837 0 9143846.5814317837 3231391.443588376 0 0 0 0 -10923104.158035278 104290354.03023529 0 104290354.03023529 83173788.568450928 0 0 0 0 89094777.478691101 38911891.289386749 0 38911891.289386749 -7356366.1298555732 0 0 0 0 -617282.28290020674 16080319.442197151 0 16080319.442197151 24781948.732847311 0 0 0 0 5202919.6390219629 7600241.7823946998 0 7600241.7823946998 11793212.974524163 0 0 0 0 21732708.135915756 21617565.086380243 0 21617565.086380243 56758329.496780396 0 0 0 0 22907711.239578247 54008486.796859741 0 54008486.796859741 93592908.587242126 0 0 0 0 1290104.7588967085 1318501.6008509472 0 1318501.6008509472 1499991.4154565036 0 0 0 0 15887226.089508057 27755110.621379852 0 27755110.621379852 50289010.273985863 0 0 0 0 22520576.294387817 47831180.765865326 0 47831180.765865326 53329866.862519741 0 0 0 0 19538908.108715057 37907913.873464108 0 37907913.873464108 39706822.766136169 0 0 0 0 18069974.409049988 40460752.744750977 0 40460752.744750977 37506523.428203583 0 0 0 0 12950330.012390137 63596770.947525024 0 63596770.947525024 57283148.719722748 0 0 0 0 26200975.784078598 58687003.529299259 0 58687003.529299259 65080410.601737976 0 0 0 0 18468470.480701923 59878366.431106806 0 59878366.431106806 65163662.89264679 0 0 0 0 23050234.419975281 43903878.686206818 0 43903878.686206818 33463011.236320496 0 0 0 0 5821139.1924591064 41089079.089279175 0 41089079.089279175 34221029.330558777 0 0 0 0 25666220.395047665 66210307.012910843 0 66210307.012910843 42372765.171081543 0 0 0 0 1075018.5948791504 56064086.371925354 0 56064086.371925354 40524313.689234734 0 0 0 0 -3344740.5704307556 44984328.362817764 0 44984328.362817764 46024818.87272644 0 0 0 0 -4245784.6649169922 50817806.858125687 0 50817806.858125687 35736923.022499084 0 0 0 0 -7060104.6838035583 33429161.575871468 0 33429161.575871468 24323143.844825745 0 0 0 0 14669146.151634216 48291907.83373642 0 48291907.83373642 28842521.722816467 0 0 0 0 21027039.434677124 94393537.939567566 0 94393537.939567566 62687827.058361053 0 0 0 0 -20110460.177490234 82776159.173679352 0 82776159.173679352 66248163.62336731 0 0 0 0 45475232.395645142 121144728.83659744 0 121144728.83659744 73060139.139610291 0 0 0 0 -7097393.752532959 67501953.058815002 0 67501953.058815002 55563005.820643425 0 0 0 0 -4184027.6025865078 69994666.102971748 0 69994666.102971748 57694121.283180237 0 0 0 0 22065427.885292053 80183451.281669617 0 80183451.281669617 44389258.619258404 0 0 0 0 208957.06000518799 72936327.423725128 0 72936327.423725128 45661521.354896545 0 0 0 0 49294223.497642517 110285208.54234695 0 110285208.54234695 52902293.960525513 0 0 0 0 33826989.063129425 80408186.60953331 0 80408186.60953331 70553122.730743408 0 0 0 0 24842547.180839539 75359487.791610718 0 75359487.791610718 10847285.031665802 0 0 0 0 49796235.301429749 79412022.436080933 0 79412022.436080933 -3589649.4144210815 0 0 0 0 26173462.223823547 44282638.10541153 0 44282638.10541153 -10075736.41960144 0 0 0 0 13067806.359336853 65113328.227277756 0 65113328.227277756 26205653.421661377 0 0 0 0 18364597.161468506 36572508.469209671 0 36572508.469209671 13800072.642513275 0 0 0 0 25671297.760551453 55707654.527042389 0 55707654.527042389 32158272.403526306 0 0 0 0 28576838.724993706 49440381.342813969 0 49440381.342813969 -2422186.6642456055 0 0 0 0 21031526.275741577 30407941.390130997 0 30407941.390130997 400126.62779998779 0 0 0 0 89730197.54718399 -56499384.832486153 0 -56499384.832486153 24184651.211997986 0 0 0 0 -106058201.81486511 -139655542.1542182 0 -139655542.1542182 -107614450.97472 0 0 0 0 -4674873.1627883911 -19203538.533047676 0 -19203538.533047676 20668609.14507103 0 0 0 0 -239857583.72200012 64351866.353679657 0 64351866.353679657 49594208.945877373 0 0 0 0 86011932.920127869 -30248843.0890522 0 -30248843.0890522 42004523.127641678 0 0 0 0 -65818487.306484222 101465329.17583847 0 101465329.17583847 -145999345.23398495 0 0 0 0 -125805130.74505615 11015580.196114659 0 11015580.196114659 366896720.95611477 0 0 0 0 20834352.237922072 30121590.309323311 0 30121590.309323311 1083554.5767158701 0 0 0 0 26615377.13501358 36947118.802740097 0 36947118.802740097 8004890.095500946 0 0 0 0 21591414.986384749 30931289.810739923 0 30931289.810739923 326184.6241770559 0 0 0 0 53101.817733764648 221382509.67735243 0 221382509.67735243 37726505.277190208 0 0 0 0 25152380.239967346 34103426.999145508 0 34103426.999145508 23176824.899795532 0 0 0 0 -71934859.66255188 59191429.671592712 0 59191429.671592712 292079543.33918291 0 0 0 0 80788130.044311523 119451131.62391233 0 119451131.62391233 -34513224.208134174 0 0 0 0 9177240.6097412109 96881306.563700676 0 96881306.563700676 -34159389.7596616 0 0 0 0 84239213.557777405 177412477.45372725 0 177412477.45372725 -292041928.93846703 0 0 0 0 -47907393.861694336 113179390.6919508 0 113179390.6919508 -2242212.7159779072 0 0 0 0 14666252.857406616 190380627.30176973 0 190380627.30176973 -260636546.12314987 0 0 0 0 -132185435.57008362 239430083.79702282 0 239430083.79702282 -258302809.73535633 0 0 0 0 122222890.56042767 242772217.74897432 0 242772217.74897432 -685638721.12390327 0 0 0 0 115953196.30940342 191382747.23688298 0 191382747.23688298 -577675421.08570671 0 0 0 0 -60696291.714736938 364439680.33821392 0 364439680.33821392 -656635021.40536642 0 0 0 0 117346487.36372375 67039948.424118996 0 67039948.424118996 -334528536.30443168 0 0 0 0 124717817.63991547 40645770.590049744 0 40645770.590049744 -489987557.90730286 0 0 0 0 298564362.57540894 107496699.49104404 0 107496699.49104404 -690797080.79114842 0 0 0 0 190488951.90367508 -137381272.2281059 0 -137381272.2281059 -628213192.08346939 0 0 0 0 494012710.2684021 -196562018.20032787 0 -196562018.20032787 -1109856146.7328396 0 0 0 0 358197635.80278015 -60932581.422606468 0 -60932581.422606468 -744050488.27850246 0 0 0 0 341028444.90078735 10217849.73503089 0 10217849.73503089 -1006917052.9601746 0 0 0 0 596424261.65263367 -70667394.818675995 0 -70667394.818675995 -997285163.63116336 0 0 0 0 339952075.78822327 126158422.58085918 0 126158422.58085918 -1051625951.1851401 0 0 0 0 224818646.4863739 295832187.22250366 0 295832187.22250366 -1133972301.5902138 0 0 0 0 479120137.53334045 123261718.12788677 0 123261718.12788677 -1197244927.7461882 0 0 0 0 333640966.97812939 208299326.30005938 0 208299326.30005938 -1643499954.2895241 0 0 0 0 -1039107161.6607742 305031524.82967758 0 305031524.82967758 -180637632.2648592 0 0 0 0 185255154.85110474 502952077.5156374 0 502952077.5156374 -2085629693.0720739 0 0 0 0 -497225320.96368408 1004825526.6291285 0 1004825526.6291285 -1533872953.583261 0 0 0 0 -340365484.63868713 671397543.77626085 0 671397543.77626085 -864261642.60143661 0 0 0 0 -129361362.91101074 -160935717.67352247 0 -160935717.67352247 -61330171.402043819 0 0 0 0 -160488437.51760864 1410484531.4588656 0 1410484531.4588656 571290241.89287734 0 0 0 0 -149614055.01419067 -56583424.77942276 0 -56583424.77942276 -295301835.96846294 0 0 0 0 -104809406.80739594 29044069.998262882 0 29044069.998262882 -143931004.77752876 0 0 0 0 -532105199.95027161 63950997.805339813 0 63950997.805339813 -124439950.4190402 0 0 0 0 -229989140.9910965 412018955.87258816 0 412018955.87258816 -529160317.21600151 0 0 0 0 -47889162.044107437 316826210.8180114 0 316826210.8180114 -640246404.04257298 0 0 0 0 120050983.34039307 62646907.194607496 0 62646907.194607496 -11334674.393491268 0 0 0 0 61838614.298049927 28984321.371171951 0 28984321.371171951 -18164894.617591858 0 0 0 0 47097392.13551712 -102364125.06148672 0 -102364125.06148672 -194043968.46854019 0 0 0 0 211425898.74467468 14680645.297320366 0 14680645.297320366 -118066513.08982313 0 0 0 0 151633609.62129593 229922630.99646926 0 229922630.99646926 211176220.2638092 0 0 0 0 -7115019.0732053965 6107002.8290317524 0 6107002.8290317524 -2284381.1381108603 0 0 0 0 366784842.77801514 125983092.84373522 0 125983092.84373522 -207273937.67722335 0 0 0 0 42423798.297836304 53660142.596939087 0 53660142.596939087 -6878278.5088504553 0 0 0 0 -10388216.369710982 9018829.258267723 0 9018829.258267723 -1925756.594815745 0 0 0 0 47802305.35868454 42423072.740259767 0 42423072.740259767 6662901.8626537323 0 0 0 0 -186314294.12786102 104380272.98508734 0 104380272.98508734 -66431271.956534684 0 0 0 0 358502683.44007874 346530909.69531488 0 346530909.69531488 295578221.54780924 0 0 0 0 427547443.92378235 302831009.07182014 0 302831009.07182014 240643660.92660403 0 0 0 0 468133018.63034058 338608184.29425836 0 338608184.29425836 206582552.90723586 0 0 0 0 -1433113.4752372317 3667965.507235162 0 3667965.507235162 1119569.1488013868 0 0 0 0 134964409.99253845 -92803790.282912731 0 -92803790.282912731 -336977097.95114827 0 0 0 0 2211566.1442477554 2224942.0435923319 0 2224942.0435923319 -2148870.4006545786 0 0 0 0 218959708.29999161 124751734.63013348 0 124751734.63013348 -459788690.42747545 0 0 0 0 -201189674.4542923 93994777.174029112 0 93994777.174029112 158903113.8048172 0 0 0 0 1833379.7256333344 8621255.3415495306 0 8621255.3415495306 -5693749.137773633 0 0 0 0 457041112.57398605 954097804.95046973 0 954097804.95046973 995454915.90872955 0 0 0 0 273354048.87329102 632650158.11786032 0 632650158.11786032 932457277.3935194 0 0 0 0 14774629.920166016 31889615.914306641 0 31889615.914306641 5454258.6487541199 0 0 0 0 1611015.9449539185 22861133.517560959 0 22861133.517560959 9539796.9112291336 0 0 0 0 23920788.458648682 13059913.193335533 0 13059913.193335533 -12738352.558423996 0 0 0 0 55439112.912826538 36686729.590415955 0 36686729.590415955 -3483786.2460823059 0 0 0 0 11294878.48711136 18849376.066277586 0 18849376.066277586 -6982154.8516854057 0 0 0 0 58810260.340454102 16775888.579926968 0 16775888.579926968 -15436924.382912874 0 0 0 0 36894258.336082458 29850649.749780178 0 29850649.749780178 16133710.250047684 0 0 0 0 -286319688.5460434 -154142461.71793151 0 -154142461.71793151 -83094371.719192028 0 0 0 0 429328020.2625618 312057383.07142615 0 312057383.07142615 33129841.112780571 0 0 0 0 1064533795.7774353 735072348.68898296 0 735072348.68898296 75135414.783597946 0 0 0 0 342134759.9624939 28126613.86937809 0 28126613.86937809 -152323241.15143538 0 0 0 0 136515103.20025635 -556937759.30505514 0 -556937759.30505514 -345439868.52524209 0 0 0 0 1433839728.8640289 -74139984.328849316 0 -74139984.328849316 -1019188988.5858908 0 0 0 0 18425039.458251953 62528729.436256886 0 62528729.436256886 -35600133.450816154 0 0 0 0 296203757.51216125 -14668441.386062384 0 -14668441.386062384 -321493612.94177055 0 0 0 0 268484850.68271255 62665875.466184497 0 62665875.466184497 -144769844.51451492 0 0 0 0 17858974.587482944 2404960.1027713977 0 2404960.1027713977 -23378122.614975177 0 0 0 0 33026395.528461456 67077890.419151425 0 67077890.419151425 -344944305.41119671 0 0 0 0 25923697.469734192 36592285.731929779 0 36592285.731929779 -105391143.43349075 0 0 0 0 28825710.130925663 28790323.510821372 0 28790323.510821372 -1361665.2033985332 0 0 0 0 15416723.182309419 28968231.932912681 0 28968231.932912681 5738434.5163800837 0 0 0 0 17855948.081115723 35535751.539169312 0 35535751.539169312 -23623173.604049683 0 0 0 0 22972236.666895226 33383843.165970683 0 33383843.165970683 -3843882.8516455377 0 0 0 0 18274605.405044556 49525470.57183075 0 49525470.57183075 -27616109.307335734 0 0 0 0 45143525.551055908 12748212.545571089 0 12748212.545571089 44137121.001331806 0 0 0 0 43225949.848938584 32980005.836916156 0 32980005.836916156 -27366210.95665811 0 0 0 0 79478931.533760071 10165986.392322302 0 10165986.392322302 4607371.8792972565 0 0 0 0 62608556.309570312 29856231.849494457 0 29856231.849494457 -18153401.43253947 0 0 0 0 70425944.902770996 -101333271.9538269 0 -101333271.9538269 -97201933.034643888 0 0 0 0 76092388.313120365 -20917356.358681291 0 -20917356.358681291 19183362.257238388 0 0 0 0 21630983.86252813 29110169.90665555 0 29110169.90665555 514228.84007557161 0 0 0 0 19343359.601554871 33822523.828094482 0 33822523.828094482 -6431080.0157421827 0 0 0 0 869641.90364074707 -62870511.387415886 0 -62870511.387415886 177256241.63649306 0 0 0 0 12706004.015296936 28220375.001617432 0 28220375.001617432 -11151890.584438324 0 0 0 0 27105734.059738159 43873447.655921936 0 43873447.655921936 -21616322.777107239 0 0 0 0 8999254.1603240967 53321056.734973907 0 53321056.734973907 -28922207.021438599 0 0 0 0 17747712.169532776 44938884.488954544 0 44938884.488954544 -29323977.812591553 0 0 0 0 528752.56457519531 47656455.344982147 0 47656455.344982147 -22294472.45872879 0 0 0 0 13803653.032897949 35271656.37727356 0 35271656.37727356 -45448997.333511353 0 0 0 0 -1449295.4350204468 56375403.170455933 0 56375403.170455933 -30079950.466938019 0 0 0 0 3436274.0147173852 1400815.3568606079 0 1400815.3568606079 375835.62689609081 0 0 0 0 36431284.874130249 83679557.756271362 0 83679557.756271362 -6690195.207572937 0 0 0 0 21522224.479445413 22943589.983902916 0 22943589.983902916 7231663.3000879586 0 0 0 0 -12903153.924468994 26557643.324012756 0 26557643.324012756 -26362938.320083618 0 0 0 0 -54324006.667984009 20754482.532016754 0 20754482.532016754 2754857.7900390625 0 0 0 0 46605638.963088989 61664587.005084991 0 61664587.005084991 -63264932.163467407 0 0 0 0 36040710.581291199 70190169.723300934 0 70190169.723300934 840043.38401031494 0 0 0 0 95526999.084823608 95501190.045223236 0 95501190.045223236 -16495448.73449707 0 0 0 0 -18462791.909347534 40542447.99042511 0 40542447.99042511 62815767.868812561 0 0 0 0 78926233.516244888 25517779.018663883 0 25517779.018663883 2691413.938621521 0 0 0 0 -6756521.8357539326 1224765.6653071325 0 1224765.6653071325 4885170.9598854482 0 0 0 0 88580676.484031677 11686771.620475769 0 11686771.620475769 21117232.642978668 0 0 0 0 -12108746.397015616 18969997.81829536 0 18969997.81829536 8740367.6782097071 0 0 0 0 -28179508.026379585 -17314926.826610565 0 -17314926.826610565 15208688.261711121 0 0 0 0 56456535.41506958 30932921.701755524 0 30932921.701755524 -55432749.389408112 0 0 0 0 43347134.963212967 87029624.139588356 0 87029624.139588356 -24126395.93283844 0 0 0 0 50318739.03307724 126453986.04299259 0 126453986.04299259 10204278.17943573 0 0 0 0 111783137.06417084 91780777.840297699 0 91780777.840297699 21451112.796009064 0 0 0 0 96024471.523605347 106148988.88531876 0 106148988.88531876 22826642.730358124 0 0 0 0 47097167.133230209 44878467.190000534 0 44878467.190000534 4016022.6916503906 0 0 0 0 -42625095.382133484 79581835.245239258 0 79581835.245239258 74833259.517913818 0 0 0 0 -21219181.532585144 102959140.24852753 0 102959140.24852753 61937262.733734131 0 0 0 0 898750.18390650582 -161857.49259212241 0 -161857.49259212241 803158.96029146016 0 0 0 0 -29885495.547136307 118422696.96971321 0 118422696.96971321 102626409.67626953 0 0 0 0 -19692700.686792817 17040453.129269056 0 17040453.129269056 10423539.82298813 0 0 0 0 -40852394.609130383 96219682.711696148 0 96219682.711696148 93935045.93901062 0 0 0 0 72380702.720932007 22235450.806495667 0 22235450.806495667 275702054.45227051 0 0 0 0 -91330347.472457886 54269405.7458992 0 54269405.7458992 64836175.237014771 0 0 0 0 296000645.50948524 81859744.42647934 0 81859744.42647934 -121552176.30026245 0 0 0 0 86292199.156383753 -27735790.62137568 0 -27735790.62137568 58384270.687713623 0 0 0 0 6895700.7260932922 35577912.886329651 0 35577912.886329651 2124003.2308807373 0 0 0 0 -13916870.772966385 8777839.094587326 0 8777839.094587326 -24709358.960662842 0 0 0 0 18409612.254694939 31987285.195807457 0 31987285.195807457 -15565074.647483826 0 0 0 0 17820147.170051575 33598362.742286682 0 33598362.742286682 -19834733.448637009 0 0 0 0 16258835.494556427 33954680.218280792 0 33954680.218280792 -15988124.017730713 0 0 0 0 12414830.107979206 3792749.9019519202 0 3792749.9019519202 1593256.9176252484 0 0 0 0 102188531.38880348 14837447.340145111 0 14837447.340145111 -27348570.621070862 0 0 0 0 29663244.633940697 40020937.539354801 0 40020937.539354801 62142863.518035889 0 0 0 0 -5209319.7703857422 63033714.2396698 0 63033714.2396698 -20850159.382171631 0 0 0 0 26648721.138172403 20827897.155081451 0 20827897.155081451 2917559.3825113922 0 0 0 0 -7831009.8084716797 59360005.020214081 0 59360005.020214081 -25714267.919258118 0 0 0 0 28879113.229372025 54876454.831374168 0 54876454.831374168 -50576096.559692383 0 0 0 0 5115759.5578060448 8708576.122809574 0 8708576.122809574 -3312579.7223811746 0 0 0 0 29588218.742177963 65245193.100204468 0 65245193.100204468 62824411.559696198 0 0 0 0 16513578.631416321 33265990.563213348 0 33265990.563213348 -14680022.575645447 0 0 0 0 11578141.453555711 5877527.7861226946 0 5877527.7861226946 5734371.9791940637 0 0 0 0 45832755.706031799 12545196.158058167 0 12545196.158058167 -72870480.388532639 0 0 0 0 30347957.188299179 41852720.993839264 0 41852720.993839264 -18523788.221286774 0 0 0 0 11911283.758411407 95629726.846138 0 95629726.846138 154035406.6323185 0 0 0 0 68190008.048143387 21964105.483346939 0 21964105.483346939 37004707.759548187 0 0 0 0 4982189.6100692153 -18875.510176457465 0 -18875.510176457465 947745.67763759941 0 0 0 0 -7660731.4322128296 -6512787.5098018646 0 -6512787.5098018646 -18862834.946624756 0 0 0 0 40658593.459495544 2126099.6520576477 0 2126099.6520576477 -18142014.278394699 0 0 0 0 39104977.543491364 -3223444.0857963562 0 -3223444.0857963562 -14172334.854820251 0 0 0 0 130689.11384632438 -28627.248965241015 0 -28627.248965241015 75181.077924013138 0 0 0 0 95439358.933441162 38184078.325372696 0 38184078.325372696 21292088.89962244 0 0 0 0 105672303.01987839 78399524.74181366 0 78399524.74181366 10776362.428251266 0 0 0 0 59815672.151649475 12376927.045436859 0 12376927.045436859 -16140839.649780273 0 0 0 0 124144861.69111633 30176414.745365143 0 30176414.745365143 -17324859.931152344 0 0 0 0 43920551.740821838 13485854.19883728 0 13485854.19883728 404137.7072429657 0 0 0 0 38775142.057655334 -4063697.9468684196 0 -4063697.9468684196 -8568838.2786712646 0 0 0 0 59118895.066261292 9365047.1772041321 0 9365047.1772041321 -1947483.2318162918 0 0 0 0 61609410.542158127 -13853690.777082443 0 -13853690.777082443 -40487837.271522522 0 0 0 0 39436377.81533432 3857714.7860870361 0 3857714.7860870361 -9605856.6641764641 0 0 0 0 33508216.595623016 71044829.169769287 0 71044829.169769287 -2725715.5092315674 0 0 0 0 200353801.77444077 17404818.487697601 0 17404818.487697601 -64267017.259183884 0 0 0 0 180996801.96150351 138780453.15468168 0 138780453.15468168 27093043.623031616 0 0 0 0 230343204.95597219 -92082333.978131294 0 -92082333.978131294 -80538503.69682312 0 0 0 0 279162954.91018295 129476768.34152222 0 129476768.34152222 108669277.38421631 0 0 0 0 1835007.5849559233 325875.10413195193 0 325875.10413195193 -41871.254264689982 0 0 0 0 69200267.630834579 -59967393.748668671 0 -59967393.748668671 -109731785.92372894 0 0 0 0 82409646.432067871 241912981.67999268 0 241912981.67999268 369671341.11333466 0 0 0 0 14189104.57093811 75834836.851173401 0 75834836.851173401 268041824.79374313 0 0 0 0 94010983.329849243 132079488.40610123 0 132079488.40610123 38522431.635177612 0 0 0 0 -383803.74961090088 43388000.615291595 0 43388000.615291595 296595.15563964844 0 0 0 0 1324229.1376256943 -152288090.66912937 0 -152288090.66912937 32007474.622283936 0 0 0 0 4357588.409071818 5941534.6020437926 0 5941534.6020437926 9002064.6659675762 0 0 0 0 -63165214.236469269 26070707.745498657 0 26070707.745498657 50791462.465515137 0 0 0 0 4324679.3735039346 5333374.9334859177 0 5333374.9334859177 5529459.8526982442 0 0 0 0 38950814.211753845 -27669948.231613159 0 -27669948.231613159 39691652.12802887 0 0 0 0 33798238.597645193 37982846.863444634 0 37982846.863444634 -6167066.4157484621 0 0 0 0 34924132.944654465 56948163.128536344 0 56948163.128536344 42767894.69221437 0 0 0 0 32744809.751773834 34165954.116950989 0 34165954.116950989 60718708.924060822 0 0 0 0 603515.15651702881 36916508.630699158 0 36916508.630699158 -273121124.85882568 0 0 0 0 12789581.854270972 25195827.781175248 0 25195827.781175248 46378198.685966693 0 0 0 0 52640779.76423645 70004527.43515563 0 70004527.43515563 -788568.13335895538 0 0 0 0 25773021.067565918 68755089.328922749 0 68755089.328922749 53891383.95325613 0 0 0 0 19099073.746852875 58419041.446491539 0 58419041.446491539 44304012.113117814 0 0 0 0 17023319.307907104 64816737.435223579 0 64816737.435223579 80190508.92144829 0 0 0 0 25473357.460128784 78311742.496431351 0 78311742.496431351 37207236.8519907 0 0 0 0 24820263.509906769 80865493.44251579 0 80865493.44251579 42563872.020442009 0 0 0 0 18324129.783241272 94183123.796349049 0 94183123.796349049 77098958.802969933 0 0 0 0 26577777.672454834 111807328.67384338 0 111807328.67384338 38762628.908989191 0 0 0 0 38454449.644124791 43087406.363679536 0 43087406.363679536 8286015.0703121051 0 0 0 0 46969517.81652832 75319421.632628441 0 75319421.632628441 -27047343.700334907 0 0 0 0 36443174.528938293 85316592.046857834 0 85316592.046857834 25238453.641670227 0 0 0 0 96618986.964738846 99051901.917737961 0 99051901.917737961 -87806810.143577576 0 0 0 0 28279712.942428589 82604580.668830395 0 82604580.668830395 36712400.837367892 0 0 0 0 28487701.118774414 85235870.614197969 0 85235870.614197969 40560888.45172286 0 0 0 0 1325536.1254929304 4836559.5513495468 0 4836559.5513495468 11861188.893367043 0 0 0 0 50048869.145324707 127056288.64309168 0 127056288.64309168 -12575683.823105693 0 0 0 0 18132117.473690033 138509494.89241576 0 138509494.89241576 67454155.513166904 0 0 0 0 41107751.54763864 42740024.225359552 0 42740024.225359552 6139451.3750708587 0 0 0 0 73542893.124206543 30166939.505008698 0 30166939.505008698 -151250458.51508266 0 0 0 0 109983300.30628204 69760222.462393761 0 69760222.462393761 -187876952.98240161 0 0 0 0 52970020.101552963 61893114.852815628 0 61893114.852815628 468077.98377227783 0 0 0 0 -42430108.64276123 148012470.27675486 0 148012470.27675486 424419487.79263687 0 0 0 0 71515875.245986938 293236832.64502907 0 293236832.64502907 92296540.096587658 0 0 0 0 138752169.45346069 246840882.21038151 0 246840882.21038151 100696194.15558648 0 0 0 0 126819316.05680847 178851023.28741217 0 178851023.28741217 380697590.53650093 0 0 0 0 18655565.789215088 95697558.693312645 0 95697558.693312645 103821242.27697849 0 0 0 0 32513057.858520508 85903834.306939125 0 85903834.306939125 99432954.360438585 0 0 0 0 15903289.793612584 6751367.2950176299 0 6751367.2950176299 2329545.5489876438 0 0 0 0 5193030.997543335 86170760.003038406 0 86170760.003038406 144180695.1116581 0 0 0 0 -10755515.950012207 18180351.911105156 0 18180351.911105156 162208705.0493288 0 0 0 0 129004143.96069336 -173565667.12762833 0 -173565667.12762833 374717037.14036989 0 0 0 0 5754366.6647546142 2261745.6262007318 0 2261745.6262007318 918701.71947089606 0 0 0 0 653867263.91014099 65628693.482179999 0 65628693.482179999 -451918132.94113946 0 0 0 0 -114155717.57797241 163298082.06055164 0 163298082.06055164 1044233077.1199021 0 0 0 0 265254280.00718689 -69048119.761941671 0 -69048119.761941671 -37371742.821871877 0 0 0 0 -144281997.06104279 -46887369.149527013 0 -46887369.149527013 106849388.62927592 0 0 0 0 -69622454.541935921 165613701.14548284 0 165613701.14548284 -277530789.01929671 0 0 0 0 -17746533.976829529 -1213332.2181190252 0 -1213332.2181190252 -90658147.70654881 0 0 0 0 25018171.629575342 10145823.969316825 0 10145823.969316825 2673939.9836757742 0 0 0 0 42160792.981216431 70524550.211791545 0 70524550.211791545 -274888618.76799387 0 0 0 0 23877286.803531647 37314375.739591122 0 37314375.739591122 28424948.345053673 0 0 0 0 18760064.188713074 68677281.2594347 0 68677281.2594347 56438739.281843185 0 0 0 0 12851410.338508606 18898472.688370705 0 18898472.688370705 58914274.866128922 0 0 0 0 12535339.719970703 15344411.404717922 0 15344411.404717922 138768331.56734562 0 0 0 0 27587960.543899536 52777649.142222643 0 52777649.142222643 -36474475.6963557 0 0 0 0 73663448.701309204 27584336.921031952 0 27584336.921031952 -22831637.426938534 0 0 0 0 21088082.133682251 25473622.982256174 0 25473622.982256174 -26395250.896288395 0 0 0 0 72925904.618515015 105881777.21107149 0 105881777.21107149 45133017.780384541 0 0 0 0 31999370.168906212 115397551.2284956 0 115397551.2284956 -890518.86639070511 0 0 0 0 -46049313.688163757 69764753.864637494 0 69764753.864637494 -112984071.0120151 0 0 0 0 73419731.654159546 43529074.681413054 0 43529074.681413054 -118305605.32802391 0 0 0 0 -45423587.341651917 -60700992.303248644 0 -60700992.303248644 -106455191.68480635 0 0 0 0 -20787894.48425293 -5204147.3289203644 0 -5204147.3289203644 -93719847.361014605 0 0 0 0 -39434562.053237915 -97926984.62171793 0 -97926984.62171793 21706183.994968414 0 0 0 0 89886310.53553009 -115271482.11602688 0 -115271482.11602688 -182021355.76137018 0 0 0 0 8712166.017578125 37677593.703469276 0 37677593.703469276 -344966870.12034416 0 0 0 0 1937336.4475388527 -42109919.576032877 0 -42109919.576032877 -99272983.129928589 0 0 0 0 -83567629.695404053 94230039.192089558 0 94230039.192089558 -48598191.983177185 0 0 0 0 -185585124.84272003 125868572.76633596 0 125868572.76633596 -196949555.46068239 0 0 0 0 37884461.947678566 -13764207.314794183 0 -13764207.314794183 -112051532.85523224 0 0 0 0 23478311.105804443 7617487.7086029053 0 7617487.7086029053 -200525095.44190216 0 0 0 0 21896121.322685242 32950609.959042072 0 32950609.959042072 -30279515.616037846 0 0 0 0 85013153.027069092 65267938.526278496 0 65267938.526278496 -75584609.198330879 0 0 0 0 -12597350.029174805 161753851.52123642 0 161753851.52123642 147927710.29151535 0 0 0 0 4994059.7715759277 173608851.72458005 0 173608851.72458005 -168652101.74157524 0 0 0 0 87968402.467376709 332649786.23288822 0 332649786.23288822 21042225.828989506 0 0 0 0 -407482937.8874588 382208838.28190064 0 382208838.28190064 -111089483.54743004 0 0 0 0 -374651957.925354 406678620.98770809 0 406678620.98770809 -159634061.21107912 0 0 0 0 -82382408.514404297 115326223.06860399 0 115326223.06860399 -281476681.79138851 0 0 0 0 -218671023.20719147 160996511.4041853 0 160996511.4041853 177327761.92993927 0 0 0 0 2203287.4147374183 495237.79118589312 0 495237.79118589312 -10046427.661918439 0 0 0 0 -349596292.88171387 574715298.48027873 0 574715298.48027873 -282823953.47659302 0 0 0 0 49035893.983146667 53783081.225460529 0 53783081.225460529 -753997728.14592648 0 0 0 0 -439849815.27867126 550385769.48496056 0 550385769.48496056 31136156.714507103 0 0 0 0 -17735214.878311157 322447033.46123505 0 322447033.46123505 -1010865553.6998122 0 0 0 0 -191507364.52232361 46117882.152636528 0 46117882.152636528 1011137776.0746746 0 0 0 0 -1783349.1898542643 109727.79889176972 0 109727.79889176972 -494679.70228499919 0 0 0 0 -73460595.699935913 434451190.27451801 0 434451190.27451801 -2318806576.5250392 0 0 0 0 -40735710.839199066 271517625.04490328 0 271517625.04490328 487087836.02837086 0 0 0 0 -3584182.8319960833 1129688.6140620094 0 1129688.6140620094 -1305505.7199060847 0 0 0 0 -2803408.8288177401 2295403.7535066158 0 2295403.7535066158 -255810.86187488586 0 0 0 0 -559548.79621887207 -10742389.344700813 0 -10742389.344700813 -6735560.6353831291 0 0 0 0 76437907.214889526 48007445.449235916 0 48007445.449235916 180514854.78082418 0 0 0 0 64234054.894042969 129049411.99629968 0 129049411.99629968 108126506.24604225 0 0 0 0 78238642.98916626 146321908.85997248 0 146321908.85997248 178429030.60528183 0 0 0 0 -9510144.59757635 5017252.9735450475 0 5017252.9735450475 -1728781.6159822298 0 0 0 0 93116746.790969849 142388951.94199508 0 142388951.94199508 111029080.48081112 0 0 0 0 70517784.166748047 55435547.687456131 0 55435547.687456131 111886879.881392 0 0 0 0 88065228.5467062 137409411.09545961 0 137409411.09545961 186242893.00292301 0 0 0 0 -893575.59098052979 -2267836.8344912529 0 -2267836.8344912529 -12605059.469226837 0 0 0 0 -16491414.684879303 8046683.9552042484 0 8046683.9552042484 10579860.193113327 0 0 0 0 -2429555.4405737519 2400473.8322299886 0 2400473.8322299886 -330431.9276922429 0 0 0 0 -58111296.461545944 239302772.79948151 0 239302772.79948151 -718739734.81712723 0 0 0 0 -36883107.820869446 173844668.99320936 0 173844668.99320936 -609431324.90501785 0 0 0 0 -87830812.166694641 167994271.68100548 0 167994271.68100548 -622241546.69783401 0 0 0 0 -134093845.01135254 141938797.95967579 0 141938797.95967579 -634555590.0352993 0 0 0 0 -83499370.490463257 292389763.15746856 0 292389763.15746856 -785018530.97779751 0 0 0 0 -73209890.06842804 233747307.74748325 0 233747307.74748325 -467664087.04419041 0 0 0 0 117875990.48405457 282963880.58214092 0 282963880.58214092 -611725710.28730774 0 0 0 0 124427251.59044647 196155096.73309469 0 196155096.73309469 -471796911.31888533 0 0 0 0 -296056366.28115845 307550108.25639534 0 307550108.25639534 -211255202.78854847 0 0 0 0 -295550389.24474335 297063932.7132082 0 297063932.7132082 -80051779.603257179 0 0 0 0 27083438.183579683 180032996.69019687 0 180032996.69019687 -49909444.257106781 0 0 0 0 -540870214.60372925 116379136.98208332 0 116379136.98208332 -34424798.354777336 0 0 0 0 -567991316.2825489 350275920.82562387 0 350275920.82562387 15970406.283002853 0 0 0 0 -622575900.77500916 530751327.63499022 0 530751327.63499022 -330827707.67732525 0 0 0 0 -530007721.16766357 426758405.71659851 0 426758405.71659851 -242423699.25660944 0 0 0 0 -624003950.2227087 83338609.839303136 0 83338609.839303136 -818414188.96483326 0 0 0 0 535019.69885563105 246684.39464067668 0 246684.39464067668 -4421424.2402690984 0 0 0 0 -1300334848.701622 1223361514.4337494 0 1223361514.4337494 -740125348.8202219 0 0 0 0 84359358.747314453 -214791103.21252084 0 -214791103.21252084 -212252855.23190403 0 0 0 0 -592537004.22879028 487572492.82426167 0 487572492.82426167 -55219376.692331314 0 0 0 0 -78021190.108139038 317378409.80967045 0 317378409.80967045 -644107054.5249939 0 0 0 0 -420372827.90674591 901861611.78560972 0 901861611.78560972 -481669217.56666756 0 0 0 0 -1833347995.1655769 1059811258.6427532 0 1059811258.6427532 -366884405.85352874 0 0 0 0 -868694602.67991638 711705185.44612598 0 711705185.44612598 -698749856.30238962 0 0 0 0 2060561082.1787415 128708878.07162993 0 128708878.07162993 -852835089.6104579 0 0 0 0 474525.12696361588 3767786.1435742304 0 3767786.1435742304 -6080468.6896628989 0 0 0 0 1311340.9404562544 8375283.2181885839 0 8375283.2181885839 -11692185.139620092 0 0 0 0 -37183381.628990173 191034373.35667229 0 191034373.35667229 -567130740.42637491 0 0 0 0 -1132278424.581913 447577203.28688812 0 447577203.28688812 99035570.237319946 0 0 0 0 -582982444.82054853 48277530.809387207 0 48277530.809387207 139822034.57714081 0 0 0 0 -36266030.115783691 907350052.7287662 0 907350052.7287662 58761146.569616914 0 0 0 0 1643041528.9172916 263503524.51022044 0 263503524.51022044 -734196889.45777905 0 0 0 0 -55529349.883804321 936523675.99457502 0 936523675.99457502 21512005.508199692 0 0 0 0 1155563.8536475962 10813777.719995126 0 10813777.719995126 -6320053.3087199014 0 0 0 0 219093685.99863434 47640724.735993385 0 47640724.735993385 -47644.25106048584 0 0 0 0 110989740.46224976 24830415.144620419 0 24830415.144620419 -120776735.78241348 0 0 0 0 8714486.1704864502 -52144121.324373245 0 -52144121.324373245 -97183334.788187981 0 0 0 0 -259040052.83346558 -59154037.65646553 0 -59154037.65646553 -16427169.649295807 0 0 0 0 3529151.87736848 2257527.1614537993 0 2257527.1614537993 -4365731.3372130617 0 0 0 0 -1258911879.2505112 788468912.17288733 0 788468912.17288733 -488165836.68100834 0 0 0 0 -56671631.026123047 822878345.44104767 0 822878345.44104767 1559898183.5827823 0 0 0 0 -230264012.13565063 1150739813.591856 0 1150739813.591856 14663777.401653588 0 0 0 0 167670205.47167206 1213029841.4600019 0 1213029841.4600019 16239514.895316612 0 0 0 0 -1035351460.8701248 -384890438.36730105 0 -384890438.36730105 -993118782.99114966 0 0 0 0 129216799.3643837 1583932192.9035165 0 1583932192.9035165 -1693605553.5880237 0 0 0 0 227057857.60396576 240986919.9279753 0 240986919.9279753 -776167470.52121758 0 0 0 0 224456667.37410736 319753742.74747992 0 319753742.74747992 189627900.30264831 0 0 0 0 788017555.54785919 -420825167.67899579 0 -420825167.67899579 -177319895.52276066 0 0 0 0 -776676873.88118744 183084386.28376746 0 183084386.28376746 -135825078.30109227 0 0 0 0 -31662448.472084045 66088860.390994072 0 66088860.390994072 -251252377.53080153 0 0 0 0 -182150514.70533371 194726992.85767913 0 194726992.85767913 -253678917.37735987 0 0 0 0 -368241826.90005493 249587228.15681481 0 249587228.15681481 -235161216.8207927 0 0 0 0 -31123180.397674561 335126172.41206658 0 335126172.41206658 -384954901.10649657 0 0 0 0 2834211.5632019043 320348348.59116971 0 320348348.59116971 -386781940.02848423 0 0 0 0 486337689.95887756 380750868.82537574 0 380750868.82537574 -580165596.90201867 0 0 0 0 279415718.16061401 470848835.70540082 0 470848835.70540082 -597792034.17170203 0 0 0 0 231287613.68493652 132828702.56472602 0 132828702.56472602 -371881552.88397622 0 0 0 0 113674724.17835617 212340516.71704245 0 212340516.71704245 -350451303.91512847 0 0 0 0 305884097.53528595 700827798.38425434 0 700827798.38425434 -1038928244.3483505 0 0 0 0 -973464812.05818939 1400192865.0883386 0 1400192865.0883386 -928473831.29338431 0 0 0 0 -696480931.82970428 811727472.27220368 0 811727472.27220368 -659700637.35191262 0 0 0 0 -93777721.009712219 -72355558.935904354 0 -72355558.935904354 -606906261.8845439 0 0 0 0 -557839661.52600098 646233357.55847168 0 646233357.55847168 -394011243.74240351 0 0 0 0 2221655.3800851703 750683.78446484357 0 750683.78446484357 -8380202.8511265805 0 0 0 0 -284790532.45553589 590813456.11327088 0 590813456.11327088 -283929695.80864167 0 0 0 0 36370771.77999115 292834614.95455217 0 292834614.95455217 -16476157.475155413 0 0 0 0 664873.66756901145 502701.33448391408 0 502701.33448391408 -2796207.3309703199 0 0 0 0 -1093032645.6864033 1218850794.8429415 0 1218850794.8429415 -454639432.44502783 0 0 0 0 872796524.08089447 -154993665.07093865 0 -154993665.07093865 -292022564.70291567 0 0 0 0 -161430821.02072716 255041595.38060743 0 255041595.38060743 -603626206.82268572 0 0 0 0 -565329087.01899719 238425911.58898115 0 238425911.58898115 -402298173.70471907 0 0 0 0 228035328.47532654 118660881.39551771 0 118660881.39551771 -538976931.92549562 0 0 0 0 24338975.768672943 65887060.48518306 0 65887060.48518306 -84377854.269002914 0 0 0 0 156680824.19680786 -99188607.149280667 0 -99188607.149280667 -178308858.1296258 0 0 0 0 225376904.48177147 309200986.82411933 0 309200986.82411933 454029253.33017826 0 0 0 0 182401469.15235901 -6796188.3536028862 0 -6796188.3536028862 -66864035.418937445 0 0 0 0 139978688.68407035 948446487.50640476 0 948446487.50640476 -789855780.31225908 0 0 0 0 -15417470.846815109 3980556.224574022 0 3980556.224574022 -74038710.902279735 0 0 0 0 120387544.11097717 170801427.24031696 0 170801427.24031696 -793129349.38534212 0 0 0 0 433566400.9994278 477709655.68594897 0 477709655.68594897 -593800356.93145239 0 0 0 0 52098306.50113678 190062204.93391806 0 190062204.93391806 -592435143.09508276 0 0 0 0 -94138050.073654175 182891003.96993899 0 182891003.96993899 -691455923.77871776 0 0 0 0 -129625227.80533028 37076611.165972412 0 37076611.165972412 -1148352766.5342693 0 0 0 0 -204739778.79823303 381879910.52764004 0 381879910.52764004 -428813654.27265918 0 0 0 0 102501405.3319397 412661774.63026828 0 412661774.63026828 -859521070.80163121 0 0 0 0 -175182956.83125305 460911244.83823186 0 460911244.83823186 -439268435.19196963 0 0 0 0 139425851.96978378 548866949.5753566 0 548866949.5753566 -418581406.33111984 0 0 0 0 163187703.96084213 257332323.5297823 0 257332323.5297823 -466582447.58682346 0 0 0 0 416155257.86976624 -188397460.28921008 0 -188397460.28921008 29096593.974958062 0 0 0 0 -592762731.13397217 393740156.56099087 0 393740156.56099087 -156663789.14568496 0 0 0 0 -273794858.72948456 215642366.02320087 0 215642366.02320087 -253212074.47887242 0 0 0 0 -379817559.8996048 724756901.78356016 0 724756901.78356016 -1010682135.511798 0 0 0 0 110938442.12319183 411249273.4271214 0 411249273.4271214 -2499200801.2413049 0 0 0 0 -666955486.14487457 1166962203.3291867 0 1166962203.3291867 -1065689391.2746848 0 0 0 0 -2614612.6839316636 2330209.413494017 0 2330209.413494017 -1233546.6848199323 0 0 0 0 -550462374.32269287 569996664.26940072 0 569996664.26940072 691189682.79411399 0 0 0 0 -1309218.872339502 3731324.4993400946 0 3731324.4993400946 -5257991.5491185151 0 0 0 0 -86971247.327113152 1611465862.5231962 0 1611465862.5231962 -517573192.39724874 0 0 0 0 343529414.76777267 -410924717.86549413 0 -410924717.86549413 -1036017232.0208397 0 0 0 0 329558007.13764954 -311969463.35338974 0 -311969463.35338974 -1735681629.199544 0 0 0 0 329614469.19256592 -42241226.16691494 0 -42241226.16691494 -99397171.078976661 0 0 0 0 620215385.12025452 -5460250.6110711098 0 -5460250.6110711098 -1094970968.0124865 0 0 0 0 -2412476.7027871907 7573860.4994202927 0 7573860.4994202927 -10261673.151408266 0 0 0 0 823933297.72927856 806075310.62255526 0 806075310.62255526 -82171046.292215213 0 0 0 0 753188552.70161629 481859025.20448554 0 481859025.20448554 -152733611.15627754 0 0 0 0 171089308.7851181 277733508.60839319 0 277733508.60839319 -114026983.21657398 0 0 0 0 373407686.2352047 10816848.75205341 0 10816848.75205341 -680937730.7228899 0 0 0 0 302242754.04824829 602702103.091784 0 602702103.091784 -1245805086.3070867 0 0 0 0 -106521714.13463593 336047527.55877584 0 336047527.55877584 -623163821.3241756 0 0 0 0 287949518.05607986 207115.26651546359 0 207115.26651546359 -389765823.13379121 0 0 0 0 -292644125.88565063 166849082.00552404 0 166849082.00552404 -96686101.777913332 0 0 0 0 -363524440.04504395 257324128.69408128 0 257324128.69408128 -240831626.605708 0 0 0 0 -246597923.5231781 237478603.22335291 0 237478603.22335291 -239509115.72110319 0 0 0 0 -94068693.746643066 272708600.87935388 0 272708600.87935388 -349857243.52692509 0 0 0 0 -249298682.79772186 407565487.66320574 0 407565487.66320574 -456333878.50692308 0 0 0 0 -432361172.38286591 631814155.44120431 0 631814155.44120431 -586195121.400002 0 0 0 0 -335881169.11375427 491270034.74334812 0 491270034.74334812 -390971590.84293967 0 0 0 0 -121909000.01182938 710380259.98977208 0 710380259.98977208 -846297123.02170134 0 0 0 0 108932120.94635773 616990434.57949352 0 616990434.57949352 -907154279.05388808 0 0 0 0 -1254444555.5215397 929585026.29944301 0 929585026.29944301 -509146096.33212566 0 0 0 0 -258336010.99811935 1120912442.6291862 0 1120912442.6291862 -1573961951.2308533 0 0 0 0 149110840.99226379 -155380735.86466813 0 -155380735.86466813 -1638459970.4343927 0 0 0 0 -36188701.070270538 168735642.06772256 0 168735642.06772256 -186991419.17185688 0 0 0 0 7494856.7502391785 7352070.815960505 0 7352070.815960505 -6235227.0457082251 0 0 0 0 -1823810.8900930434 6827976.7024152726 0 6827976.7024152726 -5429830.9311531596 0 0 0 0 -50899916.815719604 297064070.59706485 0 297064070.59706485 148295939.41336393 0 0 0 0 3898435.2580573559 4545890.9330070568 0 4545890.9330070568 -797317.44677836215 0 0 0 0 155270513.47396851 137833495.9991616 0 137833495.9991616 -676626448.18181396 0 0 0 0 142414137.36621475 734642268.2579968 0 734642268.2579968 -869734519.88103676 0 0 0 0 98835172.448005676 680477227.60058117 0 680477227.60058117 -619714725.58862424 0 0 0 0 286594799.27752686 428310796.48873901 0 428310796.48873901 -658577363.01090264 0 0 0 0 235896103.01138306 769278792.03127766 0 769278792.03127766 -869478556.30332685 0 0 0 0 154815079.94512367 1020665320.0724921 0 1020665320.0724921 -1647766112.5082045 0 0 0 0 -393449437.18452454 388613226.99842763 0 388613226.99842763 -651892202.61693168 0 0 0 0 -323673224.71849823 1066007085.2258329 0 1066007085.2258329 -859548263.92180586 0 0 0 0 83773115.37677002 726498371.77068663 0 726498371.77068663 -423015129.76012945 0 0 0 0 -8367929.2608375549 560253678.74643338 0 560253678.74643338 -358340883.05756903 0 0 0 0 76803267.085002899 121140403.81379622 0 121140403.81379622 163707686.43954563 0 0 0 0 -50069858.176620483 715166391.75819302 0 715166391.75819302 -172030197.59560609 0 0 0 0 41080365.798228264 273672541.62994909 0 273672541.62994909 47298258.713988304 0 0 0 0 109119092.50576782 589267638.81812763 0 589267638.81812763 361142861.2545526 0 0 0 0 180968617.43855286 61860296.134441257 0 61860296.134441257 678595812.09436941 0 0 0 0 -122662597.06074524 351513115.04685378 0 351513115.04685378 767667521.44828033 0 0 0 0 1777548.2467727214 3701409.2830151739 0 3701409.2830151739 251740.03340726014 0 0 0 0 342304249.37251282 206886698.31703687 0 206886698.31703687 605210152.34566724 0 0 0 0 351374549.86550903 684082663.87229109 0 684082663.87229109 863626247.68475056 0 0 0 0 -165121512.84237671 326587995.32303977 0 326587995.32303977 1724772200.8451133 0 0 0 0 483628.85323019326 1079441.9234486849 0 1079441.9234486849 464716.8359727413 0 0 0 0 386101907.65884399 125004648.0121457 0 125004648.0121457 -551866576.74406648 0 0 0 0 54687031.006262779 150704345.83584416 0 150704345.83584416 603703130.75995445 0 0 0 0 304065065.59076691 461031816.24805295 0 461031816.24805295 -34209224.338605881 0 0 0 0 -110693.31963348389 401488713.94399095 0 401488713.94399095 495657735.64662695 0 0 0 0 -28584148.042373657 167353761.33696127 0 167353761.33696127 -193647391.55980039 0 0 0 0 390457.69140625 570561609.94137955 0 570561609.94137955 -651317296.00227308 0 0 0 0 -61529764.5807724 313376023.71976328 0 313376023.71976328 -928175617.33359623 0 0 0 0 -386534.1965713501 543914716.99071455 0 543914716.99071455 -1069090558.5411549 0 0 0 0 -104863315.06427765 463594431.02455091 0 463594431.02455091 -1118946924.0952358 0 0 0 0 62683513.067064285 543769935.17781472 0 543769935.17781472 -1250106025.8836527 0 0 0 0 -335978284.57508636 890219971.21331358 0 890219971.21331358 -953447579.96334553 0 0 0 0 -332433157.15669632 980691589.76310182 0 980691589.76310182 702713644.68272591 0 0 0 0 416752610.21150589 50420528.00590831 0 50420528.00590831 -2066383181.1194792 0 0 0 0 -1401625.3707887828 3691471.4677720368 0 3691471.4677720368 -5010799.0015777163 0 0 0 0 -320807121.57942963 794108176.61725521 0 794108176.61725521 -1200183947.9199924 0 0 0 0 -988053457.28587341 544566837.07782459 0 544566837.07782459 -355479018.94147968 0 0 0 0 842130850.12931406 191492405.54246503 0 191492405.54246503 -903004914.38504219 0 0 0 0 105392093.78364944 185501330.28121805 0 185501330.28121805 -1299764003.4883232 0 0 0 0 279536623.86293793 -153964069.25572014 0 -153964069.25572014 -647377983.3132062 0 0 0 0 162216780.14665222 143361046.54960632 0 143361046.54960632 -2640686544.0916767 0 0 0 0 -53685712.10634613 651155793.57525492 0 651155793.57525492 -2170169448.0144329 0 0 0 0 -730729344.3809433 -220517677.60200548 0 -220517677.60200548 -1676667147.0830483 0 0 0 0 235552.64591217041 252791204.05051994 0 252791204.05051994 -1648879893.5861568 0 0 0 0 -63264475.167510986 569080731.31485558 0 569080731.31485558 -1267202345.7438698 0 0 0 0 -349383445.50455856 279159346.90110683 0 279159346.90110683 -1150559841.5225163 0 0 0 0 21860250.336074829 45998398.935939789 0 45998398.935939789 93617999.26857388 0 0 0 0 24391387.830230713 38114366.381120682 0 38114366.381120682 79950033.595043182 0 0 0 0 -15604366.31917572 42989094.926280975 0 42989094.926280975 79836663.651928514 0 0 0 0 51443529.245277405 32616649.171468735 0 32616649.171468735 65746083.138313293 0 0 0 0 50511507.688549042 35691420.596908569 0 35691420.596908569 106512729.37334824 0 0 0 0 76470671.99899292 7111329.4153995514 0 7111329.4153995514 94714506.107532501 0 0 0 0 47923869.068389893 20697434.706886292 0 20697434.706886292 95644577.722568512 0 0 0 0 44491312.527160645 17786468.725154877 0 17786468.725154877 95678350.456520081 0 0 0 0 22237735.218916953 13176903.836826935 0 13176903.836826935 95144274.981651306 0 0 0 0 65963052.162765503 17461794.649482727 0 17461794.649482727 94787220.560722351 0 0 0 0 145451144.44005585 45017806.979969025 0 45017806.979969025 -99184986.038572311 0 0 0 0 43217132.898066372 38399346.130071372 0 38399346.130071372 -3645759.3883680259 0 0 0 0 43508970.635070801 19327468.505077362 0 19327468.505077362 96329799.432756424 0 0 0 0 123448278.02503967 45763951.23324585 0 45763951.23324585 -62633820.90063858 0 0 0 0 152478647.72270775 -1451296.9712295532 0 -1451296.9712295532 -24751038.287246704 0 0 0 0 173719395.41564178 20839730.569763184 0 20839730.569763184 -86366543.476675034 0 0 0 0 232707351.5019989 46202350.468090057 0 46202350.468090057 -89321846.71257782 0 0 0 0 208814750.12148857 75282827.074510574 0 75282827.074510574 -26395277.961708069 0 0 0 0 212575729.47081947 72883168.599159241 0 72883168.599159241 -52924581.615341187 0 0 0 0 -46444713.625016451 47359709.707783818 0 47359709.707783818 88689.98083114624 0 0 0 0 140965323.57653809 163277035.95792389 0 163277035.95792389 21494268.483474731 0 0 0 0 72676187.016670227 33622738.423271179 0 33622738.423271179 -60221037.086378098 0 0 0 0 -28529406.635414124 112406949.98535919 0 112406949.98535919 8968800.388633728 0 0 0 0 55368585.07648468 45042884.545528412 0 45042884.545528412 93588297.926978827 0 0 0 0 37822039.729621887 17737150.855899811 0 17737150.855899811 96852713.29201889 0 0 0 0 37797018.015962198 40955294.898338653 0 40955294.898338653 -10799735.965493809 0 0 0 0 4437914.2699928284 55589112.033335686 0 55589112.033335686 123908563.29152107 0 0 0 0 -13290088.837627659 34348843.742907651 0 34348843.742907651 -6964129.5833052844 0 0 0 0 48942830.838417053 110008524.41328812 0 110008524.41328812 -24772647.166499138 0 0 0 0 9723301.1531734467 61568931.591997147 0 61568931.591997147 -4464375.0948143005 0 0 0 0 8024565.0778206885 40999702.21015361 0 40999702.21015361 -9973793.4235505704 0 0 0 0 6386377.3945260867 24182651.472156905 0 24182651.472156905 -4191016.3758105743 0 0 0 0 8441862.7775173187 155858885.53946072 0 155858885.53946072 172036101.64004135 0 0 0 0 -1442712.4922485352 33762419.387361526 0 33762419.387361526 87241977.875778198 0 0 0 0 -8070600.6973342896 46607150.580215454 0 46607150.580215454 118979666.7536602 0 0 0 0 14049591.828037262 52712829.248643875 0 52712829.248643875 52085790.808259964 0 0 0 0 -67966703.762451172 23283857.603668213 0 23283857.603668213 46011664.27545929 0 0 0 0 -186219330.0335598 164876277.1535337 0 164876277.1535337 55204644.659385681 0 0 0 0 93944090.657344818 87638854.274682999 0 87638854.274682999 60271796.069776535 0 0 0 0 102343055.9670639 151188272.63756561 0 151188272.63756561 -254009923.50186729 0 0 0 0 -1812403.3480911255 97133623.929973602 0 97133623.929973602 -203460535.76939964 0 0 0 0 -99103412.535572052 -67006414.685252666 0 -67006414.685252666 -129684950.403862 0 0 0 0 -12565540.765541077 71301520.914468765 0 71301520.914468765 -61606205.704847336 0 0 0 0 35878008.068180084 41750089.72365284 0 41750089.72365284 -103400383.07294178 0 0 0 0 21815433.197971344 147619.65368032455 0 147619.65368032455 37807364.748214722 0 0 0 0 67463958.729240417 34253952.72095871 0 34253952.72095871 -2641406.6640262604 0 0 0 0 17557658.353534698 25172468.800471306 0 25172468.800471306 -2568515.0146369934 0 0 0 0 57102380.94556427 23377619.660629272 0 23377619.660629272 -40523923.77803421 0 0 0 0 48273504.656326294 12623524.149400711 0 12623524.149400711 1111637.5982069969 0 0 0 0 206835935.70317078 197083914.38313293 0 197083914.38313293 110106251.24839592 0 0 0 0 20854264.354141235 5580505.0059938431 0 5580505.0059938431 68985281.669500828 0 0 0 0 51566020.649045944 -3129770.9080762863 0 -3129770.9080762863 19082912.583539963 0 0 0 0 6044122.2446094528 3347801.1165508516 0 3347801.1165508516 1509092.1408478022 0 0 0 0 69324337.868869781 3753714.8458099365 0 3753714.8458099365 -2687820.8730969429 0 0 0 0 49812038.742969513 7033248.5808653831 0 7033248.5808653831 23401243.743675232 0 0 0 0 38932928.669695273 44688617.376626402 0 44688617.376626402 26194487.010660682 0 0 0 0 -78231577.435775757 384932125.07710075 0 384932125.07710075 270008105.21754265 0 0 0 0 184666129.75467682 -78730171.927330017 0 -78730171.927330017 -97559853.393450737 0 0 0 0 288343553.89504337 -120049241.85241628 0 -120049241.85241628 -164423849.81748962 0 0 0 0 6097586.4376033992 1689358.2161143534 0 1689358.2161143534 -317203.33586110547 0 0 0 0 -21290256.934343338 65636747.133541942 0 65636747.133541942 -17012755.470292568 0 0 0 0 -48703761.417293549 86278155.137335777 0 86278155.137335777 -3371207.556055069 0 0 0 0 -77612392.336494446 33902609.135608435 0 33902609.135608435 32775898.757974625 0 0 0 0 -12826212.936138153 59516492.975956917 0 59516492.975956917 13925113.657125473 0 0 0 0 29999973.352924347 -33378652.104773998 0 -33378652.104773998 64072562.624894619 0 0 0 0 40071418.660469055 105082591.70230722 0 105082591.70230722 50011583.437561035 0 0 0 0 44733345.438166 46936800.424577996 0 46936800.424577996 22701088.614741094 0 0 0 0 66890732.609010696 92620230.102387905 0 92620230.102387905 27709443.868619919 0 0 0 0 -16199402.139189482 94122809.219988972 0 94122809.219988972 64634794.505439758 0 0 0 0 223849486.6208725 -147393757.0735774 0 -147393757.0735774 132466291.95113277 0 0 0 0 3008591.6678682268 15281300.757271277 0 15281300.757271277 6316467.9704718702 0 0 0 0 -7223627.8145828247 110531751.08433437 0 110531751.08433437 82048425.608260155 0 0 0 0 61706990.128158569 54072715.655385017 0 54072715.655385017 -16021747.059894562 0 0 0 0 79186740.621025085 34866043.340168953 0 34866043.340168953 -43193077.771503448 0 0 0 0 619386701.17524338 -85362758.1074543 0 -85362758.1074543 -246049356.84135866 0 0 0 0 517736983.75004578 589468926.99902821 0 589468926.99902821 -950152748.74895763 0 0 0 0 56659151.705308914 15643712.768660545 0 15643712.768660545 4130511.5958251953 0 0 0 0 57480073.718170166 52147575.852308273 0 52147575.852308273 57384727.073951721 0 0 0 0 84846721.085424423 20718360.617601871 0 20718360.617601871 91620820.818187714 0 0 0 0 6894700.8968401477 11699627.408509005 0 11699627.408509005 13262684.996712843 0 0 0 0 62811470.953559875 -4788521.858341217 0 -4788521.858341217 71907885.360080719 0 0 0 0 118551126.0970459 22539396.654666901 0 22539396.654666901 26065515.753398418 0 0 0 0 27936415.731236275 10916370.853772163 0 10916370.853772163 -7622683.7366832793 0 0 0 0 35406916.582801819 45769948.055305481 0 45769948.055305481 38703857.55301857 0 0 0 0 132308624.35710907 39621684.002162933 0 39621684.002162933 -17676774.111297607 0 0 0 0 23391571.582099192 21864013.838569455 0 21864013.838569455 5009408.164062432 0 0 0 0 20976661.365427971 20003281.351054966 0 20003281.351054966 -7500941.5703706741 0 0 0 0 28375449.291986447 35613468.180264436 0 35613468.180264436 -8044252.7838671636 0 0 0 0 33559521.458164215 15137483.294149399 0 15137483.294149399 -7991198.6629116535 0 0 0 0 23470033.682847977 24929099.503538609 0 24929099.503538609 -21274567.207811564 0 0 0 0 28994152.472261429 35282145.362921715 0 35282145.362921715 -18035283.782771111 0 0 0 0 32881040.755645752 29539116.568138123 0 29539116.568138123 -28286561.714797974 0 0 0 0 19685352.865053471 12861996.052018685 0 12861996.052018685 -1902628.9536440992 0 0 0 0 34851825.500651404 59281047.401796348 0 59281047.401796348 13114562.81567917 0 0 0 0 28702032.460887909 36288137.232582092 0 36288137.232582092 -11518095.934352517 0 0 0 0 -82683630.483718395 -22358438.650316238 0 -22358438.650316238 -62958339.939460754 0 0 0 0 35420154.33881893 26707244.762969583 0 26707244.762969583 -24146928.653651096 0 0 0 0 29409962.244842552 15220703.33742797 0 15220703.33742797 -2875803.0432857107 0 0 0 0 48418765.843288422 25670447.242520332 0 25670447.242520332 446017.30764007568 0 0 0 0 14519440.148742676 16992391.588309288 0 16992391.588309288 -7726225.7334527969 0 0 0 0 37730774.542791113 39570069.172169589 0 39570069.172169589 -1731190.4704200407 0 0 0 0 49100404.270616531 68919897.359169006 0 68919897.359169006 -69092173.996639252 0 0 0 0 57858999.707276106 64097135.8498106 0 64097135.8498106 -15027470.823028564 0 0 0 0 35738849.191981316 83399890.294095993 0 83399890.294095993 -87191750.639778137 0 0 0 0 52966533.401855469 41591625.12039566 0 41591625.12039566 -33393629.143226624 0 0 0 0 14995719.530021716 9508322.9185827486 0 9508322.9185827486 -11533102.94392807 0 0 0 0 710148.07387733459 -23500416.17868042 0 -23500416.17868042 -92418863.108818769 0 0 0 0 35218427.243781701 55968615.628413707 0 55968615.628413707 -25710040.741447449 0 0 0 0 26375159.607313585 17366691.509492837 0 17366691.509492837 -19600110.037286259 0 0 0 0 -9532882.6213225909 27445069.774344094 0 27445069.774344094 -13057280.004355963 0 0 0 0 140734838.9239836 -23562188.843929291 0 -23562188.843929291 -59821944.057198524 0 0 0 0 2184788.6468019448 5491558.7225575559 0 5491558.7225575559 -6169759.377702117 0 0 0 0 50456025.021130562 16184252.69037056 0 16184252.69037056 -26439206.040813446 0 0 0 0 1825403.9081056118 37632135.906445503 0 37632135.906445503 -31978275.832897186 0 0 0 0 -20971050.571941614 16527879.476802826 0 16527879.476802826 16341666.802219391 0 0 0 0 98229503.406305641 -20253976.41673851 0 -20253976.41673851 -24135400.870582581 0 0 0 0 98351687.946365401 41839728.499973297 0 41839728.499973297 -7318737.7658042908 0 0 0 0 106092705.36909819 131993265.15373039 0 131993265.15373039 7140503.4685745239 0 0 0 0 -16495816.235303402 229600104.28830242 0 229600104.28830242 59515437.126804352 0 0 0 0 -135787251.24848878 56968468.94857204 0 56968468.94857204 -6513927.9909973145 0 0 0 0 64101617.973415852 48289342.884767532 0 48289342.884767532 -43797329.302009583 0 0 0 0 84021847.627923012 18287348.607711792 0 18287348.607711792 -39499700.139259338 0 0 0 0 -68749434.954021454 110590497.71239853 0 110590497.71239853 123454392.85672808 0 0 0 0 7113015.5418205261 325643249.62778091 0 325643249.62778091 -1165506.4785556793 0 0 0 0 66199553.969306946 326088693.40086555 0 326088693.40086555 -398996981.63446712 0 0 0 0 -58138037.80241394 210012600.49297905 0 210012600.49297905 -19878771.394306183 0 0 0 0 58029389.418266296 92782724.514518738 0 92782724.514518738 -26089675.490381241 0 0 0 0 107884340.41924286 65488861.268737793 0 65488861.268737793 -13764006.383047104 0 0 0 0 90493176.764858246 125054155.43623543 0 125054155.43623543 -103525656.61970329 0 0 0 0 250100200.19852066 57228608.885372639 0 57228608.885372639 -74727662.620592117 0 0 0 0 11823933.597690582 58355756.167816162 0 58355756.167816162 87092914.672898769 0 0 0 0 24765066.033798218 116463358.29999161 0 116463358.29999161 80854108.761327744 0 0 0 0 -20992207.967948329 16063654.210639261 0 16063654.210639261 -3331067.224491559 0 0 0 0 -55873288.626415253 151199880.37661171 0 151199880.37661171 183238236.80537224 0 0 0 0 -76236217.572425842 44368737.902196884 0 44368737.902196884 270815720.29434586 0 0 0 0 -83341724.437363625 103712484.11855078 0 103712484.11855078 155519391.66272736 0 0 0 0 -398867574.79246521 299788074.03271103 0 299788074.03271103 -271930982.35599327 0 0 0 0 -21239003.296804361 -3251502.1932302825 0 -3251502.1932302825 -870842.76972002164 0 0 0 0 -234092966.25200224 263024889.43574905 0 263024889.43574905 -264792676.15251923 0 0 0 0 19776735.255270004 -50704014.420476913 0 -50704014.420476913 -565434692.50693893 0 0 0 0 -11343019.042089701 27225273.686357498 0 27225273.686357498 -15635208.733013153 0 0 0 0 91387241.890611649 102584253.28293514 0 102584253.28293514 -266290869.17599869 0 0 0 0 -5446263.4403164489 132064.07385626901 0 132064.07385626901 886560.36143374443 0 0 0 0 -4223461.1075220667 6733151.4013218991 0 6733151.4013218991 -750574.8221727591 0 0 0 0 -105335197.14226341 97693770.315631866 0 97693770.315631866 215740763.29189086 0 0 0 0 -247054605.3368721 364667072.50399971 0 364667072.50399971 -142948680.45269012 0 0 0 0 -253729645.78881645 70833709.933708191 0 70833709.933708191 72144183.373954535 0 0 0 0 -273267560.56822675 -80764847.036534846 0 -80764847.036534846 -201427264.44573975 0 0 0 0 -148035305.61039448 209698941.01980019 0 209698941.01980019 -518812410.64678955 0 0 0 0 226231863.07649541 253931804.05658007 0 253931804.05658007 47372074.951385498 0 0 0 0 274889940.91367716 120430980.3319397 0 120430980.3319397 36501263.307281494 0 0 0 0 235852764.84948349 179764647.99805069 0 179764647.99805069 280043197.9317646 0 0 0 0 207678650.18767613 87623862.764791965 0 87623862.764791965 84022522.834213257 0 0 0 0 268058424.26265845 45800534.997337341 0 45800534.997337341 -45531065.585105896 0 0 0 0 8470455.6933615208 -30607438.484315872 0 -30607438.484315872 22532898.528354645 0 0 0 0 161345206.67371237 -10860002.265519142 0 -10860002.265519142 -52007831.430847168 0 0 0 0 -779501.40708798321 1605867.6566557381 0 1605867.6566557381 -146878.57609651238 0 0 0 0 199330525.56808496 25463362.40571022 0 25463362.40571022 -241000397.58359146 0 0 0 0 273131253.52620637 449342777.71195221 0 449342777.71195221 -23913763.425102234 0 0 0 0 169724388.17999029 427732487.15342712 0 427732487.15342712 253000498.22242737 0 0 0 0 -23882725.054636922 30525512.566921815 0 30525512.566921815 -35492344.670931712 0 0 0 0 48932488.969287872 221409244.5770874 0 221409244.5770874 78916590.592552185 0 0 0 0 -9898710.5175156593 -68332385.734097958 0 -68332385.734097958 -45135817.597717285 0 0 0 0 -268800959.08912086 -44669417.486040115 0 -44669417.486040115 124941251.33526611 0 0 0 0 111218443.53680801 44350627.689258575 0 44350627.689258575 36251327.333969116 0 0 0 0 86004344.106285095 100287394.45639801 0 100287394.45639801 20212547.137367249 0 0 0 0 66953121.248594284 78057062.93592453 0 78057062.93592453 8716525.6543121338 0 0 0 0 34142595.839893341 77184115.884883881 0 77184115.884883881 32382345.378433228 0 0 0 0 -19208853.742309179 27014650.291937187 0 27014650.291937187 -33287621.006542198 0 0 0 0 64966631.004634857 77782623.318569183 0 77782623.318569183 16118667.581010818 0 0 0 0 -96150854.997493744 98076034.223772049 0 98076034.223772049 86416163.02589798 0 0 0 0 402708956.15350723 87473805.818161011 0 87473805.818161011 190654142.68864441 0 0 0 0 -11068334.50125302 8941001.7052469775 0 8941001.7052469775 4836400.9575544745 0 0 0 0 -132187483.48976001 196632839.89079243 0 196632839.89079243 61151566.46622467 0 0 0 0 635799346.35467529 -65655733.492527008 0 -65655733.492527008 -108447017.84684181 0 0 0 0 -1461078.1326642763 -391422.57901349291 0 -391422.57901349291 2902942.8541380689 0 0 0 0 -13599180.234530658 11185157.803405905 0 11185157.803405905 4667938.7089008912 0 0 0 0 111685944.93267155 116699155.13780212 0 116699155.13780212 53733413.006248474 0 0 0 0 636374556.24800205 474444356.45998573 0 474444356.45998573 -240578707.25399017 0 0 0 0 26836829.40986824 65252514.445367813 0 65252514.445367813 4871658.9085083008 0 0 0 0 -16542203.474490123 26205572.403362043 0 26205572.403362043 -27063289.089689687 0 0 0 0 -36403474.589198589 112907899.57014322 0 112907899.57014322 55122269.583446503 0 0 0 0 -236712496.57671189 645258.6167640686 0 645258.6167640686 100572811.17207718 0 0 0 0 300684110.15338039 136775809.89287376 0 136775809.89287376 -48979373.194812775 0 0 0 0 -1635225.4272394683 -556511.32411555573 0 -556511.32411555573 -361841.09591311216 0 0 0 0 279954005.58764982 71597026.320809364 0 71597026.320809364 -56973190.147674561 0 0 0 0 84094257.215091705 35023739.827701569 0 35023739.827701569 -7039764.8178787231 0 0 0 0 290613388.51938057 -40601929.433502197 0 -40601929.433502197 7143354.8931236267 0 0 0 0 253173925.89974403 96647136.5794487 0 96647136.5794487 21004812.201370239 0 0 0 0 7647774.6590709686 67967261.017856598 0 67967261.017856598 11581577.744403839 0 0 0 0 5253491.418258667 68731200.380031586 0 68731200.380031586 11433264.40281105 0 0 0 0 31152946.699647903 80293345.690250397 0 80293345.690250397 15949687.76789856 0 0 0 0 4190643.1425948143 83388672.932595253 0 83388672.932595253 18296492.995475769 0 0 0 0 4548879.0110588074 80599175.223218918 0 80599175.223218918 23869697.342639923 0 0 0 0 32878964.137766838 87891083.051303387 0 87891083.051303387 19732849.295700073 0 0 0 0 -587928.27103805542 72442057.564289093 0 72442057.564289093 40072529.9090271 0 0 0 0 1744218.6160545349 75225864.51171875 0 75225864.51171875 8592841.2349128723 0 0 0 0 -3849627.5795955658 67788573.740000725 0 67788573.740000725 6336732.9422531128 0 0 0 0 -24817964.676057816 88734562.005529404 0 88734562.005529404 28912797.32497406 0 0 0 0 -6924954.3870506287 92546553.070079803 0 92546553.070079803 10765494.645012856 0 0 0 0 -20429505.998252869 68929306.545391083 0 68929306.545391083 55560422.456150055 0 0 0 0 -54427547.09752655 123073024.51077652 0 123073024.51077652 9649183.3561401367 0 0 0 0 -1548330.2693080902 74031899.922311783 0 74031899.922311783 -55141124.509010315 0 0 0 0 -108081.66776648909 294095.74870818853 0 294095.74870818853 -190103.93042195588 0 0 0 0 -50979466.292922974 72629919.124858856 0 72629919.124858856 104356872.18740082 0 0 0 0 -16071040.054401398 107467768.95442772 0 107467768.95442772 -64911901.094753265 0 0 0 0 32840803.743739128 66568422.858502388 0 66568422.858502388 86389955.118831635 0 0 0 0 15644451.190229416 29958007.31710434 0 29958007.31710434 68223018.460535049 0 0 0 0 -19931068.317026138 65100381.58846283 0 65100381.58846283 48817745.334106445 0 0 0 0 15744513.204555511 38072686.343994141 0 38072686.343994141 38091005.379955292 0 0 0 0 -8874992.124080658 65079539.348117828 0 65079539.348117828 28378017.373301029 0 0 0 0 -13888349.215353012 80016527.029682159 0 80016527.029682159 35865572.40802002 0 0 0 0 79789.147113800049 72688367.739281654 0 72688367.739281654 34292421.04605484 0 0 0 0 -3527491.0436477661 50657407.398216248 0 50657407.398216248 54769447.905040741 0 0 0 0 -80859324.004013062 382595.86866760254 0 382595.86866760254 60888222.00334549 0 0 0 0 29514343.538425207 45853064.599715471 0 45853064.599715471 25487525.420463562 0 0 0 0 40496183.741226196 33288239.294166565 0 33288239.294166565 19479922.017398834 0 0 0 0 25564743.531822205 44628290.697368622 0 44628290.697368622 38343224.331827164 0 0 0 0 23666480.988124847 38751655.719610214 0 38751655.719610214 20800081.836471558 0 0 0 0 5515443.2712993622 23943538.654575348 0 23943538.654575348 32553260.559680939 0 0 0 0 -235814.63765907288 -6301348.8305683136 0 -6301348.8305683136 5226936.2912445068 0 0 0 0 7376819.9064750671 32969650.443756104 0 32969650.443756104 39495603.747489929 0 0 0 0 48530.68154039979 -104879.54207151383 0 -104879.54207151383 316118.16431719065 0 0 0 0 -264447.70674531162 592615.65916988254 0 592615.65916988254 -359469.66432009637 0 0 0 0 38126843.809658051 39996238.551326752 0 39996238.551326752 56515787.703235626 0 0 0 0 13668033.604785919 38699677.94311142 0 38699677.94311142 59031075.560506821 0 0 0 0 45684165.905460358 42454542.546798706 0 42454542.546798706 63279581.494049072 0 0 0 0 14224121.589565277 48438065.616218567 0 48438065.616218567 62296520.833686829 0 0 0 0 31623780.35577631 68464720.567149639 0 68464720.567149639 95141671.160469055 0 0 0 0 -39660.855225592852 716648.05692508072 0 716648.05692508072 -228261.55429135263 0 0 0 0 881522.41108359024 -239394.84698324651 0 -239394.84698324651 364653.98658622801 0 0 0 0 4590540.252141118 -1433202.4290595055 0 -1433202.4290595055 29744111.232498169 0 0 0 0 948982.64743447304 1514536.851319313 0 1514536.851319313 1265781.7300859094 0 0 0 0 32435504.600366592 72844447.294683456 0 72844447.294683456 88141901.688056946 0 0 0 0 18255822.928630829 29875261.868774414 0 29875261.868774414 78183586.873056412 0 0 0 0 17233229.296699524 46728106.106323242 0 46728106.106323242 29384370.339813232 0 0 0 0 21618313.297431946 25203002.609592438 0 25203002.609592438 48771347.325180054 0 0 0 0 -29006741.321346283 126052527.9234581 0 126052527.9234581 159337902.43367386 0 0 0 0 30969069.832859039 52331174.936633229 0 52331174.936633229 29008801.259245396 0 0 0 0 39698944.384635925 60311246.550785065 0 60311246.550785065 68098072.089633942 0 0 0 0 12049027.303878784 52307663.382819533 0 52307663.382819533 69105968.674206495 0 0 0 0 46111708.751186371 46269429.069953918 0 46269429.069953918 27369938.199028015 0 0 0 0 28567741.923043914 40116669.056741156 0 40116669.056741156 535018.76469208242 0 0 0 0 16661355.794647217 34791618.416802883 0 34791618.416802883 39699972.975101948 0 0 0 0 20407598.226200104 24904779.755077273 0 24904779.755077273 63459723.891634703 0 0 0 0 37183759.181432724 36295255.787727356 0 36295255.787727356 24610554.505512238 0 0 0 0 23354854.989282839 39640295.027818359 0 39640295.027818359 1232065.0704758151 0 0 0 0 19006796.743556976 51145133.537348986 0 51145133.537348986 32753106.627703905 0 0 0 0 21981018.800804138 44828634.84621048 0 44828634.84621048 2320663.6056680679 0 0 0 0 4163576.6618309021 26827282.040010691 0 26827282.040010691 26007019.275723457 0 0 0 0 19423167.563298225 32087541.558221936 0 32087541.558221936 -43665844.132339478 0 0 0 0 3661955.3303909302 25005557.629163742 0 25005557.629163742 -10423677.584104538 0 0 0 0 12748553.4780159 48803332.019207478 0 48803332.019207478 -28546585.985474586 0 0 0 0 22449584.300844193 37689276.97707057 0 37689276.97707057 -54972979.740323067 0 0 0 0 36493640.34192276 42924479.814604282 0 42924479.814604282 10957816.27753067 0 0 0 0 7589493.0781784058 32975425.947846889 0 32975425.947846889 8820457.2923521996 0 0 0 0 22824567.035987854 37520965.010819435 0 37520965.010819435 -17683220.57334137 0 0 0 0 24064745.36714077 44843832.462858438 0 44843832.462858438 -17107798.806741714 0 0 0 0 9750351.7973937988 33304507.980853081 0 33304507.980853081 -19033276.908817291 0 0 0 0 13368249.049766541 42797530.288645029 0 42797530.288645029 -17282650.1042099 0 0 0 0 30352259.656089783 46312481.796286583 0 46312481.796286583 -31153855.136374474 0 0 0 0 32881053.268196166 15106827.964407463 0 15106827.964407463 -1131813.8501907003 0 0 0 0 13222702.729202271 41335755.938550949 0 41335755.938550949 27293880.311797619 0 0 0 0 18880976.947776794 21793652.272511482 0 21793652.272511482 -9195164.4435510635 0 0 0 0 5016203.2473106384 20726478.507819653 0 20726478.507819653 12871305.507744431 0 0 0 0 21436552.995182037 38243321.032715559 0 38243321.032715559 16032875.662648141 0 0 0 0 3450097.305229187 31852461.059963703 0 31852461.059963703 50188987.806079626 0 0 0 0 5579785.9744033813 49536136.687633514 0 49536136.687633514 26720917.610839367 0 0 0 0 4945237.6208610535 30909721.209972024 0 30909721.209972024 58161007.221720934 0 0 0 0 13038435.85975311 39191989.031687319 0 39191989.031687319 69312.990559661994 0 0 0 0 3938972.1137485504 48973383.398651123 0 48973383.398651123 28103963.999191284 0 0 0 0 18204748.406412125 40608509.194496155 0 40608509.194496155 36293001.617546082 0 0 0 0 18135470.670975342 39525481.805562474 0 39525481.805562474 1187468.4180146726 0 0 0 0 16882393.25075531 22660390.461962938 0 22660390.461962938 57360328.06884069 0 0 0 0 17965815.331035614 44013448.760315418 0 44013448.760315418 21277659.482663155 0 0 0 0 21842392.96018219 23481644.232173443 0 23481644.232173443 20188800.671388626 0 0 0 0 8835497.641784668 21251782.203812599 0 21251782.203812599 11011988.751853228 0 0 0 0 13590655.61466217 17427193.494763374 0 17427193.494763374 -27848447.697075844 0 0 0 0 16027276.845874786 33813075.455497265 0 33813075.455497265 -13290344.825593948 0 0 0 0 1926055.8239438906 16008728.510328513 0 16008728.510328513 -30687684.06619294 0 0 0 0 164093023.735466 164531528.62273884 0 164531528.62273884 33933872.132095337 0 0 0 0 17676656.564498901 40414728.225943565 0 40414728.225943565 -743794.29148817062 0 0 0 0 8869207.2132387161 16597715.389994264 0 16597715.389994264 -16757523.405361176 0 0 0 0 140756386.16153717 292922663.75574684 0 292922663.75574684 97849295.516908646 0 0 0 0 4991504.5478348807 15625779.246307246 0 15625779.246307246 -27981542.673546843 0 0 0 0 184955006.32224274 75626740.814732552 0 75626740.814732552 -110890342.46380234 0 0 0 0 113147602.80487442 74771949.367805481 0 74771949.367805481 55459345.466915846 0 0 0 0 73537268.416204453 39575492.561779499 0 39575492.561779499 -14549288.71856308 0 0 0 0 90321299.469554901 23407913.696415901 0 23407913.696415901 -44827332.116325378 0 0 0 0 92923049.087585449 64194193.532581329 0 64194193.532581329 -123186348.66805267 0 0 0 0 51279386.095794678 17339352.607845306 0 17339352.607845306 8696926.6946401596 0 0 0 0 -408559.9031252414 1902619.9920064956 0 1902619.9920064956 -4525326.9847931899 0 0 0 0 92825410.301429749 39320254.101558685 0 39320254.101558685 -20974504.381258011 0 0 0 0 96448640.25343132 20538735.386958838 0 20538735.386958838 9101112.5785064697 0 0 0 0 166912421.2533493 121783586.38382912 0 121783586.38382912 6208771.9255832434 0 0 0 0 155662102.786026 35232917.474105835 0 35232917.474105835 -17066004.339252472 0 0 0 0 123722939.01607895 53496978.952124596 0 53496978.952124596 -83032250.770831108 0 0 0 0 110817642.96954489 104985254.05616391 0 104985254.05616391 -175439175.65249634 0 0 0 0 107254929.03479767 43950503.081222534 0 43950503.081222534 -22442023.374635696 0 0 0 0 2996854.8752288818 25600733.642753601 0 25600733.642753601 -30624168.49237442 0 0 0 0 -937312.95566545427 3536954.1154796146 0 3536954.1154796146 -7466822.5981798684 0 0 0 0 1512765.5315047875 19772893.066276416 0 19772893.066276416 -28281644.594997458 0 0 0 0 120720675.08463669 15497936.696048737 0 15497936.696048737 -38509429.49870491 0 0 0 0 12473558.747659683 39168301.498446226 0 39168301.498446226 -46926264.178162575 0 0 0 0 61026628.98299408 52501099.25935173 0 52501099.25935173 -86521987.121608734 0 0 0 0 4035361.5976306349 7024124.9167096997 0 7024124.9167096997 -7015874.8152237553 0 0 0 0 -1892125.949749738 16496669.292025097 0 16496669.292025097 -11117364.199155938 0 0 0 0 -7052929.667388916 19701200.312705994 0 19701200.312705994 -17704113.417427063 0 0 0 0 37920298.551907063 -3831520.6123837233 0 -3831520.6123837233 -8474199.5128517151 0 0 0 0 96845104.114219666 130457462.95735455 0 130457462.95735455 114092729.98856735 0 0 0 0 312547618.77101135 -61357922.348941803 0 -61357922.348941803 -161635548.8485117 0 0 0 0 -211385576.29258728 -95459990.410060883 0 -95459990.410060883 25586955.861534119 0 0 0 0 190357.22943052649 152754.81776883639 0 152754.81776883639 -337244.02839412075 0 0 0 0 42837289.734115601 45953887.26193428 0 45953887.26193428 33399821.568906784 0 0 0 0 142982189.15019989 89699516.651000977 0 89699516.651000977 -10989057.291656494 0 0 0 0 137752035.30509567 78167306.056418419 0 78167306.056418419 -22714035.24439621 0 0 0 0 91857682.698982239 -18376391.983633995 0 -18376391.983633995 -33251416.620948792 0 0 0 0 154605194.23277283 75242329.485435486 0 75242329.485435486 -27350148.032730103 0 0 0 0 -21155558.91015625 13308086.520508766 0 13308086.520508766 -16588498.320245743 0 0 0 0 -5460180.5488628894 9440935.1276124567 0 9440935.1276124567 -1238768.396362571 0 0 0 0 -27004068.586544037 39126957.766531944 0 39126957.766531944 -11586780.127574921 0 0 0 0 -35544752.010925293 14143163.672254562 0 14143163.672254562 7426778.7947340012 0 0 0 0 -31679158.986068726 248819139.00174904 0 248819139.00174904 12133511.359796524 0 0 0 0 43390075.208877563 62371269.598392487 0 62371269.598392487 -100796622.25909042 0 0 0 0 -1515477.657811448 1270027.0474136621 0 1270027.0474136621 -576505.68343996536 0 0 0 0 -156419992.20109558 5976157.9988098145 0 5976157.9988098145 252535890.80461693 0 0 0 0 155064589.43096855 138245697.09689057 0 138245697.09689057 45715136.416275024 0 0 0 0 264081401.3710022 155858067.3554554 0 155858067.3554554 31813390.408321381 0 0 0 0 -165392460.71679688 -55855224.874372482 0 -55855224.874372482 125922279.68018341 0 0 0 0 216110388.0378418 24980025.705818176 0 24980025.705818176 -25617935.148124218 0 0 0 0 -1228671.1096040606 2106537.2078683972 0 2106537.2078683972 1178737.7071052343 0 0 0 0 -192974727.27850342 136291002.92604828 0 136291002.92604828 208969205.38550949 0 0 0 0 209718205.20152283 421307394.98582458 0 421307394.98582458 351927493.23905182 0 0 0 0 460046567.67068481 -186417643.72658157 0 -186417643.72658157 265244949.08721828 0 0 0 0 126641270.38873291 209085968.75650978 0 209085968.75650978 291438881.6113205 0 0 0 0 1391100.3225594275 3652247.5912162345 0 3652247.5912162345 -6596795.9714903571 0 0 0 0 -71670183.605834961 75260797.68414402 0 75260797.68414402 226935751.93805885 0 0 0 0 -70996632.327461243 -22797194.832960129 0 -22797194.832960129 91216693.820390701 0 0 0 0 36630031.418470383 9436477.4567918777 0 9436477.4567918777 -13034425.831150055 0 0 0 0 86073217.429504395 79179029.746711254 0 79179029.746711254 41001909.052837372 0 0 0 0 4594653.7489433289 -20277028.346530914 0 -20277028.346530914 19967253.104228973 0 0 0 0 24759436.242046356 -21882313.312854767 0 -21882313.312854767 -2630517.1066474915 0 0 0 0 15711388.761203766 -10213527.406956673 0 -10213527.406956673 -16046111.440639496 0 0 0 0 12969425.564025879 29241769.160411835 0 29241769.160411835 29202189.75124383 0 0 0 0 51682763.710514069 68752015.66341877 0 68752015.66341877 14543800.663114548 0 0 0 0 92046946.769237518 95476277.746264458 0 95476277.746264458 -31520538.205635071 0 0 0 0 133781584.52288055 102870241.58546257 0 102870241.58546257 -14058225.588809967 0 0 0 0 94075693.719108582 84758222.511287689 0 84758222.511287689 7337298.9913539886 0 0 0 0 87191214.46421051 74326786.050077438 0 74326786.050077438 -9728215.4553146362 0 0 0 0 95809132.440872192 53762312.725561142 0 53762312.725561142 -59804590.016931534 0 0 0 0 -22643279.322113037 68168069.392521858 0 68168069.392521858 37475029.931790829 0 0 0 0 39819554.380065918 60605048.822315216 0 60605048.822315216 39490951.087167263 0 0 0 0 15149904.200885773 127477883.12228835 0 127477883.12228835 91147723.343886375 0 0 0 0 55442943.143363953 74708415.91737318 0 74708415.91737318 -98809609.051208496 0 0 0 0 -22019583.371322632 95651591.648448527 0 95651591.648448527 -93605430.676270962 0 0 0 0 48129119.911392212 83811905.273469448 0 83811905.273469448 -255341775.98385739 0 0 0 0 77583284.771728516 19155185.745577335 0 19155185.745577335 -61480776.203747436 0 0 0 0 -10261701.488754272 258822714.09680194 0 258822714.09680194 -135422233.13510895 0 0 0 0 -86103670.029312134 60375408.736138821 0 60375408.736138821 -60732385.969143867 0 0 0 0 -10359312.028213501 111651060.19745421 0 111651060.19745421 72229398.10425806 0 0 0 0 81620152.203895569 92237016.787803173 0 92237016.787803173 60285780.98622179 0 0 0 0 -5210184.8129158393 3959634.1479554325 0 3959634.1479554325 -1121418.3141751196 0 0 0 0 -70023494.426498413 59590221.966970444 0 59590221.966970444 -19798206.93013382 0 0 0 0 10086882.434539795 -27950577.396075964 0 -27950577.396075964 -439738.83627986908 0 0 0 0 -154219225.40779686 97630275.343506932 0 97630275.343506932 8975956.3471903801 0 0 0 0 -112089072.64970398 -11986532.852816343 0 -11986532.852816343 55611496.985817432 0 0 0 0 6189311.3317829221 20991996.666980099 0 20991996.666980099 9672105.5340095423 0 0 0 0 -2168423.5638580322 36909495.444322586 0 36909495.444322586 -41924669.285810471 0 0 0 0 26772284.219792262 8775153.5409121662 0 8775153.5409121662 -10287648.013086092 0 0 0 0 151703852.27501869 236673345.40906239 0 236673345.40906239 -157478614.52580738 0 0 0 0 8233727.5175973251 18448927.240522809 0 18448927.240522809 -3819222.3932636492 0 0 0 0 2380404.7183380127 23489296.926769257 0 23489296.926769257 -20883359.357856274 0 0 0 0 2473197.8759765625 24229214.553087234 0 24229214.553087234 -18420579.972842932 0 0 0 0 14957078.152798943 20134344.590592191 0 20134344.590592191 -6647907.6603443343 0 0 0 0 2698875.4072875977 25080821.907619476 0 25080821.907619476 -20054771.647541523 0 0 0 0 2701949.2208557129 25161820.25240922 0 25161820.25240922 -18977700.410489321 0 0 0 0 -6694309.0904381573 12693548.023333579 0 12693548.023333579 -8306634.5480160154 0 0 0 0 -17890136.109165668 31618250.937758565 0 31618250.937758565 -19491146.924791336 0 0 0 0 -2335005.2422790527 19975104.09318924 0 19975104.09318924 407905.74015808105 0 0 0 0 -7916173.7988841906 8039637.0778777637 0 8039637.0778777637 -2783989.7853968684 0 0 0 0 32319499.98374939 -11443571.912628174 0 -11443571.912628174 -327325201.83088779 0 0 0 0 -67533665.70262146 399969145.66861916 0 399969145.66861916 373779853.6480484 0 0 0 0 504076369.76651382 -311750494.25779676 0 -311750494.25779676 -173895787.06839371 0 0 0 0 -322725788.5526123 -170843271.56643295 0 -170843271.56643295 389561425.6868515 0 0 0 0 -395509629.63588715 22883860.154020309 0 22883860.154020309 109776307.46741867 0 0 0 0 -712523.1597366333 9480198.2888154984 0 9480198.2888154984 -3210661.102432251 0 0 0 0 347132.57253492996 11699181.615044881 0 11699181.615044881 -3846189.2024075761 0 0 0 0 -102076169.69909668 -18445318.431354523 0 -18445318.431354523 -138291185.05969238 0 0 0 0 -1582376.0910301208 10711359.703366995 0 10711359.703366995 -4307641.5086355209 0 0 0 0 -13899913.020053364 8667023.4901994765 0 8667023.4901994765 -2459852.0656779669 0 0 0 0 794226.86322021484 9752322.0289459229 0 9752322.0289459229 -2262131.4050521851 0 0 0 0 -7992853.4285056144 22538421.142570823 0 22538421.142570823 -9209603.4314978532 0 0 0 0 895682.29832261801 16707438.187855352 0 16707438.187855352 -8377570.0493816696 0 0 0 0 -20290738.717044041 12381213.868462786 0 12381213.868462786 -1992574.8740496095 0 0 0 0 -6395942.595703125 19179698.633656502 0 19179698.633656502 1126432.3256454468 0 0 0 0 -2809852.0069580078 19572982.76612854 0 19572982.76612854 1111968.4511032104 0 0 0 0 -22904431.981027782 19110321.138587192 0 19110321.138587192 -7290782.6032872014 0 0 0 0 5909732.7059020996 12497899.197587013 0 12497899.197587013 -1228402.9660992622 0 0 0 0 -5493204.5301745236 7208814.0555781536 0 7208814.0555781536 -3829312.1707021124 0 0 0 0 -11402773.114848211 7394299.2121659722 0 7394299.2121659722 -1803605.2751755221 0 0 0 0 -10702064.264755249 8647103.930259943 0 8647103.930259943 -3863635.9261274338 0 0 0 0 12552615.871765137 69659796.050079346 0 69659796.050079346 55264381.927871704 0 0 0 0 -1009517.4428253174 12958651.8110466 0 12958651.8110466 -10631846.32761693 0 0 0 0 -12854.669702105224 7492236.3432781436 0 7492236.3432781436 -4598596.0432264768 0 0 0 0 -11283288.141817093 9188733.7284052372 0 9188733.7284052372 2938089.8826532364 0 0 0 0 -714641.50926052034 2520866.7143560275 0 2520866.7143560275 -2102242.997728867 0 0 0 0 -6933280.7783050537 70507591.673663139 0 70507591.673663139 132631671.27236986 0 0 0 0 -13543351.543075562 99273847.883994579 0 99273847.883994579 303684182.3517952 0 0 0 0 26802593.14087677 353198747.9500885 0 353198747.9500885 -584528048.76630688 0 0 0 0 35298507.722579956 403737074.38508511 0 403737074.38508511 -460337518.56266594 0 0 0 0 -10285902.111793518 244388215.32802582 0 244388215.32802582 -444633419.68136024 0 0 0 0 -106610044.34220886 222049864.15278816 0 222049864.15278816 -443379018.88637543 0 0 0 0 -1698255.599620685 4124625.0600236896 0 4124625.0600236896 -576064.23749068053 0 0 0 0 -91260994.825805664 295578647.66339397 0 295578647.66339397 -475446161.84197998 0 0 0 0 -112865190.81758118 281813510.23776817 0 281813510.23776817 -262137127.30435371 0 0 0 0 188310357.9122467 126199043.11825371 0 126199043.11825371 -368224818.14925575 0 0 0 0 442575.28012221307 347791.13621910661 0 347791.13621910661 40423.46073580347 0 0 0 0 -28973744.089401245 210512169.34852028 0 210512169.34852028 -208885814.43787003 0 0 0 0 -419231279.77233887 372222158.01945877 0 372222158.01945877 -239921508.24938965 0 0 0 0 -105707511.07883453 521134458.42424011 0 521134458.42424011 -394261964.10453606 0 0 0 0 -438415421.43028259 684626210.32823372 0 684626210.32823372 -439348254.55910301 0 0 0 0 -149568670.35018539 67844781.76701498 0 67844781.76701498 -251272979.47276115 0 0 0 0 -26466470.973789215 136869164.25415516 0 136869164.25415516 -217511693.18118858 0 0 0 0 -115416377.29535675 2347707.3614420891 0 2347707.3614420891 29946089.517513275 0 0 0 0 6138877.1316578984 7861025.5638646185 0 7861025.5638646185 -3674203.2317854892 0 0 0 0 -232816763.18188477 132168237.36320782 0 132168237.36320782 -29980993.502792358 0 0 0 0 696497395.99810791 565122936.82148933 0 565122936.82148933 -536800638.64182854 0 0 0 0 9609095.7132453918 27367944.321364403 0 27367944.321364403 -2194665.3005275726 0 0 0 0 1503633.0601376519 8385739.821090702 0 8385739.821090702 -1942131.3258802751 0 0 0 0 9257294.0312194824 25611913.155506134 0 25611913.155506134 11256686.299518585 0 0 0 0 8954039.3295311294 11286491.551223896 0 11286491.551223896 -7127584.7701301649 0 0 0 0 7179221.3089826554 11064116.206203267 0 11064116.206203267 -6377511.9629283436 0 0 0 0 80953426.963380814 -2675827.5677776337 0 -2675827.5677776337 -45647649.404539108 0 0 0 0 -447457406.91954613 540199495.05771542 0 540199495.05771542 -281728674.29508018 0 0 0 0 -573311338.84534454 510109287.63010311 0 510109287.63010311 -288918797.14503384 0 0 0 0 -540207893.93972015 312037026.47803116 0 312037026.47803116 190472099.0072937 0 0 0 0 -571174849.52427673 114072620.63510704 0 114072620.63510704 -216758581.18129206 0 0 0 0 -447949531.09029007 596445174.5852952 0 596445174.5852952 -510013557.53712273 0 0 0 0 125245504.97573853 686914655.12347412 0 686914655.12347412 -693212464.66900063 0 0 0 0 -954124.8007741645 2295137.6947148815 0 2295137.6947148815 -2540838.026651606 0 0 0 0 753617013.04780579 424070449.37556648 0 424070449.37556648 -597804360.73484755 0 0 0 0 -715577449.14464188 640958594.2843833 0 640958594.2843833 -46031209.770511627 0 0 0 0 19400602.613327026 293226550.71190262 0 293226550.71190262 306619646.34716702 0 0 0 0 457108004.44367218 -39970872.104158878 0 -39970872.104158878 -109134218.1676321 0 0 0 0 376030820.89047241 272963249.37769794 0 272963249.37769794 -566363005.79339933 0 0 0 0 108430249.4596777 281441949.34348202 0 281441949.34348202 -381340714.84879684 0 0 0 0 -53810731.480957031 109893190.8602562 0 109893190.8602562 -113977785.47550869 0 0 0 0 -76332481.326950073 24167887.188659668 0 24167887.188659668 -7025695.1740913391 0 0 0 0 524241.76379769295 1800691.4556210199 0 1800691.4556210199 -1219440.7825067993 0 0 0 0 8285829.4573515654 1018781.590577025 0 1018781.590577025 -1075982.6144439019 0 0 0 0 9284724.1736526489 876534.36085891724 0 876534.36085891724 -7894847.5935707092 0 0 0 0 10050061.948112488 1581772.4887752533 0 1581772.4887752533 -7413415.5173377991 0 0 0 0 9609374.1117696762 -988383.68509674072 0 -988383.68509674072 -9794481.3549079895 0 0 0 0 10559859.162464142 -267432.90863800049 0 -267432.90863800049 -5497216.6730422974 0 0 0 0 9391234.0669115409 -1508840.7666687891 0 -1508840.7666687891 -1688503.0863347929 0 0 0 0 9628945.755065918 -1262677.7948913574 0 -1262677.7948913574 -6559049.7797617912 0 0 0 0 8054741.6213378906 -764812.63715934753 0 -764812.63715934753 -9248573.0261573792 0 0 0 0 9809838.1676696464 -1075823.7759956243 0 -1075823.7759956243 -2289238.3036311623 0 0 0 0 7267010.6783447266 1739072.0338439941 0 1739072.0338439941 -8249502.3841571808 0 0 0 0 6352527.7866172791 3951258.4562196732 0 3951258.4562196732 -13491853.544670105 0 0 0 0 9343566.2559204102 -3658464.1523132324 0 -3658464.1523132324 -16070274.564260483 0 0 0 0 853985.50181179494 257698.53987732157 0 257698.53987732157 38484.68114361912 0 0 0 0 279743180.1933136 -33012124.72227478 0 -33012124.72227478 -177745646.95199299 0 0 0 0 6292393.0911979675 5733587.5284376144 0 5733587.5284376144 -14252322.199306488 0 0 0 0 6579459.2057952881 3921607.8684625626 0 3921607.8684625626 -14252425.538700104 0 0 0 0 7588253.8117571846 -67338.294051062316 0 -67338.294051062316 -2062555.185803799 0 0 0 0 5695546.4341268763 6275768.9333208334 0 6275768.9333208334 -2821708.573253884 0 0 0 0 138635414.59812927 135881785.47945786 0 135881785.47945786 -41984958.498771667 0 0 0 0 2770755.978767395 105805197.53084564 0 105805197.53084564 208894618.08089066 0 0 0 0 -104011423.67879486 90312494.282737732 0 90312494.282737732 -52651059.427398682 0 0 0 0 -204503123.82035828 319833006.96178436 0 319833006.96178436 -506365774.99458122 0 0 0 0 248369.20904539526 1116131.1547013419 0 1116131.1547013419 -293766.75787561387 0 0 0 0 87472535.411056519 160120229.30992126 0 160120229.30992126 169688187.24533367 0 0 0 0 -144715401.19257736 -158529444.11826324 0 -158529444.11826324 -574111104.41722488 0 0 0 0 215763000.57232666 113919634.38986206 0 113919634.38986206 -391483129.6088562 0 0 0 0 -195859668.15423584 78370355.424696922 0 78370355.424696922 464268702.8978281 0 0 0 0 -49892908.24609375 139355244.98904419 0 139355244.98904419 -320357354.72796631 0 0 0 0 1719094.8281634375 171808.55026052892 0 171808.55026052892 -1056064.0151322084 0 0 0 0 4749933.0984960645 2701701.6311003268 0 2701701.6311003268 -487334.18732912838 0 0 0 0 -84124868.060714722 -6267283.1127548218 0 -6267283.1127548218 241594040.19781494 0 0 0 0 -299985818.33420372 -554713093.95885849 0 -554713093.95885849 3516874.2730560303 0 0 0 0 385439286.97677612 99899974.456789017 0 99899974.456789017 -78872888.474906921 0 0 0 0 41108562.350326538 81239551.025608063 0 81239551.025608063 81393533.314289093 0 0 0 0 81214572.401798248 31738884.400683403 0 31738884.400683403 -23980710.76189518 0 0 0 0 152278310.6709137 73253650.144947052 0 73253650.144947052 -56085512.142711639 0 0 0 0 56485275.26184082 3045527.4625816345 0 3045527.4625816345 -55642838.87851572 0 0 0 0 72803051.878547668 35323224.057100296 0 35323224.057100296 -89628373.526527405 0 0 0 0 77888668.700546265 18481127.775655746 0 18481127.775655746 -61497740.510937333 0 0 0 0 -14242940.287063599 114473783.3539505 0 114473783.3539505 -130662525.90258408 0 0 0 0 34964397.370025635 22708861.934623718 0 22708861.934623718 -79020584.047712326 0 0 0 0 15739500.388093948 84606660.455684185 0 84606660.455684185 -102969430.77053833 0 0 0 0 58158296.092788696 22957517.692119598 0 22957517.692119598 -98730867.160244226 0 0 0 0 49208256.822402954 33868298.386013985 0 33868298.386013985 -71331258.042591095 0 0 0 0 54910617.522171021 -47424419.12918663 0 -47424419.12918663 -83991660.4688797 0 0 0 0 52925836.191637039 -8481028.8696622849 0 -8481028.8696622849 27176113.81934166 0 0 0 0 106031887.36210251 43122551.118929863 0 43122551.118929863 133110001.51654625 0 0 0 0 15017712.157862663 73782119.364775658 0 73782119.364775658 122783497.25436592 0 0 0 0 32384990.144434214 86496379.107690901 0 86496379.107690901 -239570181.11797333 0 0 0 0 -117359547.94870758 -104235055.39738655 0 -104235055.39738655 -81107123.082799911 0 0 0 0 24665680.086336136 138936664.5666275 0 138936664.5666275 15061145.29050827 0 0 0 0 -34739073.098370552 185844152.54135346 0 185844152.54135346 -20738338.164081573 0 0 0 0 99228083.458175659 -40261398.65440464 0 -40261398.65440464 -335821926.3796463 0 0 0 0 221448909.7661972 426796946.58250809 0 426796946.58250809 386152073.54844022 0 0 0 0 287825308.61136627 289800127.22393894 0 289800127.22393894 216808187.81236267 0 0 0 0 98829622.174929619 239344021.07549441 0 239344021.07549441 404119715.42710876 0 0 0 0 119962611.59294891 60520354.9317379 0 60520354.9317379 73988517.852470398 0 0 0 0 21853931.800186157 219212.75774383545 0 219212.75774383545 -21939093.855169296 0 0 0 0 17491478.814697266 17859155.165565491 0 17859155.165565491 -15796077.575671196 0 0 0 0 -340684.03394317627 -9248703.7516880035 0 -9248703.7516880035 -14175300.70609951 0 0 0 0 334438613.89858246 115615130.57274246 0 115615130.57274246 317627561.00204849 0 0 0 0 2694405.875239566 2782884.0374698862 0 2782884.0374698862 -4153504.1015843414 0 0 0 0 439844303.427948 350931895.74490738 0 350931895.74490738 271714067.98705292 0 0 0 0 201298914.55599976 248836619.34164619 0 248836619.34164619 303428981.51558304 0 0 0 0 390677894.98295593 388230500.81779099 0 388230500.81779099 404065849.19582367 0 0 0 0 460683.68283364922 315993.03205513395 0 315993.03205513395 -652087.42607670836 0 0 0 0 541476521.93173218 -17783587.615701675 0 -17783587.615701675 396058786.52423096 0 0 0 0 -82514462.109054565 150103359.48027229 0 150103359.48027229 17226562.086080551 0 0 0 0 249059331.8164978 547750954.05050659 0 547750954.05050659 78541020.566360474 0 0 0 0 226992650.66002655 58217206.186296463 0 58217206.186296463 41056904.540403366 0 0 0 0 372670203.87175369 365056580.33061409 0 365056580.33061409 111587394.67494583 0 0 0 0 81104021.294868469 58725976.499759674 0 58725976.499759674 38441085.962093353 0 0 0 0 84168657.087532043 104538540.82853508 0 104538540.82853508 81047138.673847198 0 0 0 0 73944261.539009094 80394340.584171295 0 80394340.584171295 97065857.343769073 0 0 0 0 92411741.456451416 90190401.079534531 0 90190401.079534531 48286387.27557373 0 0 0 0 35671689.165969849 29535548.40802002 0 29535548.40802002 1304993.1443824768 0 0 0 0 7266790.0096473694 20132496.094360352 0 20132496.094360352 10828988.213562012 0 0 0 0 7208251.3281402588 4564766.955039978 0 4564766.955039978 6462946.8640069962 0 0 0 0 15569836.633224487 4515230.2866096497 0 4515230.2866096497 -16936848.956787109 0 0 0 0 -27208127.031066895 36139311.979507446 0 36139311.979507446 -24510723.151192665 0 0 0 0 13505548.034797668 713350.70008277893 0 713350.70008277893 -6282039.1045150757 0 0 0 0 4763945.4964707792 3397347.5394781753 0 3397347.5394781753 -2971309.5262940973 0 0 0 0 7440497.238451004 12655345.675315857 0 12655345.675315857 -7371187.610710144 0 0 0 0 1224865.259053655 725549.39332438819 0 725549.39332438819 -162827.84463626146 0 0 0 0 -4776508.5957439467 4197072.271583287 0 4197072.271583287 384327.18997982889 0 0 0 0 16445563.207698345 17163898.366261482 0 17163898.366261482 1402584.4963912964 0 0 0 0 33167626.877490997 40247370.344181061 0 40247370.344181061 66184426.096431732 0 0 0 0 7051416.8327892199 4147638.0456244331 0 4147638.0456244331 -2847046.6570509728 0 0 0 0 84586490.540924072 -7318740.4926147461 0 -7318740.4926147461 -198335212.31744766 0 0 0 0 79584073.543540955 82088920.587181091 0 82088920.587181091 -123579526.43920898 0 0 0 0 127944098.20567322 94562898.838752747 0 94562898.838752747 -149190235.16420746 0 0 0 0 112478372.35349274 95167073.421413422 0 95167073.421413422 -313176200.88017273 0 0 0 0 111216190.05178833 -27575922.192466736 0 -27575922.192466736 -183235751.31425476 0 0 0 0 72217272.384742737 152589303.1771431 0 152589303.1771431 73720497.214035034 0 0 0 0 136351075.04830933 138320912.89484978 0 138320912.89484978 -36610070.469589233 0 0 0 0 105400627.19764709 106724472.48777771 0 106724472.48777771 56421480.459770203 0 0 0 0 -25563962.334747314 45261481.057435036 0 45261481.057435036 -7595613.8689918518 0 0 0 0 209107872.89167786 213248951.37189484 0 213248951.37189484 148270895.00397873 0 0 0 0 206721596.04247284 261198145.7605114 0 261198145.7605114 133967646.823246 0 0 0 0 98059880.518859863 221184119.16426086 0 221184119.16426086 140352664.23225021 0 0 0 0 193285626.34573746 188866522.77504253 0 188866522.77504253 151203457.11688232 0 0 0 0 115854195.92790985 130120547.07108021 0 130120547.07108021 348422931.84203339 0 0 0 0 117061268.72850037 226449971.51068497 0 226449971.51068497 175570777.75144577 0 0 0 0 312486905.15703583 396409583.67124176 0 396409583.67124176 236464670.73427582 0 0 0 0 52789588.56294632 407195779.77727032 0 407195779.77727032 540423918.3235445 0 0 0 0 124107539.69075775 166656233.92008972 0 166656233.92008972 57059725.907634735 0 0 0 0 50671527.862762451 228060791.41759872 0 228060791.41759872 281440305.91454315 0 0 0 0 61535862.983612061 363475379.16439438 0 363475379.16439438 308993504.31461143 0 0 0 0 177089480.61572266 390505390.78702927 0 390505390.78702927 136386716.81681776 0 0 0 0 77944431.786682129 186193511.45498466 0 186193511.45498466 111397318.30233002 0 0 0 0 66547823.615600586 254483568.50126076 0 254483568.50126076 15845304.431346893 0 0 0 0 2134951.6153914016 -774505.52481190115 0 -774505.52481190115 -422148.6199525632 0 0 0 0 -74760125.208984375 155303359.43286133 0 155303359.43286133 -37834123.699493408 0 0 0 0 10111308.991588593 1030452.2932742834 0 1030452.2932742834 -3480765.3238677979 0 0 0 0 8329877.5393961295 705011.41024548654 0 705011.41024548654 -2975018.2631413527 0 0 0 0 476200.98211540282 -609234.11535610259 0 -609234.11535610259 -582970.61104890145 0 0 0 0 -96770185.407211304 -3731421.5573654175 0 -3731421.5573654175 -4436293.2298030853 0 0 0 0 85817047.270591736 131328466.72126484 0 131328466.72126484 -205916020.12976074 0 0 0 0 273110068.5816288 217782011.26081657 0 217782011.26081657 152181988.71508026 0 0 0 0 361445194.38653564 156703077.33702087 0 156703077.33702087 72909553.183245957 0 0 0 0 234924919.09780884 194469391.06519318 0 194469391.06519318 84951566.477767944 0 0 0 0 372815465.19614029 259814245.4854269 0 259814245.4854269 115653506.06720734 0 0 0 0 242340657.33901596 146659487.66243792 0 146659487.66243792 73120079.855531693 0 0 0 0 5888731.1810832769 -279668.34702129196 0 -279668.34702129196 -1773142.5535678118 0 0 0 0 5992705.1362304688 -488181.02309036255 0 -488181.02309036255 -6964149.9838600159 0 0 0 0 6699910.4935684204 -2263522.2060966492 0 -2263522.2060966492 -6824909.6683998108 0 0 0 0 3117814.8977203369 579132.3194732666 0 579132.3194732666 -7082744.0142292976 0 0 0 0 6910507.1353385877 -698895.47963802889 0 -698895.47963802889 -3739747.4669623524 0 0 0 0 11269005.074642181 -662970.90538597107 0 -662970.90538597107 -6114571.02384758 0 0 0 0 9258074.4872207642 -2181375.2293224335 0 -2181375.2293224335 -7560704.1181411743 0 0 0 0 -8714427.5419082642 -6060809.000415802 0 -6060809.000415802 5124469.2281150818 0 0 0 0 20209944.911621094 328078.2816798687 0 328078.2816798687 -17759399.203132629 0 0 0 0 3780274.1761830803 -229251.77859281003 0 -229251.77859281003 -1038444.7641476914 0 0 0 0 769810.99019748345 -114926.99160144106 0 -114926.99160144106 -321869.77169824019 0 0 0 0 -13040633.228355408 43825401.913917542 0 43825401.913917542 -59183625.069908142 0 0 0 0 -16761187.779495239 32199830.213466644 0 32199830.213466644 -18740360.676893234 0 0 0 0 -15142798.069900513 12629524.16185379 0 12629524.16185379 -5810581.1560115814 0 0 0 0 12752024.729255676 40879185.076208115 0 40879185.076208115 -58353338.409934998 0 0 0 0 -8328529.4988193512 44057519.402489662 0 44057519.402489662 -56022464.779953003 0 0 0 0 -80417.720100402832 19923085.740039825 0 19923085.740039825 -37488858.659755707 0 0 0 0 -5945345.329788208 32178767.767379761 0 32178767.767379761 -60669360.931879044 0 0 0 0 6968943.8241061196 649866.33378390037 0 649866.33378390037 -1546967.4325947193 0 0 0 0 4086039.5358886719 -2034600.3621311188 0 -2034600.3621311188 -24557448.54565239 0 0 0 0 -6439660.4436187744 10123072.111115456 0 10123072.111115456 -13048759.51039505 0 0 0 0 4152548.3122787476 -1150293.4065475464 0 -1150293.4065475464 -6482066.63646698 0 0 0 0 -781779.47351074219 934528.18521308899 0 934528.18521308899 -6274160.0734634399 0 0 0 0 4550166.9933208749 950589.37918457389 0 950589.37918457389 -689150.46567761339 0 0 0 0 -1119184.9008922577 -733932.20758533478 0 -733932.20758533478 -13820568.742259979 0 0 0 0 13033669.050018311 -11485092.48890686 0 -11485092.48890686 -16201872.981201172 0 0 0 0 10738037.426101685 -9743820.9156761169 0 -9743820.9156761169 -7448092.8241386414 0 0 0 0 -7366005.8280181885 29836368.031826019 0 29836368.031826019 -126241766.80291176 0 0 0 0 2316619.2438643277 513675.32790951617 0 513675.32790951617 -696127.2836432457 0 0 0 0 41492872.413192749 -32455130.620426178 0 -32455130.620426178 -1145695.2122993469 0 0 0 0 -6951720.0446243286 79836507.692932129 0 79836507.692932129 -136674676.93059444 0 0 0 0 1622729.3358612061 49296002.831832886 0 49296002.831832886 -192007449.97494507 0 0 0 0 -70654343.063194275 -20058673.34180069 0 -20058673.34180069 -164819125.8601799 0 0 0 0 -18683449.54498291 43768651.787454605 0 43768651.787454605 -114316967.11704254 0 0 0 0 4907977.0439987183 33198591.287111282 0 33198591.287111282 -134897137.27059555 0 0 0 0 13108024.540257454 12473276.20846796 0 12473276.20846796 -88398551.66255188 0 0 0 0 6165218.9477539062 61040061.36365509 0 61040061.36365509 -117225506.46511269 0 0 0 0 -14075714.264247894 75588537.700191498 0 75588537.700191498 -53938947.406246185 0 0 0 0 -7318495.4068565369 80674097.793836594 0 80674097.793836594 -83660743.680622101 0 0 0 0 -41146087.497898102 101214187.37748051 0 101214187.37748051 -52093397.661716461 0 0 0 0 -13717744.560928345 110932641.52218342 0 110932641.52218342 -77376658.154201508 0 0 0 0 3372591.3644599915 78539424.037357807 0 78539424.037357807 -63686533.090438843 0 0 0 0 -13177040.126289368 76885987.948645592 0 76885987.948645592 -37771795.555747986 0 0 0 0 -11884707.382949829 110686331.35626793 0 110686331.35626793 -87381772.917160034 0 0 0 0 -71434292.730575562 149959055.42584133 0 149959055.42584133 -111461443.36362648 0 0 0 0 28948749.949623108 -56046907.652812004 0 -56046907.652812004 -147971008.24823809 0 0 0 0 -128814183.96147156 53447514.904626846 0 53447514.904626846 56072137.682571411 0 0 0 0 -135972470.31843996 102171573.60752475 0 102171573.60752475 -1769404.7729148865 0 0 0 0 -207748.97764837742 650966.37777773105 0 650966.37777773105 -1753720.2912631594 0 0 0 0 23758202.219665527 -92696333.506029129 0 -92696333.506029129 45357433.186952829 0 0 0 0 -31445369.67937851 -2380880.7806501389 0 -2380880.7806501389 -89094653.700286865 0 0 0 0 -22478924.57477951 24836773.251057148 0 24836773.251057148 -26188722.992580414 0 0 0 0 -21083347.238883972 38984852.141147614 0 38984852.141147614 -57993626.601910591 0 0 0 0 -21290476.779762268 63627135.426403046 0 63627135.426403046 -72358443.773633957 0 0 0 0 109637726.72954559 87637349.678987503 0 87637349.678987503 -44725905.758605957 0 0 0 0 95982391.280404091 117217933.82145619 0 117217933.82145619 25453882.009765625 0 0 0 0 213654519.340065 94277697.612309456 0 94277697.612309456 -60378491.173940659 0 0 0 0 -28988839.512882233 46397265.236139297 0 46397265.236139297 -2077188.3504285812 0 0 0 0 -23412245.614955902 86177324.984369278 0 86177324.984369278 -21016401.022583008 0 0 0 0 119393122.77222443 58238846.746799469 0 58238846.746799469 -36370988.776205063 0 0 0 0 -187760640.03541946 118364660.85681152 0 118364660.85681152 23674151.766490936 0 0 0 0 -124290404.48190117 -45687015.317116261 0 -45687015.317116261 6232954.0930328369 0 0 0 0 326636461.98670578 132551984.12996387 0 132551984.12996387 -68001856.020046234 0 0 0 0 129288446.471385 37349199.962897301 0 37349199.962897301 -63220131.018203735 0 0 0 0 215627923.50999832 78810132.083177567 0 78810132.083177567 30965645.804438591 0 0 0 0 845215.02816346474 841162.12632668763 0 841162.12632668763 216278.79724154249 0 0 0 0 144726313.44110489 118205652.58953476 0 118205652.58953476 13737000.283117294 0 0 0 0 88100460.393382072 21299303.069946289 0 21299303.069946289 -28216153.399047852 0 0 0 0 25763565.76927948 8577535.7193565369 0 8577535.7193565369 10582445.014418602 0 0 0 0 30190.61121936515 525643.38802456111 0 525643.38802456111 -804.1137232594192 0 0 0 0 -5693832.1673679352 93870153.356903076 0 93870153.356903076 -186814455.55370331 0 0 0 0 -53427542.039115906 105529644.77939892 0 105529644.77939892 -38839318.652288437 0 0 0 0 270984653.41722107 45629283.509140015 0 45629283.509140015 -120486156.58537674 0 0 0 0 259213856.84334183 218635482.77584052 0 218635482.77584052 68791459.68585968 0 0 0 0 282380888.13027954 184942769.50990009 0 184942769.50990009 -267512979.51962662 0 0 0 0 149706968.13184357 50453625.46124649 0 50453625.46124649 -381938928.8967247 0 0 0 0 80447925.168792725 -48634971.075538635 0 -48634971.075538635 -404623264.10155487 0 0 0 0 -31488742.662368774 36685126.727336884 0 36685126.727336884 -190633360.8454957 0 0 0 0 78432466.259811401 353441321.32852173 0 353441321.32852173 691937937.93132591 0 0 0 0 1731914.6759021208 623081.36991157569 0 623081.36991157569 -201684.4716842873 0 0 0 0 205429448.36629486 322261300.48155403 0 322261300.48155403 658815630.89034271 0 0 0 0 144974025.88666534 234926024.71387482 0 234926024.71387482 304590258.46389008 0 0 0 0 121026085.3596344 227016887.0181694 0 227016887.0181694 679822848.51779079 0 0 0 0 308690969.8303299 108186692.00666809 0 108186692.00666809 356879737.56916046 0 0 0 0 334372975.01299095 274004282.74258518 0 274004282.74258518 178478741.63951111 0 0 0 0 129778016.2213707 22418381.786315918 0 22418381.786315918 86368370.30418396 0 0 0 0 140759284.21065521 418546539.14222527 0 418546539.14222527 580406128.21765518 0 0 0 0 69597819.332252502 94550475.543719292 0 94550475.543719292 7383932.5436553955 0 0 0 0 -21684296.747329712 37932308.235242844 0 37932308.235242844 79005123.367315292 0 0 0 0 53876876.350898743 99591477.238006592 0 99591477.238006592 183910850.20368958 0 0 0 0 58679270.273650169 85178685.733519554 0 85178685.733519554 50586515.214122772 0 0 0 0 -23456331.445747375 63697319.286010742 0 63697319.286010742 70095731.650720596 0 0 0 0 -31746732.17591095 79963543.579977989 0 79963543.579977989 47220502.702243805 0 0 0 0 -49560625.906700134 56109770.261404037 0 56109770.261404037 29978062.92070961 0 0 0 0 -67384242.677459717 46849056.724994659 0 46849056.724994659 62177490.843583107 0 0 0 0 -83823011.038770676 66995682.259156227 0 66995682.259156227 12449392.69670105 0 0 0 0 -18273952.376873016 46334502.872841835 0 46334502.872841835 17471643.384391785 0 0 0 0 -24086953.846271515 7830210.4082698822 0 7830210.4082698822 -31249230.897574425 0 0 0 0 -56976967.464103699 82402236.876239777 0 82402236.876239777 -159488831.50725174 0 0 0 0 91184346.108779907 86573104.917808533 0 86573104.917808533 -275391848.95269394 0 0 0 0 -33806321.465072632 56508567.800788879 0 56508567.800788879 -940217.88227128983 0 0 0 0 -73362.809848293662 555888.97356014326 0 555888.97356014326 -163007.51268010773 0 0 0 0 37944623.28565979 141535185.26786232 0 141535185.26786232 256329121.04301834 0 0 0 0 82376720.146277905 165154322.65820575 0 165154322.65820575 97133801.792190552 0 0 0 0 76866421.526191711 128979867.87034607 0 128979867.87034607 -41240545.793064117 0 0 0 0 16709316.801185608 110632686.30285645 0 110632686.30285645 -101898105.53224564 0 0 0 0 -22475108.252716064 31043032.048107147 0 31043032.048107147 -15446392.400089264 0 0 0 0 54072648.673118591 55937954.335952759 0 55937954.335952759 -154835687.79866791 0 0 0 0 114198221.26398468 105563052.1592598 0 105563052.1592598 -102669917.15013123 0 0 0 0 1809783.0595550537 192080629.1886425 0 192080629.1886425 84701669.523487091 0 0 0 0 189948427.32735443 270915395.07990074 0 270915395.07990074 178737962.321064 0 0 0 0 209080393.62696552 157900157.17655349 0 157900157.17655349 83053900.995231628 0 0 0 0 76575687.189697266 130921473.58789825 0 130921473.58789825 316471930.62752175 0 0 0 0 129739536.93131256 144130946.53198051 0 144130946.53198051 -119922932.29346466 0 0 0 0 64419167.467712402 -36386995.086948395 0 -36386995.086948395 -118679123.52742386 0 0 0 0 170072444.89715958 170911952.82058239 0 170911952.82058239 -208596.16273498535 0 0 0 0 5925431.8499755859 4346819.1726913452 0 4346819.1726913452 104602777.96882868 0 0 0 0 34397320.411445618 -163588470.89715576 0 -163588470.89715576 -493759056.53667259 0 0 0 0 49509501.948056936 87920339.669268787 0 87920339.669268787 -245082537.83567047 0 0 0 0 -178046.13465667516 2947670.1534418557 0 2947670.1534418557 -246667.67045381758 0 0 0 0 3396940.4816131592 12959441.205715179 0 12959441.205715179 -465963822.82222593 0 0 0 0 95453056.768478394 -48146833.284809113 0 -48146833.284809113 -467919305.39963913 0 0 0 0 52195630.445709229 70830735.712360382 0 70830735.712360382 69072758.701934814 0 0 0 0 -165183176.34281921 66107880.629150391 0 66107880.629150391 -208964078.07504272 0 0 0 0 -27664920.042297363 -32143841.421630859 0 -32143841.421630859 -201373671.18642807 0 0 0 0 108981.0100023523 647931.48695430532 0 647931.48695430532 463554.80248627812 0 0 0 0 -130603928.08326721 -230513492.26479721 0 -230513492.26479721 -527088267.52046967 0 0 0 0 -18548069.321311951 52322223.524589539 0 52322223.524589539 -174448378.38211823 0 0 0 0 3482033.3119506836 149468927.7303009 0 149468927.7303009 -472339558.24983597 0 0 0 0 50599865.504669189 -3250812.3099250793 0 -3250812.3099250793 -190609983.2044239 0 0 0 0 -52890894.937759399 213259685.44355011 0 213259685.44355011 -171445866.86686707 0 0 0 0 39654454.073328018 77472177.019057751 0 77472177.019057751 80834031.046783447 0 0 0 0 42398028.905822754 71302604.879377365 0 71302604.879377365 91792340.686737061 0 0 0 0 68437221.623901367 86198182.367546082 0 86198182.367546082 80669578.186943054 0 0 0 0 54352859.377811432 95000543.521438599 0 95000543.521438599 102209395.15733719 0 0 0 0 52588689.275764465 67652462.358638763 0 67652462.358638763 74268305.620445251 0 0 0 0 37282665.11097908 80335520.57453537 0 80335520.57453537 113687914.20149994 0 0 0 0 74329410.666969299 102978671.88297844 0 102978671.88297844 98451380.482826233 0 0 0 0 78556490.43945694 109061059.2797575 0 109061059.2797575 102245251.99147034 0 0 0 0 80765690.919368744 109888057.92882919 0 109888057.92882919 96218500.136829376 0 0 0 0 68780810.405986786 100063313.1918211 0 100063313.1918211 103023854.65446091 0 0 0 0 86373553.070747375 94260775.860343933 0 94260775.860343933 79010067.702066422 0 0 0 0 51808324.979324341 81498897.837530136 0 81498897.837530136 88624429.938373566 0 0 0 0 -8974978.1476821899 74489620.910985947 0 74489620.910985947 148769586.90138721 0 0 0 0 -8768523.0888137817 74708666.375061035 0 74708666.375061035 111240494.26849747 0 0 0 0 -7348970.0942077637 14305983.982990265 0 14305983.982990265 135540570.04062366 0 0 0 0 19955572.580993652 26676588.621591568 0 26676588.621591568 48405792.861709595 0 0 0 0 20886698.307266235 66268934.495853424 0 66268934.495853424 4242546.0635871887 0 0 0 0 -9142026.5215797424 53721341.674059868 0 53721341.674059868 76569557.934906006 0 0 0 0 486562.02372741699 33919726.885004044 0 33919726.885004044 67108876.759124756 0 0 0 0 22213765.937530518 71347903.269098282 0 71347903.269098282 107858723.46437526 0 0 0 0 70229164.671630859 103527033.38672829 0 103527033.38672829 115246398.64895248 0 0 0 0 23779189.500518799 68123345.639144897 0 68123345.639144897 108959219.7980957 0 0 0 0 -7389966.7338704281 3501150.9913160056 0 3501150.9913160056 4622467.6106075086 0 0 0 0 105562745.9339174 183935990.64534092 0 183935990.64534092 90266287.684387207 0 0 0 0 91357235.396621704 124536597.27190018 0 124536597.27190018 109488766.55529261 0 0 0 0 -24184279.888284784 22843174.266660869 0 22843174.266660869 -18633816.48920922 0 0 0 0 -75189097.620731354 19789765.559361458 0 19789765.559361458 66509779.422555923 0 0 0 0 -36834823.445016861 233785747.43102264 0 233785747.43102264 245919467.61097336 0 0 0 0 89072252.876912594 274187750.32402229 0 274187750.32402229 250673206.68318176 0 0 0 0 -29923425.565850902 24244871.769034222 0 24244871.769034222 -17497060.869458064 0 0 0 0 14236118.899288177 177211986.30594254 0 177211986.30594254 335802578.26321411 0 0 0 0 106699120.90261507 173951877.22165489 0 173951877.22165489 76464512.3904953 0 0 0 0 -11598445.029319763 55823029.522138596 0 55823029.522138596 207075875.0368824 0 0 0 0 -23691344.991809845 257750795.20504761 0 257750795.20504761 33280956.645910263 0 0 0 0 102652996.34957975 174659840.26269698 0 174659840.26269698 -25110463.223506927 0 0 0 0 133077447.23572159 136483466.54329491 0 136483466.54329491 63562293.633983612 0 0 0 0 141467025.27372169 149792889.33828354 0 149792889.33828354 63614441.07440567 0 0 0 0 104512453.39406586 160572241.41860199 0 160572241.41860199 72789465.106132507 0 0 0 0 169257858.86635828 187679284.69102716 0 187679284.69102716 83969173.528320312 0 0 0 0 183463437.2095542 132939469.75677538 0 132939469.75677538 55578314.652336121 0 0 0 0 23360039.836503983 68968488.443473816 0 68968488.443473816 48824044.6079216 0 0 0 0 61792902.590705872 147714979.79268837 0 147714979.79268837 208031679.74708939 0 0 0 0 74058083.657974243 74726520.266034126 0 74726520.266034126 153792060.82356644 0 0 0 0 101134828.7440567 91357516.151422501 0 91357516.151422501 105321429.8183136 0 0 0 0 64314147.161064148 -41719709.779481888 0 -41719709.779481888 30178978.516708374 0 0 0 0 -14306096.904469816 16257410.624949668 0 16257410.624949668 -17858248.653584838 0 0 0 0 85202837.264175415 109487582.21734428 0 109487582.21734428 102173941.85727978 0 0 0 0 873229.99698749185 4252130.3668731302 0 4252130.3668731302 -6564782.59365049 0 0 0 0 278635838.08237839 201463830.99687958 0 201463830.99687958 100246929.61348343 0 0 0 0 -300095797.57750702 16446673.177459717 0 16446673.177459717 251514576.06915665 0 0 0 0 -794973859.490448 98992234.213394165 0 98992234.213394165 237746834.82009125 0 0 0 0 259922413.86180496 12786009.471551895 0 12786009.471551895 122950979.35950089 0 0 0 0 -381773685.87696838 219193594.73924446 0 219193594.73924446 79721645.960456848 0 0 0 0 -1168023364.8529491 -615650384.12588692 0 -615650384.12588692 461791269.10877228 0 0 0 0 451983520.63098145 89190546.051280975 0 89190546.051280975 -105362443.07816315 0 0 0 0 415852084.1886673 168036475.50101089 0 168036475.50101089 -204615798.96949434 0 0 0 0 -334882012.22909546 538962811.80766869 0 538962811.80766869 -161287509.48869324 0 0 0 0 -7848962.05821025 12262338.235171612 0 12262338.235171612 -16930558.187434278 0 0 0 0 -367217003.53507233 526492570.15003204 0 526492570.15003204 -950966598.93390656 0 0 0 0 297393388.23054695 237217180.98980904 0 237217180.98980904 142682741.09447479 0 0 0 0 269356077.56813812 231334129.47458649 0 231334129.47458649 154401731.80342484 0 0 0 0 312494287.92810059 288208941.94866371 0 288208941.94866371 245662097.15379333 0 0 0 0 237168239.27356529 391603660.57864571 0 391603660.57864571 333475249.38842773 0 0 0 0 458323759.7841301 444916082.5332737 0 444916082.5332737 308751683.88646698 0 0 0 0 607810066.68941498 370531448.22034836 0 370531448.22034836 155687933.49799347 0 0 0 0 516905577.43611908 322521450.29277802 0 322521450.29277802 185909760.60028839 0 0 0 0 -1224468964.0796356 -378472867.80327606 0 -378472867.80327606 20820320.020309448 0 0 0 0 -1973962.6213615648 2567408.9356619939 0 2567408.9356619939 -3757872.9558469728 0 0 0 0 -5922807.3235494345 8683647.3166292869 0 8683647.3166292869 -10235538.091040514 0 0 0 0 616588624.29860115 455530943.25528955 0 455530943.25528955 268390213.31970215 0 0 0 0 -52875246.20620048 253674793.05976129 0 253674793.05976129 452633844.0920639 0 0 0 0 -38172421.79981041 215921849.4843502 0 215921849.4843502 324307523.1642971 0 0 0 0 113683892.61746597 233492220.53367615 0 233492220.53367615 255086786.33098984 0 0 0 0 116963131.78119469 234102268.27535248 0 234102268.27535248 219002796.76926041 0 0 0 0 260651788.03077209 315957289.79233336 0 315957289.79233336 264757653.23355103 0 0 0 0 -52089591.494934082 308311990.01920128 0 308311990.01920128 407068395.44302177 0 0 0 0 73167926.734334707 305405663.51559305 0 305405663.51559305 395926767.24968338 0 0 0 0 75575259.562028885 303362367.51477432 0 303362367.51477432 301443523.98341942 0 0 0 0 -45116693.897596836 292618295.81631851 0 292618295.81631851 442145856.97193527 0 0 0 0 -194163006.51069069 349023821.92455387 0 349023821.92455387 424316269.34618378 0 0 0 0 -216444417.75827456 427138444.21980524 0 427138444.21980524 160592570.72418976 0 0 0 0 -52023752.118468285 334671736.07275295 0 334671736.07275295 209585345.87657547 0 0 0 0 -76622133.401096344 375744738.3065424 0 375744738.3065424 364691005.41370821 0 0 0 0 130496978.07551289 520932935.2269063 0 520932935.2269063 178327535.83919525 0 0 0 0 75422347.535645485 425716287.88419533 0 425716287.88419533 342311586.79401398 0 0 0 0 166340111.06352043 336379497.12662506 0 336379497.12662506 359579989.75574398 0 0 0 0 271467742.9409523 469964399.79699898 0 469964399.79699898 373036570.8350296 0 0 0 0 458798500.6786499 386300963.98249817 0 386300963.98249817 294851624.1152277 0 0 0 0 429300602.25165939 404266250.79718018 0 404266250.79718018 287476666.42529106 0 0 0 0 497804602.7639122 471803270.01254082 0 471803270.01254082 373063817.6985321 0 0 0 0 580067258.05805969 362552744.05889893 0 362552744.05889893 403912362.43315887 0 0 0 0 738183341.07046509 269552706.1436348 0 269552706.1436348 378298024.46072388 0 0 0 0 694109118.66920471 401339563.17679977 0 401339563.17679977 305798484.69335556 0 0 0 0 430036618.24326706 460794473.68954468 0 460794473.68954468 363063210.50032425 0 0 0 0 1152245635.4790611 435609252.11186028 0 435609252.11186028 150231759.51802063 0 0 0 0 1137244808.5267377 840623321.29039669 0 840623321.29039669 93591331.056602478 0 0 0 0 697168600.7604599 582827130.36872482 0 582827130.36872482 161182787.96361542 0 0 0 0 719485929.02679062 479030267.44477177 0 479030267.44477177 206246536.90070343 0 0 0 0 430997686.2903595 509290852.58800316 0 509290852.58800316 232115380.41375732 0 0 0 0 664046878.41444397 625405410.95329285 0 625405410.95329285 226044072.79180145 0 0 0 0 636856752.23669815 627488458.46837044 0 627488458.46837044 163450456.54912567 0 0 0 0 393301208.16371918 554942971.2037735 0 554942971.2037735 174798236.43957615 0 0 0 0 704015408.08085179 928379373.78010392 0 928379373.78010392 248987570.58680725 0 0 0 0 266453587.85884142 408872148.81330395 0 408872148.81330395 41542922.99879837 0 0 0 0 197102214.06257629 411337334.39109039 0 411337334.39109039 322442522.26386261 0 0 0 0 463312554.38692474 480810873.1322937 0 480810873.1322937 164743716.86345673 0 0 0 0 222434274.36536407 439077654.49830437 0 439077654.49830437 196807093.34544086 0 0 0 0 302255980.44319153 420129496.98122787 0 420129496.98122787 -12802625.745891571 0 0 0 0 37406246.989373207 313118843.28877449 0 313118843.28877449 87641441.387546539 0 0 0 0 256987296.44081116 398765897.43238163 0 398765897.43238163 127478015.83214271 0 0 0 0 263244674.51425099 451721832.51506567 0 451721832.51506567 365328073.80566025 0 0 0 0 476447192.046875 719118109.90533352 0 719118109.90533352 301536982.13981628 0 0 0 0 426301943.25143051 552188076.70292282 0 552188076.70292282 116616067.45935822 0 0 0 0 151923987.76304436 224890172.91208553 0 224890172.91208553 -374819152.49064255 0 0 0 0 119687914.83680153 213984931.11625862 0 213984931.11625862 133496563.77371836 0 0 0 0 -27187202.038448334 448421889.23883438 0 448421889.23883438 -597321183.53489733 0 0 0 0 -69766765.416711807 -87509164.210281372 0 -87509164.210281372 -351073878.00324345 0 0 0 0 -604612656.24805784 318259289.44073582 0 318259289.44073582 133180181.13215256 0 0 0 0 -19555684.246520996 355940753.21586132 0 355940753.21586132 66405796.153766632 0 0 0 0 52073295.908777237 183411109.97018623 0 183411109.97018623 53367614.552820206 0 0 0 0 43406077.243479729 333547513.97199726 0 333547513.97199726 74700490.550704956 0 0 0 0 -19359410.155738831 314642214.32169724 0 314642214.32169724 130176036.8880558 0 0 0 0 -6240336.1030731201 289440902.17476463 0 289440902.17476463 139408105.95392609 0 0 0 0 -5960934.7447052002 259025586.47740555 0 259025586.47740555 106141309.61275291 0 0 0 0 98501430.483772278 263757949.7220993 0 263757949.7220993 101140778.60768223 0 0 0 0 96219192.519962788 207266104.64603361 0 207266104.64603361 72260317.495918274 0 0 0 0 53123121.158035278 290186327.17410851 0 290186327.17410851 86188092.394525528 0 0 0 0 191869990.12988281 287137977.74662971 0 287137977.74662971 52536467.945659637 0 0 0 0 71415192.910240173 352505639.63611031 0 352505639.63611031 54964351.078834534 0 0 0 0 165152767.81956863 232772337.86535025 0 232772337.86535025 67894817.350090027 0 0 0 0 257891157.77661133 307368416.12162209 0 307368416.12162209 106694601.45454407 0 0 0 0 310814831.45596313 198069879.11984825 0 198069879.11984825 79726187.208583832 0 0 0 0 291702413.76739502 235797539.22941208 0 235797539.22941208 46122796.495967865 0 0 0 0 255724839.02172852 285826651.33831215 0 285826651.33831215 36814943.879220486 0 0 0 0 -175622793.40910351 104709930.03446329 0 104709930.03446329 45270504.703639984 0 0 0 0 83752848.421432495 343284244.71594238 0 343284244.71594238 39410335.531791687 0 0 0 0 -787692399.62871552 129433627.89209652 0 129433627.89209652 290032040.29513168 0 0 0 0 -160514410.35187531 430440426.59684944 0 430440426.59684944 103332178.23157883 0 0 0 0 37660779.721263885 300733237.49400854 0 300733237.49400854 83428376.528182983 0 0 0 0 993770775.73687363 325436885.58084202 0 325436885.58084202 240753137.6514473 0 0 0 0 362850.47574834153 1761568.5698713548 0 1761568.5698713548 -4802496.7699216157 0 0 0 0 507227719.03060532 254812636.89506531 0 254812636.89506531 428576534.45364761 0 0 0 0 306058932.92832947 205725996.71383286 0 205725996.71383286 355248637.74520397 0 0 0 0 434866998.17491913 408385766.11693001 0 408385766.11693001 238499650.52812576 0 0 0 0 928657288.39365387 533758941.7831974 0 533758941.7831974 194079441.27335644 0 0 0 0 705942416.96572113 39266126.25749588 0 39266126.25749588 -72390046.715339661 0 0 0 0 75484188.101867676 600554394.23505783 0 600554394.23505783 271153619.35788727 0 0 0 0 -2439878.3631987981 6652547.752955351 0 6652547.752955351 -10537352.842603084 0 0 0 0 217797317.06498909 292900633.05070293 0 292900633.05070293 114147853.83519363 0 0 0 0 215309119.74312592 269112831.2817688 0 269112831.2817688 52152649.446458817 0 0 0 0 102720736.66963959 231934199.61714935 0 231934199.61714935 136995215.45200348 0 0 0 0 253758917.92113876 172811722.67701864 0 172811722.67701864 204503490.95707703 0 0 0 0 192043883.84965134 294036851.33590126 0 294036851.33590126 67389329.973167419 0 0 0 0 -2279585001.7531853 330431169.54792404 0 330431169.54792404 895170600.74904633 0 0 0 0 -1103242429.1302414 -997794920.13316345 0 -997794920.13316345 -291517824.14558411 0 0 0 0 233831078.82277679 852966894.02315521 0 852966894.02315521 238697125.6808815 0 0 0 0 -495545527.47827148 -108042022.85970688 0 -108042022.85970688 -475489649.18185425 0 0 0 0 -1488017.5021976158 2472765.9420405943 0 2472765.9420405943 -3833460.0023904741 0 0 0 0 549897737.6793766 319779972.76735067 0 319779972.76735067 15634970.51713562 0 0 0 0 -4353814.3789731562 7280960.6869416386 0 7280960.6869416386 -9745632.4337652884 0 0 0 0 484015022.48145294 145966619.8803215 0 145966619.8803215 29923959.431842804 0 0 0 0 168758491.29932404 278001700.97464752 0 278001700.97464752 23076270.586517334 0 0 0 0 248177882.13831329 182286776.81777191 0 182286776.81777191 102405838.27275276 0 0 0 0 341961162.47151184 273559901.22027016 0 273559901.22027016 3516304.8896522522 0 0 0 0 309668449.52668762 187723757.14312935 0 187723757.14312935 18961551.479750156 0 0 0 0 285018170.04818726 231965401.44746971 0 231965401.44746971 -51897688.589431763 0 0 0 0 182769606.70159912 183597572.68558502 0 183597572.68558502 -2209178.1328372955 0 0 0 0 88408403.861236572 238035047.62814331 0 238035047.62814331 -11698337.611629486 0 0 0 0 171205903.78271484 226376461.26581192 0 226376461.26581192 -99917408.8501091 0 0 0 0 -65771193.908996582 280952144.14453125 0 280952144.14453125 6390821.8979272842 0 0 0 0 88400438.987945557 253904929.02208519 0 253904929.02208519 -181857838.787117 0 0 0 0 622258.34915161133 314250159.35446167 0 314250159.35446167 -4683006.6681213379 0 0 0 0 163508432.61878204 255051510.29380465 0 255051510.29380465 -41382670.534828186 0 0 0 0 63482520.095094681 301678691.85691023 0 301678691.85691023 75827701.358455658 0 0 0 0 30281858.453475952 256671899.68580341 0 256671899.68580341 103336205.50908661 0 0 0 0 -138625027.08922577 257939635.88405514 0 257939635.88405514 102287554.19109154 0 0 0 0 57027569.827682495 223296177.93719292 0 223296177.93719292 108083877.12572098 0 0 0 0 -3378537.8159866333 265341194.01981354 0 265341194.01981354 -34793126.073894501 0 0 0 0 -58328671.150497437 232824187.07979965 0 232824187.07979965 -24734176.534501076 0 0 0 0 -131163790.91789246 328138635.64625549 0 328138635.64625549 -143034554.10335541 0 0 0 0 -91551144.886987686 188620139.81581402 0 188620139.81581402 -325602889.69745636 0 0 0 0 -201251901.11455536 259452942.42277145 0 259452942.42277145 -426610227.32969666 0 0 0 0 -514279941.45264435 65894513.488754272 0 65894513.488754272 -291776532.18177795 0 0 0 0 -7992238.0171356201 76464440.885944366 0 76464440.885944366 -513277937.92865467 0 0 0 0 -8284032.010635376 124189898.39948654 0 124189898.39948654 -337864126.33732986 0 0 0 0 73539776.369491577 136285812.21258545 0 136285812.21258545 -144403972.1494236 0 0 0 0 40477698.187221527 213916661.83464241 0 213916661.83464241 -299569276.99303055 0 0 0 0 192322632.73986053 171433001.78804779 0 171433001.78804779 -152978094.02249527 0 0 0 0 81133388.345428467 166997048.25259781 0 166997048.25259781 -82617097.946286201 0 0 0 0 89123760.686065674 35314126.774242401 0 35314126.774242401 -105683095.82635117 0 0 0 0 94592620.937431335 57887160.651771545 0 57887160.651771545 -208675914.48852539 0 0 0 0 9489091.6643371582 -5398991.8927650452 0 -5398991.8927650452 -239641976.08946514 0 0 0 0 -59266367.052131653 -78733383.077257156 0 -78733383.077257156 -99369251.671812057 0 0 0 0 43220351.05266571 -26803007.281803131 0 -26803007.281803131 -75969389.304172516 0 0 0 0 9023063.5199678317 2131088.9769570287 0 2131088.9769570287 -2683719.7488519512 0 0 0 0 -66532208.670593262 -133576967.55711555 0 -133576967.55711555 -336711719.10284615 0 0 0 0 30405070.257980347 76917682.573251724 0 76917682.573251724 85286203.281370163 0 0 0 0 -165777588.57899475 47408607.409231186 0 47408607.409231186 -12883210.005554199 0 0 0 0 -191593.90762716532 3588195.6523055555 0 3588195.6523055555 -2058410.1928966781 0 0 0 0 1540536.4952702001 1092097.1722259913 0 1092097.1722259913 -2202587.5911466554 0 0 0 0 450762655.62309265 80895746.355621338 0 80895746.355621338 -17205065.321258545 0 0 0 0 475864452.50928688 106952557.04397106 0 106952557.04397106 -107483454.83615875 0 0 0 0 414738668.2353363 113586295.64219284 0 113586295.64219284 107937651.68738937 0 0 0 0 378005701.72680664 245799351.34646988 0 245799351.34646988 155522515.6573143 0 0 0 0 482959541.6204834 128800706.89786911 0 128800706.89786911 -65476234.50463295 0 0 0 0 398038637.0898056 171088748.41075897 0 171088748.41075897 -40388095.279201508 0 0 0 0 198266977.08735657 111825394.32225418 0 111825394.32225418 -27141205.949700356 0 0 0 0 315983602.55517578 194333176.60977364 0 194333176.60977364 -60047258.863395691 0 0 0 0 402840746.79843903 242007934.95825291 0 242007934.95825291 -20597296.401386261 0 0 0 0 347312612.07571793 141231038.73234367 0 141231038.73234367 22809933.283748627 0 0 0 0 202846330.47094727 134150006.45011711 0 134150006.45011711 -26585040.585328579 0 0 0 0 193602207.61966705 122379300.66352844 0 122379300.66352844 -50501605.025840759 0 0 0 0 17958358.795974731 -28932211.296535492 0 -28932211.296535492 -20702846.992803097 0 0 0 0 119932775.00280762 158238544.93667412 0 158238544.93667412 102627986.77113342 0 0 0 0 405236001.4536171 243057465.43532944 0 243057465.43532944 -10480706.744995117 0 0 0 0 417877775.25749969 383385753.28930855 0 383385753.28930855 250711208.6696167 0 0 0 0 484202428.82221222 144098322.85114288 0 144098322.85114288 -84743327.127838135 0 0 0 0 500526978.86435699 159710875.47280884 0 159710875.47280884 -109825522.75447845 0 0 0 0 734720689.08747864 114188569.70701218 0 114188569.70701218 -265973738.08932114 0 0 0 0 722178507.59613037 288519968.18426132 0 288519968.18426132 -106476117.84666848 0 0 0 0 470083668.71624756 52235924.220966339 0 52235924.220966339 -122103839.88245392 0 0 0 0 543514648.92661285 118628670.88538361 0 118628670.88538361 -110573975.68019867 0 0 0 0 3059324.1606978178 566236.84260170721 0 566236.84260170721 -529850.82545031141 0 0 0 0 -926326.56969798356 614378.58776747901 0 614378.58776747901 -417794.82701507956 0 0 0 0 942430462.22267151 -76575349.859157562 0 -76575349.859157562 -469712848.09848785 0 0 0 0 -539246569.3731842 274215439.5375824 0 274215439.5375824 -432123136.78698921 0 0 0 0 112115395.11393738 240649878.06673813 0 240649878.06673813 193227655.74737167 0 0 0 0 170252595.57579803 234891021.89083862 0 234891021.89083862 44786875.203735352 0 0 0 0 119789446.75971985 52392265.280840874 0 52392265.280840874 -46344079.468967438 0 0 0 0 168367045.94894218 129411013.57841492 0 129411013.57841492 -414957702.53614044 0 0 0 0 55436949.441871643 135758596.29275894 0 135758596.29275894 49459303.625209808 0 0 0 0 76358883.569347382 87239082.262917519 0 87239082.262917519 71596390.986282349 0 0 0 0 -6195750.7019309253 5210247.7130205762 0 5210247.7130205762 -1941043.4023564644 0 0 0 0 89823085.497047424 160376418.34032822 0 160376418.34032822 215852579.06075859 0 0 0 0 77487833.100990295 107381053.29601288 0 107381053.29601288 85965630.605470657 0 0 0 0 71219278.407234192 108502460.39690018 0 108502460.39690018 124277795.3452301 0 0 0 0 22597836.198509216 22652336.647773743 0 22652336.647773743 13905572.922826767 0 0 0 0 36998721.045219421 35019943.99434948 0 35019943.99434948 -37974861.50185585 0 0 0 0 31673609.313083649 47185253.381062508 0 47185253.381062508 6149373.2131271362 0 0 0 0 -5734924.6735982895 6830814.9213082492 0 6830814.9213082492 -4115354.7600317486 0 0 0 0 99871890.494789124 11320921.662342072 0 11320921.662342072 -15461961.518099785 0 0 0 0 23911048.106142044 6398657.1836800575 0 6398657.1836800575 -2899988.8325500488 0 0 0 0 9253345.3324584961 13086663.933261871 0 13086663.933261871 12637082.273071289 0 0 0 0 7122760.7970581055 19217282.977511406 0 19217282.977511406 -1028418.2360305786 0 0 0 0 87014.392034053802 -21875983.958248854 0 -21875983.958248854 -50730196.204690933 0 0 0 0 755998.14732984453 2093249.3678544387 0 2093249.3678544387 -3305380.8958745562 0 0 0 0 -25802295.392463684 10072539.635192871 0 10072539.635192871 -6008594.1446113586 0 0 0 0 71468544.919975281 31977777.57419014 0 31977777.57419014 -25344725.367771149 0 0 0 0 244777903.00297165 327369200.47592258 0 327369200.47592258 211612707.71324348 0 0 0 0 -6096771.7388319969 -112999811.18285811 0 -112999811.18285811 -217315034.79652023 0 0 0 0 136447.08943136781 809709.07813996263 0 809709.07813996263 -1154098.5292319357 0 0 0 0 70348644.204162598 127425815.1399374 0 127425815.1399374 246777660.51119041 0 0 0 0 96855819.060958862 29690970.670948029 0 29690970.670948029 29838443.099844456 0 0 0 0 139003734.73445892 55979983.057670593 0 55979983.057670593 45530777.790563583 0 0 0 0 5651973.6373089179 9884166.4823499247 0 9884166.4823499247 -4966131.8920405135 0 0 0 0 139556426.60097122 165191565.26128626 0 165191565.26128626 -36760718.358037949 0 0 0 0 192269008.03799438 63931308.085859299 0 63931308.085859299 28978156.6536026 0 0 0 0 478159694.20731735 42781687.764799118 0 42781687.764799118 -162953348.52675438 0 0 0 0 3615327.800775215 6646937.5388654619 0 6646937.5388654619 -5302698.2634131685 0 0 0 0 -1477710577.5928955 638615306.95427775 0 638615306.95427775 41074721.718067169 0 0 0 0 -1319146245.8551636 241232084.33036137 0 241232084.33036137 -124322437.23631096 0 0 0 0 1486342.4095373154 2286255.5383372307 0 2286255.5383372307 -6697940.4771094583 0 0 0 0 -1411164370.5855808 315273579.70127153 0 315273579.70127153 50514305.798027039 0 0 0 0 621794416.50743866 -302754037.97797203 0 -302754037.97797203 -67068963.724720001 0 0 0 0 909605061.35108948 -227510449.90300179 0 -227510449.90300179 -189570881.78833008 0 0 0 0 359163487.54426193 74367503.594894409 0 74367503.594894409 -110685839.49739075 0 0 0 0 295128744.36675262 -15133938.615097046 0 -15133938.615097046 -224646349.60614204 0 0 0 0 238253317.29708481 183960119.64902306 0 183960119.64902306 -373190448.18937683 0 0 0 0 -63451286.422088623 384002265.19874001 0 384002265.19874001 -268455985.04942322 0 0 0 0 63857109.910552979 162559388.12141037 0 162559388.12141037 -214021877.99937344 0 0 0 0 66583014.345443726 220047464.28823853 0 220047464.28823853 -460691819.14762497 0 0 0 0 -474564652.57806396 42168651.944667816 0 42168651.944667816 -401057781.87080193 0 0 0 0 -204413335.31246185 306301122.87778664 0 306301122.87778664 -306669085.51919556 0 0 0 0 -130881595.4801178 223232741.46306229 0 223232741.46306229 -538024561.84683418 0 0 0 0 -120351241.82328796 325598514.3122406 0 325598514.3122406 -348677782.92480659 0 0 0 0 -450892.42910671234 932770.12886159867 0 932770.12886159867 -500836.24748811498 0 0 0 0 -14440263.084316254 293960737.32837391 0 293960737.32837391 -611441395.09475327 0 0 0 0 -52703702.741653442 135700851.32737541 0 135700851.32737541 286425971.94599724 0 0 0 0 16063999.060752869 372311267.70095158 0 372311267.70095158 -545913050.02886772 0 0 0 0 -27091587.045280457 284108940.64457321 0 284108940.64457321 -507621586.20851898 0 0 0 0 31164171.87878418 265067974.98151779 0 265067974.98151779 -243205116.82181048 0 0 0 0 191334908.42491969 285058338.98229808 0 285058338.98229808 -402205613.27508545 0 0 0 0 -5586535.0703811646 179840509.58085442 0 179840509.58085442 -107105511.28487206 0 0 0 0 353070645.91187668 403184449.65011358 0 403184449.65011358 113414629.97772408 0 0 0 0 -2037319.1306199506 4476350.136446625 0 4476350.136446625 -4173485.4140240327 0 0 0 0 542448712.33340073 560816476.82888174 0 560816476.82888174 66804442.855117798 0 0 0 0 168872266.81707573 130683681.59304523 0 130683681.59304523 -45069315.001134872 0 0 0 0 113739641.01273346 142115653.47914028 0 142115653.47914028 202338729.6924448 0 0 0 0 -344899503.55826569 188306126.71987152 0 188306126.71987152 200286234.3805151 0 0 0 0 -336754130.77231598 432446060.03944778 0 432446060.03944778 -315629412.53007317 0 0 0 0 -899136603.69448853 342062918.9886446 0 342062918.9886446 121618656.10547543 0 0 0 0 -1103066166.1042233 710700348.92098618 0 710700348.92098618 -197398560.30011749 0 0 0 0 -972998678.92126465 174542575.3301506 0 174542575.3301506 -100124266.28169858 0 0 0 0 -818382919.64714432 476900198.3273468 0 476900198.3273468 197842924.72810745 0 0 0 0 -556927049.0892601 81649205.228739262 0 81649205.228739262 32999672.453012466 0 0 0 0 -814138381.90532684 578143762.94437981 0 578143762.94437981 -185218516.44756126 0 0 0 0 -5004568.8317377204 865656.4385426864 0 865656.4385426864 2053534.9975802526 0 0 0 0 -11317919.745193481 85944346.594753265 0 85944346.594753265 -166184317.47484875 0 0 0 0 -7105733.7361907959 14125078.552120209 0 14125078.552120209 18785073.528064728 0 0 0 0 15857286.956596851 106758104.31015196 0 106758104.31015196 159358365.68269157 0 0 0 0 -1162504.8860666864 -441218.84769446403 0 -441218.84769446403 598936.02332196757 0 0 0 0 -354764746.14089966 189091889.97055531 0 189091889.97055531 -129478334.41332054 0 0 0 0 85026823.015472412 269281586.19386768 0 269281586.19386768 56875489.203960419 0 0 0 0 -17942606.417024612 96061207.276384354 0 96061207.276384354 330554728.69692993 0 0 0 0 14464225.464485168 -3952331.3330888748 0 -3952331.3330888748 31455700.126181602 0 0 0 0 -5534290.1174270213 4038885.1447906867 0 4038885.1447906867 2242225.1440114835 0 0 0 0 -323753249.58007812 323798550.20458412 0 323798550.20458412 -343260057.28688049 0 0 0 0 318968356.81037903 242847492.20709801 0 242847492.20709801 205135231.39150429 0 0 0 0 520412410.60647583 269153498.5420475 0 269153498.5420475 153982271.42529106 0 0 0 0 -585990256.92822647 521719044.03852224 0 521719044.03852224 -166438075.70355797 0 0 0 0 -624503501.40769005 467103803.19737625 0 467103803.19737625 -151903160.08258438 0 0 0 0 -468596025.68058014 528498039.96309853 0 528498039.96309853 -446337149.50955772 0 0 0 0 -124949290.12278366 247204784.48816967 0 247204784.48816967 -237983092.64014816 0 0 0 0 -224894191.29106712 76214148.765762091 0 76214148.765762091 -3106581.3677425385 0 0 0 0 -7404256.5659809709 5004560.8617894091 0 5004560.8617894091 4229303.3193334956 0 0 0 0 -88408662.934013367 106781048.63411617 0 106781048.63411617 -166343667.33633327 0 0 0 0 -4593955.899413418 6278331.1592668518 0 6278331.1592668518 9359333.3324353248 0 0 0 0 27763869.698189735 55320018.056212679 0 55320018.056212679 61287824.273340225 0 0 0 0 -200320445.68211365 259737757.25189114 0 259737757.25189114 -278080627.97017097 0 0 0 0 -15750351.72033447 -79191.271711550653 0 -79191.271711550653 4122742.9866055511 0 0 0 0 -383630727.14914703 106666075.28250313 0 106666075.28250313 -16095074.694361687 0 0 0 0 -12526090.51322937 160772340.19775963 0 160772340.19775963 -134873642.02113914 0 0 0 0 -387570432.39159393 -77528871.605175972 0 -77528871.605175972 20324097.981331825 0 0 0 0 76771299.490060806 -28568338.342651829 0 -28568338.342651829 -41078321.203609467 0 0 0 0 -382706225.04737854 62339201.549624443 0 62339201.549624443 88555938.526920319 0 0 0 0 -768105.11249787593 5509053.6315157041 0 5509053.6315157041 5227800.2552048117 0 0 0 0 -503933677.90313876 261677539.73048276 0 261677539.73048276 -130431112.67436981 0 0 0 0 -576505803.6644516 486845707.59394455 0 486845707.59394455 -200204910.19285011 0 0 0 0 -473259697.67284012 150217446.39935112 0 150217446.39935112 22293066.209089279 0 0 0 0 -920210633.76912308 297697142.69608021 0 297697142.69608021 -39736079.227096558 0 0 0 0 -927349977.17778778 625400614.29417229 0 625400614.29417229 -174152830.5579052 0 0 0 0 -669161183.21121979 438033834.16149759 0 438033834.16149759 -158974261.22529984 0 0 0 0 1026802855.8366776 23395293.22704792 0 23395293.22704792 72452160.486721516 0 0 0 0 590290969.62768555 82725423.9112854 0 82725423.9112854 119483471.75465393 0 0 0 0 -1901340.619342804 109202865.07954025 0 109202865.07954025 78329946.706230164 0 0 0 0 176702251.52856445 103348484.38486481 0 103348484.38486481 67037175.975721359 0 0 0 0 133499599.92483139 -28261686.341673851 0 -28261686.341673851 -241125830.60947609 0 0 0 0 -168380426.11975288 204464360.87046432 0 204464360.87046432 25009150.95413208 0 0 0 0 783033.3379561007 186247.69044741243 0 186247.69044741243 -2062192.4481497072 0 0 0 0 159773078.24322891 -142122976.14789534 0 -142122976.14789534 73881667.957397461 0 0 0 0 317948871.16897583 -46256486.103652954 0 -46256486.103652954 -298461615.00117111 0 0 0 0 360887955.59070969 77937519.661782265 0 77937519.661782265 60463251.089492798 0 0 0 0 162968129.5630455 -122930597.32557869 0 -122930597.32557869 173022200.51501083 0 0 0 0 601132308.54649353 -161732813.90939522 0 -161732813.90939522 -140952215.46239734 0 0 0 0 640304050.18616104 -41314122.885281563 0 -41314122.885281563 176869628.41375732 0 0 0 0 693371301.30000114 -422181419.71801209 0 -422181419.71801209 198428050.38460922 0 0 0 0 -399466834.98281097 -438492573.64643955 0 -438492573.64643955 16428780.635905743 0 0 0 0 -1503205857.6295776 1115105075.1527081 0 1115105075.1527081 -777260080.69485283 0 0 0 0 -5830742.3836556822 -435069.57148109376 0 -435069.57148109376 465033.58747470193 0 0 0 0 -2449963296.9042511 64939505.872817993 0 64939505.872817993 257675058.34768486 0 0 0 0 -390260397.28184509 -56414794.850889206 0 -56414794.850889206 -85889197.980576515 0 0 0 0 -1706920998.8728714 57012182.577315331 0 57012182.577315331 58233108.508752823 0 0 0 0 1140859000.3161392 -330213353.58538532 0 -330213353.58538532 27908236.5182724 0 0 0 0 -1246515765.8628998 717136859.58168793 0 717136859.58168793 -329431390.60599899 0 0 0 0 -1479226490.6769943 1135128598.0198212 0 1135128598.0198212 -967750896.43999767 0 0 0 0 272796.18095418066 233730.89899132401 0 233730.89899132401 -3776560.8608746938 0 0 0 0 -777075755.05443478 510125207.97565985 0 510125207.97565985 -623668256.04227638 0 0 0 0 55523564.664672852 -502432986.26942635 0 -502432986.26942635 364792294.7399615 0 0 0 0 -958857339.05237675 8520192.2381341457 0 8520192.2381341457 146446817.1107254 0 0 0 0 -736005016.37397242 264187992.46196789 0 264187992.46196789 145969282.68804169 0 0 0 0 -381960740.62223816 73026669.824939728 0 73026669.824939728 146825617.08052683 0 0 0 0 -732617901.17513275 295270958.91661453 0 295270958.91661453 391480533.52148509 0 0 0 0 201866935.19994199 173495961.50494051 0 173495961.50494051 33601882.659484863 0 0 0 0 -536499.03742482513 1341712.2467118986 0 1341712.2467118986 -2075460.2191135921 0 0 0 0 201395075.97837067 95795633.939109802 0 95795633.939109802 84262188.655857086 0 0 0 0 207298981.57897949 91106040.532144547 0 91106040.532144547 78247871.370988846 0 0 0 0 244485102.01403427 92267481.076810837 0 92267481.076810837 57796261.731245041 0 0 0 0 209832686.97324371 101415454.5115509 0 101415454.5115509 82659623.996257782 0 0 0 0 222161214.2692337 95442122.567289352 0 95442122.567289352 78042052.918905258 0 0 0 0 442361.85450682789 1596354.6934675649 0 1596354.6934675649 -4124463.7495115474 0 0 0 0 202192746.53147125 115126452.57784843 0 115126452.57784843 86198156.382872105 0 0 0 0 200324785.83692551 140996560.66328812 0 140996560.66328812 60690395.723976135 0 0 0 0 595195862.02707672 653939378.84882736 0 653939378.84882736 -710653479.8274765 0 0 0 0 174915196.27011108 166370070.65418434 0 166370070.65418434 84210844.491641521 0 0 0 0 20387987.514503479 180489501.31908846 0 180489501.31908846 83058235.466697693 0 0 0 0 162055786.85831451 151144579.67738628 0 151144579.67738628 69765161.241901398 0 0 0 0 232006384.05163574 129998038.05195618 0 129998038.05195618 75337123.478632927 0 0 0 0 224630258.21087646 192491417.29558563 0 192491417.29558563 67028079.886352539 0 0 0 0 194981494.03523254 163857470.68398094 0 163857470.68398094 65752240.576747894 0 0 0 0 278233611.38922119 161097505.07171631 0 161097505.07171631 61811794.798092842 0 0 0 0 224152453.75638723 123538460.14867067 0 123538460.14867067 70068264.965759277 0 0 0 0 277970137.64926147 140020056.71429825 0 140020056.71429825 82508375.632458687 0 0 0 0 242120444.1769104 114599245.88513374 0 114599245.88513374 73201250.777183533 0 0 0 0 250924902.89598846 162114969.19612741 0 162114969.19612741 78063540.882976532 0 0 0 0 347714481.12692261 178541460.21334076 0 178541460.21334076 80634808.352844238 0 0 0 0 407904243.75377655 212224810.99080753 0 212224810.99080753 139383831.1946373 0 0 0 0 319918106.61158752 156327182.19911385 0 156327182.19911385 232024673.46474838 0 0 0 0 353537818.03813171 159916131.30125427 0 159916131.30125427 125635516.01083374 0 0 0 0 275254240.12487793 126050420.98989677 0 126050420.98989677 123520971.77552032 0 0 0 0 343918891.4912796 106642505.73882294 0 106642505.73882294 294073782.3269043 0 0 0 0 236954435.62127686 162606302.10764885 0 162606302.10764885 265047005.46686745 0 0 0 0 478324838.17576599 204373789.31055069 0 204373789.31055069 231829787.80318499 0 0 0 0 420312733.45483398 150698841.02525902 0 150698841.02525902 493206743.49753952 0 0 0 0 246018362.46396637 284207235.47038269 0 284207235.47038269 414348988.00282812 0 0 0 0 226553184.07226562 185136670.41366959 0 185136670.41366959 277305368.28932714 0 0 0 0 -299955659.2659502 206727592.4765749 0 206727592.4765749 599728528.86076546 0 0 0 0 17591158.476894379 199859358.80657768 0 199859358.80657768 294939063.28817558 0 0 0 0 228016331.89879227 204999072.07407331 0 204999072.07407331 77354140.965589523 0 0 0 0 -80565663.204856873 481798314.85807514 0 481798314.85807514 -99980031.565858364 0 0 0 0 -291171428.38662338 97452900.794561386 0 97452900.794561386 57888938.556662798 0 0 0 0 -642344726.44620132 262015207.52449226 0 262015207.52449226 504595976.17349243 0 0 0 0 -295366360.45423889 199985886.27830601 0 199985886.27830601 498794714.77018738 0 0 0 0 -257742689.9483757 182209998.48904657 0 182209998.48904657 483172252.12799454 0 0 0 0 -476918402.32302856 269240295.5512104 0 269240295.5512104 551928664.48481655 0 0 0 0 -499537832.02358627 221586342.38166523 0 221586342.38166523 454013586.41199112 0 0 0 0 -382452011.82197189 306816763.63798809 0 306816763.63798809 276338539.60815716 0 0 0 0 -425188365.97962189 286037013.33873177 0 286037013.33873177 486692460.08491433 0 0 0 0 126178982.42075729 180197330.25603819 0 180197330.25603819 143650459.15867233 0 0 0 0 155937819.93191528 240298656.9828167 0 240298656.9828167 245115648.09447098 0 0 0 0 844623645.16199493 588953833.16943932 0 588953833.16943932 412546022.21339989 0 0 0 0 1105476311.7668076 95618177.422868729 0 95618177.422868729 488967508.16421413 0 0 0 0 104994519.28688049 204421813.1635437 0 204421813.1635437 821727511.53356743 0 0 0 0 28156881.414855957 353400781.73764896 0 353400781.73764896 551005672.93971252 0 0 0 0 -1164807181.670784 579370337.83842087 0 579370337.83842087 -38342120.801261902 0 0 0 0 -938626482.37030697 611043024.13418341 0 611043024.13418341 -105643507.54864693 0 0 0 0 -864682162.66175079 582308356.55372667 0 582308356.55372667 -163378850.58891296 0 0 0 0 -1117671253.0289307 393629833.04948711 0 393629833.04948711 -91254205.195723534 0 0 0 0 -695839.89225537563 1489844.0931761786 0 1489844.0931761786 1345937.2427529469 0 0 0 0 -1156053305.5496902 435069442.09251308 0 435069442.09251308 -69015893.816726685 0 0 0 0 -799667.57375504891 4117103.5980410799 0 4117103.5980410799 3255656.6654101536 0 0 0 0 150170896.87163162 51762732.279120445 0 51762732.279120445 8063789.2904205322 0 0 0 0 489083385.5349884 417278292.63623238 0 417278292.63623238 261925602.70789003 0 0 0 0 -277688004.59397888 144359430.95513093 0 144359430.95513093 167478610.16170692 0 0 0 0 -659139907.81015968 572454280.66260791 0 572454280.66260791 480172644.33661079 0 0 0 0 -809550828.78858185 406612578.31173325 0 406612578.31173325 306134295.72100258 0 0 0 0 -821885054.9174118 777196161.7921114 0 777196161.7921114 150920909.93121147 0 0 0 0 -2009732807.5367632 459031457.16805995 0 459031457.16805995 218872189.65358925 0 0 0 0 -1275800071.1456833 692786254.82952499 0 692786254.82952499 282581265.77803135 0 0 0 0 -1149237832.2314644 711690366.43179274 0 711690366.43179274 155535104.73248482 0 0 0 0 -1155914207.6031723 730380537.90420532 0 730380537.90420532 -61078324.657295227 0 0 0 0 -1160094633.4207993 563775622.82460213 0 563775622.82460213 141777384.23558331 0 0 0 0 -1269131688.1350715 566542033.84914637 0 566542033.84914637 187671380.7919178 0 0 0 0 -976887401.09564209 657170005.42403507 0 657170005.42403507 -14055288.558570862 0 0 0 0 -15340138.507993698 16575447.751425028 0 16575447.751425028 -33780823.027585983 0 0 0 0 -2577329.3964569233 3787812.8414381668 0 3787812.8414381668 -2481440.4495542608 0 0 0 0 -38206414.881282806 81515076.149717093 0 81515076.149717093 -24234094.451522827 0 0 0 0 -1375945426.4975052 150166550.86982632 0 150166550.86982632 17786315.989017487 0 0 0 0 -1188042423.0150299 729917046.04499722 0 729917046.04499722 -49387206.66220665 0 0 0 0 -1132147965.931572 681837212.63994074 0 681837212.63994074 -39006928.06495285 0 0 0 0 -1103460338.7924728 781353459.09886169 0 781353459.09886169 -255350233.83593178 0 0 0 0 -1092741155.7137527 852943561.65086365 0 852943561.65086365 -46527159.944668531 0 0 0 0 -966080159.01263428 801213454.87062454 0 801213454.87062454 -258426979.40921545 0 0 0 0 -1064853679.3350687 779632391.99894476 0 779632391.99894476 -140226976.2361908 0 0 0 0 -1165411669.3438034 957438898.37108135 0 957438898.37108135 -175461152.46656656 0 0 0 0 -985864372.1079483 894877295.42557716 0 894877295.42557716 1048892.9677295685 0 0 0 0 -902954092.51860046 709145510.28783894 0 709145510.28783894 188411761.93499947 0 0 0 0 -985899315.51194847 600391518.97566354 0 600391518.97566354 63813204.732906342 0 0 0 0 -1293867927.69841 865200802.92436504 0 865200802.92436504 -34162220.22221899 0 0 0 0 -1116279032.6602602 794466305.72579777 0 794466305.72579777 -234150665.84780693 0 0 0 0 -2368241234.2593079 1202829970.0434284 0 1202829970.0434284 -361055402.76347542 0 0 0 0 -13674456.375999041 2683700.3203469729 0 2683700.3203469729 2495248.9212060161 0 0 0 0 -663646588.10166931 1192611965.4772067 0 1192611965.4772067 -1811993947.6302147 0 0 0 0 -981622166.12558746 890017370.58956003 0 890017370.58956003 -606790567.44659233 0 0 0 0 -12897436.315900523 3218442.9910927713 0 3218442.9910927713 6853110.1783090606 0 0 0 0 -22733458.264297485 11479809.925034523 0 11479809.925034523 -1220032.5709533691 0 0 0 0 -8083293.9926455803 10101393.440909047 0 10101393.440909047 4992747.0894430354 0 0 0 0 -30876526.906942368 21552651.266067505 0 21552651.266067505 16170318.481895447 0 0 0 0 -344367862.58882141 349917582.18138695 0 349917582.18138695 -510606825.4681896 0 0 0 0 -19926671.624858856 21082801.529914856 0 21082801.529914856 11278497.785835266 0 0 0 0 -25167985.498722076 16726979.130732536 0 16726979.130732536 7936186.3866043091 0 0 0 0 -26253959.369777679 24999119.084505081 0 24999119.084505081 3458399.3924102783 0 0 0 0 -7283268.9246998057 3723638.6410363019 0 3723638.6410363019 11788769.716576155 0 0 0 0 712964678.79875183 166088971.36339045 0 166088971.36339045 -167044821.60534573 0 0 0 0 703961006.76742554 168825863.17886543 0 168825863.17886543 11376009.005205154 0 0 0 0 253793899.19494438 34478119.159733534 0 34478119.159733534 -19556372.602014542 0 0 0 0 62316404.21295929 281786662.53413105 0 281786662.53413105 142483973.89874077 0 0 0 0 -903888623.03415775 299714471.61550373 0 299714471.61550373 309977060.64570618 0 0 0 0 -644161824.97773743 413673532.56306076 0 413673532.56306076 109962242.23585129 0 0 0 0 -1390431491.7215042 261079386.33962154 0 261079386.33962154 95339557.874389648 0 0 0 0 -698919868.67610168 219438412.82458496 0 219438412.82458496 40944725.257461727 0 0 0 0 -358155055.02651596 -6869068.718873024 0 -6869068.718873024 29072197.48166275 0 0 0 0 -673245425.37320137 193719459.79446316 0 193719459.79446316 -225541534.18159866 0 0 0 0 -1449037343.7364883 328671802.58807755 0 328671802.58807755 -166921542.72353554 0 0 0 0 -1876142836.4457636 -219535526.04879522 0 -219535526.04879522 -866135418.56515884 0 0 0 0 -1089332057.8970642 802687334.68787003 0 802687334.68787003 -2220291246.4927921 0 0 0 0 -555246775.00361109 214214144.69340456 0 214214144.69340456 -29210473.035587311 0 0 0 0 -1078202003.0575867 628704111.11423302 0 628704111.11423302 -297113126.51163673 0 0 0 0 -534998380.94885635 299969144.83563423 0 299969144.83563423 -1019177054.2673626 0 0 0 0 -64381385.809837341 436807405.46798897 0 436807405.46798897 -454621738.47072887 0 0 0 0 175331949.03156662 -19352145.737316132 0 -19352145.737316132 241362414.77085114 0 0 0 0 162964880.89380646 107813116.63171673 0 107813116.63171673 -445685494.43777084 0 0 0 0 170786791.65719533 204857232.1587761 0 204857232.1587761 150652212.65218735 0 0 0 0 -3979446.4425692335 13968863.049903587 0 13968863.049903587 -3374852.8381881751 0 0 0 0 744976330.7720871 340874092.39713955 0 340874092.39713955 -197490623.08628654 0 0 0 0 662919665.75675201 591473897.54003525 0 591473897.54003525 424425606.93715668 0 0 0 0 29192264.095911026 26157384.644633293 0 26157384.644633293 -13732692.502944946 0 0 0 0 26051640.068305969 21999593.028610826 0 21999593.028610826 -6157614.3313484192 0 0 0 0 27995526.9610672 13609254.069347382 0 13609254.069347382 -30453476.345367432 0 0 0 0 27236506.718021393 18825875.121522903 0 18825875.121522903 -20140651.937094688 0 0 0 0 30751407.645763397 21140326.170388222 0 21140326.170388222 -20164125.196014404 0 0 0 0 39453781.631809235 24766516.429372787 0 24766516.429372787 -26925133.183386803 0 0 0 0 31905096.20866394 33656426.902575493 0 33656426.902575493 -910371.05160903931 0 0 0 0 65856337.312767029 100662137.03743744 0 100662137.03743744 -10224165.745243073 0 0 0 0 -10032466.801300049 32996036.628898621 0 32996036.628898621 7938469.134595871 0 0 0 0 -5161542.586023517 12093863.129189052 0 12093863.129189052 -8200867.6942803711 0 0 0 0 -32663917.275558472 11069269.217355728 0 11069269.217355728 16488364.288808823 0 0 0 0 -1669359.4850436375 544942.18351249397 0 544942.18351249397 839999.53674579412 0 0 0 0 133870308.64541435 -87421.672247886658 0 -87421.672247886658 -18901399.410022736 0 0 0 0 72145779.952049255 116803991.63232613 0 116803991.63232613 -66686588.880433083 0 0 0 0 -5334108.2273732629 15819844.181889176 0 15819844.181889176 -8407524.7357880808 0 0 0 0 -62227045.020214081 -33935515.836866379 0 -33935515.836866379 45050782.090210915 0 0 0 0 -2458894.7527732328 23666533.754332516 0 23666533.754332516 22427505.311302319 0 0 0 0 2261739.3355636597 70432327.245693207 0 70432327.245693207 -67666923.25770694 0 0 0 0 -93528427.181964874 49177514.339653969 0 49177514.339653969 32273435.032699585 0 0 0 0 -78707501.129425049 13907051.398084641 0 13907051.398084641 39704233.521396637 0 0 0 0 -86069006.423219681 55096900.031388283 0 55096900.031388283 8381769.5846214294 0 0 0 0 -41085967.119674683 49088991.427568436 0 49088991.427568436 7367790.0134449005 0 0 0 0 -88200334.247707367 54535403.279579163 0 54535403.279579163 16477927.222360611 0 0 0 0 -97953250.916984558 34305476.825172424 0 34305476.825172424 15957894.827656746 0 0 0 0 3398303.2683489881 5246658.2128168587 0 5246658.2128168587 4207158.8209781907 0 0 0 0 29894939.84649086 56948039.554481506 0 56948039.554481506 1989101.1768798828 0 0 0 0 -20909020.059593756 30634613.922421437 0 30634613.922421437 -11328444.227454796 0 0 0 0 76805569.005346298 -41320982.475263596 0 -41320982.475263596 7336807.3155822754 0 0 0 0 -25327572.54491806 216356496.37625504 0 216356496.37625504 119927420.38829613 0 0 0 0 -160994763.08629608 226856180.09435654 0 226856180.09435654 -6046754.1309211254 0 0 0 0 109627879.52113914 177207647.77773285 0 177207647.77773285 -37621464.089241028 0 0 0 0 -19973734.88052702 38200229.641828522 0 38200229.641828522 -30686549.875458337 0 0 0 0 -82026278.646362305 64450729.415718079 0 64450729.415718079 158679040.99984741 0 0 0 0 106846664.10756493 91393856.496940613 0 91393856.496940613 -54922860.846817017 0 0 0 0 30817884.759860992 22903005.877947807 0 22903005.877947807 -27327042.315414429 0 0 0 0 54056215.333572388 18694169.761205673 0 18694169.761205673 -77487217.514478683 0 0 0 0 -2915922.748119425 10923430.477489833 0 10923430.477489833 -6536416.0424213856 0 0 0 0 14804703.90534243 14728206.350363314 0 14728206.350363314 -21349327.036460236 0 0 0 0 12538195.780225754 16818441.186215401 0 16818441.186215401 -24366231.836071014 0 0 0 0 26583051.335147858 9094583.752494812 0 9094583.752494812 -37643544.40412426 0 0 0 0 19070883.51765855 20046209.159477115 0 20046209.159477115 -36365735.779858664 0 0 0 0 80834755.38835144 120283571.62327576 0 120283571.62327576 -182158478.6410141 0 0 0 0 -71884465.000477552 140609894.02350664 0 140609894.02350664 -63325847.924713135 0 0 0 0 -75055900.122238636 211641583.56321788 0 211641583.56321788 -126894441.12417603 0 0 0 0 136332956.75678635 47592451.803619385 0 47592451.803619385 -49260678.833566666 0 0 0 0 145017448.22943115 -28349902.190155029 0 -28349902.190155029 -52261673.979324341 0 0 0 0 126966350.88310814 4269501.0781402588 0 4269501.0781402588 -102875817.10906219 0 0 0 0 229338963.66439819 -152976485.19526672 0 -152976485.19526672 -228710365.23413754 0 0 0 0 108216365.1741066 123363571.20124054 0 123363571.20124054 -252522709.85159302 0 0 0 0 264630438.84433746 -63712675.895561218 0 -63712675.895561218 -292441427.46368408 0 0 0 0 -485739.08471679688 311708684.67045593 0 311708684.67045593 -446581379.60235596 0 0 0 0 -9928510.5390548706 282760180.22698975 0 282760180.22698975 -414719893.85153198 0 0 0 0 380269174.15625 -38616768.901916504 0 -38616768.901916504 -683688433.0905304 0 0 0 0 191733230.29096985 -51081887.780761719 0 -51081887.780761719 -224450121.08126831 0 0 0 0 -394127074.30936813 420030779.40810394 0 420030779.40810394 -330323635.61584473 0 0 0 0 82144735.921783447 -33168324.005508423 0 -33168324.005508423 -374052946.91476822 0 0 0 0 -416028212.1710434 122562155.32168365 0 122562155.32168365 -12733033.573516846 0 0 0 0 -1517758.3902206905 5354581.7972992184 0 5354581.7972992184 -1202855.4468531013 0 0 0 0 12177469.669967651 -890854412.93457031 0 -890854412.93457031 -572801395.01243591 0 0 0 0 240958373.47719574 237652699.29935455 0 237652699.29935455 -1128328352.1987305 0 0 0 0 -89510709.034072876 516191642.07821655 0 516191642.07821655 -814681459.59896851 0 0 0 0 -253609791.72907257 205554408.26773834 0 205554408.26773834 -86490671.2109375 0 0 0 0 77378839.280838013 -8564734.5033988953 0 -8564734.5033988953 -78890607.071849823 0 0 0 0 158029533.06096649 318453181.15884399 0 318453181.15884399 -620521736.31412506 0 0 0 0 127055107.93439484 220832121.44567108 0 220832121.44567108 -91115906.371109009 0 0 0 0 26284283.801998138 89723542.943824768 0 89723542.943824768 -47892094.241333008 0 0 0 0 72287920.490152359 123171287.55147171 0 123171287.55147171 -53931467.802154541 0 0 0 0 82326785.150970459 139572764.21917725 0 139572764.21917725 -229089629.3291626 0 0 0 0 17475821.509685516 70470851.997314453 0 70470851.997314453 47663.576337814331 0 0 0 0 30154731.901252985 47680997.705013037 0 47680997.705013037 -16316869.073165894 0 0 0 0 61160450.603912354 70828655.065643311 0 70828655.065643311 4278859.2482452393 0 0 0 0 28863930.835230589 53870758.23961544 0 53870758.23961544 19771953.882499695 0 0 0 0 394323.94335810654 16849206.439252269 0 16849206.439252269 -3089237.6510831863 0 0 0 0 48137900.315397263 28905940.804300308 0 28905940.804300308 -19705298.246765137 0 0 0 0 1124137.86097835 2975158.4101481885 0 2975158.4101481885 5303543.7881444246 0 0 0 0 -88224898.036659241 93694004.597961426 0 93694004.597961426 41213727.496337891 0 0 0 0 -143126987.46791458 9169793.165561676 0 9169793.165561676 52373764.116119385 0 0 0 0 -246359916.45508575 106696153.96502686 0 106696153.96502686 48944322.839187622 0 0 0 0 -229576256.51600456 -1846597.552819252 0 -1846597.552819252 54415346.942840576 0 0 0 0 57904233.211933136 158174460.17033195 0 158174460.17033195 -36379814.691229343 0 0 0 0 -4801991.3232033253 75852013.015882254 0 75852013.015882254 -19846927.897537231 0 0 0 0 53674911.854639292 101463766.55925274 0 101463766.55925274 -15535969.813995361 0 0 0 0 44566366.586439058 52802757.717253551 0 52802757.717253551 17384840.52786117 0 0 0 0 -1390867.4872841835 105632313.12223768 0 105632313.12223768 -29402645.093856812 0 0 0 0 31450508.960862793 42292549.108105399 0 42292549.108105399 19328802.11917489 0 0 0 0 68062301.656864166 137994115.0101614 0 137994115.0101614 63465252.423362732 0 0 0 0 18755196.08234787 54698170.821001053 0 54698170.821001053 -11263857.671706676 0 0 0 0 54645845.333288193 49633275.296974182 0 49633275.296974182 61829493.827728271 0 0 0 0 -3273096.5763320923 56741417.501598358 0 56741417.501598358 22253860.440910339 0 0 0 0 19624423.296005249 93879614.787905693 0 93879614.787905693 34005124.941177368 0 0 0 0 -55789742.572661161 108686181.62143862 0 108686181.62143862 -672266.22106933594 0 0 0 0 -57543343.874616623 94129339.9139328 0 94129339.9139328 61081691.845092773 0 0 0 0 -46498491.05994606 45583437.933450699 0 45583437.933450699 9494836.5059967041 0 0 0 0 -144410842.07369995 -41281780.23115921 0 -41281780.23115921 141702625.42214012 0 0 0 0 1398825.4536000863 3212885.9159509824 0 3212885.9159509824 3703649.185630003 0 0 0 0 -28358374.246564172 38170548.421266958 0 38170548.421266958 -13388389.736723987 0 0 0 0 -52493056.256443024 44232194.096546173 0 44232194.096546173 44937808.717735291 0 0 0 0 41359246.769655228 52909429.600513458 0 52909429.600513458 6280734.6508827209 0 0 0 0 -32840425.733407974 80066484.210035324 0 80066484.210035324 54390222.564933777 0 0 0 0 16017247.832703833 18544789.374555964 0 18544789.374555964 -27734324.432606563 0 0 0 0 31629207.248779297 33836243.903833389 0 33836243.903833389 -7740902.9852371216 0 0 0 0 41162172.212646484 73802084.995491028 0 73802084.995491028 75634290.89716962 0 0 0 0 24935118.070417404 41469060.111034393 0 41469060.111034393 5496365.5921783447 0 0 0 0 88930025.942220688 75998155.79233551 0 75998155.79233551 75654567.562309265 0 0 0 0 9968239.1129589751 32311821.448135652 0 32311821.448135652 -13107697.445352037 0 0 0 0 15946347.154411316 40315267.498214722 0 40315267.498214722 16778184.664535522 0 0 0 0 12981759.442283142 20344911.309808742 0 20344911.309808742 790753.69402150437 0 0 0 0 50065728.10572052 47157234.234886169 0 47157234.234886169 35650974.12197876 0 0 0 0 -9800471.3825454712 23876572.913173676 0 23876572.913173676 42958570.326663971 0 0 0 0 -2207179.0465037813 25661680.573403843 0 25661680.573403843 21515077.833042443 0 0 0 0 5323047.0699424744 21599619.075241089 0 21599619.075241089 8298971.8467407227 0 0 0 0 -7867240.5667751804 35305461.643368252 0 35305461.643368252 1494289.1751384661 0 0 0 0 6250433.2385171428 34642850.194138527 0 34642850.194138527 -7827647.0385992303 0 0 0 0 1888097.6006484618 3853012.0575249093 0 3853012.0575249093 2364430.4952031597 0 0 0 0 1801805.982170105 31450908.396060944 0 31450908.396060944 46325803.508213043 0 0 0 0 47909522.151182175 44383046.372171402 0 44383046.372171402 43025401.340423584 0 0 0 0 3843491.0920720659 2085394.6834499575 0 2085394.6834499575 -5891668.7672384121 0 0 0 0 2725111.4065380096 91323054.217844009 0 91323054.217844009 74332261.805669785 0 0 0 0 77360026.031785965 54300949.665380478 0 54300949.665380478 -2314507.9223213196 0 0 0 0 -1858807.2538299561 15300391.796756744 0 15300391.796756744 10997429.751739502 0 0 0 0 -4738496.6634870283 15848480.906244082 0 15848480.906244082 27599419.872092102 0 0 0 0 -1832493.2039059512 13167520.746640701 0 13167520.746640701 7289701.5113862082 0 0 0 0 -2742128.1115020439 21839502.92900905 0 21839502.92900905 -17829085.8382301 0 0 0 0 20124283.141159058 36687899.930145264 0 36687899.930145264 25285050.107193947 0 0 0 0 20637370.773902893 35666147.36095047 0 35666147.36095047 12142209.430127144 0 0 0 0 3985931.4764438868 41042934.861890346 0 41042934.861890346 -54702253.237078667 0 0 0 0 36756490.470769882 68350939.487847328 0 68350939.487847328 13612159.774806976 0 0 0 0 73572778.405418396 60847999.606868744 0 60847999.606868744 -2815558.8310070038 0 0 0 0 13278332.31294632 17229698.451021671 0 17229698.451021671 -42561267.509124279 0 0 0 0 30031223.866577148 22829211.243751407 0 22829211.243751407 -44530104.658625603 0 0 0 0 73236003.987062454 16076946.705242157 0 16076946.705242157 47621377.812945366 0 0 0 0 66277840.686496735 68951454.549022675 0 68951454.549022675 -16437087.38025856 0 0 0 0 70901139.274997711 26476093.133749008 0 26476093.133749008 1306060.3818984032 0 0 0 0 77644769.207509041 58370928.838796556 0 58370928.838796556 -5651567.476600647 0 0 0 0 -2604648.9306035656 9458584.1017850917 0 9458584.1017850917 -19551434.840522606 0 0 0 0 49435368.747631073 -4709841.6964664459 0 -4709841.6964664459 -89663652.554197311 0 0 0 0 -1288129.5210075378 -57838121.773158312 0 -57838121.773158312 -51426152.156082153 0 0 0 0 53476141.287010193 -32896049.226331234 0 -32896049.226331234 4238790.1480979919 0 0 0 0 110557567.64730835 28631212.734173536 0 28631212.734173536 -34922365.423251152 0 0 0 0 45908641.930938721 -3951933.6543402672 0 -3951933.6543402672 -42147818.291408062 0 0 0 0 -150228412.96888447 55499080.826537609 0 55499080.826537609 125401923.4105978 0 0 0 0 -37641227.503299698 30713114.135380954 0 30713114.135380954 -22193143.800301872 0 0 0 0 55629765.859789133 252241628.55010152 0 252241628.55010152 75295073.432059288 0 0 0 0 -2791154.6066980362 38584124.338686466 0 38584124.338686466 13492284.864149094 0 0 0 0 -133446146.0901947 966265.52624130249 0 966265.52624130249 2824293.7709445953 0 0 0 0 1323490.9175054049 -640248.57613619929 0 -640248.57613619929 -892882.03844898567 0 0 0 0 105798720.2115097 64176027.100279808 0 64176027.100279808 -23821158.653553009 0 0 0 0 -212400683.18801308 -962648.42461681366 0 -962648.42461681366 46439624.150056839 0 0 0 0 -190300252.13183022 53102902.372291565 0 53102902.372291565 55089672.779968262 0 0 0 0 -124720021.8295064 73770111.535477281 0 73770111.535477281 36899811.085041046 0 0 0 0 -140414229.6071825 59327353.805122137 0 59327353.805122137 32462031.505428314 0 0 0 0 -154063957.31379151 12795422.577645302 0 12795422.577645302 -12399320.448181152 0 0 0 0 -324761970.00061989 21119981.256221771 0 21119981.256221771 39269989.190982819 0 0 0 0 -197395312.74733543 -50921093.405418396 0 -50921093.405418396 -3922813.5817642212 0 0 0 0 -1568427.6464665178 5119749.6670538597 0 5119749.6670538597 -12432396.041593313 0 0 0 0 -64581879.155265808 544270.54482364655 0 544270.54482364655 -28156630.984399796 0 0 0 0 -79779202.712575912 59749543.510113716 0 59749543.510113716 22013943.483252525 0 0 0 0 -57857058.48462534 -1540608.3868634701 0 -1540608.3868634701 -9522430.8352909088 0 0 0 0 412396.19955196884 1134709.6637664931 0 1134709.6637664931 -5468698.7540820986 0 0 0 0 -635859691.14546108 14920282.626875877 0 14920282.626875877 -12284443.637451172 0 0 0 0 105931412.6186676 1183934.4264469147 0 1183934.4264469147 91857018.807439238 0 0 0 0 67109040.706375122 57979599.876965046 0 57979599.876965046 9828528.4525241852 0 0 0 0 -85404945.246347427 -72950612.844874382 0 -72950612.844874382 19719702.399917603 0 0 0 0 -56707967.056964874 34319644.525422096 0 34319644.525422096 1528092.2300844193 0 0 0 0 44324862.312234402 -29501471.513780832 0 -29501471.513780832 14712535.494588852 0 0 0 0 27643021.564979553 57095793.325138092 0 57095793.325138092 68289523.104551315 0 0 0 0 20647700.305301666 -14918287.147529602 0 -14918287.147529602 -44004522.377569199 0 0 0 0 235999669.59915161 198470517.4989233 0 198470517.4989233 3926703.9560680389 0 0 0 0 235317227.863316 305490414.55665088 0 305490414.55665088 217699254.49607277 0 0 0 0 64048435.673240662 29211025.644682884 0 29211025.644682884 74358670.90473938 0 0 0 0 175293064.67421722 124815854.00076675 0 124815854.00076675 90471754.349073783 0 0 0 0 175180904.71859741 79785560.864435196 0 79785560.864435196 213111522.83120918 0 0 0 0 475342978.34223175 356846409.01215363 0 356846409.01215363 221485567.42102432 0 0 0 0 241871896.90782166 202364712.32135201 0 202364712.32135201 365361694.58692455 0 0 0 0 307822359.72936249 164493338.45951748 0 164493338.45951748 158601207.90862274 0 0 0 0 169867280.34011078 60167280.444091797 0 60167280.444091797 162745989.06800398 0 0 0 0 154905061.83553696 203656224.31144047 0 203656224.31144047 249475054.95918274 0 0 0 0 355164359.90702438 246849039.71989107 0 246849039.71989107 214781199.63696671 0 0 0 0 253620120.58760071 150422481.70413256 0 150422481.70413256 101086845.51144028 0 0 0 0 186279511.88103485 73588695.015505791 0 73588695.015505791 51149974.340656281 0 0 0 0 174765268.46471786 95446165.787861586 0 95446165.787861586 56984322.412723541 0 0 0 0 -157651255.7194519 146711051.06762028 0 146711051.06762028 334550421.51455975 0 0 0 0 31362719.764839172 64515266.858119965 0 64515266.858119965 41626014.885178566 0 0 0 0 95553825.720840454 128127688.3026371 0 128127688.3026371 178734676.30679989 0 0 0 0 132466299.96335602 200109422.55837584 0 200109422.55837584 187813291.50830936 0 0 0 0 165096173.44952393 384431545.27754402 0 384431545.27754402 427870526.1266737 0 0 0 0 -65191387.907814026 198745717.18120766 0 198745717.18120766 373044651.64644623 0 0 0 0 -473727214.69366455 243923990.89554977 0 243923990.89554977 647005035.47482109 0 0 0 0 -35013751.676849365 249351346.81902647 0 249351346.81902647 380825091.4613266 0 0 0 0 -65694205.465675354 603924099.65396309 0 603924099.65396309 919427352.87863159 0 0 0 0 -278547012.52337646 880733828.16276169 0 880733828.16276169 694669370.3440609 0 0 0 0 186885270.26026917 884971132.49540997 0 884971132.49540997 673651489.78608322 0 0 0 0 1152279097.3533535 983167714.64625812 0 983167714.64625812 368513872.03278542 0 0 0 0 652331384.88417816 468312820.63030434 0 468312820.63030434 319092166.14086342 0 0 0 0 149846796.94096375 370827636.93820572 0 370827636.93820572 418604908.06232834 0 0 0 0 413497770.87824249 464776131.57108164 0 464776131.57108164 493608846.38612366 0 0 0 0 -459646453.98932648 760220913.76122761 0 760220913.76122761 270201982.51485825 0 0 0 0 563840257.40965652 838618298.3694725 0 838618298.3694725 -166963079.9070282 0 0 0 0 171397851.86009979 405071639.38749504 0 405071639.38749504 499202080.35596466 0 0 0 0 432471029.38288879 506216692.46437263 0 506216692.46437263 538250163.88734436 0 0 0 0 1037707720.7067413 14181300.642032623 0 14181300.642032623 66962655.716417313 0 0 0 0 -257115230.93214417 1139407275.1386299 0 1139407275.1386299 1428152316.9389305 0 0 0 0 383410180.85998535 301556778.2737999 0 301556778.2737999 230204684.46966362 0 0 0 0 283692588.36171722 201497009.09631729 0 201497009.09631729 138854036.37723923 0 0 0 0 88008363.097434998 363016126.17380428 0 363016126.17380428 130857600.72612 0 0 0 0 286007733.42076111 212918253.35856819 0 212918253.35856819 159955656.6826992 0 0 0 0 345428617.18171692 394197534.85754395 0 394197534.85754395 83771502.110813141 0 0 0 0 502380540.44692993 434842213.05438805 0 434842213.05438805 510394125.2072382 0 0 0 0 399091738.32066345 415187056.96574783 0 415187056.96574783 425367274.07268906 0 0 0 0 283131169.23588562 230950675.51856041 0 230950675.51856041 207791609.98218536 0 0 0 0 379245533.53294373 302477144.67212677 0 302477144.67212677 596543633.2112236 0 0 0 0 353198098.40560341 210374342.42399216 0 210374342.42399216 397446415.15896606 0 0 0 0 418016607.44600677 325281857.94096565 0 325281857.94096565 375966317.9961853 0 0 0 0 339786659.73989868 191324530.87900543 0 191324530.87900543 275075365.94979858 0 0 0 0 670898814.84850693 693501602.11269999 0 693501602.11269999 436346169.2977314 0 0 0 0 404111399.27971649 292341269.69173431 0 292341269.69173431 425545888.0485363 0 0 0 0 804965450.28991699 576237297.43133354 0 576237297.43133354 533154830.50989056 0 0 0 0 345941779.97731018 504124501.03702831 0 504124501.03702831 982177974.59405899 0 0 0 0 832686461.13382721 890868567.60568047 0 890868567.60568047 676577294.87433434 0 0 0 0 920256.28366779536 -2340678.3436263166 0 -2340678.3436263166 3663716.1950536873 0 0 0 0 921311677.35427856 1251433489.067194 0 1251433489.067194 1135096029.91891 0 0 0 0 -850256747.19319534 -121622708.69786477 0 -121622708.69786477 614430296.43301964 0 0 0 0 -538050992.00750732 353701118.43223381 0 353701118.43223381 1337813298.823329 0 0 0 0 332990644.46847534 303976954.56167984 0 303976954.56167984 1532277529.0822983 0 0 0 0 -276364999.68704987 -84698631.651434422 0 -84698631.651434422 -40455561.131706238 0 0 0 0 -3171244.1162779704 314048.88349108025 0 314048.88349108025 14046830.817557225 0 0 0 0 -99771305.571125031 160069744.23274279 0 160069744.23274279 -61058273.872832298 0 0 0 0 -249579171.10908127 89110553.389777929 0 89110553.389777929 304203.85072398186 0 0 0 0 53435039.816947937 226376233.59658241 0 226376233.59658241 757133561.97868681 0 0 0 0 851914552.95901203 683304411.85500073 0 683304411.85500073 417017856.18904686 0 0 0 0 -2436432.7223787755 4116947.1811550856 0 4116947.1811550856 3796421.6716309004 0 0 0 0 1020665444.4198008 -42289414.31047821 0 -42289414.31047821 -16053868.85499382 0 0 0 0 496679002.48677826 -53512692.139267445 0 -53512692.139267445 37718051.419830322 0 0 0 0 -84236240.771463394 88655361.077109426 0 88655361.077109426 -14992522.361094356 0 0 0 0 -10587036.287091963 14163503.918512488 0 14163503.918512488 25199830.201132536 0 0 0 0 -5732320.1251831055 61696062.995388031 0 61696062.995388031 -50795685.227942228 0 0 0 0 -45824982.209177017 138947362.55689549 0 138947362.55689549 -29275780.730527878 0 0 0 0 30626472.697532654 59542019.639399946 0 59542019.639399946 -66803817.472492486 0 0 0 0 16029783.53181839 45921498.998189956 0 45921498.998189956 -64708653.74552238 0 0 0 0 91630015.782520294 30634592.229760647 0 30634592.229760647 -61629907.948322773 0 0 0 0 58273250.149040222 89764196.064644873 0 89764196.064644873 -48145527.683336735 0 0 0 0 112581139.14002991 2227720.463681221 0 2227720.463681221 19229486.050105929 0 0 0 0 140792368.17945957 111193698.93809116 0 111193698.93809116 29266769.736192703 0 0 0 0 94731738.859382629 52314870.748625517 0 52314870.748625517 -29299939.662519932 0 0 0 0 45433812.621200562 174302042.88750648 0 174302042.88750648 22254902.184388846 0 0 0 0 -63838189.906965256 87962822.430151224 0 87962822.430151224 -23955087.784097195 0 0 0 0 -134688181.35260487 889879845.38193011 0 889879845.38193011 -57514730.952468872 0 0 0 0 20376446.524368286 755935929.40573883 0 755935929.40573883 -441417539.04246712 0 0 0 0 -1628009.8771743774 1074972536.8565345 0 1074972536.8565345 -653960963.7074132 0 0 0 0 -89178408.383270264 705342363.543787 0 705342363.543787 -285556530.96881962 0 0 0 0 110032705.04335403 976629024.52034855 0 976629024.52034855 -101645583.27864075 0 0 0 0 -236824316.32991791 907248071.22802734 0 907248071.22802734 473027030.50824356 0 0 0 0 1015462.8589019775 991308046.225564 0 991308046.225564 778888564.34389877 0 0 0 0 -274911749.62121582 708531814.07499313 0 708531814.07499313 -31402548.400410414 0 0 0 0 -127340588.20834351 582711006.29190683 0 582711006.29190683 16568686.461933136 0 0 0 0 127302892.84282684 600737625.76996708 0 600737625.76996708 -215925902.32906532 0 0 0 0 -121130398.46290588 564715326.60373116 0 564715326.60373116 -182871084.147295 0 0 0 0 141985570.06448555 472381005.53644907 0 472381005.53644907 -303927789.05225372 0 0 0 0 305466187.18774414 474493832.43786907 0 474493832.43786907 -388931475.10470009 0 0 0 0 30171693.663650513 684270070.49497318 0 684270070.49497318 -285005440.9725399 0 0 0 0 191536463.02637482 47084094.606454849 0 47084094.606454849 -920461222.49577141 0 0 0 0 175314701.73810577 703970667.41188955 0 703970667.41188955 -789861601.28515625 0 0 0 0 236698342.0234375 258987337.74574089 0 258987337.74574089 -308228349.01874447 0 0 0 0 541016580.10514069 691136551.64716005 0 691136551.64716005 -360663079.94374084 0 0 0 0 219021651.77350235 734317708.21003437 0 734317708.21003437 565377261.93063164 0 0 0 0 138500396.44238281 167379764.63830853 0 167379764.63830853 -261559733.93074989 0 0 0 0 390598646.38937378 338619571.28696346 0 338619571.28696346 -316382071.93863297 0 0 0 0 103568921.87306213 -16557355.196163177 0 -16557355.196163177 -518280312.58762085 0 0 0 0 284518366.24779129 260605321.06246471 0 260605321.06246471 -502768806.02121735 0 0 0 0 104355889.00911713 12643855.390155315 0 12643855.390155315 -586261926.02081108 0 0 0 0 96779152.920066833 12656319.340544701 0 12656319.340544701 -583577932.14943123 0 0 0 0 74287646.893768311 753110621.0881052 0 753110621.0881052 -441987848.32975721 0 0 0 0 191969707.58439445 786267983.37383699 0 786267983.37383699 -1620212659.7104645 0 0 0 0 -18963.059282794544 22638002.365879867 0 22638002.365879867 2398823.5114612579 0 0 0 0 -112621922.18013763 -569387498.76034927 0 -569387498.76034927 -2101608877.6917024 0 0 0 0 -2062634.5660451949 1702437.4339703359 0 1702437.4339703359 -3770131.0821948871 0 0 0 0 24559804.546737671 43191545.903411865 0 43191545.903411865 19325211.684082985 0 0 0 0 -74628851.08731842 -224020561.45580101 0 -224020561.45580101 -514891433.15142059 0 0 0 0 -4674504.4764759541 6756152.6751456894 0 6756152.6751456894 -8539139.1739225239 0 0 0 0 25456291.335600734 -296580.61122229695 0 -296580.61122229695 -15335816.818462372 0 0 0 0 -9326863.6904602051 17851768.041523457 0 17851768.041523457 4649123.7203359604 0 0 0 0 205781.33402252197 39519015.230766416 0 39519015.230766416 33977813.68654108 0 0 0 0 61756915.2707901 109257499.65251803 0 109257499.65251803 112650908.89368248 0 0 0 0 88735581.609420776 -5915417.6220166683 0 -5915417.6220166683 -4007797.7706151009 0 0 0 0 -23843832.124404907 -16207680.017979741 0 -16207680.017979741 38944265.193328142 0 0 0 0 230780409.10886002 69117062.915017202 0 69117062.915017202 -56652337.024271965 0 0 0 0 2232175.5758925676 1179130.4645744339 0 1179130.4645744339 -754905.85256674816 0 0 0 0 12322320.641860962 -93219563.417597204 0 -93219563.417597204 -124011459.4144707 0 0 0 0 1029017144.5492554 910204064.75679648 0 910204064.75679648 8163321.6631537676 0 0 0 0 271341599.67816925 291654001.38851649 0 291654001.38851649 131033292.94443503 0 0 0 0 107328.05300140381 203063035.01557755 0 203063035.01557755 701457261.67852712 0 0 0 0 -24829414.505645752 347511090.37936473 0 347511090.37936473 305537987.38821751 0 0 0 0 -8278799.2828369141 84627037.763836816 0 84627037.763836816 -197450561.16882589 0 0 0 0 -19184981.039398193 24248539.369602315 0 24248539.369602315 -77240303.160222545 0 0 0 0 -130239021.13341522 81839222.153577894 0 81839222.153577894 -12960991.743730664 0 0 0 0 -4184556.298614502 -136596536.58295423 0 -136596536.58295423 -215998831.3746537 0 0 0 0 -35781440.288078308 -20766472.532223992 0 -20766472.532223992 46724093.279840201 0 0 0 0 -46519122.214782715 39833498.903084934 0 39833498.903084934 -3086092.6627569199 0 0 0 0 2921291.3786468506 5742407.2214193754 0 5742407.2214193754 -1121687.6809474425 0 0 0 0 -15509862.992595673 74852304.034193531 0 74852304.034193531 -16874668.339556694 0 0 0 0 -43075046.468948364 6171072.6875383221 0 6171072.6875383221 16335014.103481375 0 0 0 0 -2684509.0433592796 1090887.1754188091 0 1090887.1754188091 4884178.4697077814 0 0 0 0 -8832347.7385468483 17137463.128264725 0 17137463.128264725 -83295026.161884308 0 0 0 0 -7806866.4616592824 12056201.206831682 0 12056201.206831682 10689900.34378653 0 0 0 0 -18320075.015197754 93988293.415781021 0 93988293.415781021 -175558163.11873627 0 0 0 0 -17056916.039886475 -2946882.8652215004 0 -2946882.8652215004 2977110.1043193936 0 0 0 0 -9018031.9320268631 12965857.680397928 0 12965857.680397928 -154949935.68395424 0 0 0 0 -8481751.8165160269 13509732.353728093 0 13509732.353728093 -7457463.3863000907 0 0 0 0 18771214.590164185 -41898754.034179688 0 -41898754.034179688 -161512394.34165859 0 0 0 0 99766788.246509552 80196572.889348984 0 80196572.889348984 -192702782.95709229 0 0 0 0 66102031.558189392 7092936.6350708008 0 7092936.6350708008 -333781422.97528076 0 0 0 0 210953561.64990997 120796246.20716 0 120796246.20716 -349342827.07291794 0 0 0 0 135575364.92080688 173849766.39763641 0 173849766.39763641 -240794460.68679285 0 0 0 0 75161741.776992798 122437729.01592255 0 122437729.01592255 -249738076.40836096 0 0 0 0 -195848015.38819885 191990810.90830612 0 191990810.90830612 -103822015.50002289 0 0 0 0 -237970009.46886444 199835958.7194252 0 199835958.7194252 -107171479.73933792 0 0 0 0 -3804816.7503662258 1864543.0256543085 0 1864543.0256543085 3715114.8746466748 0 0 0 0 94388499.949157715 203398860.88643646 0 203398860.88643646 -198192975.27654266 0 0 0 0 1228545415.4447861 222722832.53060436 0 222722832.53060436 -6391908.1091575623 0 0 0 0 519847826.67852783 28006780.976499557 0 28006780.976499557 286023343.27677059 0 0 0 0 110592066.40338135 654924304.45233917 0 654924304.45233917 312095367.10394049 0 0 0 0 -758771.72577144206 3380727.0088330805 0 3380727.0088330805 -1225905.9114176948 0 0 0 0 -8573094.4713363647 -5150054.7561426163 0 -5150054.7561426163 197006917.42865753 0 0 0 0 664223238.54131317 518178898.27980423 0 518178898.27980423 419307745.98927307 0 0 0 0 653949807.39871216 252688666.02724266 0 252688666.02724266 5045702.0195579529 0 0 0 0 -1610362.0927457809 43861144.677208364 0 43861144.677208364 2555982.4454054385 0 0 0 0 -7496264.4961617216 15560251.343437862 0 15560251.343437862 -14820978.3381762 0 0 0 0 -18359399.156646729 97917571.353675842 0 97917571.353675842 -86303071.271587372 0 0 0 0 -8406732.59387137 11135255.268879883 0 11135255.268879883 10296701.610634707 0 0 0 0 -4216050.0192527771 30876676.528369136 0 30876676.528369136 2272147.3225585222 0 0 0 0 -19880179.476211548 28387434.817244083 0 28387434.817244083 3828865.8347996026 0 0 0 0 -7262576.2976608276 31449115.724555105 0 31449115.724555105 -33231137.5700562 0 0 0 0 -33053123.221244812 40783435.740452953 0 40783435.740452953 -6544142.2262966633 0 0 0 0 25854123.517860413 45350411.52025111 0 45350411.52025111 -14628027.802944958 0 0 0 0 -4050435.9042816162 21067269.523561478 0 21067269.523561478 -5126583.510160841 0 0 0 0 -11873290.928062439 42109863.944156036 0 42109863.944156036 5526007.4802927822 0 0 0 0 -1271504.5492477417 12606290.248678334 0 12606290.248678334 -13039701.449477851 0 0 0 0 -20748438.420707703 27753486.227001842 0 27753486.227001842 -30718172.821278363 0 0 0 0 7177572.8427505493 20301890.334760606 0 20301890.334760606 -75281333.093797207 0 0 0 0 550503655.20174408 530947657.39172459 0 530947657.39172459 433242787.64420033 0 0 0 0 419814828.76260376 617528945.15599632 0 617528945.15599632 403802164.29786205 0 0 0 0 -6156819.8721903637 13121800.216775455 0 13121800.216775455 -11467279.306188863 0 0 0 0 25127028.930809021 22674717.893224284 0 22674717.893224284 -31971062.312614363 0 0 0 0 -6791330.858506836 12935685.974412858 0 12935685.974412858 -16010574.140498355 0 0 0 0 789867874.24903107 613373634.34489632 0 613373634.34489632 177515477.46115875 0 0 0 0 735223882.37433434 442750747.79254317 0 442750747.79254317 22699459.297101974 0 0 0 0 449461229.37693787 467464751.83583164 0 467464751.83583164 -126118466.82490349 0 0 0 0 541945349.35494995 315441858.23685646 0 315441858.23685646 122046843.450634 0 0 0 0 730261549.88954163 391613742.13494492 0 391613742.13494492 182763126.52498507 0 0 0 0 604681454.33456421 524499275.46985888 0 524499275.46985888 55419855.69172287 0 0 0 0 428529922.55301666 277111197.96600437 0 277111197.96600437 162665984.10919571 0 0 0 0 513331286.06192017 251669607.03944016 0 251669607.03944016 18510210.894794941 0 0 0 0 354473037.0242157 40078878.317067862 0 40078878.317067862 -133957221.85016251 0 0 0 0 303033945.35555267 118140262.02800941 0 118140262.02800941 -249397410.21388644 0 0 0 0 492635059.01581192 58729527.068298817 0 58729527.068298817 -252631886.44773483 0 0 0 0 335763384.0253067 569984339.73806286 0 569984339.73806286 435750633.47539902 0 0 0 0 349792409.0807991 -247450782.04374886 0 -247450782.04374886 -822342802.40811157 0 0 0 0 2270956.4666018933 791856.69145760685 0 791856.69145760685 -596432.5099948179 0 0 0 0 55964627.9480896 -1654008.8676972389 0 -1654008.8676972389 -150182461.18035889 0 0 0 0 569606308.6228714 110855233.04227543 0 110855233.04227543 -206305125.39906883 0 0 0 0 1063485587.2918854 556967718.05091381 0 556967718.05091381 -141883979.50657654 0 0 0 0 270429154.13284302 359626890.94693851 0 359626890.94693851 -186490194.35256386 0 0 0 0 287575123.32237244 502739299.42779541 0 502739299.42779541 -134984354.96271706 0 0 0 0 95743222.672801971 384184137.56737363 0 384184137.56737363 13151691.177902222 0 0 0 0 316461888.45808411 525249462.54090309 0 525249462.54090309 -117960585.53921509 0 0 0 0 211717210.04239655 358447612.48562336 0 358447612.48562336 -43171852.928384781 0 0 0 0 368015645.5176506 437625703.71788549 0 437625703.71788549 -313040970.626791 0 0 0 0 4149445.725026533 1943033.4939936125 0 1943033.4939936125 -1356933.1948790485 0 0 0 0 284642699.24088287 187131255.32544804 0 187131255.32544804 -591661405.3818655 0 0 0 0 162088226.71029663 232789524.85873699 0 232789524.85873699 -372480392.99552917 0 0 0 0 144300612.81577301 154456653.68271065 0 154456653.68271065 -1008903357.7285767 0 0 0 0 1920117.4206907302 1268937.8331805901 0 1268937.8331805901 -710966.19960875157 0 0 0 0 49438131.489039421 327835167.64018726 0 327835167.64018726 -112661573.55461311 0 0 0 0 284002103.16854858 544775844.72605419 0 544775844.72605419 -8118933.3355283737 0 0 0 0 398896709.02357292 360745581.86496687 0 360745581.86496687 71087464.197683334 0 0 0 0 422613383.86325073 438963129.50550556 0 438963129.50550556 -55961295.363979816 0 0 0 0 643939113.40063477 440938047.20695019 0 440938047.20695019 97315605.684591293 0 0 0 0 121659862.57698822 351630287.71760368 0 351630287.71760368 226804365.60658264 0 0 0 0 157964651.12169647 249721203.0334425 0 249721203.0334425 181165959.79463005 0 0 0 0 450587750.94101334 191919569.2953577 0 191919569.2953577 37122865.648832321 0 0 0 0 318910037.10871887 390610450.66343212 0 390610450.66343212 65345232.732862473 0 0 0 0 312363941.30989838 344279350.1149807 0 344279350.1149807 235589620.06932831 0 0 0 0 375473545.00839233 394700891.56715012 0 394700891.56715012 260450631.69401836 0 0 0 0 118734515.66222382 445587516.45864439 0 445587516.45864439 255508364.80176353 0 0 0 0 46258050.644241333 368777867.82914162 0 368777867.82914162 198566933.02775192 0 0 0 0 223500713.49727249 388605127.22717476 0 388605127.22717476 126497748.44657326 0 0 0 0 -60229204.075485229 495011992.38142967 0 495011992.38142967 -72475010.252806664 0 0 0 0 136546123.97197342 299645193.54855156 0 299645193.54855156 51357765.648927689 0 0 0 0 -130648109.5302968 797486971.44728017 0 797486971.44728017 -230176561.74817467 0 0 0 0 -181965884.30237722 443399286.61473542 0 443399286.61473542 -94112673.213949203 0 0 0 0 -145243713.50212097 528981812.86713314 0 528981812.86713314 -195310583.27257442 0 0 0 0 -253638974.97648621 225760382.64493847 0 225760382.64493847 -99385461.307934284 0 0 0 0 179164857.12401009 212386588.56087804 0 212386588.56087804 -133874962.49650955 0 0 0 0 147530170.38387299 250263014.89503574 0 250263014.89503574 66981880.94320631 0 0 0 0 174127570.4389801 -22357898.10240078 0 -22357898.10240078 -304847842.08354568 0 0 0 0 -38323778.874271393 293255131.89237261 0 293255131.89237261 -247677045.43830299 0 0 0 0 17531950.430340767 352698887.44641817 0 352698887.44641817 -921155141.12830544 0 0 0 0 -531607458.71804047 71586984.889807701 0 71586984.889807701 -291587085.61427879 0 0 0 0 27007698.188262939 433757563.27787971 0 433757563.27787971 -328386453.20466393 0 0 0 0 480556229.7539444 673867990.82171059 0 673867990.82171059 -298610786.86970901 0 0 0 0 269866828.31191254 194262544.67076087 0 194262544.67076087 -147306911.82214928 0 0 0 0 -638551493.04973602 324562375.26990032 0 324562375.26990032 -499069775.92354107 0 0 0 0 -435503841.86300659 1122919811.1194277 0 1122919811.1194277 -893997577.7790699 0 0 0 0 -112729305.13058472 778945048.28738308 0 778945048.28738308 -529678724.78496552 0 0 0 0 -400873801.05685806 1306579608.4180353 0 1306579608.4180353 -99539289.538990021 0 0 0 0 -135155388.98338318 746457465.97650898 0 746457465.97650898 298174096.90722466 0 0 0 0 35711275.166152954 1412790205.0452213 0 1412790205.0452213 174569386.14194393 0 0 0 0 4922712.0796753764 8157367.1811395064 0 8157367.1811395064 1855788.8068486154 0 0 0 0 -192137694.42632294 -3385380.2077035904 0 -3385380.2077035904 60518803.674574375 0 0 0 0 -50835570.717468262 80989183.429160118 0 80989183.429160118 23185951.029138565 0 0 0 0 -1915779.2111704051 1325071.455253128 0 1325071.455253128 384116.52491644956 0 0 0 0 -469761017.1252327 675074940.51879525 0 675074940.51879525 -68951992.187797546 0 0 0 0 -1690435774.2078857 859075477.83987045 0 859075477.83987045 -67571313.869177818 0 0 0 0 -1512371957.5893707 587502151.48622227 0 587502151.48622227 -489043767.18792534 0 0 0 0 -2615203796.1830821 1088395112.6069231 0 1088395112.6069231 -144005656.27216339 0 0 0 0 1767667.1962426731 3362893.1015296653 0 3362893.1015296653 -5644268.6655567214 0 0 0 0 -883486013.74202728 1097372283.8362589 0 1097372283.8362589 -2237798468.6479435 0 0 0 0 -26513185.083894014 -150858746.42609668 0 -150858746.42609668 -770864914.42259216 0 0 0 0 -54884880.441925049 709015491.46779537 0 709015491.46779537 -1157178323.9196472 0 0 0 0 -768087730.00159836 1047194708.2986517 0 1047194708.2986517 -586193161.27745628 0 0 0 0 -1287723296.9678612 281767561.61418104 0 281767561.61418104 -437550239.67348671 0 0 0 0 -584861918.21727753 588059465.51362133 0 588059465.51362133 -318195694.8085165 0 0 0 0 -496297987.48223686 448350344.86246079 0 448350344.86246079 -201519487.29381752 0 0 0 0 -436993860.13124943 896948305.66728151 0 896948305.66728151 -292936502.28572273 0 0 0 0 -276123571.71662903 781834101.10689163 0 781834101.10689163 -199594342.17858601 0 0 0 0 -341850251.38597107 890935915.24003983 0 890935915.24003983 -290698654.43322468 0 0 0 0 -419107852.95279694 750190568.03747272 0 750190568.03747272 70244041.708677292 0 0 0 0 -161697105.01472473 626972188.2385807 0 626972188.2385807 -419242620.39429855 0 0 0 0 -73307210.165100098 415758583.35055304 0 415758583.35055304 -69100202.890991211 0 0 0 0 -274601190.70219421 788262857.14497185 0 788262857.14497185 -452133667.26261044 0 0 0 0 -108341293.47223663 452465330.9589262 0 452465330.9589262 -323165272.57612801 0 0 0 0 2011942.2494935989 4840239.8629207201 0 4840239.8629207201 2961240.1394415423 0 0 0 0 -402813853.31620789 324800808.90937328 0 324800808.90937328 -174243195.32628822 0 0 0 0 -424089723.07741356 302379047.51547742 0 302379047.51547742 -94345029.162389755 0 0 0 0 -374319910.52368927 203180146.11917329 0 203180146.11917329 -24839782.720621109 0 0 0 0 -79371487.801998138 118460817.08381057 0 118460817.08381057 -52329396.272075653 0 0 0 0 -424587136.37564087 329383143.90324402 0 329383143.90324402 162255984.06047249 0 0 0 0 -404368805.25898743 371916618.2807951 0 371916618.2807951 -26478289.28062439 0 0 0 0 140322501.17295456 118569407.12893772 0 118569407.12893772 -13864380.242069244 0 0 0 0 -524315201.80212402 527065011.28354836 0 527065011.28354836 146810700.68905234 0 0 0 0 573752472.26126671 493126821.38507843 0 493126821.38507843 404180095.21312523 0 0 0 0 -1255986.4686594084 2299092.0988513976 0 2299092.0988513976 -1462880.4501552135 0 0 0 0 -845790586.8639679 341980163.19582558 0 341980163.19582558 929804304.40666199 0 0 0 0 426228.46441099048 1933967.36888019 0 1933967.36888019 1397963.6828386169 0 0 0 0 -361196219.8587265 818943378.01791573 0 818943378.01791573 -752118533.8560648 0 0 0 0 -710432049.98234558 531692343.96295357 0 531692343.96295357 1920565659.4843559 0 0 0 0 -746399320.30269623 1171527358.1676669 0 1171527358.1676669 -467270868.29656029 0 0 0 0 -427643675.54690552 826650549.04452324 0 826650549.04452324 1424397441.7674789 0 0 0 0 -474447878.75480652 1173132240.7735443 0 1173132240.7735443 -1534175901.4249649 0 0 0 0 -1021487303.8870239 -140004636.5501442 0 -140004636.5501442 1480242628.4720833 0 0 0 0 410212040.60839844 -21874847.060409546 0 -21874847.060409546 727502468.59754753 0 0 0 0 -2512361.8599031717 2201636.5586970747 0 2201636.5586970747 999314.30470687151 0 0 0 0 -541632013.88975525 554624570.61892509 0 554624570.61892509 -198592360.44637299 0 0 0 0 -778202807.28446198 886825499.99446297 0 886825499.99446297 -549242581.44421387 0 0 0 0 -341444523.88405514 453144656.82436299 0 453144656.82436299 -828983685.27202606 0 0 0 0 -761077908.87280273 654359780.48077869 0 654359780.48077869 -206992656.86703908 0 0 0 0 -727058536.38920498 693387945.65838099 0 693387945.65838099 -307878251.968256 0 0 0 0 -402894344.52166367 903915317.62360191 0 903915317.62360191 -177435781.48045444 0 0 0 0 -217687317.3345871 780059673.65843868 0 780059673.65843868 -275361188.20241165 0 0 0 0 -249362658.48677826 888597087.01627159 0 888597087.01627159 -326963751.85747528 0 0 0 0 -279293529.80296326 782644170.54107094 0 782644170.54107094 -217442176.12900543 0 0 0 0 285846582.14637756 674112331.86190987 0 674112331.86190987 -227835878.29622602 0 0 0 0 -246470871.95517731 755170774.05588436 0 755170774.05588436 -143526234.34577656 0 0 0 0 -783038694.39787292 716316189.25856304 0 716316189.25856304 -44358997.971999168 0 0 0 0 -227708209.2322216 1040272582.8748083 0 1040272582.8748083 60741336.960826874 0 0 0 0 1254435679.4773407 927133623.57931566 0 927133623.57931566 69356510.814386487 0 0 0 0 -2630246.3878185973 2842989.977551572 0 2842989.977551572 -890878.90855139494 0 0 0 0 -1343370408.2084427 909375478.27244282 0 909375478.27244282 -218314648.98931968 0 0 0 0 -990757572.50100708 568024211.55585527 0 568024211.55585527 -145225606.91935158 0 0 0 0 -875598812.78070068 588501510.28285789 0 588501510.28285789 -173218874.91647339 0 0 0 0 -806425389.5098381 718883869.67342138 0 718883869.67342138 -256351433.97873116 0 0 0 0 -745374864.32419205 663255618.55658865 0 663255618.55658865 -207655967.95484066 0 0 0 0 -967442146.20863724 271893501.16861534 0 271893501.16861534 17061308.475288391 0 0 0 0 -864486346.86553192 674355772.94765186 0 674355772.94765186 -103726128.1717968 0 0 0 0 -935315824.04968643 603591596.35434866 0 603591596.35434866 -168148169.20870972 0 0 0 0 -2119725762.2526779 1464059.6113345623 0 1464059.6113345623 4120951.187746048 0 0 0 0 246016067.41239166 529278734.65274286 0 529278734.65274286 572060600.21919346 0 0 0 0 894670469.02677917 731138686.65082979 0 731138686.65082979 425002460.48450279 0 0 0 0 -6948362.3663662821 7092047.1082754098 0 7092047.1082754098 -518445.70199510455 0 0 0 0 -564135183.63278961 -37582617.831602097 0 -37582617.831602097 -138314504.81302071 0 0 0 0 -538506145.26878357 27646452.637402534 0 27646452.637402534 3095175.265448451 0 0 0 0 -304302883.38060284 -25232024.635011792 0 -25232024.635011792 -153605865.54623032 0 0 0 0 -384997457.85465622 253925849.09046078 0 253925849.09046078 220083880.46220016 0 0 0 0 -90589383.323944092 260030540.53537941 0 260030540.53537941 86085766.888450623 0 0 0 0 -147637209.75795364 296230247.70729637 0 296230247.70729637 464244437.58198357 0 0 0 0 -321809075.61368179 95555715.760316849 0 95555715.760316849 749284802.99274826 0 0 0 0 -277414896.64973068 -6924040.0709929466 0 -6924040.0709929466 949695703.5852356 0 0 0 0 -311281877.30046654 203916961.12493324 0 203916961.12493324 185253266.37947464 0 0 0 0 -385113759.29116821 56508576.147123337 0 56508576.147123337 423617809.77370644 0 0 0 0 -274570663.20755005 43247489.558914185 0 43247489.558914185 407261376.89795876 0 0 0 0 -354931953.49980164 90603392.176328659 0 90603392.176328659 562002067.71670532 0 0 0 0 -264756213.55891418 208609640.63859177 0 208609640.63859177 385638259.03557968 0 0 0 0 -245941761.94314575 40096802.221583366 0 40096802.221583366 359356536.64606285 0 0 0 0 62437461.984954834 299585821.81423855 0 299585821.81423855 54507462.333961487 0 0 0 0 -658464883.24266052 425066355.71534252 0 425066355.71534252 140571566.8791008 0 0 0 0 -294759875.7857399 258185058.57735777 0 258185058.57735777 -6336205.4978294373 0 0 0 0 -525509778.56253815 695634963.54214287 0 695634963.54214287 41907638.202478409 0 0 0 0 -984715238.21755028 615526946.47864354 0 615526946.47864354 66368483.340566635 0 0 0 0 -1150818840.0861659 723568223.23404622 0 723568223.23404622 297718577.40990829 0 0 0 0 -219931053.1118927 942658770.49383545 0 942658770.49383545 142110219.88740158 0 0 0 0 222375225.97225189 135707750.72293663 0 135707750.72293663 197356926.40463829 0 0 0 0 41912181.560821533 181753193.23626518 0 181753193.23626518 575986244.5230093 0 0 0 0 -3763292.2089160383 1545388.4007085524 0 1545388.4007085524 1216406.8969344348 0 0 0 0 432420327.03944397 314208013.99903393 0 314208013.99903393 70086618.889129639 0 0 0 0 -2770081.5785480142 2322156.8077803105 0 2322156.8077803105 1119254.2783987038 0 0 0 0 -20370069.888778687 386804389.82455826 0 386804389.82455826 839582790.61861134 0 0 0 0 -29950463.569274902 -39536357.881649971 0 -39536357.881649971 645054625.9748497 0 0 0 0 -163778262.72373199 120800469.96654606 0 120800469.96654606 347034497.27938843 0 0 0 0 55020461.973770618 195450170.95627278 0 195450170.95627278 301191669.39008713 0 0 0 0 14541879.681686401 73106031.384771347 0 73106031.384771347 49597844.493785858 0 0 0 0 -17533210.252117157 21054147.129722595 0 21054147.129722595 -2741156.9725151062 0 0 0 0 -11840068.217754431 12034382.888727345 0 12034382.888727345 -6581011.0221625715 0 0 0 0 69311657.118835449 16562948.415330887 0 16562948.415330887 62018425.480154425 0 0 0 0 -8083864.8453812897 3087309.393887572 0 3087309.393887572 7995348.9446306825 0 0 0 0 -15112445.444309235 15711688.115507126 0 15711688.115507126 -1816907.0704278946 0 0 0 0 -7092891.7003211975 22662898.133076668 0 22662898.133076668 2735326.9056072235 0 0 0 0 24343292.511730194 40702406.533655167 0 40702406.533655167 45518659.588659286 0 0 0 0 -11086913.225522935 12888921.698104851 0 12888921.698104851 -9796473.889464099 0 0 0 0 -6988544.5077438354 21608624.442077637 0 21608624.442077637 2599333.0993256569 0 0 0 0 -4800315.2061765194 26379201.938079476 0 26379201.938079476 10411487.4597435 0 0 0 0 -19602460.303066254 22600896.329027176 0 22600896.329027176 17723835.533441544 0 0 0 0 -3085356.8141000643 8674574.9544968158 0 8674574.9544968158 21223260.241075806 0 0 0 0 -533046558.85978317 55116939.414333344 0 55116939.414333344 -139836379.75856781 0 0 0 0 -423964001.08953094 -100840918.89587784 0 -100840918.89587784 -22005874.065078735 0 0 0 0 -29742856.888343811 61519959.731379509 0 61519959.731379509 8824878.4581441879 0 0 0 0 -9907331.4966055676 18157136.115592532 0 18157136.115592532 -6586773.8147356659 0 0 0 0 -4912677.0237112045 24331827.215555489 0 24331827.215555489 8905670.6917953491 0 0 0 0 21726304.022659302 27621656.5026474 0 27621656.5026474 -11309586.07749939 0 0 0 0 -59093.58850826323 4940012.7746927887 0 4940012.7746927887 15787848.47966034 0 0 0 0 -920468840.76725388 172746688.97717381 0 172746688.97717381 478608761.63364792 0 0 0 0 1964440.58934021 19321896.158302307 0 19321896.158302307 22706752.34179306 0 0 0 0 -120794202.98965454 53445928.934688568 0 53445928.934688568 76044132.572126389 0 0 0 0 -36291119.992042542 24185102.951651573 0 24185102.951651573 336833092.27397156 0 0 0 0 -204371448.53382874 -21719948.795869827 0 -21719948.795869827 332677483.5379014 0 0 0 0 -163379126.91108704 -128258210.88529491 0 -128258210.88529491 578348093.15690994 0 0 0 0 -169480565.48340607 88439494.794079781 0 88439494.794079781 561151275.51776123 0 0 0 0 799372.15611793101 2747267.7327745333 0 2747267.7327745333 5731509.7515177056 0 0 0 0 157098639.91189957 -388936286.64027643 0 -388936286.64027643 551759937.15171051 0 0 0 0 64731721.87298584 -205319558.37252998 0 -205319558.37252998 187989242.12744331 0 0 0 0 -173250494.52815247 -118289264.27511787 0 -118289264.27511787 572180380.07822609 0 0 0 0 -175405641.21954918 -215289991.6517351 0 -215289991.6517351 953989652.84780884 0 0 0 0 -6092136.9164123535 1202929268.0580807 0 1202929268.0580807 507069817.52914429 0 0 0 0 304555016.42932129 829609893.64094925 0 829609893.64094925 269354827.5858345 0 0 0 0 -117898827.383461 852963183.08805561 0 852963183.08805561 455681967.11633301 0 0 0 0 -13553383.239335693 14356569.968106285 0 14356569.968106285 -3431717.2727731764 0 0 0 0 85776529.705228806 240461397.31320477 0 240461397.31320477 253903096.63416672 0 0 0 0 -162390512.02145386 184469371.9664135 0 184469371.9664135 -356236784.0127182 0 0 0 0 -164453093.74954987 414044756.7161274 0 414044756.7161274 1019090876.546608 0 0 0 0 -424542327.71125793 190743736.67598152 0 190743736.67598152 320837610.66704178 0 0 0 0 -421413112.55450439 -94059260.363193512 0 -94059260.363193512 -20408548.345201492 0 0 0 0 562812897.65233612 -230117008.51902962 0 -230117008.51902962 300395672.42171478 0 0 0 0 1448294253.5194397 867704796.66038418 0 867704796.66038418 96292893.004402161 0 0 0 0 1235266756.2554979 2077863178.7525129 0 2077863178.7525129 42137628.395568848 0 0 0 0 -1189180717.7897568 652926251.52181625 0 652926251.52181625 273956539.18161011 0 0 0 0 -432233736.60924911 2124165480.1604748 0 2124165480.1604748 540727661.41508484 0 0 0 0 -464352313.74420166 147912855.57354355 0 147912855.57354355 -16843866.825748444 0 0 0 0 -525137624.22506714 397864607.33555412 0 397864607.33555412 -751292427.16729736 0 0 0 0 -497562148.24627686 -227161935.05463409 0 -227161935.05463409 -339612734.72451782 0 0 0 0 -6887822.8253487498 1308597.2922877539 0 1308597.2922877539 47142.680049587041 0 0 0 0 -1897055272.6850204 -568446024.22894192 0 -568446024.22894192 792756504.63798141 0 0 0 0 -1571087281.185112 -619822713.3257761 0 -619822713.3257761 744144623.12678146 0 0 0 0 121165680.96639252 -110151508.06204605 0 -110151508.06204605 220014873.83306503 0 0 0 0 -2321509820.236702 -478835420.52030373 0 -478835420.52030373 840000787.07327461 0 0 0 0 1839153442.8562546 -171440816.54636288 0 -171440816.54636288 -1043062463.881979 0 0 0 0 -2078916200.6047668 -348582734.4728775 0 -348582734.4728775 620480148.65431976 0 0 0 0 -423541978.73153687 137475153.00377369 0 137475153.00377369 -22361261.157840729 0 0 0 0 -813180470.97079468 -1154643490.6796474 0 -1154643490.6796474 -1694319385.7046566 0 0 0 0 -11716056.46486301 15678078.074814059 0 15678078.074814059 -12138120.595711514 0 0 0 0 -146908919.03350067 405748039.64725208 0 405748039.64725208 -857553485.3748436 0 0 0 0 -1066886064.7263412 686113368.66137505 0 686113368.66137505 -924025.13504600525 0 0 0 0 -437349860.49395275 600485236.57429576 0 600485236.57429576 343565496.26455688 0 0 0 0 -445480342.4741143 306942071.86891627 0 306942071.86891627 218300491.0852356 0 0 0 0 -512391679.80086517 485810402.29457855 0 485810402.29457855 473936544.49283218 0 0 0 0 -485043282.59474945 -78613312.406099319 0 -78613312.406099319 137123527.05236149 0 0 0 0 -255177143.33509827 291799750.35917568 0 291799750.35917568 383745694.2680912 0 0 0 0 73363857.83625412 222777040.03087616 0 222777040.03087616 298725640.29548645 0 0 0 0 -307685415.69480896 445636504.96261501 0 445636504.96261501 461820033.31104279 0 0 0 0 -273634958.5809536 727263568.4978615 0 727263568.4978615 732359783.51043701 0 0 0 0 -174621085.12738037 574711875.6158371 0 574711875.6158371 569561793.99064445 0 0 0 0 -42190876.028366566 596464785.37441206 0 596464785.37441206 477183482.09002304 0 0 0 0 -22251543.923019409 588457405.72416687 0 588457405.72416687 448803140.3115077 0 0 0 0 133443959.62574768 564586241.15483952 0 564586241.15483952 452290013.7767458 0 0 0 0 122076706.63645935 616925745.30406094 0 616925745.30406094 324101965.30413437 0 0 0 0 107046026.19618988 505635908.37276649 0 505635908.37276649 434829579.25993729 0 0 0 0 65155238.220623016 452465522.49561071 0 452465522.49561071 437545106.2423439 0 0 0 0 62422901.483917236 438285283.28458786 0 438285283.28458786 445532413.23063087 0 0 0 0 442814725.61387634 383148725.04875088 0 383148725.04875088 296412735.15295601 0 0 0 0 136770453.61009026 252972770.6110456 0 252972770.6110456 241166062.73198318 0 0 0 0 -10177543.705833055 9591046.0670831762 0 9591046.0670831762 802149.26500038058 0 0 0 0 494925636.25037384 -908648875.35113239 0 -908648875.35113239 88985525.517814636 0 0 0 0 504446626.78860474 536738673.44578934 0 536738673.44578934 358126371.69836426 0 0 0 0 171809225.72982788 429783860.12083721 0 429783860.12083721 427903261.43360901 0 0 0 0 172694981.11190033 483978273.48166943 0 483978273.48166943 426085873.41105843 0 0 0 0 380483975.71739197 461973758.05742645 0 461973758.05742645 385337914.21680832 0 0 0 0 226013015.74609375 498952244.05944061 0 498952244.05944061 456992449.96465492 0 0 0 0 385564702.54310608 439378883.44737911 0 439378883.44737911 438145987.96211052 0 0 0 0 207541493.219841 370622953.38846397 0 370622953.38846397 441316858.05474091 0 0 0 0 217690092.23574734 350641969.50699019 0 350641969.50699019 255447771.05903435 0 0 0 0 235093208.97937012 508489869.77041721 0 508489869.77041721 323961441.52244377 0 0 0 0 198372824.23525238 469155223.9749403 0 469155223.9749403 348498208.96100998 0 0 0 0 205344622.14409065 448127310.30638933 0 448127310.30638933 380738543.48883438 0 0 0 0 303882121.04589844 641507410.77721786 0 641507410.77721786 2142159.7936325073 0 0 0 0 265327438.27291107 603912838.00754166 0 603912838.00754166 204638282.23153281 0 0 0 0 245028610.79199982 564238714.84456491 0 564238714.84456491 138037686.41527939 0 0 0 0 320403807.83415985 463359857.62833786 0 463359857.62833786 169397207.9083004 0 0 0 0 219895420.43748856 509165747.3205514 0 509165747.3205514 43108704.394012451 0 0 0 0 124935825.68035889 519056113.78639793 0 519056113.78639793 -59224113.317502975 0 0 0 0 248453101.29396057 478562371.22147655 0 478562371.22147655 -207425483.51070881 0 0 0 0 86712317.26906395 344111575.14860272 0 344111575.14860272 -191541110.54822159 0 0 0 0 304317993.06693363 491937913.9656688 0 491937913.9656688 -173086525.68224716 0 0 0 0 271493570.67210388 657365377.94837189 0 657365377.94837189 65571379.333652496 0 0 0 0 80937006.875930786 432865260.16175842 0 432865260.16175842 -81969141.747210503 0 0 0 0 313022704.27209473 595343178.90188599 0 595343178.90188599 -99200220.525157928 0 0 0 0 245766731.72197723 623925868.3959589 0 623925868.3959589 108114863.46849823 0 0 0 0 306219498.88978958 619022881.09828663 0 619022881.09828663 103035010.20167542 0 0 0 0 367137934.66465759 717694394.14264679 0 717694394.14264679 84894347.244829655 0 0 0 0 437191580.45687103 710406210.53473759 0 710406210.53473759 -9820980.8694648743 0 0 0 0 343664903.9247551 685795066.91568279 0 685795066.91568279 355878617.95321655 0 0 0 0 461222227.86717224 800976158.97175026 0 800976158.97175026 203202851.31646729 0 0 0 0 285437811.15290833 802463158.49499893 0 802463158.49499893 484971824.26132584 0 0 0 0 352910612.98375702 780856798.34962368 0 780856798.34962368 290508975.92250061 0 0 0 0 191200375.08226013 830429247.22321033 0 830429247.22321033 493981823.72386932 0 0 0 0 265448704.36164856 741544379.40346909 0 741544379.40346909 297671025.89729118 0 0 0 0 264111345.29491425 709689119.65696907 0 709689119.65696907 189374765.33654022 0 0 0 0 167811360.94096375 692512625.96370697 0 692512625.96370697 382740146.78909302 0 0 0 0 155498191.46705627 758521204.3132267 0 758521204.3132267 398200138.88186407 0 0 0 0 -41326495.825506091 748853281.67870593 0 748853281.67870593 563107015.27065659 0 0 0 0 47978700.851938248 850991571.94542623 0 850991571.94542623 725315841.77733612 0 0 0 0 19172761.745918274 734639621.87306976 0 734639621.87306976 542784900.15864849 0 0 0 0 419071032.60475063 585386893.08949256 0 585386893.08949256 822728705.53653717 0 0 0 0 269066003.26618576 848969584.82175255 0 848969584.82175255 762875343.22674179 0 0 0 0 290808016.02716064 815233330.34607124 0 815233330.34607124 489737685.30572605 0 0 0 0 379792780.06786346 845979378.65452576 0 845979378.65452576 641761558.373703 0 0 0 0 -232518129.25852203 437487220.47332001 0 437487220.47332001 473152222.7174511 0 0 0 0 -160328389.8404541 749598549.3227272 0 749598549.3227272 1110748300.7830811 0 0 0 0 -31489661.114700317 96201561.128975868 0 96201561.128975868 -167658881.13341618 0 0 0 0 -11511634.394424438 169131223.46647358 0 169131223.46647358 83332541.664279938 0 0 0 0 -153733389.06022644 -28336027.833393097 0 -28336027.833393097 464816451.91041756 0 0 0 0 -169326761.65243912 -109933143.46794939 0 -109933143.46794939 61253209.242790222 0 0 0 0 1491128.3641126156 -866426.8545986563 0 -866426.8545986563 2649988.4081645869 0 0 0 0 -8203678.2195739746 50621554.885025978 0 50621554.885025978 34101559.161846161 0 0 0 0 -15733451.468592972 5086376.010719005 0 5086376.010719005 578468.06405323185 0 0 0 0 1329406.1032066345 57804794.539473534 0 57804794.539473534 -63492587.296203613 0 0 0 0 50158087.172515869 437049445.87382126 0 437049445.87382126 671166256.46283531 0 0 0 0 87610721.13241148 745514328.92991495 0 745514328.92991495 -109053293.56280136 0 0 0 0 2489435.6087219864 5941311.0424915105 0 5941311.0424915105 3707119.6845202036 0 0 0 0 300322965.56237793 -123893880.31211853 0 -123893880.31211853 76778330.691767693 0 0 0 0 77782674.113039017 297055252.38574815 0 297055252.38574815 1889884005.9565392 0 0 0 0 2235606.8016775697 5663616.7953633983 0 5663616.7953633983 1225172.1899185013 0 0 0 0 -19749892.587105483 10800102.443148956 0 10800102.443148956 7114512.9151113164 0 0 0 0 -26253588.7370224 -116205139.27273846 0 -116205139.27273846 737828818.25344467 0 0 0 0 -1045425.4429622144 316459.95718052238 0 316459.95718052238 12597531.726918437 0 0 0 0 -63831538.63848877 21728965.614887238 0 21728965.614887238 50283949.743929386 0 0 0 0 408486441.09555054 1091650741.5718508 0 1091650741.5718508 1410001145.7798691 0 0 0 0 301313732.4303894 895724530.17825127 0 895724530.17825127 1051976756.015913 0 0 0 0 575470433.82989502 1193078955.9255266 0 1193078955.9255266 1609875318.9559059 0 0 0 0 259292321.86322021 872886950.92993355 0 872886950.92993355 1321128799.1812363 0 0 0 0 495123997.60421467 749429454.82982337 0 749429454.82982337 1050655298.5806084 0 0 0 0 463296967.4895401 1013869241.6906605 0 1013869241.6906605 1233548662.2884188 0 0 0 0 376088773.49339676 790203814.94892406 0 790203814.94892406 859066867.34990883 0 0 0 0 252058389.57536316 788359149.02248383 0 788359149.02248383 1425948285.3668075 0 0 0 0 349459853.22383118 849867444.39270687 0 849867444.39270687 852307970.10697556 0 0 0 0 465437652.3380127 793036779.46134377 0 793036779.46134377 485267681.93445688 0 0 0 0 547266845.71906281 835143853.56064892 0 835143853.56064892 412018307.23217773 0 0 0 0 751872228.85835266 825228146.00365067 0 825228146.00365067 714364705.31951332 0 0 0 0 374869583.55962372 652791514.04490471 0 652791514.04490471 653815685.43389225 0 0 0 0 660338616.26117706 588142360.52831984 0 588142360.52831984 483381642.74104309 0 0 0 0 372110783.05474854 352142258.04607582 0 352142258.04607582 436481686.34858894 0 0 0 0 998328723.01329041 450142891.18395233 0 450142891.18395233 1183069790.3929286 0 0 0 0 462915831.70429611 681635055.84443569 0 681635055.84443569 1134730844.1949081 0 0 0 0 1108963988.7781601 1022103246.1281872 0 1022103246.1281872 1165980623.9421635 0 0 0 0 170138339.04026794 1078427700.5462189 0 1078427700.5462189 1882524280.1607103 0 0 0 0 367286914.91605949 707369750.56690407 0 707369750.56690407 1211434476.3522873 0 0 0 0 412678523.42491913 536709538.27240944 0 536709538.27240944 1811155609.8216476 0 0 0 0 203417327.73696899 888773421.12638474 0 888773421.12638474 1109218597.4558868 0 0 0 0 395946821.67236328 1058109639.5422382 0 1058109639.5422382 1181221773.1066322 0 0 0 0 310413768.02789307 1093134177.8320351 0 1093134177.8320351 808313772.02791977 0 0 0 0 436696958.03897858 706536041.39880753 0 706536041.39880753 361487140.26673889 0 0 0 0 883116003.50297546 1359316974.6696796 0 1359316974.6696796 972063917.95714188 0 0 0 0 1062862512.7683868 632943444.8305912 0 632943444.8305912 130382945.43092346 0 0 0 0 299746296.46357727 671700616.029953 0 671700616.029953 557125267.19828796 0 0 0 0 75948094.429000854 1244616454.4893131 0 1244616454.4893131 1398055914.645668 0 0 0 0 6860284.0835647583 1116786111.8637028 0 1116786111.8637028 1196729926.237812 0 0 0 0 469879716.03709412 1183994308.8767185 0 1183994308.8767185 954676289.01555634 0 0 0 0 559524333.37013102 1493056223.9604979 0 1493056223.9604979 1451687382.2389336 0 0 0 0 506519565.94311523 881664165.88248253 0 881664165.88248253 1361978452.2715797 0 0 0 0 19405.692657470703 12789117.624429703 0 12789117.624429703 17597547.864257812 0 0 0 0 -1559717.8408574387 3270925.7465611547 0 3270925.7465611547 4411827.0260361135 0 0 0 0 1785481682.3200989 1490475259.2607021 0 1490475259.2607021 1116719819.7276726 0 0 0 0 13593.784614562988 12755652.812892914 0 12755652.812892914 17623897.841554642 0 0 0 0 625462339.36968994 802304748.5498724 0 802304748.5498724 1051486892.9093199 0 0 0 0 624419684.75415802 782107491.27482796 0 782107491.27482796 693114180.67001343 0 0 0 0 -3611509.1102636904 3706133.0807230249 0 3706133.0807230249 6479995.8649626039 0 0 0 0 15380543.748779297 12413842.254570007 0 12413842.254570007 -2163341.9313850403 0 0 0 0 16818490.881767273 21987960.305168152 0 21987960.305168152 10712003.841056824 0 0 0 0 5425533.1134769358 -51359581.49945011 0 -51359581.49945011 -41925988.619419418 0 0 0 0 2067849.5213623047 9679672.6006221771 0 9679672.6006221771 10719791.481006622 0 0 0 0 7891963.0251617432 5887546.9824333191 0 5887546.9824333191 12912634.194377422 0 0 0 0 1126181.1086120605 1545291.7297878265 0 1545291.7297878265 2697658.073474884 0 0 0 0 3971378.7058453429 3102374.1179164872 0 3102374.1179164872 411519.67160831392 0 0 0 0 -354290279.52475357 31212392.917173386 0 31212392.917173386 -506429.88735961914 0 0 0 0 8328320.8398208618 8079570.742931366 0 8079570.742931366 -677155.70846557617 0 0 0 0 9215126.6922607422 4415208.5171070099 0 4415208.5171070099 -1845497.4646644592 0 0 0 0 -141125494.75151825 119957181.39318752 0 119957181.39318752 -90087163.036291122 0 0 0 0 -255644.80695808679 3726449.8574830741 0 3726449.8574830741 6828108.9694613777 0 0 0 0 -42791339.621932983 -5583689.6276264191 0 -5583689.6276264191 2150164.5350384712 0 0 0 0 -174487.44503366947 47332.024954024702 0 47332.024954024702 8034679.851940847 0 0 0 0 4041909.9476989657 3617488.0213727057 0 3617488.0213727057 3012469.3287670808 0 0 0 0 -79123174.229919434 36432563.730457306 0 36432563.730457306 6704643.8667507172 0 0 0 0 -66123987.026977539 308993546.7171154 0 308993546.7171154 -319165328.2799263 0 0 0 0 -96833057.939941406 234722917.65024185 0 234722917.65024185 -164673366.96253014 0 0 0 0 29204998.181900024 157198011.14544868 0 157198011.14544868 -273325883.99734879 0 0 0 0 6836978.9928741157 4931825.1701207384 0 4931825.1701207384 1200247.7021778566 0 0 0 0 -76888003.312774658 80466202.635797501 0 80466202.635797501 -127864347.64756584 0 0 0 0 5880984.7102203369 8107209.0985097885 0 8107209.0985097885 8300773.9987983704 0 0 0 0 18059627.109794617 9838184.1355867386 0 9838184.1355867386 3408255.7855854034 0 0 0 0 -3922670.1076212972 4320044.9928120002 0 4320044.9928120002 7256091.3014991768 0 0 0 0 475575359.52093506 418755749.09184265 0 418755749.09184265 436535991.80102539 0 0 0 0 239213920.0466156 328256784.85397911 0 328256784.85397911 497926883.62214279 0 0 0 0 334676693.56318665 444124550.03229904 0 444124550.03229904 540490510.75580597 0 0 0 0 -308491.01692411304 1453455.1122083589 0 1453455.1122083589 1741567.6561877178 0 0 0 0 450677743.58036041 780611623.07680416 0 780611623.07680416 340946267.41032219 0 0 0 0 316145636.35160828 530877830.81309891 0 530877830.81309891 107745573.21369553 0 0 0 0 211637173.53543091 629645188.78557014 0 629645188.78557014 16322381.439800262 0 0 0 0 217558605.84806824 379107025.21239281 0 379107025.21239281 -386201684.787117 0 0 0 0 237683200.92616272 549780441.09267235 0 549780441.09267235 7685777.5352163315 0 0 0 0 122419592.574646 -37679468.643051147 0 -37679468.643051147 -649008669.84548664 0 0 0 0 -313256.88321847469 1791027.4367965087 0 1791027.4367965087 983428.06409810483 0 0 0 0 -278135734.29000854 402924195.2694931 0 402924195.2694931 -555060030.78288651 0 0 0 0 235679574.8284874 504281646.77027178 0 504281646.77027178 -669412678.42108154 0 0 0 0 -280260859.75506592 188045379.75912857 0 188045379.75912857 -288579336.65111542 0 0 0 0 -222907584.4100647 482931931.22625732 0 482931931.22625732 -502555613.31797695 0 0 0 0 -427639768.75396729 316074291.12794876 0 316074291.12794876 -265589516.2385788 0 0 0 0 -33906322.138122559 292952944.0303936 0 292952944.0303936 -184558363.35241067 0 0 0 0 -136207698.57899475 331183358.32760239 0 331183358.32760239 -264930742.07829952 0 0 0 0 -251243336.65136719 396364217.67086887 0 396364217.67086887 -159193436.49294662 0 0 0 0 -204895416.29472351 194803850.07146454 0 194803850.07146454 -288210692.92347813 0 0 0 0 -163098656.49808502 390952009.64664745 0 390952009.64664745 -93437642.633529663 0 0 0 0 75072391.529754639 382213849.00595665 0 382213849.00595665 -175330387.05793571 0 0 0 0 102396607.01908493 376063563.99544954 0 376063563.99544954 -195936979.79839325 0 0 0 0 112007548.09542847 384712063.59744263 0 384712063.59744263 -307466218.11969131 0 0 0 0 36559320.235305786 374996714.80507183 0 374996714.80507183 -195141968.46810532 0 0 0 0 -142112965.46981812 408776641.07713509 0 408776641.07713509 -94010894.314598083 0 0 0 0 -20222081.965843201 461949253.78166676 0 461949253.78166676 -122464508.42031097 0 0 0 0 -218357486.62399292 453915401.30482483 0 453915401.30482483 -5266324.6918969154 0 0 0 0 -275781820.39886475 412445627.35158253 0 412445627.35158253 3763623.0084686279 0 0 0 0 -261058050.0401001 364177086.26794052 0 364177086.26794052 2331317.7887622118 0 0 0 0 -812419836.49069214 183030065.27376366 0 183030065.27376366 215666556.20006943 0 0 0 0 -232788.43493344635 1369604.8403995559 0 1369604.8403995559 2433312.2736585923 0 0 0 0 -532937658.20954895 438833165.48131943 0 438833165.48131943 432002174.73025298 0 0 0 0 560885781.73767853 542160966.8489418 0 542160966.8489418 367053311.14646149 0 0 0 0 -335591853.23822021 154654645.35987854 0 154654645.35987854 -69933523.660648346 0 0 0 0 581253.01927461789 -101158626.52522969 0 -101158626.52522969 -34012672.029968262 0 0 0 0 -128424724.58947754 133749482.39062881 0 133749482.39062881 -75288884.554344177 0 0 0 0 -182407430.39671326 264949121.87950706 0 264949121.87950706 -174681517.43356895 0 0 0 0 -194142264.62800598 334917456.03730202 0 334917456.03730202 -132186884.66680908 0 0 0 0 -181480341.62245178 371854511.71201706 0 371854511.71201706 -101816747.49626923 0 0 0 0 -324793159.89756775 309678944.66306114 0 309678944.66306114 -44199116.349010468 0 0 0 0 -194998473.29473209 322046300.60932839 0 322046300.60932839 -83360416.687049866 0 0 0 0 -174431811.92168427 134442387.35489655 0 134442387.35489655 -107474135.13131332 0 0 0 0 -113065951.12322235 280603425.75772858 0 280603425.75772858 -438693235.88410175 0 0 0 0 225992.76875305176 197334005.73874664 0 197334005.73874664 -373411146.86732864 0 0 0 0 -15636188.667251587 158040522.53872299 0 158040522.53872299 -436528814.54650003 0 0 0 0 -43072403.256797791 369219605.35007858 0 369219605.35007858 -779974495.05423355 0 0 0 0 104965116.51769638 -66523023.530916214 0 -66523023.530916214 -444665896.54935455 0 0 0 0 -612844041.91249084 499293427.465168 0 499293427.465168 -408280854.98299026 0 0 0 0 12343282.687309265 -111896106.68230629 0 -111896106.68230629 -43618794.335426331 0 0 0 0 169979.018660523 534602.23892236501 0 534602.23892236501 -4169073.0902777463 0 0 0 0 121549032.99302673 -5031087.3502120972 0 -5031087.3502120972 -61106089.02457428 0 0 0 0 51554550.182281494 45179998.884101868 0 45179998.884101868 -60393891.720659256 0 0 0 0 265634.45128291473 -329534.47856958956 0 -329534.47856958956 -10805095.190188468 0 0 0 0 -10709858.28994751 22031624.481010437 0 22031624.481010437 -19632891.699737549 0 0 0 0 -14974746.702709198 41651038.719735146 0 41651038.719735146 -99386612.541824341 0 0 0 0 2256663.1074252576 15256434.774282023 0 15256434.774282023 13411784.023699451 0 0 0 0 4222341.48021698 50061480.568313599 0 50061480.568313599 -51748577.33914566 0 0 0 0 -27014467.26865387 50112178.922260284 0 50112178.922260284 19812376.153198242 0 0 0 0 20442470.616142273 7320252.5706329346 0 7320252.5706329346 -8625439.2784576416 0 0 0 0 -121407528.11697388 49793772.118009567 0 49793772.118009567 -22263835.394512177 0 0 0 0 -161532019.60120773 116737533.93615913 0 116737533.93615913 -128589251.40943909 0 0 0 0 -195696.52220153809 120711399.74670219 0 120711399.74670219 -216158027.11146545 0 0 0 0 28506.919876098633 53715774.745292664 0 53715774.745292664 -67911389.540477753 0 0 0 0 -76206904.431922913 143914046.03541946 0 143914046.03541946 -174183385.53841972 0 0 0 0 -52113016.267181396 46296849.472530842 0 46296849.472530842 -14522750.80821991 0 0 0 0 -55153038.230451584 28011927.737407207 0 28011927.737407207 -31422653.50227356 0 0 0 0 -3388714.7278442383 96746140.441398621 0 96746140.441398621 96247.507635116577 0 0 0 0 2019371.694003839 1602941.6030526534 0 1602941.6030526534 -17692271.121125787 0 0 0 0 -58987820.827041626 38151256.755651474 0 38151256.755651474 -51834380.389894485 0 0 0 0 44810716.597549438 133453949.56686974 0 133453949.56686974 334221771.58014679 0 0 0 0 136145738.92912292 -222721640.35535812 0 -222721640.35535812 219573151.00493622 0 0 0 0 224899849.86048889 -428637711.49090004 0 -428637711.49090004 641914561.33323669 0 0 0 0 339012.14234747365 4424177.1061026976 0 4424177.1061026976 1219006.4387881756 0 0 0 0 -463298139.49716187 261526637.3616333 0 261526637.3616333 1626224486.0541306 0 0 0 0 -48292234.858337402 -60873080.304426193 0 -60873080.304426193 494003622.87397385 0 0 0 0 -269514.01543426514 23719930.880413055 0 23719930.880413055 305473051.19111633 0 0 0 0 -30915820.911010742 59570417.035907745 0 59570417.035907745 -45934865.280281067 0 0 0 0 641779.89431108534 -134804.15316279978 0 -134804.15316279978 -2920356.4630579278 0 0 0 0 489513884.82949829 -428492421.35125732 0 -428492421.35125732 -280753640.56118011 0 0 0 0 37792748.433456421 947384595.80624771 0 947384595.80624771 1307617317.5992651 0 0 0 0 -113385439.52029419 396479502.76457977 0 396479502.76457977 1377231958.9356384 0 0 0 0 2835570.7204775214 454390.88089221716 0 454390.88089221716 731126.8618911244 0 0 0 0 -218274768.46073914 55305843.093647003 0 55305843.093647003 505808040.81072235 0 0 0 0 -28240685.279071808 -200460157.40623188 0 -200460157.40623188 -300267197.86273193 0 0 0 0 115222284.08045197 239759825.273489 0 239759825.273489 3306010.2367401123 0 0 0 0 120946781.35791016 755942638.17538834 0 755942638.17538834 726189233.50076294 0 0 0 0 -276913486.28132629 314650096.11443329 0 314650096.11443329 801149194.37967682 0 0 0 0 74791310.398452759 942669977.31015205 0 942669977.31015205 914716737.78900909 0 0 0 0 -79626511.093093872 554343755.963871 0 554343755.963871 556140078.62457275 0 0 0 0 291212054.99856567 954777527.11812019 0 954777527.11812019 651446869.24838257 0 0 0 0 -2392826.2889707754 1036323037.6156251 0 1036323037.6156251 1167720004.2055054 0 0 0 0 204167538.53107452 1055579517.7876415 0 1055579517.7876415 951172304.80034637 0 0 0 0 115619049.60784912 1113185035.5448189 0 1113185035.5448189 1193705500.6041641 0 0 0 0 16195157.414054871 793749418.93696022 0 793749418.93696022 1013574488.5953522 0 0 0 0 118457753.18249512 123597053.10231781 0 123597053.10231781 -10534638.576461792 0 0 0 0 334952158.02865601 -38824744.795127869 0 -38824744.795127869 -213330861.64836502 0 0 0 0 687574468.41430664 520414329.18605042 0 520414329.18605042 148802182.61750793 0 0 0 0 114399888.98522949 140935650.25629807 0 140935650.25629807 -38087997.245635986 0 0 0 0 -106645252.49812698 632214140.83293247 0 632214140.83293247 412931816.65999603 0 0 0 0 67318449.024536133 658954188.87033463 0 658954188.87033463 534955216.54143906 0 0 0 0 243625697.12849426 788104380.64145279 0 788104380.64145279 164307783.68817902 0 0 0 0 13722950.677032471 541348446.6644783 0 541348446.6644783 -137390486.13766479 0 0 0 0 80125804.67048645 399568224.39712524 0 399568224.39712524 3304258.0861091614 0 0 0 0 148801000.89550781 237795057.30722046 0 237795057.30722046 -59999182.704189301 0 0 0 0 222306363.95506287 644943370.62096024 0 644943370.62096024 181849782.5788269 0 0 0 0 294189125.99276733 401925750.70503616 0 401925750.70503616 -540352135.53684235 0 0 0 0 345633171.45483398 87646572.244762421 0 87646572.244762421 -560338954.37025094 0 0 0 0 -1278692.3405628353 3329047.5381493829 0 3329047.5381493829 -2545831.8227468953 0 0 0 0 -807500625.40483093 76734835.931141853 0 76734835.931141853 6393301.9228439331 0 0 0 0 -117315620.42205048 823339076.99135971 0 823339076.99135971 -742093431.22278595 0 0 0 0 -452873660.91292763 681160320.31458426 0 681160320.31458426 -495804218.53746033 0 0 0 0 344062387.5635376 174544631.06627274 0 174544631.06627274 -1034797312.6284142 0 0 0 0 -793553121.72884369 -105314299.00586891 0 -105314299.00586891 283454290.14937592 0 0 0 0 102547938.68157959 -217017934.08696747 0 -217017934.08696747 165105139.59968567 0 0 0 0 309817663.6137085 106456017.28133011 0 106456017.28133011 -479783355.31969833 0 0 0 0 -31635461.454689026 123986604.56637383 0 123986604.56637383 466570217.65414429 0 0 0 0 2414881.6481853575 988133.35686162859 0 988133.35686162859 581938.6813422367 0 0 0 0 288497007.73369598 -33196029.697212219 0 -33196029.697212219 197150987.13576508 0 0 0 0 194384246.74932861 -35793619.964569092 0 -35793619.964569092 487547136.6185894 0 0 0 0 235365426.1595459 -110702154.48468018 0 -110702154.48468018 194133924.61574888 0 0 0 0 2489178.4392908663 12209776.874274366 0 12209776.874274366 9674601.6459685564 0 0 0 0 33689962.206529617 32116140.35323143 0 32116140.35323143 -42440006.254928589 0 0 0 0 151516394.99385071 -179484928.85256195 0 -179484928.85256195 167474813.13450718 0 0 0 0 -149519130.76147461 -16392747.44153595 0 -16392747.44153595 309074481.25844574 0 0 0 0 -268292054.79956245 255944873.46298122 0 255944873.46298122 -47446028.209197998 0 0 0 0 -314648817.79884911 -100183766.96638203 0 -100183766.96638203 240847679.53471375 0 0 0 0 143182741.39953613 -91966624.974365234 0 -91966624.974365234 175128784.29248047 0 0 0 0 -24105982.220310211 96344802.476125717 0 96344802.476125717 -84329303.113998413 0 0 0 0 115467622.1725769 87779097.436496735 0 87779097.436496735 -209167757.5618515 0 0 0 0 38887374.247543335 -44113107.755237579 0 -44113107.755237579 99829736.638000488 0 0 0 0 -561985642.54633331 -518017503.89145279 0 -518017503.89145279 12565689.429004669 0 0 0 0 51684330.772384644 359428972.66451645 0 359428972.66451645 -876874831.46923065 0 0 0 0 -494775684.69867349 576740864.68298066 0 576740864.68298066 -305302637.17352295 0 0 0 0 -108880369.97463989 289684978.44070053 0 289684978.44070053 -128041246.03231049 0 0 0 0 -129014976.66405487 347913171.69374943 0 347913171.69374943 -291297704.05691528 0 0 0 0 -288172485.39090729 206629814.0082283 0 206629814.0082283 -105102310.65930176 0 0 0 0 -67034886.264213562 370658057.34922791 0 370658057.34922791 -328715443.26140785 0 0 0 0 -44716039.234863281 269436458.85900688 0 269436458.85900688 -110511566.65511322 0 0 0 0 18242942.313499451 19046792.807430267 0 19046792.807430267 -77950627.547271729 0 0 0 0 96923198.140335083 104896104.75902939 0 104896104.75902939 -711170389.54158497 0 0 0 0 -5874247.6660461426 77203419.446231842 0 77203419.446231842 -21783292.599649429 0 0 0 0 -20759048.609359741 168644898.37905502 0 168644898.37905502 -318135739.35787296 0 0 0 0 -80127011.775913239 39366757.352180481 0 39366757.352180481 -39836437.707946777 0 0 0 0 8155472.1775360107 5618570.156080246 0 5618570.156080246 30907427.361579895 0 0 0 0 -54923379.303209305 5208049.8720288277 0 5208049.8720288277 43349401.885597229 0 0 0 0 8666291.1983278692 20970787.296906024 0 20970787.296906024 13510685.581131309 0 0 0 0 176654194.22232056 85021303.931097031 0 85021303.931097031 31747348.334141731 0 0 0 0 -225751250.20759583 5471723.3248252869 0 5471723.3248252869 13196212.699884415 0 0 0 0 33206775.291376114 71700587.361226082 0 71700587.361226082 7406846.2311706543 0 0 0 0 -3957434.0558231324 13832054.766812012 0 13832054.766812012 -1434433.6840688661 0 0 0 0 -16127550.845981598 97655517.109076023 0 97655517.109076023 -5946743.0467147827 0 0 0 0 -212411738.31344604 -44518583.284954071 0 -44518583.284954071 75598806.208129883 0 0 0 0 367731312.05021667 166741550.92526627 0 166741550.92526627 -153747532.24666595 0 0 0 0 315308775.5522995 447784280.31637001 0 447784280.31637001 -760026753.37277222 0 0 0 0 408475595.37841415 190719561.76369333 0 190719561.76369333 -148232828.04839325 0 0 0 0 162324047.54853058 199371747.97343349 0 199371747.97343349 -16674614.128036499 0 0 0 0 15324333.198596954 -31333100.070217609 0 -31333100.070217609 -8823795.0957145691 0 0 0 0 769382693.66377699 111506856.04655683 0 111506856.04655683 -1204863477.7368011 0 0 0 0 6540057.3352889717 17753997.444816701 0 17753997.444816701 11095183.009821944 0 0 0 0 749576826.1474762 -690566656.67213249 0 -690566656.67213249 -128095749.06489879 0 0 0 0 2958247.649848938 53250211.769496918 0 53250211.769496918 -257361103.53578949 0 0 0 0 -83627.649690121412 11735668.851069173 0 11735668.851069173 -3133640.1590997279 0 0 0 0 80375833.060302734 58510290.917987823 0 58510290.917987823 -5910993.0510286093 0 0 0 0 -73020775.334907532 -41459885.701934814 0 -41459885.701934814 21144180.960494995 0 0 0 0 -477404563.32961464 161528795.86608964 0 161528795.86608964 56414420.811576843 0 0 0 0 145942464.99159241 640275074.12671661 0 640275074.12671661 -662386519.56982708 0 0 0 0 332130.82523836195 3504197.6831894219 0 3504197.6831894219 -3168534.1879030392 0 0 0 0 52586028.424636841 -240132698.81283951 0 -240132698.81283951 -1044917361.6186752 0 0 0 0 72480940.763717651 99402910.84532547 0 99402910.84532547 -335415484.8452301 0 0 0 0 101603506.73052406 48875306.112329483 0 48875306.112329483 -285842890.14402008 0 0 0 0 -34378449.941345215 73149417.618841171 0 73149417.618841171 167911899.85279465 0 0 0 0 93199229.566543579 37395054.175322533 0 37395054.175322533 33657937.253311157 0 0 0 0 -33060605.902942657 11052623.287808418 0 11052623.287808418 28167779.258270264 0 0 0 0 35297341.348012924 116086450.62935448 0 116086450.62935448 -41600473.990081787 0 0 0 0 21093747.023231447 21144769.769312665 0 21144769.769312665 14793573.467218086 0 0 0 0 -4265519.2257995605 53956944.18126297 0 53956944.18126297 -45741458.415924072 0 0 0 0 -7896705.6184175164 6097456.6307548955 0 6097456.6307548955 485814.46799898241 0 0 0 0 19857523.654434204 -22801790.302097321 0 -22801790.302097321 19279519.048084259 0 0 0 0 -126069855.18823242 433122411.32557297 0 433122411.32557297 305414275.71339035 0 0 0 0 -9697050.6214255393 7669195.185726203 0 7669195.185726203 9632309.0863798782 0 0 0 0 -251384882.8050766 125818907.29227638 0 125818907.29227638 705660768.85442734 0 0 0 0 -17201841.611068726 65886134.179268837 0 65886134.179268837 60045842.05721283 0 0 0 0 14871008.094020367 19668969.175465904 0 19668969.175465904 13365029.599588513 0 0 0 0 630516.73902364075 3345556.5209944434 0 3345556.5209944434 8194080.9620415904 0 0 0 0 -32064379.593658447 -301852637.52331543 0 -301852637.52331543 370370894.48525763 0 0 0 0 4449017.1196136475 46305829.900863647 0 46305829.900863647 -110882728.88018036 0 0 0 0 206630644.14419556 -224142962.97930145 0 -224142962.97930145 -74506099.06707716 0 0 0 0 11408186.829170227 44736698.820587158 0 44736698.820587158 -118359076.8019104 0 0 0 0 4145933.7103652954 43855355.989162445 0 43855355.989162445 -99294693.088569641 0 0 0 0 33174038.94052124 72882425.292106628 0 72882425.292106628 -93106353.418054581 0 0 0 0 8368217.1123809814 56866702.948554993 0 56866702.948554993 -61979787.390960693 0 0 0 0 -12022499.743469238 75186641.76832962 0 75186641.76832962 -70141579.138339996 0 0 0 0 15550981.88130188 85209128.820663452 0 85209128.820663452 -72858524.27155304 0 0 0 0 -21535312.273712158 91333639.636764526 0 91333639.636764526 -73537870.29209137 0 0 0 0 -7588335.8206672668 73843084.811473846 0 73843084.811473846 -77747619.749923706 0 0 0 0 142439171.35346985 44226016.820304871 0 44226016.820304871 -121446571.15999985 0 0 0 0 60665090.170814514 130181704.23781586 0 130181704.23781586 -119174587.84127045 0 0 0 0 -40911981.53678894 159645178.54148483 0 159645178.54148483 -127720459.98537254 0 0 0 0 -74445085.902076721 65893319.258049011 0 65893319.258049011 -110633296.32538986 0 0 0 0 -54685846.61151886 57748071.356666565 0 57748071.356666565 -70543724.644302368 0 0 0 0 -29459709.296966553 95722962.871364594 0 95722962.871364594 -92109644.824401855 0 0 0 0 5734957.643661499 43477161.363010406 0 43477161.363010406 -110301872.29656601 0 0 0 0 11730579.899881363 64370664.254970551 0 64370664.254970551 -70326239.849662781 0 0 0 0 293780.20138931274 33056542.933923721 0 33056542.933923721 -50771947.771469116 0 0 0 0 -28189684.741134644 74252718.13710022 0 74252718.13710022 -51876102.189243317 0 0 0 0 32383384.790312126 24583649.005879402 0 24583649.005879402 12479506.195262048 0 0 0 0 129943615.46292114 -90241649.588039398 0 -90241649.588039398 26258976.37863636 0 0 0 0 154459538.95297241 -72265062.32075882 0 -72265062.32075882 29444544.29431057 0 0 0 0 134210199.26576233 -114272250.56539154 0 -114272250.56539154 16213559.009313583 0 0 0 0 75433585.073646545 -43480710.207670212 0 -43480710.207670212 9816401.7892627716 0 0 0 0 25794595.208036438 23579107.616200425 0 23579107.616200425 15862723.435306005 0 0 0 0 11580409.812133789 61668206.066883087 0 61668206.066883087 -76328254.539779663 0 0 0 0 23466172.514076233 43363886.60382843 0 43363886.60382843 -106855273.44281006 0 0 0 0 17058513.171798706 41979577.369491577 0 41979577.369491577 -99727597.38176918 0 0 0 0 19868188.020935059 38701454.277385712 0 38701454.277385712 -112836045.93185425 0 0 0 0 17204876.974693298 42959036.129356384 0 42959036.129356384 -93184524.510299683 0 0 0 0 -2059159.318359375 21145319.024726868 0 21145319.024726868 -111949297.99377441 0 0 0 0 -53147464.089782715 34748200.759490967 0 34748200.759490967 -60142095.762939453 0 0 0 0 -837200.80871582031 38749275.518226624 0 38749275.518226624 -84921313.775260925 0 0 0 0 1550151.75 63470950.414962769 0 63470950.414962769 -62713676.712921143 0 0 0 0 -2567407.5241012573 59643272.52853775 0 59643272.52853775 -56768135.107391357 0 0 0 0 -21768164.271789551 -63226135.269386292 0 -63226135.269386292 383716047.0122261 0 0 0 0 -14934939.663009644 68072507.441696167 0 68072507.441696167 -47671444.263031006 0 0 0 0 13469063.867919922 86254643.905441284 0 86254643.905441284 -40571467.640693665 0 0 0 0 34748781.177298769 26786000.41578795 0 26786000.41578795 15299474.334026571 0 0 0 0 35998941.154510498 100691412.4421463 0 100691412.4421463 -59944630.890304565 0 0 0 0 74305064.297668457 107606968.22027588 0 107606968.22027588 -59753511.491943359 0 0 0 0 8137944.4129742086 -2873838.5903126895 0 -2873838.5903126895 -9117087.7847664356 0 0 0 0 -16249066.597259521 -152337553.53889465 0 -152337553.53889465 367316803.12747192 0 0 0 0 -39951278.820007324 36682653.029571533 0 36682653.029571533 -68239651.154304504 0 0 0 0 -1656445.1949462891 57423986.633621216 0 57423986.633621216 -63028648.219360352 0 0 0 0 -17419414.198547363 67906774.234359741 0 67906774.234359741 -51674744.373291016 0 0 0 0 -20463816.736816406 70478397.101379395 0 70478397.101379395 -52974484.612823486 0 0 0 0 7149874.8361816406 84038335.361602783 0 84038335.361602783 -48197253.582336426 0 0 0 0 5532478.7443084717 86030616.994506836 0 86030616.994506836 -52545829.930114746 0 0 0 0 2680810.3278503418 91092316.02381134 0 91092316.02381134 -38677438.547851562 0 0 0 0 45653811.933227539 108419519.03097534 0 108419519.03097534 -39007532.953044891 0 0 0 0 30387449.263061523 87866117.783920288 0 87866117.783920288 -39752509.661468506 0 0 0 0 29854874.282470703 98746333.395355225 0 98746333.395355225 -39691966.124977112 0 0 0 0 66997352.44581604 91238483.721542358 0 91238483.721542358 -25327240.855987549 0 0 0 0 34071677.062011719 95937093.039718628 0 95937093.039718628 -46950118.580596924 0 0 0 0 -1263236.0322265625 92721334.308624268 0 92721334.308624268 -46465341.343719482 0 0 0 0 -41570865.954071045 -125991287.71247864 0 -125991287.71247864 345197343.49764585 0 0 0 0 -33179089.983337402 -149607409.07891846 0 -149607409.07891846 314494009.6510849 0 0 0 0 -17413086.402954102 -114362715.29236603 0 -114362715.29236603 257805408.26789856 0 0 0 0 -18776434.976135254 -106708050.47865295 0 -106708050.47865295 276501270.71656799 0 0 0 0 -22486925.670257568 -106470895.95672607 0 -106470895.95672607 323407772.64542198 0 0 0 0 -8618579.7870483398 -56490712.202789307 0 -56490712.202789307 346339757.17192173 0 0 0 0 4413814.1931762695 -60397144.140182495 0 -60397144.140182495 299873709.26304626 0 0 0 0 46500672.519744873 3824433.6292572021 0 3824433.6292572021 353686644.24530792 0 0 0 0 86298137.967956543 18162934.783828735 0 18162934.783828735 323000776.82489014 0 0 0 0 -57772254.274940491 49715364.951869965 0 49715364.951869965 -59850858.68737793 0 0 0 0 -33726656.889709473 73476246.891571045 0 73476246.891571045 -55718798.317626953 0 0 0 0 294483114.09835815 -79371540.88142395 0 -79371540.88142395 -359505225.07981873 0 0 0 0 167388148.66542816 49456722.363197327 0 49456722.363197327 248043253.4609375 0 0 0 0 -315358342.90069962 226009747.81552124 0 226009747.81552124 366772528.22393799 0 0 0 0 -377684464.293396 -583431.69444274902 0 -583431.69444274902 702573445.23794556 0 0 0 0 198939356.99368286 -145272015.53181458 0 -145272015.53181458 259319767.03466797 0 0 0 0 251079110.33833313 -55073985.760250092 0 -55073985.760250092 223747237.74118042 0 0 0 0 107301930.61569214 108129509.47477722 0 108129509.47477722 -61939653.594924927 0 0 0 0 162136197.25415039 103522648.78875732 0 103522648.78875732 -63874177.426193237 0 0 0 0 77033262.73348999 100651056.67970276 0 100651056.67970276 -38964425.583343506 0 0 0 0 105295881.48480225 -179624593.64202881 0 -179624593.64202881 288980146.03369141 0 0 0 0 -18650210.042660594 -126068723.42757553 0 -126068723.42757553 261695249.04312134 0 0 0 0 -18860325.398345947 -149980330.32228088 0 -149980330.32228088 300164837.47969055 0 0 0 0 52210215.177246094 -138249593.62088776 0 -138249593.62088776 240528187.16795349 0 0 0 0 -20645083.019958496 -141183849.01425934 0 -141183849.01425934 287807815.8011322 0 0 0 0 50932327.338409424 -180872813.56906128 0 -180872813.56906128 295456092.39328575 0 0 0 0 69804530.536735535 -110639079.47643089 0 -110639079.47643089 250278906.06268311 0 0 0 0 76393832.642181396 -41028426.277397156 0 -41028426.277397156 225411842.5553894 0 0 0 0 121264568.5579834 -96897666.85370636 0 -96897666.85370636 234672611.84751892 0 0 0 0 2671298.5786132812 -75312388.337272644 0 -75312388.337272644 234263392.45275617 0 0 0 0 45680285.945266724 -46815663.743175507 0 -46815663.743175507 207656509.08221436 0 0 0 0 -34650487.303466797 -4030035.4210357666 0 -4030035.4210357666 230623036.77802563 0 0 0 0 -400793.16128540039 60938164.941596985 0 60938164.941596985 250175878.27500916 0 0 0 0 118243350.60394287 -7250878.8199920654 0 -7250878.8199920654 230663160.92933559 0 0 0 0 -97682567.13420105 -67882527.104831696 0 -67882527.104831696 168349370.99708557 0 0 0 0 -53191807.476417542 -47513345.310003281 0 -47513345.310003281 113132791.66260529 0 0 0 0 -59476318.844055176 -30239504.815612793 0 -30239504.815612793 205066194.81520081 0 0 0 0 1121807.7178726196 -103693855.25802612 0 -103693855.25802612 182043757.1746521 0 0 0 0 -80092752.336700439 -67587895.470603943 0 -67587895.470603943 167366297.04689407 0 0 0 0 -24641634.643035889 -118521602.68087387 0 -118521602.68087387 90812391.014785767 0 0 0 0 -10878360.818969727 -143039431.0306778 0 -143039431.0306778 246786354.13456726 0 0 0 0 -25695745.589447021 -94496790.190002441 0 -94496790.190002441 217666505.01288605 0 0 0 0 -8944555.4884643555 -104907731.06813049 0 -104907731.06813049 186936271.2731781 0 0 0 0 -17117407.354724884 -125027861.70914459 0 -125027861.70914459 249309883.75512695 0 0 0 0 -15435863.812034607 -128579994.70683861 0 -128579994.70683861 149632319.83764648 0 0 0 0 -31058959.754241943 -95399408.210929871 0 -95399408.210929871 188985295.84221077 0 0 0 0 -20781454.057807922 -152922647.5361557 0 -152922647.5361557 -7584561.570602417 0 0 0 0 -67573350.760101318 -84193689.358070374 0 -84193689.358070374 83216408.629840851 0 0 0 0 -158919594.20832825 -63272613.896568298 0 -63272613.896568298 110803351.73885345 0 0 0 0 -54579592.528587341 -101181378.02048111 0 -101181378.02048111 -8780556.4235534668 0 0 0 0 167252498.17692566 -26392606.501775742 0 -26392606.501775742 128281600.70791626 0 0 0 0 81113144.899749756 -75739156.317993164 0 -75739156.317993164 134421128.18907166 0 0 0 0 125030664.1255188 -49555761.013648987 0 -49555761.013648987 86773727.666542053 0 0 0 0 140697379.70614624 -87074485.97518158 0 -87074485.97518158 29017227.999502182 0 0 0 0 132312940.94268799 19565610.06602478 0 19565610.06602478 243591376.07763672 0 0 0 0 115445548.41989136 -16631631.750061035 0 -16631631.750061035 168464813.37692261 0 0 0 0 59253945.41506958 -33389564.099372864 0 -33389564.099372864 225751340.19546509 0 0 0 0 49019070.45035553 -22495579.466926575 0 -22495579.466926575 274030116.88232422 0 0 0 0 21466473.733451843 -56099278.780187607 0 -56099278.780187607 258644058.48094177 0 0 0 0 29829342.856292725 -72873315.498275757 0 -72873315.498275757 199244094.01306152 0 0 0 0 5676266.0597229004 -85805608.824707031 0 -85805608.824707031 192563586.84191132 0 0 0 0 2346888.2383117676 -99163544.014892578 0 -99163544.014892578 215152215.75372314 0 0 0 0 58985104.021835327 -73878400.506958008 0 -73878400.506958008 131723091.35037231 0 0 0 0 26029498.027374268 -102280844.13906097 0 -102280844.13906097 122140237.1072731 0 0 0 0 65936886.079360962 -48320935.000736237 0 -48320935.000736237 193852872.29806519 0 0 0 0 98992664.934188843 -96945310.437847137 0 -96945310.437847137 26611547.097831726 0 0 0 0 -3154979.404510498 -115072144.54727936 0 -115072144.54727936 69245465.408485413 0 0 0 0 37684038.484863281 -91752330.971557617 0 -91752330.971557617 77083569.831474304 0 0 0 0 67462770.424209595 -122041162.10062408 0 -122041162.10062408 -22174437.851333618 0 0 0 0 56340020.785430908 -128057806.17853546 0 -128057806.17853546 15189455.698165894 0 0 0 0 112105709.88638306 -107599886.64276886 0 -107599886.64276886 -40838034.814094543 0 0 0 0 136634787.49008179 -101306002.47018814 0 -101306002.47018814 -23514468.174110413 0 0 0 0 94787187.886932373 -89849836.919799805 0 -89849836.919799805 66811019.439037323 0 0 0 0 111079736.16281128 -125573549.09052277 0 -125573549.09052277 20048668.095649719 0 0 0 0 171449098.52500916 -104933529.91740036 0 -104933529.91740036 -107430079.52980042 0 0 0 0 119262254.0351429 -141708684.04298353 0 -141708684.04298353 -79562562.982315063 0 0 0 0 77775845.561340332 -151460850.13965225 0 -151460850.13965225 -95887781.869361877 0 0 0 0 13660086.435394287 -124912344.81653595 0 -124912344.81653595 -22295759.742477417 0 0 0 0 77563215.762863159 -120948619.99104309 0 -120948619.99104309 -105353397.15672874 0 0 0 0 59396079.216262817 -155285475.68523407 0 -155285475.68523407 -170019594.83039856 0 0 0 0 -45484565.005050659 -130391333.63804245 0 -130391333.63804245 -154397087.75596619 0 0 0 0 126352630.86340332 -160844276.18693542 0 -160844276.18693542 -176240541.37412262 0 0 0 0 206747748.32147217 -101659479.50026703 0 -101659479.50026703 -180987854.19940329 0 0 0 0 -129587171.61322403 -20798824.967927933 0 -20798824.967927933 -74231622.051780701 0 0 0 0 -188662748.0762291 -111663387.13234901 0 -111663387.13234901 -5276452.6400604248 0 0 0 0 -67797823.049346924 -141160158.99246979 0 -141160158.99246979 -63089473.661254883 0 0 0 0 -42733061.749786377 -113255567.53763199 0 -113255567.53763199 -130126436.20333862 0 0 0 0 27069782.855735779 -108197162.72041893 0 -108197162.72041893 -52877084.63659668 0 0 0 0 -180170998.57987976 -125055659.21807098 0 -125055659.21807098 -119789237.25234985 0 0 0 0 -25875759.746734619 -118244642.51748276 0 -118244642.51748276 -235017958.53032684 0 0 0 0 -142991451.34075165 -92797711.775772095 0 -92797711.775772095 -292217069.33688354 0 0 0 0 -493779273.10264587 51919204.421121597 0 51919204.421121597 -216403093.02310944 0 0 0 0 -225719654.72590256 66011076.711604357 0 66011076.711604357 -330208056.80651093 0 0 0 0 -209257181.99610901 -6075786.4881210327 0 -6075786.4881210327 -253200490.55096436 0 0 0 0 -203851268.86835957 -113232287.99675965 0 -113232287.99675965 -180515102.91834259 0 0 0 0 -271841955.90670776 -35087052.984996796 0 -35087052.984996796 -254959269.51140594 0 0 0 0 264529384.49032593 -174794403.35863495 0 -174794403.35863495 -261246418.62173939 0 0 0 0 246078960.64675713 -104555377.16934919 0 -104555377.16934919 -270363183.12590027 0 0 0 0 90252342.266319275 -206200534.78108597 0 -206200534.78108597 -253002953.98474884 0 0 0 0 245087502.69700623 -272501023.54161072 0 -272501023.54161072 -179239201.90935516 0 0 0 0 -110005520.57221413 -269637967.09076881 0 -269637967.09076881 -156611832.61603546 0 0 0 0 655027926.0983429 -188867911.03664398 0 -188867911.03664398 -308501471.71205902 0 0 0 0 498043761.86808777 239270305.62348175 0 239270305.62348175 -705444363.6196022 0 0 0 0 232536477.9859848 14304360.108504295 0 14304360.108504295 -119059633.23946381 0 0 0 0 245470008.04306793 253366062.19147491 0 253366062.19147491 -160317369.50535583 0 0 0 0 228015280.92225647 -98464371.322580338 0 -98464371.322580338 -264775484.17945862 0 0 0 0 163138585.79771948 -34552755.780395508 0 -34552755.780395508 -81858305.997138977 0 0 0 0 268774387.67060852 -32854702.626220703 0 -32854702.626220703 -164978956.94148254 0 0 0 0 157191726.49969101 -87977497.872078419 0 -87977497.872078419 -79270515.700241089 0 0 0 0 172599407.90533447 -106568211.98101807 0 -106568211.98101807 -141766639.32067394 0 0 0 0 112872837.18132019 88255714.216964722 0 88255714.216964722 -78910820.894113541 0 0 0 0 229586337.71803284 29238905.92621994 0 29238905.92621994 -77031574.764044762 0 0 0 0 79979640.18862915 82186322.05884552 0 82186322.05884552 173274924.49965668 0 0 0 0 126786226.31648254 281047383.72908783 0 281047383.72908783 329008656.10549068 0 0 0 0 -2286732.4647925198 3967287.8434449993 0 3967287.8434449993 -798268.84911118913 0 0 0 0 217534297.72167969 326313406.15982819 0 326313406.15982819 -813508011.89396763 0 0 0 0 72960571.071921229 114311003.63246489 0 114311003.63246489 -350319731.74209595 0 0 0 0 -60225116.791702271 181153254.73379135 0 181153254.73379135 107936205.94425392 0 0 0 0 -59668615.855331421 177889114.51313019 0 177889114.51313019 -255569164.12798309 0 0 0 0 754786098.26641846 -792957927.90800667 0 -792957927.90800667 394428214.01225281 0 0 0 0 1486245461.9979248 -301595653.86411667 0 -301595653.86411667 -659525965.89096308 0 0 0 0 271308493.29523468 848554848.70764923 0 848554848.70764923 -27972841.431114197 0 0 0 0 2694912.3145530969 4113551.4416299984 0 4113551.4416299984 2292800.0147368088 0 0 0 0 1450583204.8458328 210605434.08635712 0 210605434.08635712 -197285471.84103394 0 0 0 0 420161642.76158142 182530100.29849243 0 182530100.29849243 893604564.3341217 0 0 0 0 811359568.15962219 -129608487.83945847 0 -129608487.83945847 -273962924.26649475 0 0 0 0 1362709271.1035457 -660576380.7885263 0 -660576380.7885263 84290486.775093079 0 0 0 0 622665287.88899994 -189610423.08708572 0 -189610423.08708572 -30289648.106864929 0 0 0 0 913046130.8096962 -637390.76502037048 0 -637390.76502037048 -389426425.71099854 0 0 0 0 403768254.00564575 202928451.10413742 0 202928451.10413742 -292074877.99765778 0 0 0 0 317525056.9980011 42006954.844085693 0 42006954.844085693 11979760.721981049 0 0 0 0 2987759.44688797 55314535.424152255 0 55314535.424152255 -153110131.57936859 0 0 0 0 6064582.2663741931 14523999.907475561 0 14523999.907475561 3129993.9573822692 0 0 0 0 618098178.74420166 185630287.19867134 0 185630287.19867134 -3701649.4523899555 0 0 0 0 -10012840.197387658 18233275.22676177 0 18233275.22676177 -8066318.1342438459 0 0 0 0 -2595006162.9599915 1630561791.0711212 0 1630561791.0711212 -198131400.83666992 0 0 0 0 618253655.23228455 118262894.63885307 0 118262894.63885307 -191032505.19503403 0 0 0 0 422488892.55448151 283535371.66357422 0 283535371.66357422 -329900972.5811615 0 0 0 0 -4800360.6793782935 6286854.1504875086 0 6286854.1504875086 -5361165.4986204803 0 0 0 0 103238772.25748444 212859074.98057938 0 212859074.98057938 363907317.17617035 0 0 0 0 1770358126.5219803 -242134453.67540741 0 -242134453.67540741 515602786.26714325 0 0 0 0 -5114056.9939238653 6854112.7134771012 0 6854112.7134771012 -7709371.1366373524 0 0 0 0 -2477196758.9589005 -203630036.45247269 0 -203630036.45247269 882497743.98938751 0 0 0 0 -2484763772.6970291 871037454.52902794 0 871037454.52902794 122202321.53967285 0 0 0 0 -1992019286.0421753 557646382.79312897 0 557646382.79312897 21571101.418262482 0 0 0 0 -1199825662.8629303 1231645640.4250851 0 1231645640.4250851 -1090806919.9508324 0 0 0 0 -906909577.79193878 276816789.58802414 0 276816789.58802414 -21602957.451969147 0 0 0 0 -1026784587.2439804 751440301.48689651 0 751440301.48689651 76001888.665054321 0 0 0 0 -1030612145.1723384 320516355.2746104 0 320516355.2746104 250729044.34601593 0 0 0 0 -285513841.97655487 821875832.55805206 0 821875832.55805206 -163778533.09157944 0 0 0 0 -327360386.98210144 946324388.48958778 0 946324388.48958778 413326927.69329834 0 0 0 0 -314211390.34570885 903611743.55463505 0 903611743.55463505 -404030156.62643433 0 0 0 0 -773277269.92404938 700772527.74677277 0 700772527.74677277 26082004.275398254 0 0 0 0 -222047412.33322144 607214934.49275208 0 607214934.49275208 -51396026.492286682 0 0 0 0 271268967.65557861 168985182.1910553 0 168985182.1910553 -224587129.61368942 0 0 0 0 86660865.570739746 500356757.89617729 0 500356757.89617729 -601911564.16423798 0 0 0 0 -274146080.34341431 456398188.33929443 0 456398188.33929443 -443888933.30845261 0 0 0 0 -1545887319.2333908 1385903799.2159519 0 1385903799.2159519 -579625698.34432983 0 0 0 0 -363669212.60437775 815038269.03975677 0 815038269.03975677 -1733605712.1508751 0 0 0 0 -2175513249.9067802 638835218.30696106 0 638835218.30696106 363899467.86595917 0 0 0 0 -2113676280.4172707 276600210.78847313 0 276600210.78847313 -224640194.51279068 0 0 0 0 -842610829.64746857 -302871128.08182526 0 -302871128.08182526 -1117299722.0917435 0 0 0 0 427830923.06103516 299943002.23845673 0 299943002.23845673 -772893270.5093689 0 0 0 0 -282831415.93826294 275121529.03394699 0 275121529.03394699 -525225332.0509491 0 0 0 0 368571978.27616882 339908394.15676117 0 339908394.15676117 -127865437.66235542 0 0 0 0 -94443262.637756348 -20237539.169622421 0 -20237539.169622421 -361358444.31481934 0 0 0 0 168776219.17616272 -295030568.18843079 0 -295030568.18843079 46665547.892469406 0 0 0 0 -158384800.29612732 76822800.745391846 0 76822800.745391846 -13785800.290710449 0 0 0 0 -811793305.26347351 -271423876.34432983 0 -271423876.34432983 -135123266.34183693 0 0 0 0 -350149134.95916748 -267339048.03711319 0 -267339048.03711319 87847976.663528442 0 0 0 0 257678763.6595459 -235405329.46168137 0 -235405329.46168137 -229991716.37382507 0 0 0 0 -812329704.51056671 258090379.640522 0 258090379.640522 -98903331.282758713 0 0 0 0 -935007428.34298801 423768590.5442369 0 423768590.5442369 -221530241.75259399 0 0 0 0 -550134776.6687088 243700323.0838809 0 243700323.0838809 -270688005.0894928 0 0 0 0 -1036901969.9593468 734898256.37385178 0 734898256.37385178 -409632401.40209198 0 0 0 0 -987026526.76851654 753780829.429245 0 753780829.429245 -462718897.50048828 0 0 0 0 -969452659.3973465 730680603.7197876 0 730680603.7197876 -444429445.64126205 0 0 0 0 -354863534.09641266 435724431.54533005 0 435724431.54533005 -586323205.73043919 0 0 0 0 646766632.63844872 311200711.36991978 0 311200711.36991978 54651311.225227356 0 0 0 0 -1851458.5365167037 5211349.4695506841 0 5211349.4695506841 -14355301.56396699 0 0 0 0 -899237819.16933823 1001713690.2472534 0 1001713690.2472534 -1130889181.8856964 0 0 0 0 -1121091735.7083168 -403282560.25558853 0 -403282560.25558853 -163018848.89007568 0 0 0 0 -8387980.6018120348 7672694.4738261886 0 7672694.4738261886 -1579061.1981108598 0 0 0 0 -3317021.8096315749 23310034.127929568 0 23310034.127929568 6629510.210228838 0 0 0 0 -1886048.8562164307 28495118.245084763 0 28495118.245084763 12767611.008739471 0 0 0 0 24168414.653175354 15437047.986265182 0 15437047.986265182 -14776411.93275547 0 0 0 0 766068.07341917604 3033401.4810805563 0 3033401.4810805563 6601749.2293316871 0 0 0 0 -893521939.89201784 -67768040.579954684 0 -67768040.579954684 11175589.657539368 0 0 0 0 -11871454.375058413 30196860.440265596 0 30196860.440265596 23709897.693134308 0 0 0 0 -17671562.31738995 24500526.886529319 0 24500526.886529319 -4272276.7608533353 0 0 0 0 -11579393.28289032 23954048.256612778 0 23954048.256612778 15622138.383735657 0 0 0 0 -1425407.5869979858 209539530.30207443 0 209539530.30207443 131094435.09586906 0 0 0 0 -6844401.6147499084 30565228.222415924 0 30565228.222415924 21824506.936168671 0 0 0 0 -7131044.6814748272 24019477.15444544 0 24019477.15444544 -10568535.195403798 0 0 0 0 -134358847.15817261 72081104.055480957 0 72081104.055480957 342669164.32037735 0 0 0 0 -8180513.4315948486 195602510.62863541 0 195602510.62863541 462700030.11332703 0 0 0 0 -699579777.26160812 284540038.07434464 0 284540038.07434464 453087256.95406914 0 0 0 0 -302879537.16050148 -61319498.327978134 0 -61319498.327978134 149421962.6774292 0 0 0 0 27552661.614364624 683720596.85962105 0 683720596.85962105 159061328.85404968 0 0 0 0 -1075335234.7681198 650645769.80857658 0 650645769.80857658 178466282.4692111 0 0 0 0 -1399029770.5404744 -496923509.86685991 0 -496923509.86685991 -8290918.3773193359 0 0 0 0 -1079699388.8271332 1486589905.3926392 0 1486589905.3926392 -2023954299.0561066 0 0 0 0 -3174843931.5454292 78223332.857590675 0 78223332.857590675 -7811890.8890075684 0 0 0 0 -2135961.3744608499 5559385.3315894892 0 5559385.3315894892 -11523095.281214416 0 0 0 0 -2799601025.3648605 1337350743.1046906 0 1337350743.1046906 -496992868.25921631 0 0 0 0 -1398263760.7103424 -225884469.58766174 0 -225884469.58766174 -34894274.835739136 0 0 0 0 -1267038717.615612 815739805.84144974 0 815739805.84144974 -362467587.42978668 0 0 0 0 -1885612712.9532318 649390088.92868805 0 649390088.92868805 71122288.746994019 0 0 0 0 1014338937.8345699 154791312.53584003 0 154791312.53584003 -1641906300.0804749 0 0 0 0 -244014267.65306473 35259341.494422913 0 35259341.494422913 318765001.72568512 0 0 0 0 -1285617.5286593493 -1611993.4995738789 0 -1611993.4995738789 -4464481.9214544967 0 0 0 0 2081436630.0090714 317324725.84578133 0 317324725.84578133 -1993005856.8701477 0 0 0 0 24362897.323257446 557445852.50102615 0 557445852.50102615 -1790070960.0137215 0 0 0 0 -1675241289.7803955 1528284752.2220039 0 1528284752.2220039 -1012645697.3675003 0 0 0 0 -390089720.64803314 357353628.33680725 0 357353628.33680725 -748254633.37979889 0 0 0 0 -998884478.02767181 699302869.5182991 0 699302869.5182991 -383655303.10398102 0 0 0 0 -232618830.10253143 84094941.908081055 0 84094941.908081055 -407839022.01086044 0 0 0 0 -394385718.34440613 34863374.651100159 0 34863374.651100159 -417294698.72559738 0 0 0 0 -306011607.57042694 -136142568.40452862 0 -136142568.40452862 -37190432.767051697 0 0 0 0 -314826714.96648407 -80993866.991027832 0 -80993866.991027832 -92778556.955406189 0 0 0 0 54233039.045028687 -157361557.13832474 0 -157361557.13832474 -1086341086.9954376 0 0 0 0 -524264852.69120979 421111897.18567371 0 421111897.18567371 -672719188.18959808 0 0 0 0 -206246927.04964447 -48075438.159507751 0 -48075438.159507751 -461817207.01852798 0 0 0 0 -357396782.90237045 -32944493.860131264 0 -32944493.860131264 104329832.17440796 0 0 0 0 -371213679.33781433 91329405.18132019 0 91329405.18132019 130300908.77072906 0 0 0 0 31655341.617027283 125864562.31209755 0 125864562.31209755 61191389.589447021 0 0 0 0 54067140.299194336 -9361618.5528240204 0 -9361618.5528240204 469466923.27183533 0 0 0 0 -220954447.92498779 24596794.115427971 0 24596794.115427971 202562833.31869507 0 0 0 0 -268614809.58817291 169205990.6396904 0 169205990.6396904 465638206.05282593 0 0 0 0 -25742383.072906494 243769558.96272659 0 243769558.96272659 322727546.60350037 0 0 0 0 -113207737.37039185 158591513.93029404 0 158591513.93029404 275960655.68579865 0 0 0 0 -118859642.99243164 249202761.89171219 0 249202761.89171219 371852830.98238373 0 0 0 0 -75664390.574632645 397700752.72423124 0 397700752.72423124 695985244.33613586 0 0 0 0 390665548.12284088 533229301.76670074 0 533229301.76670074 345923066.41501236 0 0 0 0 -146223594.22354126 -102336822.36457443 0 -102336822.36457443 -17346628.724723816 0 0 0 0 -271597702.15045547 -793099.20891952515 0 -793099.20891952515 159848472.14519501 0 0 0 0 -268246427.45149231 84085011.486167908 0 84085011.486167908 146958479.62521172 0 0 0 0 -196007622.81666565 -13464701.667121887 0 -13464701.667121887 -10807127.437997818 0 0 0 0 -222895550.03621674 51743787.483513832 0 51743787.483513832 262722046.76467896 0 0 0 0 -189320755.1688385 159027671.3717041 0 159027671.3717041 322848424.00440598 0 0 0 0 -131420804.68656921 16184054.133148193 0 16184054.133148193 153754813.40881157 0 0 0 0 -140782488.38828659 38040559.568788528 0 38040559.568788528 224505847.36231995 0 0 0 0 43532698.190336078 33754310.695674427 0 33754310.695674427 2310321.4656079151 0 0 0 0 -26766156.528076172 90737948.020141602 0 90737948.020141602 267097977.61145592 0 0 0 0 -63126234.855438232 222635478.108078 0 222635478.108078 -52684676.58165741 0 0 0 0 -19061556.77305603 76612208.676860809 0 76612208.676860809 265461240.41974211 0 0 0 0 -65961791.741622925 88255535.181186676 0 88255535.181186676 280440693.62016296 0 0 0 0 -18689011.927383423 46215691.569541931 0 46215691.569541931 247965263.39425659 0 0 0 0 -28760205.36192894 56788147.919258118 0 56788147.919258118 243072244.92007446 0 0 0 0 -72148019.890289307 27885190.865020752 0 27885190.865020752 225400376.36815643 0 0 0 0 -132121808.04198456 79288823.617698669 0 79288823.617698669 276130712.49900818 0 0 0 0 -62957536.510375977 81692875.731552124 0 81692875.731552124 282944538.52413177 0 0 0 0 -67677874.449264526 85707662.234306335 0 85707662.234306335 276741300.0239563 0 0 0 0 -58195328.805603027 95426633.592376709 0 95426633.592376709 279952884.83550644 0 0 0 0 -80748754.967899323 121475706.5463295 0 121475706.5463295 275254381.09809875 0 0 0 0 -41208295.307250977 119290263.32858276 0 119290263.32858276 275156638.74528503 0 0 0 0 -88502638.309509277 95144661.855026245 0 95144661.855026245 281257705.59032059 0 0 0 0 -102152419.65591431 111815912.88153839 0 111815912.88153839 279455672.80262566 0 0 0 0 -104039402.94882202 114293373.53215408 0 114293373.53215408 276223741.44493103 0 0 0 0 -92800005.436445236 180478007.69289923 0 180478007.69289923 291349425.57188416 0 0 0 0 -26140899.843322754 122896402.40667725 0 122896402.40667725 227241404.06980896 0 0 0 0 -23143338.596817017 146736613.51802826 0 146736613.51802826 226719076.88772583 0 0 0 0 -46381857.45866394 129762717.82388306 0 129762717.82388306 254815107.51593018 0 0 0 0 -23741142.803375244 112399327.79206848 0 112399327.79206848 249104971.71394348 0 0 0 0 -41786519.392997742 96530288.105133057 0 96530288.105133057 275373313.22793579 0 0 0 0 -70821982.409606934 104229950.10074615 0 104229950.10074615 274706654.90638733 0 0 0 0 22925573.856033325 83553542.718666077 0 83553542.718666077 268125168.89550781 0 0 0 0 88387509.046646118 63271666.102169037 0 63271666.102169037 42033309.952381134 0 0 0 0 215408472.0227623 45356410.899889946 0 45356410.899889946 -28939866.161270142 0 0 0 0 69524175.912288666 163425266.07909918 0 163425266.07909918 98374456.762039185 0 0 0 0 179781625.2102356 232835127.69334412 0 232835127.69334412 140064889.80952072 0 0 0 0 68624324.611968994 268347118.23017883 0 268347118.23017883 130628265.58137512 0 0 0 0 60324194.449691772 284141020.00429535 0 284141020.00429535 261665575.49332428 0 0 0 0 -20026758.662216187 175602660.16552353 0 175602660.16552353 244603384.58443451 0 0 0 0 -17364794.105117798 213754189.32762146 0 213754189.32762146 202763186.35746002 0 0 0 0 61989132.205717087 200363406.48746681 0 200363406.48746681 184253188.14373779 0 0 0 0 27938592.135894775 152073024.97226715 0 152073024.97226715 149901211.60147095 0 0 0 0 35598342.595092773 49291268.618057251 0 49291268.618057251 200330730.45957565 0 0 0 0 46488521.838592529 141871966.07533264 0 141871966.07533264 155050852.87379456 0 0 0 0 19406800.953796387 137279501.96321106 0 137279501.96321106 228265707.23168182 0 0 0 0 17858765.944335938 149948913.54663849 0 149948913.54663849 189439543.97210693 0 0 0 0 10082633.11517334 102820394.53297424 0 102820394.53297424 234159580.60390091 0 0 0 0 40732190.118225098 102597411.92488098 0 102597411.92488098 185719322.08865356 0 0 0 0 52229991.686134338 133563541.0803299 0 133563541.0803299 106350447.24749756 0 0 0 0 55143758.156906128 49112116.090934753 0 49112116.090934753 140617804.94083786 0 0 0 0 55797610.491821289 43816472.116119385 0 43816472.116119385 42506241.444217682 0 0 0 0 39150736.510673523 114610218.03068924 0 114610218.03068924 109925650.91195679 0 0 0 0 93428429.812347412 122210127.11609077 0 122210127.11609077 1885956.2861251831 0 0 0 0 38918431.501983643 121373700.99546623 0 121373700.99546623 113958383.62864685 0 0 0 0 11400924.309414711 18236307.92583055 0 18236307.92583055 -25486567.338390827 0 0 0 0 385162485.01515198 65595172.519943237 0 65595172.519943237 -179914884.93720245 0 0 0 0 8339241.4822787009 18638503.267826926 0 18638503.267826926 -15985774.060116723 0 0 0 0 161083202.52333069 38789632.304981232 0 38789632.304981232 -37301054.020477295 0 0 0 0 -1138065692.1961689 445016894.11555481 0 445016894.11555481 -8643194.7308654785 0 0 0 0 395459312.9666245 -96255091.469047546 0 -96255091.469047546 -116774980.50933838 0 0 0 0 -981895949.57531357 526859675.96914673 0 526859675.96914673 -21769580.257400513 0 0 0 0 2258367.9307875093 3765663.3362871781 0 3765663.3362871781 -1025095.6187367886 0 0 0 0 -1072528028.8130341 487733376.4875946 0 487733376.4875946 -38397345.927495956 0 0 0 0 -1158352083.2818832 443829525.85424042 0 443829525.85424042 125824369.89390564 0 0 0 0 -318874289.69939327 -2931686.2571144104 0 -2931686.2571144104 -222315866.46240234 0 0 0 0 -1045571356.1277618 432866694.27812958 0 432866694.27812958 -19746458.537853241 0 0 0 0 -944485.21728122979 16973533.435199641 0 16973533.435199641 -29251425.83823213 0 0 0 0 -313427790.31569672 42980801.652362823 0 42980801.652362823 147643829.44395447 0 0 0 0 533625171.92711258 546119665.9220295 0 546119665.9220295 456077017.27866364 0 0 0 0 378200400.93669891 728919075.93405533 0 728919075.93405533 245879896.82607555 0 0 0 0 706365709.52761841 227479199.04164505 0 227479199.04164505 -65860010.709674835 0 0 0 0 1972475.2960235476 8330601.8923508823 0 8330601.8923508823 -5637595.9487512857 0 0 0 0 16397943.405504227 25844733.112781525 0 25844733.112781525 -19945056.873680115 0 0 0 0 11955169.934875488 32374266.844608307 0 32374266.844608307 -11913134.186920166 0 0 0 0 16580070.786201477 23214036.241142273 0 23214036.241142273 -9184714.6416625977 0 0 0 0 18399303.286907196 25444601.748439789 0 25444601.748439789 -31985104.061752319 0 0 0 0 10399005.773178101 49652011.141326904 0 49652011.141326904 -51850822.811576843 0 0 0 0 14605356.064048767 34756488.752002716 0 34756488.752002716 -12101402.479598999 0 0 0 0 16213648.855026245 25490701.671577454 0 25490701.671577454 -31258464.957206726 0 0 0 0 161893969.0747751 78055447.291781306 0 78055447.291781306 113239779.1865387 0 0 0 0 13927059.812466707 16848761.627290301 0 16848761.627290301 -7110946.5227342099 0 0 0 0 204118485.29137754 74567642.641770363 0 74567642.641770363 -97349533.716415405 0 0 0 0 205588591.69140244 62528491.621917725 0 62528491.621917725 -1842979.5536880493 0 0 0 0 4114358.2996065039 6566861.2523439378 0 6566861.2523439378 -623541.4491225481 0 0 0 0 153944995.42467731 -210340810.35858166 0 -210340810.35858166 93177526.345901489 0 0 0 0 -4077198.0187102854 7577101.9945405424 0 7577101.9945405424 369558.31713149697 0 0 0 0 -875075617.1660347 303780541.82769394 0 303780541.82769394 -223596042.60574341 0 0 0 0 178960474.45336151 -137529329.67910767 0 -137529329.67910767 47253064.516624451 0 0 0 0 3225890.7494049072 21220257.930793762 0 21220257.930793762 -6438423.9619140625 0 0 0 0 8312530.3614196777 12572190.654891968 0 12572190.654891968 9425463.115486145 0 0 0 0 7147450.7636837512 16703710.018479556 0 16703710.018479556 -6156317.1885564849 0 0 0 0 13524619.298057556 9308202.5732345581 0 9308202.5732345581 -7540941.6551361084 0 0 0 0 -21670083.964477539 909837.93804931641 0 909837.93804931641 20655980.978988647 0 0 0 0 -9793511.8315324225 25736766.524337322 0 25736766.524337322 -2155918.8439367265 0 0 0 0 -1379262.153724663 39477182.804008514 0 39477182.804008514 16168465.418514585 0 0 0 0 110534120.91163635 77590512.705451965 0 77590512.705451965 -174808162.40943909 0 0 0 0 6424144.436126709 73911046.720855713 0 73911046.720855713 -62600416.186356068 0 0 0 0 -1641870.8546142578 46480472.643619537 0 46480472.643619537 -25078108.671779633 0 0 0 0 -11649628.464248657 84052768.980243683 0 84052768.980243683 -7104830.3080291748 0 0 0 0 -6288985.3444442749 34746997.839445114 0 34746997.839445114 10376171.94543457 0 0 0 0 28260048.020217896 55142056.539115906 0 55142056.539115906 3134373.6605377197 0 0 0 0 -566367.44501186162 5002635.0039314553 0 5002635.0039314553 3190797.392388165 0 0 0 0 16214309.486522675 17846113.718791962 0 17846113.718791962 -34821237.084716797 0 0 0 0 -44911881.021789551 137618969.01166534 0 137618969.01166534 -661000.45950317383 0 0 0 0 -124123304.43840027 -75979287.458847046 0 -75979287.458847046 5967019.917375803 0 0 0 0 -81450846.317504883 102629445.52909851 0 102629445.52909851 -51587277.871732712 0 0 0 0 12661719.160552979 41525929.278556824 0 41525929.278556824 -65744419.537765503 0 0 0 0 -17022739.915435791 46416450.776473999 0 46416450.776473999 -2561543.7947845459 0 0 0 0 -21819085.452293396 24875374.758419037 0 24875374.758419037 48182368.386016846 0 0 0 0 13397290.122619629 28865252.886314392 0 28865252.886314392 2366040.1034545898 0 0 0 0 75424495.054149628 13024681.169773102 0 13024681.169773102 3505765.1903533936 0 0 0 0 -41903961.652053833 50139995.987398148 0 50139995.987398148 24800482.335662842 0 0 0 0 -25146568.794122458 26805406.476487268 0 26805406.476487268 1245802.0704205036 0 0 0 0 -1489626.1688663214 22970622.646234848 0 22970622.646234848 -9401006.4976681806 0 0 0 0 -5026953.0153198242 35220649.951774597 0 35220649.951774597 2992354.2534885406 0 0 0 0 -4933543.0671386719 32878627.14497757 0 32878627.14497757 22266966.90348053 0 0 0 0 -6444943.5938148499 30154791.53030014 0 30154791.53030014 19472259.176807404 0 0 0 0 -7601220.8926010132 36774973.095924377 0 36774973.095924377 20279912.266525269 0 0 0 0 -2734706.2998046875 39473247.657604218 0 39473247.657604218 8861866.118019104 0 0 0 0 -8753401.1505953372 20913118.779430963 0 20913118.779430963 -3669395.1040145308 0 0 0 0 1059492.6951599121 50068744.06186676 0 50068744.06186676 -12165273.90713501 0 0 0 0 433559477.95531273 -209958289.17609024 0 -209958289.17609024 -146345683.88981628 0 0 0 0 17261865.831815723 16902154.935242265 0 16902154.935242265 -14997292.392785579 0 0 0 0 -11432678.006271362 21251426.254051208 0 21251426.254051208 -7993846.1430416107 0 0 0 0 -69292619.400104523 31354832.631656647 0 31354832.631656647 22606196.485717773 0 0 0 0 -27971379.966703415 53845314.626823425 0 53845314.626823425 33905950.979278564 0 0 0 0 -11066893.50327301 19959834.150222778 0 19959834.150222778 39864619.898284912 0 0 0 0 -2477543.3243050389 18013379.959551349 0 18013379.959551349 15219672.013354599 0 0 0 0 8269393.8738021851 43317428.640434265 0 43317428.640434265 16370779.714874268 0 0 0 0 -1349680.2332305908 44392849.038238525 0 44392849.038238525 29477648.365627289 0 0 0 0 -783011.86191801541 -1379662.4093070179 0 -1379662.4093070179 878114.13432605565 0 0 0 0 15093244.369567871 28090903.386283875 0 28090903.386283875 -811511.80198669434 0 0 0 0 4327563.9960975647 36749004.902889252 0 36749004.902889252 5761594.6858978271 0 0 0 0 -13963199.975326538 31469098.171676636 0 31469098.171676636 5018444.6797733307 0 0 0 0 -1271092.7168121338 15557797.592285156 0 15557797.592285156 -10409424.646606445 0 0 0 0 -11706388.37963295 37593001.96588707 0 37593001.96588707 12589616.677871704 0 0 0 0 -7657553.6167099476 40639662.986525893 0 40639662.986525893 13408859.225418091 0 0 0 0 -7019946.8692436218 35985149.308956146 0 35985149.308956146 -472333.79762268066 0 0 0 0 -12625582.122524261 35726979.674732208 0 35726979.674732208 5599730.2386169434 0 0 0 0 -18674411.313396454 26598889.904018402 0 26598889.904018402 -1019955.2664031982 0 0 0 0 -56439437.596153259 22440940.980991364 0 22440940.980991364 1916505.84790802 0 0 0 0 -40926376.558517456 7854921.4623718262 0 7854921.4623718262 -3590204.3786888123 0 0 0 0 -20361508.924663544 28574108.293491364 0 28574108.293491364 -3026930.7791137695 0 0 0 0 -37001844.882961273 17823789.034713745 0 17823789.034713745 -2818840.6970945597 0 0 0 0 -37407000.805111408 20218881.343792915 0 20218881.343792915 -10727871.462768555 0 0 0 0 -21984563.231788635 29266467.348594666 0 29266467.348594666 -2044396.0013961792 0 0 0 0 -15047968.778720856 23780910.353244781 0 23780910.353244781 -896066.20422363281 0 0 0 0 -17201333.689712524 29174288.585418701 0 29174288.585418701 9446.8106501159564 0 0 0 0 -35628908.352552414 15647889.905889511 0 15647889.905889511 -4514509.0134048462 0 0 0 0 -45099235.322673798 26483184.27678299 0 26483184.27678299 -17839.279457092285 0 0 0 0 304905.35599517822 29274097.865747452 0 29274097.865747452 -38687.779243469238 0 0 0 0 -7363928.0231170654 22118057.803726196 0 22118057.803726196 -102281.22782897949 0 0 0 0 -8727043.3573226929 33807241.05166626 0 33807241.05166626 5196586.9085140228 0 0 0 0 3402206.750166893 24575913.735640526 0 24575913.735640526 23856659.309165955 0 0 0 0 1875105.8261642456 31056953.559143066 0 31056953.559143066 3740407.3546447754 0 0 0 0 -8900146.7653808594 38120220.771347761 0 38120220.771347761 16911618.980178833 0 0 0 0 -8720778.7606048584 35753446.67288208 0 35753446.67288208 4234759.7290420532 0 0 0 0 544844.54067611694 41464296.089725494 0 41464296.089725494 8125886.0893516541 0 0 0 0 -76820874.807609558 8842678.0363407135 0 8842678.0363407135 68498671.553443909 0 0 0 0 1753163.4810390472 45184783.154705048 0 45184783.154705048 19533453.718139648 0 0 0 0 -7287009.3332166895 5081443.4023854826 0 5081443.4023854826 4435658.2574326843 0 0 0 0 -36830198.148147583 10235356.40921402 0 10235356.40921402 -1390920.220243454 0 0 0 0 1954502.6395621821 -1980469.1544050872 0 -1980469.1544050872 -2433244.9447323233 0 0 0 0 -188704175.07917023 -15654010.279321671 0 -15654010.279321671 18952500.107009888 0 0 0 0 62151968.625495911 54635249.460119247 0 54635249.460119247 -55843.189025878906 0 0 0 0 -80831038.336921692 28707725.319437027 0 28707725.319437027 31005.325180053711 0 0 0 0 -37717108.128314972 61327701.525676727 0 61327701.525676727 896790.97312545776 0 0 0 0 -59409398.410542488 39220317.894499779 0 39220317.894499779 -15262.281059265137 0 0 0 0 -63412686.626747131 25720808.667140961 0 25720808.667140961 -22804559.907730103 0 0 0 0 -70806822.433269501 40231316.620262146 0 40231316.620262146 7964034.2337493896 0 0 0 0 -79253974.035957336 62870096.195724487 0 62870096.195724487 -30731314.231754303 0 0 0 0 -30379944.341159821 43128010.340135574 0 43128010.340135574 -20366005.17124176 0 0 0 0 -25158716.940289736 61174095.524134874 0 61174095.524134874 15894619.904449463 0 0 0 0 -24587373.366744995 37943078.526004791 0 37943078.526004791 -2003188.3466911316 0 0 0 0 -69467116.437351227 52307591.946266174 0 52307591.946266174 88352102.641448975 0 0 0 0 11971597.266201019 170963709.23551273 0 170963709.23551273 225576481.14506531 0 0 0 0 646557.19980758429 757858.46520738304 0 757858.46520738304 391125.39394066483 0 0 0 0 87337285.944503546 156689554.492881 0 156689554.492881 -166469179.70327759 0 0 0 0 84334525.269485474 242508227.37713242 0 242508227.37713242 45758394.140895844 0 0 0 0 -41831019.251686096 94221185.655796051 0 94221185.655796051 178326463.72232819 0 0 0 0 79130063.489427567 76379353.378921509 0 76379353.378921509 75601279.626911163 0 0 0 0 -36784857.804213107 22089267.017380387 0 22089267.017380387 -6740536.32751178 0 0 0 0 -39780954.641258806 28011997.296863846 0 28011997.296863846 -6859989.9537521265 0 0 0 0 -16711228.517745972 61249759.53943634 0 61249759.53943634 9391218.4898262024 0 0 0 0 -41322768.390716553 66430529.516296387 0 66430529.516296387 32164848.087112427 0 0 0 0 33246101.190868378 134858750.71328545 0 134858750.71328545 -22149158.157501221 0 0 0 0 35517347.957832336 127515213.37530708 0 127515213.37530708 -3417501.7737731934 0 0 0 0 61480374.080337524 105164231.37527466 0 105164231.37527466 -10574329.190458298 0 0 0 0 35717143.700630188 111294865.88849831 0 111294865.88849831 -28232279.157409668 0 0 0 0 2641262.5124816895 105896440.87353897 0 105896440.87353897 52122055.917282104 0 0 0 0 4373965.1080169678 56253562.525936127 0 56253562.525936127 6602980.3555259705 0 0 0 0 75430036.906356812 48873363.848953247 0 48873363.848953247 -19440508.798492432 0 0 0 0 99235202.421691895 58473154.274871826 0 58473154.274871826 -15644905.050361633 0 0 0 0 58746640.341571808 100822377.20514011 0 100822377.20514011 -17378035.827468872 0 0 0 0 137885485.46504974 94458872.462478638 0 94458872.462478638 -20638148.384521484 0 0 0 0 79196523.951187134 99628397.785072327 0 99628397.785072327 8669587.0475616455 0 0 0 0 165745080.66088867 77849309.930343628 0 77849309.930343628 -33197769.00743103 0 0 0 0 203184066.14685059 97667128.019866943 0 97667128.019866943 -63464442.508743286 0 0 0 0 13267968.777183533 -5039798.0977725983 0 -5039798.0977725983 88791322.133880615 0 0 0 0 104405642.94905853 42981700.365760803 0 42981700.365760803 18452224.59942627 0 0 0 0 373031330.68278503 -34188598.421600342 0 -34188598.421600342 -10021804.990066528 0 0 0 0 111504107.86398315 -272056604.00471497 0 -272056604.00471497 397462875.82177734 0 0 0 0 14312563.680145264 -22960394.522964478 0 -22960394.522964478 102642794.53645325 0 0 0 0 37093297.476318359 105116041.03888321 0 105116041.03888321 -40661070.489532471 0 0 0 0 44343396.303993225 122466640.82239532 0 122466640.82239532 -22493494.473052979 0 0 0 0 32713278.480621338 105992131.67848206 0 105992131.67848206 -12143839.227470398 0 0 0 0 75444278.3229599 113760846.29882812 0 113760846.29882812 -30798185.13482666 0 0 0 0 62855700.478820801 101132149.28759003 0 101132149.28759003 -27394848.746673584 0 0 0 0 55980102.550811768 114985613.09997559 0 114985613.09997559 -20640874.203918457 0 0 0 0 38834462.119644165 95286289.076133728 0 95286289.076133728 -24370873.922393799 0 0 0 0 17162073.623825073 84441094.242080688 0 84441094.242080688 -40245602.473907471 0 0 0 0 13252890.273101807 94151642.974533081 0 94151642.974533081 -28771388.524085999 0 0 0 0 29109501.616973877 103881288.89068604 0 103881288.89068604 -30021119.481079102 0 0 0 0 23653244.297981262 71394199.098884583 0 71394199.098884583 -90952864.286201477 0 0 0 0 25401339.769104004 86662178.532333374 0 86662178.532333374 -49261776.188591003 0 0 0 0 14301894.374427795 63718575.428171158 0 63718575.428171158 -71438519.489990234 0 0 0 0 43608482.592971802 97036623.761550903 0 97036623.761550903 -60574465.936233521 0 0 0 0 27329279.417297363 113154181.19877625 0 113154181.19877625 -27339853.65512085 0 0 0 0 18143724.668151855 62217046.736671448 0 62217046.736671448 -71399193.538505554 0 0 0 0 15786031.43951416 71898088.253826141 0 71898088.253826141 -85416978.267131805 0 0 0 0 -991638.0479221344 28228598.160071373 0 28228598.160071373 -125871132.55262756 0 0 0 0 18500412.505554199 54447641.295860291 0 54447641.295860291 -103005665.78251457 0 0 0 0 41948636.220058441 60715224.712516785 0 60715224.712516785 -172418531.2559967 0 0 0 0 95764351.652702332 135726189.30462646 0 135726189.30462646 -80160733.682785034 0 0 0 0 28807505.228378296 130832881.39181519 0 130832881.39181519 -22421258.872451782 0 0 0 0 1478300.4542657286 1460714.5415915102 0 1460714.5415915102 524525.49508550018 0 0 0 0 -56978580.129463196 210615554.06703568 0 210615554.06703568 -184616649.5223465 0 0 0 0 -68086017.803581238 78731208.596946716 0 78731208.596946716 -108859500.20952201 0 0 0 0 -36447863.097679138 115273846.17373943 0 115273846.17373943 -197029669.45054626 0 0 0 0 865862.05229477584 710096.86996931583 0 710096.86996931583 20329.278225980699 0 0 0 0 100435358.8999176 215814369.86595535 0 215814369.86595535 -309203814.74965668 0 0 0 0 16941177.863082886 180128661.20227051 0 180128661.20227051 -21455047.763366699 0 0 0 0 -82132726.645248413 166005613.74517822 0 166005613.74517822 -21916699.645874023 0 0 0 0 -15306391.169662476 83993469.21672821 0 83993469.21672821 -259727237.27730179 0 0 0 0 -128098293.10877991 75088894.359621048 0 75088894.359621048 12835584.97756958 0 0 0 0 -78086563.361788422 148518154.98944095 0 148518154.98944095 83445711.233032227 0 0 0 0 -77854690.928184509 63142107.809391022 0 63142107.809391022 159050623.20018768 0 0 0 0 -146021581.77627563 83119381.645656586 0 83119381.645656586 266942174.77581024 0 0 0 0 -97240992.606163025 39190179.442020416 0 39190179.442020416 271900154.94457245 0 0 0 0 -86770029.038818359 5581102.1755218506 0 5581102.1755218506 338206854.52310944 0 0 0 0 -24398201.689788818 18379055.142875671 0 18379055.142875671 172688252.19272995 0 0 0 0 -44223492.125991821 111060396.93878937 0 111060396.93878937 262859786.34335709 0 0 0 0 -43735630.647674561 13180971.576602936 0 13180971.576602936 420746506.97666931 0 0 0 0 -18726652.932388306 113049669.19157028 0 113049669.19157028 253889462.35819244 0 0 0 0 -48861358.947219849 177793472.63307667 0 177793472.63307667 208111543.61536407 0 0 0 0 29021706.78036499 98371914.50994873 0 98371914.50994873 273608446.99211884 0 0 0 0 -115685752.21942139 89410919.654663086 0 89410919.654663086 273768496.04343891 0 0 0 0 -99758526.093742371 172446864.36947632 0 172446864.36947632 234272240.38972473 0 0 0 0 -127629041.13925171 40811096.234970093 0 40811096.234970093 113765584.92724228 0 0 0 0 -79014257.124519348 164543347.17056274 0 164543347.17056274 284360012.48637009 0 0 0 0 -31788012.960824996 21284604.339915726 0 21284604.339915726 -7007165.8553312756 0 0 0 0 -29413250.133552551 49678414.927909851 0 49678414.927909851 49852665.265256882 0 0 0 0 -17357014.829528809 41217440.522384644 0 41217440.522384644 -1530264.2059631348 0 0 0 0 -25899789.554034412 21568683.972074233 0 21568683.972074233 -11308704.892602038 0 0 0 0 -48546910.034202576 109571938.28647423 0 109571938.28647423 380531105.81945801 0 0 0 0 -20591149.269844055 41336060.26166153 0 41336060.26166153 4508616.8716278076 0 0 0 0 -16675479.211967468 49153953.110671997 0 49153953.110671997 4329653.5920417309 0 0 0 0 -12578035.098518372 47060419.591163635 0 47060419.591163635 -9226787.2477531433 0 0 0 0 -30388220.437709808 40210428.962684631 0 40210428.962684631 -3306283.3469867706 0 0 0 0 -9067065.8358192444 45896190.645317078 0 45896190.645317078 -5219678.0349502563 0 0 0 0 -16122460.978103638 46226729.120330811 0 46226729.120330811 -4931558.571937561 0 0 0 0 -17762239.044498444 51601145.480010986 0 51601145.480010986 -7065.9408569335938 0 0 0 0 44408993.276889801 20794507.991931915 0 20794507.991931915 -16286292.809661865 0 0 0 0 -4204575.7722738087 784050.43989320099 0 784050.43989320099 1013445.0194378197 0 0 0 0 -9561851.3924255371 45998910.779678345 0 45998910.779678345 -1623356.6565628052 0 0 0 0 13511111.626480103 54986229.426593781 0 54986229.426593781 -9897.8215408325195 0 0 0 0 -7913732.0024642944 19044465.115589142 0 19044465.115589142 -16342881.188339233 0 0 0 0 -10797636.77481842 29359191.648277283 0 29359191.648277283 -11585025.690764427 0 0 0 0 16404414.883865356 36304087.61164856 0 36304087.61164856 -12679900.387329102 0 0 0 0 -20522858.567931861 18987655.871909965 0 18987655.871909965 -10444051.22980608 0 0 0 0 -19696126.75553894 26879657.056369781 0 26879657.056369781 -10908491.194877625 0 0 0 0 -30998266.846679688 79416414.291641235 0 79416414.291641235 -43200761.360733032 0 0 0 0 -13831983.102413177 43073572.262306213 0 43073572.262306213 -601176.82925415039 0 0 0 0 -47416800.023071289 -27869500.320632935 0 -27869500.320632935 305846080.99988556 0 0 0 0 20140495.25352478 201484970.29948997 0 201484970.29948997 500465750.4484787 0 0 0 0 -5607966.3730982691 -2023053.4020249397 0 -2023053.4020249397 7809676.8425027281 0 0 0 0 -54792791.031188965 74173271.312545776 0 74173271.312545776 350062339.04919815 0 0 0 0 1580027.3774644732 4078584.888211444 0 4078584.888211444 -5231900.8132170886 0 0 0 0 -56211919.387023926 100246723.0758667 0 100246723.0758667 290594141.77307129 0 0 0 0 3614394.6654701233 55103745.969786167 0 55103745.969786167 319192919.49758911 0 0 0 0 -49582578.786010742 65918591.367500305 0 65918591.367500305 336022426.99398708 0 0 0 0 -97502893.251663208 26834921.719284058 0 26834921.719284058 314982076.42150879 0 0 0 0 -94967511.76512146 33954606.392982483 0 33954606.392982483 251257300.63639832 0 0 0 0 -90987496.168228149 -21847147.686584473 0 -21847147.686584473 320668207.03245544 0 0 0 0 -89439878.68359375 -33061635.517051697 0 -33061635.517051697 223296857.12416077 0 0 0 0 -36081881.951293945 18187646.251205444 0 18187646.251205444 112421741.83511353 0 0 0 0 -11307204.453414917 -36708559.887241364 0 -36708559.887241364 216501253.14015198 0 0 0 0 -48796914.980560303 11704597.894477844 0 11704597.894477844 240494558.45801544 0 0 0 0 -52696004.118797302 78658821.470174789 0 78658821.470174789 76648973.85369873 0 0 0 0 25820194.938476562 2089596.9702758789 0 2089596.9702758789 70830636.291053772 0 0 0 0 75403201.46875 -133219550.9890213 0 -133219550.9890213 150394104.97746277 0 0 0 0 -8506565.0127149522 2046318.0891240239 0 2046318.0891240239 -1947325.1630319357 0 0 0 0 -14060483.371994019 15068288.575435638 0 15068288.575435638 90265856.719734192 0 0 0 0 -19433341.288101196 7166016.9409332275 0 7166016.9409332275 -12771212.225345612 0 0 0 0 -47589164.575805664 32582028.024730682 0 32582028.024730682 7606503.2723236084 0 0 0 0 -1738700.8125268221 9355863.6060289145 0 9355863.6060289145 3816014.7380055785 0 0 0 0 -13792435.002169356 17922803.725986835 0 17922803.725986835 -12874557.282338917 0 0 0 0 -3953744.15184021 -23099237.645126343 0 -23099237.645126343 36671519.705215752 0 0 0 0 -14255295.210622787 14136914.548247337 0 14136914.548247337 -16030310.311706543 0 0 0 0 -14961488.852516174 -19525885.522586823 0 -19525885.522586823 61615303.068229675 0 0 0 0 -9491792.0576629639 8615547.0523757935 0 8615547.0523757935 36451191.630950928 0 0 0 0 -35778428.625909805 22477450.533027649 0 22477450.533027649 85354755.36958313 0 0 0 0 -16815984.11706543 2482703.0555343628 0 2482703.0555343628 113589785.95854378 0 0 0 0 -11233241.308288574 20084578.276916504 0 20084578.276916504 -13189392.895130157 0 0 0 0 -25755731.553024292 29038269.160202026 0 29038269.160202026 -6208436.5036315918 0 0 0 0 -7512456.6655514464 4913275.722344473 0 4913275.722344473 -2829113.547905758 0 0 0 0 -34791928.069255829 24962025.606082916 0 24962025.606082916 -6100792.8288269043 0 0 0 0 -5522954.4292373657 4403295.8486251831 0 4403295.8486251831 -1964296.6124191284 0 0 0 0 -13849502.480321884 13979120.740103088 0 13979120.740103088 -3979429.9737522155 0 0 0 0 -30352928.433044434 19445765.231964111 0 19445765.231964111 -16571196.846679688 0 0 0 0 -15823565.408447266 5208712.463470459 0 5208712.463470459 -1876884.933303833 0 0 0 0 -1552681.3662504554 1402391.2778707743 0 1402391.2778707743 -312421.29068817198 0 0 0 0 -8612784.4274477214 5660372.2061498202 0 5660372.2061498202 -2656398.4723124728 0 0 0 0 -16905894.857421875 13646628.00163269 0 13646628.00163269 -3974608.8214111328 0 0 0 0 -10705447.162994385 19012805.964324951 0 19012805.964324951 -6983013.2888336182 0 0 0 0 -14928134.353942871 10105096.298576355 0 10105096.298576355 -3352408.9956989288 0 0 0 0 -32426874.969329834 18540812.706054688 0 18540812.706054688 -3286821.4993591309 0 0 0 0 1945011.8205032349 8123153.4328346252 0 8123153.4328346252 -11001041.60761261 0 0 0 0 -5715033.2402714789 1218419.440577805 0 1218419.440577805 -145373.32853244245 0 0 0 0 -19927901.197036743 23510275.702453613 0 23510275.702453613 -20038.315811157227 0 0 0 0 -38019214.311019897 15961159.814689636 0 15961159.814689636 -2937065.5168762207 0 0 0 0 -19565637.038024902 26735418.568717957 0 26735418.568717957 -8475654.2229309082 0 0 0 0 -2271084365.8170776 1185300694.5883484 0 1185300694.5883484 271665.38729782065 0 0 0 0 188936.72333526611 400981776.70713997 0 400981776.70713997 -242742529.54640961 0 0 0 0 -1788933798.290535 2271991969.0489998 0 2271991969.0489998 -831550158.22404099 0 0 0 0 -482265853.20674133 -262608543.28681564 0 -262608543.28681564 -54092393.296798706 0 0 0 0 -2912815.7200733274 1938597.7726744041 0 1938597.7726744041 -989541.06812413782 0 0 0 0 -47141834.844295502 61892677.714292526 0 61892677.714292526 -82645010.144195557 0 0 0 0 25708335.971420288 -19126130.406837463 0 -19126130.406837463 -204679849.56772232 0 0 0 0 -7364994.7721612304 6265622.9322347455 0 6265622.9322347455 -3109429.2492765039 0 0 0 0 -4034086.7266983464 6073160.7764473259 0 6073160.7764473259 -3970756.3116443306 0 0 0 0 -187685958.35282516 58094448.691610336 0 58094448.691610336 -4502165.5285797119 0 0 0 0 -52409993.130249023 -20283388.91809845 0 -20283388.91809845 -22541549.108070374 0 0 0 0 -150501866.20765686 -8820559.0332260132 0 -8820559.0332260132 1086854.6222229004 0 0 0 0 -86463996.554519653 35351043.844779968 0 35351043.844779968 -16490185.858753204 0 0 0 0 -194019856.37241125 215139817.49443674 0 215139817.49443674 -139610001.0201416 0 0 0 0 -185114188.87770367 70109465.937855005 0 70109465.937855005 -5265156.7380218506 0 0 0 0 -335589.04824432731 440070.73500943184 0 440070.73500943184 -3006220.4585531503 0 0 0 0 -696685.7442898415 2566128.0390010476 0 2566128.0390010476 -1515045.0429074168 0 0 0 0 -35002104.481082916 15252881.983235359 0 15252881.983235359 -88932022.355194092 0 0 0 0 39580775.377090454 20946953.000061035 0 20946953.000061035 2360797.800453186 0 0 0 0 -6170275.2914123535 72413287.492584229 0 72413287.492584229 155142029.38702393 0 0 0 0 1157123.270306468 -449376.83639465272 0 -449376.83639465272 -2562979.2077288926 0 0 0 0 -47765570.272201538 328339692.54294968 0 328339692.54294968 901554494.29711914 0 0 0 0 20586.186102003361 4188722.1408231175 0 4188722.1408231175 228591252.64342499 0 0 0 0 247596035.4552536 -188056294.38262939 0 -188056294.38262939 684285897.53166008 0 0 0 0 230130080.1282959 324006428.54530716 0 324006428.54530716 437609574.36927032 0 0 0 0 -81070921.362426758 305579570.28853989 0 305579570.28853989 845320691.52953339 0 0 0 0 207738176.5316925 -391018601.12738037 0 -391018601.12738037 600818490.4777298 0 0 0 0 -110931238.55995178 99451578.57447052 0 99451578.57447052 81362751.091247559 0 0 0 0 1348984.5694264024 1973850.2211083472 0 1973850.2211083472 2299190.706276685 0 0 0 0 -134621641.8649292 -93541107.498191833 0 -93541107.498191833 950992188.59718323 0 0 0 0 -47827776.61907959 -132593223.98030853 0 -132593223.98030853 390158135.78036499 0 0 0 0 -138856695.74163818 -6699252.7230758667 0 -6699252.7230758667 440204187.33798409 0 0 0 0 -63380331.730430603 -53567507.432229996 0 -53567507.432229996 455379230.85671997 0 0 0 0 -125831343.65771484 1760229.3542404175 0 1760229.3542404175 334562109.85374069 0 0 0 0 -122277035.92720032 -3215441.3736991882 0 -3215441.3736991882 341147918.24433136 0 0 0 0 -120053067.99199677 79038089.346038818 0 79038089.346038818 201719094.01541138 0 0 0 0 -148001355.36911774 89931696.30563736 0 89931696.30563736 377579068.43818665 0 0 0 0 -140772527.50569916 163771408.01731491 0 163771408.01731491 236083533.90452576 0 0 0 0 -134365798.58410645 157738116.67604828 0 157738116.67604828 206336744.28196383 0 0 0 0 -52040290.44972229 93262858.662563324 0 93262858.662563324 423469607.42989349 0 0 0 0 -186414913.71696472 146562999.00220108 0 146562999.00220108 537633163.58978844 0 0 0 0 -160665331.7303009 308949253.14222336 0 308949253.14222336 330538300.78898621 0 0 0 0 -66422137.649780273 208137385.39311981 0 208137385.39311981 22999131.076416016 0 0 0 0 -191296961.22962952 309965900.92673492 0 309965900.92673492 95408194.186191559 0 0 0 0 -10826659.951927185 274475707.30331993 0 274475707.30331993 -235171664.03875732 0 0 0 0 -111319043.01028442 132325345.62526703 0 132325345.62526703 201534304.0952301 0 0 0 0 -43313401.751579285 490361901.58249283 0 490361901.58249283 -454441701.47199249 0 0 0 0 131627542.49901581 289190097.42693233 0 289190097.42693233 -233715535.28590393 0 0 0 0 -425372927.72567749 339428219.22192955 0 339428219.22192955 -24918827.75440979 0 0 0 0 -129105827.28109741 -2976527.1923446655 0 -2976527.1923446655 -462546803.28684235 0 0 0 0 74742167.331565857 -43770877.598049164 0 -43770877.598049164 -144944394.091465 0 0 0 0 -23270.982637506837 143861063.13058585 0 143861063.13058585 255173791.75372314 0 0 0 0 69593777.725746155 84001555.194629669 0 84001555.194629669 137214722.61510468 0 0 0 0 -39548200.793428421 232109398.21051311 0 232109398.21051311 31206044.303840637 0 0 0 0 -809092524.14068174 1103051832.2580929 0 1103051832.2580929 -937119715.8079834 0 0 0 0 -24687272.776011497 33623882.233764127 0 33623882.233764127 -33493620.54183884 0 0 0 0 -117896864.97975922 87865037.069152832 0 87865037.069152832 -181935070.00002289 0 0 0 0 173066796.72710419 858084590.024086 0 858084590.024086 -740658484.50865936 0 0 0 0 769171126.70523071 512997634.37312317 0 512997634.37312317 -1109720866.9291534 0 0 0 0 1770377129.5056267 -129654875.86093903 0 -129654875.86093903 -713861440.69898987 0 0 0 0 517438646.1348629 573675474.35333061 0 573675474.35333061 626932507.39329529 0 0 0 0 159116773.68286514 618208474.59774017 0 618208474.59774017 -338403677.66661835 0 0 0 0 87870941.607284546 413974595.64581299 0 413974595.64581299 -446819521.73414612 0 0 0 0 -8027582.1232696529 8964979.338906642 0 8964979.338906642 614689.92154750228 0 0 0 0 216795562.95061493 530009262.90095901 0 530009262.90095901 -535303149.03097153 0 0 0 0 12161201.980812073 409890159.32479477 0 409890159.32479477 -437023892.71778488 0 0 0 0 15204149.484466553 421394589.5377121 0 421394589.5377121 -685265821.39799881 0 0 0 0 -281417410.51050329 318871110.40688348 0 318871110.40688348 -644492678.41584015 0 0 0 0 -251215962.31578827 468395539.97932053 0 468395539.97932053 -479106573.49701691 0 0 0 0 -155267785.90222168 592688992.97706223 0 592688992.97706223 -3096827.4072666168 0 0 0 0 -206698254.99322891 402861409.72087479 0 402861409.72087479 -81034869.395294189 0 0 0 0 -119031648.1133194 269990451.65621567 0 269990451.65621567 -430680964.04091644 0 0 0 0 -19583214.444553375 488291529.70822144 0 488291529.70822144 -323350779.04910278 0 0 0 0 134288063.89668655 363360104.70367622 0 363360104.70367622 -475354665.33223343 0 0 0 0 71451602.989779949 224315236.44921398 0 224315236.44921398 638951866.33751678 0 0 0 0 -31986200.127471022 28990814.058075905 0 28990814.058075905 -20469499.934836268 0 0 0 0 117007014.71973777 478256970.02231646 0 478256970.02231646 253547077.32514954 0 0 0 0 594615046.48096466 754134438.51320267 0 754134438.51320267 -194221766.42485046 0 0 0 0 427195882.5331459 602477081.91140366 0 602477081.91140366 1002265747.9928627 0 0 0 0 264544405.1102829 106683416.97131348 0 106683416.97131348 689901848.54582977 0 0 0 0 358230399.28703451 493257328.89592457 0 493257328.89592457 707051894.89758301 0 0 0 0 -12748425.477783203 803585590.84326172 0 803585590.84326172 888439954.08674049 0 0 0 0 -98848275.957979202 579188741.59041214 0 579188741.59041214 1164421516.5767365 0 0 0 0 98217159.0418396 1155358239.8701935 0 1155358239.8701935 868739086.39819336 0 0 0 0 -5116235.5477051847 5413348.1149838492 0 5413348.1149838492 -817657.72144675255 0 0 0 0 -40528386.68460083 216505103.29444122 0 216505103.29444122 606459249.51037216 0 0 0 0 -232276806.1558876 254342208.97520447 0 254342208.97520447 1121655397.196312 0 0 0 0 -302927773.9412775 593700205.75159454 0 593700205.75159454 76959344.189193726 0 0 0 0 -118849437.06400299 481681959.16300964 0 481681959.16300964 784194298.65730286 0 0 0 0 78748144.9245224 239222643.09070587 0 239222643.09070587 189906177.56871033 0 0 0 0 358794927.80501556 294095966.98738098 0 294095966.98738098 -114301154.1933136 0 0 0 0 -156659390.52219009 170690460.02791977 0 170690460.02791977 1745804713.549305 0 0 0 0 41340698.728923798 43135739.997119904 0 43135739.997119904 792864779.17211914 0 0 0 0 735491104.72335243 297189872.71318817 0 297189872.71318817 1148424734.5335999 0 0 0 0 241588742.24180984 961363478.87947845 0 961363478.87947845 97757901.73500061 0 0 0 0 -248825278.9066658 1123056204.6261139 0 1123056204.6261139 465987629.95223999 0 0 0 0 -314531209.37818909 809397772.51118469 0 809397772.51118469 379167026.66209793 0 0 0 0 -232334788.13561606 979903657.50103998 0 979903657.50103998 71125677.906433105 0 0 0 0 -250235096.23558044 706849385.80134583 0 706849385.80134583 -84775550.279182434 0 0 0 0 -742624885.20327091 562541448.05323792 0 562541448.05323792 -209074609.24313354 0 0 0 0 -740943793.93463326 -283685546.84333038 0 -283685546.84333038 2556943992.4383621 0 0 0 0 -544304.85583857819 2140852.4241884574 0 2140852.4241884574 2106547.6175293326 0 0 0 0 29026138.230942726 628283535.77828979 0 628283535.77828979 673020117.5574646 0 0 0 0 173741072.88238525 610722178.14914513 0 610722178.14914513 150810915.74613953 0 0 0 0 70711649.705299377 235446642.57654572 0 235446642.57654572 -66758912.705793381 0 0 0 0 -3059277.4901240952 3105361.5707403645 0 3105361.5707403645 -422865.35715702176 0 0 0 0 103969847.64676762 608800247.21832085 0 608800247.21832085 68122260.577354431 0 0 0 0 65057573.630180359 117555288.16406631 0 117555288.16406631 444834349.18692207 0 0 0 0 51813138.949940681 182940729.80627823 0 182940729.80627823 125942669.09213257 0 0 0 0 61051040.665893555 212635537.82912445 0 212635537.82912445 161229653.03479004 0 0 0 0 -145937540.43971252 191907283.77645874 0 191907283.77645874 1126696507.4892273 0 0 0 0 1796942.955412114 8286672.8722511902 0 8286672.8722511902 4049292.8205475807 0 0 0 0 -23349379.256748199 451587692.7375679 0 451587692.7375679 112202284.91795349 0 0 0 0 136531902.95958328 339748125.17746735 0 339748125.17746735 175384999.53321075 0 0 0 0 56321541.458512306 489307100.19519043 0 489307100.19519043 243257493.24438477 0 0 0 0 117991016.33384168 398665156.77902985 0 398665156.77902985 34600229.357910156 0 0 0 0 119432730.81290722 394283486.45132446 0 394283486.45132446 45552110.298271179 0 0 0 0 189418557.0342257 296334931.51689148 0 296334931.51689148 -294651902.2928257 0 0 0 0 114711144.67924595 536967003.1305542 0 536967003.1305542 -198048740.28886414 0 0 0 0 111261776.84732056 190649094.09679794 0 190649094.09679794 -688340244.06678963 0 0 0 0 332789934.74278307 -289060732.93044186 0 -289060732.93044186 -949822187.15895844 0 0 0 0 -849286252.69296265 147117116.39943314 0 147117116.39943314 -154561321.60686111 0 0 0 0 -704994376.23983383 697216302.04615402 0 697216302.04615402 -229879849.54151917 0 0 0 0 662725286.86539364 698869493.49925995 0 698869493.49925995 -1303015836.2898865 0 0 0 0 645803677.92853737 1318625474.0845184 0 1318625474.0845184 -509137841.64379883 0 0 0 0 -892616910.47690868 -237767922.77480316 0 -237767922.77480316 155541048.57026672 0 0 0 0 -3360243.7417855766 4339157.1933622994 0 4339157.1933622994 -6287340.924860701 0 0 0 0 -396686345.03937149 2025439.4912033081 0 2025439.4912033081 93435850.504013062 0 0 0 0 -102172965.30853653 329068082.69268036 0 329068082.69268036 235523912.03638554 0 0 0 0 231184765.59254456 344600182.26506805 0 344600182.26506805 -14675400.647201538 0 0 0 0 83179404.563137054 211385669.28151417 0 211385669.28151417 57715977.469459534 0 0 0 0 -9741543.7757590748 14376850.096250743 0 14376850.096250743 -17679914.851166219 0 0 0 0 -22134450.908060074 39874214.84620285 0 39874214.84620285 29198945.326730728 0 0 0 0 54024111.077631593 99265754.601665497 0 99265754.601665497 8625971.9258041382 0 0 0 0 -2839192.2294476535 31727832.606221009 0 31727832.606221009 -26734132.548728123 0 0 0 0 178222949.11735296 -126596342.4638443 0 -126596342.4638443 20697300.323554993 0 0 0 0 -52242040.176596522 101527016.83701062 0 101527016.83701062 15322237.762001038 0 0 0 0 10617292.656475067 128934826.5016861 0 128934826.5016861 -1867286.9275894165 0 0 0 0 -54532475.429122925 67410159.938590765 0 67410159.938590765 -8469791.3769378662 0 0 0 0 7871922.4640693665 10834499.617156982 0 10834499.617156982 -90141598.363189697 0 0 0 0 13717932.801735759 6850076.9477876723 0 6850076.9477876723 -19467483.787541315 0 0 0 0 397910000.30764961 69852397.531589508 0 69852397.531589508 -67092367.599952698 0 0 0 0 179322611.92764282 276511640.46285248 0 276511640.46285248 -15541659.776598036 0 0 0 0 -32565491.261955261 112629475.486763 0 112629475.486763 21333375.384740829 0 0 0 0 -60733629.967590332 154783460.86433792 0 154783460.86433792 54464002.134384155 0 0 0 0 2680490.3145179749 181657560.08018112 0 181657560.08018112 49293565.235366821 0 0 0 0 657835.57200431824 153058727.24952698 0 153058727.24952698 -59718180.112945557 0 0 0 0 -7401005.1712226868 262409906.44494629 0 262409906.44494629 -83468543.975841522 0 0 0 0 97955497.272724152 174187994.97019958 0 174187994.97019958 25304858.551071167 0 0 0 0 138086641.65126228 75515303.64928627 0 75515303.64928627 30489324.526779175 0 0 0 0 158734841.40453911 67964451.905422211 0 67964451.905422211 -44316824.597564697 0 0 0 0 201412665.92487717 -33758600.886932373 0 -33758600.886932373 64733117.150856018 0 0 0 0 -53241967.658045769 115510442.55525589 0 115510442.55525589 409586846.96298218 0 0 0 0 -274125424.95863342 787972514.62467957 0 787972514.62467957 33148905.032516479 0 0 0 0 -199859162.23843765 -389912931.3157959 0 -389912931.3157959 922037038.34405518 0 0 0 0 1145296.1503651403 4348168.8267485276 0 4348168.8267485276 -4705402.1185464021 0 0 0 0 169400054.40127087 93289970.016441345 0 93289970.016441345 -24905819.35774231 0 0 0 0 23886783.422457073 8482357.4184551314 0 8482357.4184551314 -27516860.687188972 0 0 0 0 146280046.99863529 -195682360.38076019 0 -195682360.38076019 142686342.32524109 0 0 0 0 1260944.103729248 14097594.103149414 0 14097594.103149414 -11501447.759666443 0 0 0 0 68713508.720043182 15667291.218214035 0 15667291.218214035 -115191489.57357407 0 0 0 0 8577554.1628415585 24176498.413029984 0 24176498.413029984 -31995360.927488595 0 0 0 0 49031717.510187149 44754680.926280975 0 44754680.926280975 19085403.001525879 0 0 0 0 8286688.6580077996 13377645.846008703 0 13377645.846008703 -21659565.416733056 0 0 0 0 62389060.229137421 -3126089.1403150558 0 -3126089.1403150558 -58394348.743053436 0 0 0 0 27465978.574453138 4816397.4284206107 0 4816397.4284206107 -19534331.310957342 0 0 0 0 75911207.120761871 -23117118.611183167 0 -23117118.611183167 -108686578.37765503 0 0 0 0 112511135.65553665 -34785878.863054276 0 -34785878.863054276 -200781597.36749268 0 0 0 0 149717924.72362518 37833781.960258484 0 37833781.960258484 -112702213.34122944 0 0 0 0 123565490.05722046 22408687.735862732 0 22408687.735862732 -189814482.89741325 0 0 0 0 88833853.717938423 307371328.39772224 0 307371328.39772224 -123874890.55980682 0 0 0 0 263194296.016716 37825303.492013931 0 37825303.492013931 -226061566.00350952 0 0 0 0 -5648021.708829727 10636647.685739249 0 10636647.685739249 -8694077.7779254764 0 0 0 0 -3850319.5938993711 37641073.781576082 0 37641073.781576082 -50279092.83230257 0 0 0 0 246128384.68014956 247131219.73354912 0 247131219.73354912 -112301832.88677979 0 0 0 0 206389323.93519974 -40322465.042181015 0 -40322465.042181015 -234786270.65431976 0 0 0 0 101782023.05142975 -25146245.754417419 0 -25146245.754417419 -277900783.89602661 0 0 0 0 42689647.201669693 234267218.46081781 0 234267218.46081781 -390196206.17988586 0 0 0 0 67329214.370018005 129692445.96445465 0 129692445.96445465 -60896342.609577179 0 0 0 0 4201826.8054676056 355369480.70964241 0 355369480.70964241 -338706920.39054871 0 0 0 0 -19972097.181673564 42372428.834064811 0 42372428.834064811 -47732277.606407098 0 0 0 0 238033304.29437256 -105376827.01899338 0 -105376827.01899338 -449816228.97006989 0 0 0 0 13699096.658394771 -2217262.6908097155 0 -2217262.6908097155 -8402850.2094240487 0 0 0 0 580429969.48229408 1477928581.2816162 0 1477928581.2816162 66917271.449481964 0 0 0 0 -283608159.98563385 438175915.26709557 0 438175915.26709557 -676605514.88641357 0 0 0 0 -338800680.41386414 331373145.86033249 0 331373145.86033249 -792915512.10990906 0 0 0 0 -126663592.92863464 259442711.03691673 0 259442711.03691673 -568365083.09513855 0 0 0 0 60826513.405639648 228715820.70283508 0 228715820.70283508 -435906616.06080627 0 0 0 0 42351335.869392395 296557151.88637161 0 296557151.88637161 -664410404.77801132 0 0 0 0 99208666.619224548 405648176.7121315 0 405648176.7121315 -554004833.40093994 0 0 0 0 -49830407.252876282 183990610.35571671 0 183990610.35571671 -461366766.95861816 0 0 0 0 89048549.088912964 1828571.647315979 0 1828571.647315979 -538387092.31890869 0 0 0 0 -19358477.077264786 222227383.68233109 0 222227383.68233109 -846220226.05857849 0 0 0 0 -106042850.23090363 78920758.368579865 0 78920758.368579865 -600542231.55141068 0 0 0 0 -76064313.501710892 -176804170.80777311 0 -176804170.80777311 -359162159.5052948 0 0 0 0 -28801191.889144897 130004024.2553978 0 130004024.2553978 -567005018.53139114 0 0 0 0 100922908.98956299 32443665.450046539 0 32443665.450046539 -195922588.99283218 0 0 0 0 65694968.956176758 -90204173.815681458 0 -90204173.815681458 -265218350.98783666 0 0 0 0 35189001.420974731 33484232.332420349 0 33484232.332420349 -267427365.72887802 0 0 0 0 -2653990.3139648438 -131264825.5177536 0 -131264825.5177536 -81193153.638141632 0 0 0 0 22912621.757902786 4496493.6882633306 0 4496493.6882633306 -8020518.2430409482 0 0 0 0 79485867.073448181 8774056.4852600098 0 8774056.4852600098 -15318681.181808472 0 0 0 0 18388121.383415222 -46628058.428308487 0 -46628058.428308487 -101303826.43248653 0 0 0 0 18353695.588997696 -15163365.868349882 0 -15163365.868349882 -21031099.87903595 0 0 0 0 5639037.6299389824 1643677.403786391 0 1643677.403786391 -1951786.7292016596 0 0 0 0 19741677.684104741 8882636.0738456454 0 8882636.0738456454 -5851749.904601559 0 0 0 0 -53643218.649517059 7246132.0090637207 0 7246132.0090637207 29862657.417285919 0 0 0 0 -147153748.04848862 -27493293.349412918 0 -27493293.349412918 45908387.796783447 0 0 0 0 27113961.769752502 -44078584.42824173 0 -44078584.42824173 32181100.294620514 0 0 0 0 -39247537.300327301 95275933.495615005 0 95275933.495615005 -68822943.645523071 0 0 0 0 55455819.373588562 32256642.296102524 0 32256642.296102524 -31550839.972408295 0 0 0 0 1717149.7653513812 9708696.7433931381 0 9708696.7433931381 -8288389.0943736359 0 0 0 0 -16904133.136447906 315542959.86674976 0 315542959.86674976 -93294716.774559021 0 0 0 0 1036402194.6135712 3649088.7087097168 0 3649088.7087097168 -110133011.37093043 0 0 0 0 871120.84840543568 3880906.1575992554 0 3880906.1575992554 -1006330.1499144828 0 0 0 0 -961457.72313573956 4040934.0801829994 0 4040934.0801829994 -2995345.6478747353 0 0 0 0 198049135.38950729 283525043.30853939 0 283525043.30853939 -1538524507.4122086 0 0 0 0 -184882559.93680191 67463033.146796227 0 67463033.146796227 -73937230.691886902 0 0 0 0 -132880197.31551361 -156846484.64569855 0 -156846484.64569855 -503330363.45104218 0 0 0 0 -814684063.43675232 544555086.42728233 0 544555086.42728233 18679839.366420746 0 0 0 0 -1908196857.4839401 1233017586.8119202 0 1233017586.8119202 -386011487.85372353 0 0 0 0 269200891.94088745 603376165.46823502 0 603376165.46823502 -157357245.92368317 0 0 0 0 128339507.32095337 954700359.01353836 0 954700359.01353836 315494665.9261837 0 0 0 0 -675945792.39431 1051973644.6962967 0 1051973644.6962967 -90719786.56379509 0 0 0 0 -473075689.50536156 520410943.17889547 0 520410943.17889547 20632286.818367004 0 0 0 0 -1038576667.3308868 1337666797.2773609 0 1337666797.2773609 -947632151.13258362 0 0 0 0 -862115918.23752213 923846272.73810577 0 923846272.73810577 -91758435.058898926 0 0 0 0 -1931370908.3601227 1750242509.1968517 0 1750242509.1968517 -956610196.27274895 0 0 0 0 -1498696366.1716881 1166573292.2846556 0 1166573292.2846556 -173203896.55997086 0 0 0 0 -998847827.05279541 937706217.51549911 0 937706217.51549911 -157625697.46627045 0 0 0 0 -1175414577.0935955 1024482765.975955 0 1024482765.975955 -174036030.00748062 0 0 0 0 -1027237740.558569 1393381021.4500425 0 1393381021.4500425 -430879424.83713913 0 0 0 0 -1050244064.5025864 1187145116.8585968 0 1187145116.8585968 -653237180.62602043 0 0 0 0 -988148143.37011719 977621100.58399582 0 977621100.58399582 -430146252.69453049 0 0 0 0 -891290418.88771439 817753947.00767517 0 817753947.00767517 -632773131.97492981 0 0 0 0 -999373176.921875 544102039.02111053 0 544102039.02111053 -520216345.8290844 0 0 0 0 -507344594.11761475 449907012.79584122 0 449907012.79584122 -150294621.16890144 0 0 0 0 -1157190721.2433701 800070698.86207199 0 800070698.86207199 -269436965.14482117 0 0 0 0 -898012303.14138031 833751297.87309456 0 833751297.87309456 -324495089.04481506 0 0 0 0 -648161453.45884323 386578487.45310974 0 386578487.45310974 -109661667.04612732 0 0 0 0 -262541680.4950943 154632298.11198616 0 154632298.11198616 -45830840.250152588 0 0 0 0 -104502365.56173515 686013431.2579422 0 686013431.2579422 -156825797.09230804 0 0 0 0 -342144722.28395653 205280321.23214531 0 205280321.23214531 4310647.5807342529 0 0 0 0 -1141892616.8950844 765747070.63941574 0 765747070.63941574 -61564227.050271988 0 0 0 0 -1225415229.4841461 566347261.77230263 0 566347261.77230263 -208548843.03882599 0 0 0 0 -1003413807.0542297 637621185.88369751 0 637621185.88369751 -134789544.80476379 0 0 0 0 -1248639979.4553356 469096930.39357185 0 469096930.39357185 -608775183.16885376 0 0 0 0 -1556953898.2214432 640514216.92967224 0 640514216.92967224 -689846798.91130447 0 0 0 0 -2159717618.017334 865479415.22858429 0 865479415.22858429 -460024880.58034515 0 0 0 0 -925667055.8682785 516514914.4095192 0 516514914.4095192 -714658700.23002625 0 0 0 0 -916859049.50350952 403762284.21807861 0 403762284.21807861 -555785041.01751709 0 0 0 0 -1577885073.9490051 541121325.11041641 0 541121325.11041641 -545431944.23370361 0 0 0 0 -836157517.00771332 480534698.30542755 0 480534698.30542755 -661315616.58693695 0 0 0 0 -838863370.35183144 618732814.54063392 0 618732814.54063392 -724005012.64614868 0 0 0 0 -136532625.25023413 423945732.93069339 0 423945732.93069339 -1171670394.9467392 0 0 0 0 -1796766417.9904022 1066172052.0473022 0 1066172052.0473022 -813224197.57883644 0 0 0 0 -924290193.85235405 927679148.07827091 0 927679148.07827091 -1461774032.97686 0 0 0 0 -1681999311.0181656 346777543.42923737 0 346777543.42923737 -639131446.75393295 0 0 0 0 76524155.833785057 -273154939.8303566 0 -273154939.8303566 434512189.09627533 0 0 0 0 -85240441.361824036 36460349.765708923 0 36460349.765708923 38105189.861471176 0 0 0 0 -4670716.0113533586 15609341.928217843 0 15609341.928217843 22650988.692468032 0 0 0 0 -26049620.076940536 25658583.445560455 0 25658583.445560455 19366502.247455597 0 0 0 0 -48438875.557121277 16760746.245807648 0 16760746.245807648 12819052.663787842 0 0 0 0 -29517679.733358212 7651689.2250683922 0 7651689.2250683922 11765863.484395524 0 0 0 0 -19148295.041907489 3890768.0869667307 0 3890768.0869667307 11057745.117921356 0 0 0 0 -6228241.0528257005 6321958.518968679 0 6321958.518968679 3683562.9409072101 0 0 0 0 -1488436.6912403107 -21717709.044675827 0 -21717709.044675827 26345581.664260864 0 0 0 0 -82802947.107593536 -14152199.589366913 0 -14152199.589366913 65844113.141956329 0 0 0 0 -98013729.495164871 -25249600.497443199 0 -25249600.497443199 -7341008.2380447388 0 0 0 0 -410177227.21207809 136181569.8452816 0 136181569.8452816 5737522.6822624207 0 0 0 0 -867232878.89771843 -516111521.61861324 0 -516111521.61861324 -321965728.98601151 0 0 0 0 -22185062.237319946 1233572.2673988342 0 1233572.2673988342 -1152387.5484085083 0 0 0 0 -3624061.7855396196 3584237.6939313002 0 3584237.6939313002 -532813.97345530987 0 0 0 0 -2534958247.7070093 607312269.59840155 0 607312269.59840155 294843478.68876648 0 0 0 0 -754735462.00405121 -7398484.0274963379 0 -7398484.0274963379 302088197.34819913 0 0 0 0 -654149317.91664886 282847005.82639885 0 282847005.82639885 87757074.564289093 0 0 0 0 -1640045877.5251217 545753000.26954937 0 545753000.26954937 87863163.358795166 0 0 0 0 -601344503.34267807 256264997.3367424 0 256264997.3367424 -36113988.437850952 0 0 0 0 -427328795.32188416 120656416.78581238 0 120656416.78581238 375009.69020271301 0 0 0 0 -436891655.341465 89427629.152599335 0 89427629.152599335 92341990.743782043 0 0 0 0 -374242893.58201599 -12467067.040784836 0 -12467067.040784836 181775737.83003998 0 0 0 0 -408962932.47823334 165064006.96171188 0 165064006.96171188 87526943.358207703 0 0 0 0 1131487.8721179254 3077800.1067292988 0 3077800.1067292988 -161929.46203772724 0 0 0 0 -33369917.133586884 -195792346.56307888 0 -195792346.56307888 120261308.34187317 0 0 0 0 -453389714.52968597 17951061.817596436 0 17951061.817596436 32600011.003479004 0 0 0 0 -248184171.64107132 33376374.559333801 0 33376374.559333801 -31249162.814678192 0 0 0 0 653423.32170758396 5595882.5789898522 0 5595882.5789898522 15036900.375846729 0 0 0 0 -129042422.02703285 95560315.080502033 0 95560315.080502033 9193457.9934196472 0 0 0 0 577490843.56809616 -867458971.65446854 0 -867458971.65446854 97703677.816616058 0 0 0 0 -70623565.581062317 -83594151.446334839 0 -83594151.446334839 334872562.80685997 0 0 0 0 -364542284.59330368 -43646450.347129822 0 -43646450.347129822 521224282.66130829 0 0 0 0 -1278174270.1655464 824575642.9379158 0 824575642.9379158 -191627317.56198215 0 0 0 0 -502712856.74903679 964467224.81250858 0 964467224.81250858 -783168469.64324188 0 0 0 0 -691853493.17645264 501567283.35691833 0 501567283.35691833 -624278155.07410622 0 0 0 0 -285704537.83907318 -107963626.03785324 0 -107963626.03785324 -1950615745.0496826 0 0 0 0 -254066789.4984498 -568069610.72486496 0 -568069610.72486496 -557896565.18134308 0 0 0 0 -38376430.79271698 644211395.02352142 0 644211395.02352142 -1077902054.2149887 0 0 0 0 94430208.400836945 84512065.539562225 0 84512065.539562225 -219730228.05653381 0 0 0 0 814718615.56557846 169433830.17328262 0 169433830.17328262 -568487220.84600067 0 0 0 0 211280728.03345871 503178561.5821991 0 503178561.5821991 -635444519.30772781 0 0 0 0 -355646164.1372261 514779381.48428059 0 514779381.48428059 -222936444.66926575 0 0 0 0 182972794.67534101 22673840.020623207 0 22673840.020623207 204064449.17988586 0 0 0 0 113616091.60598373 394640800.55612564 0 394640800.55612564 -207591899.64510345 0 0 0 0 332770055.48200226 -143237003.20164108 0 -143237003.20164108 227088965.61875916 0 0 0 0 1063441400.2183561 -545486304.39330673 0 -545486304.39330673 -220349757.52988434 0 0 0 0 -280059698.24855042 -44684212.520610809 0 -44684212.520610809 76769505.258396149 0 0 0 0 -265482185.38103485 329981887.42780304 0 329981887.42780304 -99598353.066515923 0 0 0 0 2347813.4311208278 3140364.0384101048 0 3140364.0384101048 5601853.0625621155 0 0 0 0 -221935086.02990723 141494537.86151886 0 141494537.86151886 -174454306.23516083 0 0 0 0 -295167498.71335983 -14324940.182876587 0 -14324940.182876587 16803785.835205078 0 0 0 0 -263709776.54740906 41389166.872383118 0 41389166.872383118 104689556.27561569 0 0 0 0 -398272794.90930939 377138849.33561707 0 377138849.33561707 -36746868.095005035 0 0 0 0 2405710.5519573875 1888920.9933665916 0 1888920.9933665916 -56168.266250506043 0 0 0 0 -312842011.83277893 178918289.99930286 0 178918289.99930286 244892960.23670197 0 0 0 0 -326408165.17345047 409998758.10911942 0 409998758.10911942 231846252.73801422 0 0 0 0 -236362527.12161827 518197947.91696644 0 518197947.91696644 2599098.1049041748 0 0 0 0 -102223864.67450094 -165884989.92813301 0 -165884989.92813301 -86221027.560005188 0 0 0 0 -1036922036.2459068 -32525319.627666473 0 -32525319.627666473 27287363.745960236 0 0 0 0 -669513152.3633194 490183911.49349976 0 490183911.49349976 -186320496.901577 0 0 0 0 -163151159.74047852 385357699.58196259 0 385357699.58196259 -176309580.70281219 0 0 0 0 -366066616.95876312 560032998.84701157 0 560032998.84701157 -143611981.7062912 0 0 0 0 -278638988.16804504 538178043.71987152 0 538178043.71987152 -257911506.41928101 0 0 0 0 -28255217.957542419 379590744.77189636 0 379590744.77189636 -93152059.686414719 0 0 0 0 -343475649.00603485 760318764.34649658 0 760318764.34649658 -348486411.3659935 0 0 0 0 -288356724.61494446 636053530.46558952 0 636053530.46558952 -167298641.06524658 0 0 0 0 -129667017.67967606 343779027.54827881 0 343779027.54827881 -22117791.289352417 0 0 0 0 -459335953.9319725 611158131.8892746 0 611158131.8892746 -138877037.06692123 0 0 0 0 -458977341.59493685 609271773.20501804 0 609271773.20501804 -219896137.55332947 0 0 0 0 -666185909.47491455 554762829.88528442 0 554762829.88528442 -205692443.37420654 0 0 0 0 -646816111.76168823 509802492.62372589 0 509802492.62372589 -178238232.93227386 0 0 0 0 -976351657.64387512 500440250.33880615 0 500440250.33880615 -90053404.361701965 0 0 0 0 -821859801.55683899 552933531.19152069 0 552933531.19152069 -72226515.443202972 0 0 0 0 -973570800.08183479 613511718.15537262 0 613511718.15537262 14402181.345565796 0 0 0 0 -721053785.60893631 697461915.40958786 0 697461915.40958786 -87408712.708305359 0 0 0 0 -668720802.17871475 592880734.08452988 0 592880734.08452988 -113997894.5160141 0 0 0 0 -833649689.92404938 811808904.55651855 0 811808904.55651855 -194894439.13710403 0 0 0 0 -1274941325.3433342 615024076.5328064 0 615024076.5328064 22687493.5782547 0 0 0 0 -1966924217.8202248 -323431380.74784565 0 -323431380.74784565 -210278815.77225494 0 0 0 0 -1620969228.8837128 55689321.729743958 0 55689321.729743958 -202807694.94177794 0 0 0 0 -1552234184.98983 -85703447.05377388 0 -85703447.05377388 25425007.126480103 0 0 0 0 -966303753.81815338 297700167.65653229 0 297700167.65653229 -269378730.96185017 0 0 0 0 -668277192.07691193 -86919203.128547668 0 -86919203.128547668 -44059602.011322021 0 0 0 0 -986887057.77644348 -4273288.5650939941 0 -4273288.5650939941 -296666252.38847804 0 0 0 0 -844440476.47029877 480036977.78865433 0 480036977.78865433 -445294789.06229019 0 0 0 0 -1720560968.3776016 219237865.93738174 0 219237865.93738174 -368893668.69559479 0 0 0 0 -2997498880.61199 197374744.9904747 0 197374744.9904747 53205627.623947144 0 0 0 0 -1611654821.3677635 455238816.70379257 0 455238816.70379257 -387525900.85216522 0 0 0 0 -2801690.9390614545 5643754.8170047365 0 5643754.8170047365 -43092.721141897142 0 0 0 0 96453061.848434448 -23475901.185056686 0 -23475901.185056686 -167273554.44636536 0 0 0 0 -2214306.9855932705 3691863.0960649811 0 3691863.0960649811 1604910.8065215796 0 0 0 0 448584933.49868393 460072180.37505531 0 460072180.37505531 -213947275.32662582 0 0 0 0 303059313.95992279 8080073.8357524872 0 8080073.8357524872 -42426488.010894775 0 0 0 0 -74608002.356586456 -34899980.121025085 0 -34899980.121025085 228138929.31017303 0 0 0 0 5253894.3675537109 229899465.5366745 0 229899465.5366745 5983901.3824682236 0 0 0 0 -209729138.49134064 -22408334.567279816 0 -22408334.567279816 121563058.95477295 0 0 0 0 -226778802.73589611 136822405.81925297 0 136822405.81925297 125581373.14295959 0 0 0 0 -271491692.91413879 156871699.69793701 0 156871699.69793701 77126416.715133667 0 0 0 0 -275703900.21497726 201484276.20127487 0 201484276.20127487 98300732.515983582 0 0 0 0 -3638181.120641591 5742371.0625838097 0 5742371.0625838097 2448525.5999515653 0 0 0 0 -254532988.80646515 182741855.50966644 0 182741855.50966644 18418590.664066315 0 0 0 0 -234591275.26147842 150366695.17790985 0 150366695.17790985 64894739.720603943 0 0 0 0 -259271190.47280121 132255070.5471859 0 132255070.5471859 113339075.54319382 0 0 0 0 -4539233.8242417872 10987962.467044152 0 10987962.467044152 -2336645.5832009465 0 0 0 0 256443181.62803078 256374196.34665489 0 256374196.34665489 -192893792.62215424 0 0 0 0 -2421954.9241119232 3578847.9909748212 0 3578847.9909748212 1749912.5893566906 0 0 0 0 -31774479.31968689 -108700855.39314461 0 -108700855.39314461 -63275277.729728699 0 0 0 0 -1232310872.6199493 292970420.33679199 0 292970420.33679199 86142403.516674995 0 0 0 0 -1459012110.0519257 -329497629.84728813 0 -329497629.84728813 -48142073.056259155 0 0 0 0 -884119735.68868256 146007628.34109497 0 146007628.34109497 -65642674.821312904 0 0 0 0 -2025108106.1785078 -102598475.74360514 0 -102598475.74360514 216782649.91755676 0 0 0 0 -910645567.64973831 293258278.61368942 0 293258278.61368942 196668007.61774826 0 0 0 0 -215696863.28022957 -223707266.36466122 0 -223707266.36466122 495941740.37521362 0 0 0 0 -561401969.38381958 570468781.3129425 0 570468781.3129425 328967020.63796616 0 0 0 0 -25261688.970787972 21452867.659985058 0 21452867.659985058 -12917157.396094278 0 0 0 0 252973546.66768646 1150496954.0440903 0 1150496954.0440903 460314579.21887207 0 0 0 0 4434917.4358100891 275075438.98360443 0 275075438.98360443 1008993019.0890884 0 0 0 0 802928809.61789131 134084032.4396553 0 134084032.4396553 297450983.15445709 0 0 0 0 269428590.86204147 544068933.94802856 0 544068933.94802856 -12810186.791305542 0 0 0 0 -11034390.058573462 8086890.5604821891 0 8086890.5604821891 -3985911.5542920977 0 0 0 0 825571527.6604625 998127859.7691046 0 998127859.7691046 -290487470.67189789 0 0 0 0 -2625865690.3905296 -1027280605.888092 0 -1027280605.888092 875303229.38598251 0 0 0 0 -596391740.15039372 21447291.417870522 0 21447291.417870522 71237144.471664429 0 0 0 0 -1338228670.9232903 -36834205.961093903 0 -36834205.961093903 258200828.65950012 0 0 0 0 -4730676.2791293496 13912038.003731105 0 13912038.003731105 -9551550.8594332635 0 0 0 0 -1667910488.4956799 96448413.558521271 0 96448413.558521271 393774220.63392639 0 0 0 0 -641529571.78970718 28958989.075538635 0 28958989.075538635 117921756.13090897 0 0 0 0 -257996250.1640873 340531809.39970398 0 340531809.39970398 -1646881.3049850464 0 0 0 0 -938773869.74284935 162911828.14875603 0 162911828.14875603 -46908077.831600189 0 0 0 0 428060413.72888756 837792492.25998402 0 837792492.25998402 -2601195407.6371918 0 0 0 0 -1166732752.4636269 259288433.45608521 0 259288433.45608521 -39722047.383468628 0 0 0 0 -2040647222.1661453 1239674581.7031784 0 1239674581.7031784 756786850.63032532 0 0 0 0 -3428490.9140499048 11739997.112826694 0 11739997.112826694 -14735830.133279592 0 0 0 0 -1353829645.438797 118170869.72104263 0 118170869.72104263 -113283802.33595276 0 0 0 0 -1359816931.5377462 750659392.17740595 0 750659392.17740595 -222658500.17752075 0 0 0 0 -3290685706.7759113 372952577.79379654 0 372952577.79379654 124417088.614151 0 0 0 0 -927516714.19087601 641282521.73140717 0 641282521.73140717 -507979193.37841034 0 0 0 0 -1864615.8962221914 4250747.6717612632 0 4250747.6717612632 -7239181.5211125314 0 0 0 0 463930122.10271263 50033799.002212524 0 50033799.002212524 544465490.10765839 0 0 0 0 952361779.77843094 228998139.36796379 0 228998139.36796379 -228845968.93338776 0 0 0 0 -466938004.56776428 731781733.34846115 0 731781733.34846115 49515604.211456299 0 0 0 0 -181234616.39785385 885077115.56385803 0 885077115.56385803 164130183.28750992 0 0 0 0 -504526263.41141129 646133042.79268646 0 646133042.79268646 72767788.46799469 0 0 0 0 -315884896.85728264 727254226.89445114 0 727254226.89445114 32136587.674224854 0 0 0 0 97019941.539463043 670011065.13111115 0 670011065.13111115 29893526.416071177 0 0 0 0 114599733.5556612 658543615.28480721 0 658543615.28480721 33018958.85786438 0 0 0 0 314679576.10778999 1072255554.848711 0 1072255554.848711 -112212091.15997314 0 0 0 0 -792606931.85479736 585922154.31198883 0 585922154.31198883 1041762701.9366493 0 0 0 0 -218421772.08178711 1497386656.2161331 0 1497386656.2161331 -405443844.09819603 0 0 0 0 -623024375.18941116 1174559695.2108765 0 1174559695.2108765 -7466675.7608947754 0 0 0 0 -554579657.76055145 395180111.98880386 0 395180111.98880386 -171655369.50743866 0 0 0 0 -566323306.29425049 424290153.66516495 0 424290153.66516495 -186805190.97737885 0 0 0 0 -616234422.34007263 379156837.37512207 0 379156837.37512207 -227075221.79989624 0 0 0 0 -715104948.63355637 483824699.55814362 0 483824699.55814362 -187981335.95594788 0 0 0 0 -552656972.91339874 569222852.59894562 0 569222852.59894562 -216996752.69375992 0 0 0 0 -587235690.28439331 456574689.20010376 0 456574689.20010376 -263812805.44665527 0 0 0 0 -552330375.50117493 498063796.8283577 0 498063796.8283577 -229477411.46182251 0 0 0 0 -552411889.61458588 506202403.83216476 0 506202403.83216476 -261458232.03186035 0 0 0 0 -404892220.241642 523998915.37014008 0 523998915.37014008 -268858521.55281067 0 0 0 0 -416435590.05694199 575569629.91503859 0 575569629.91503859 -288564076.61195374 0 0 0 0 -367935347.18933105 562035447.75284958 0 562035447.75284958 -284822760.82607269 0 0 0 0 -363185624.89763641 556506162.24845123 0 556506162.24845123 -298938017.75533295 0 0 0 0 -339599491.8146286 453787758.78500748 0 453787758.78500748 -248557300.2550621 0 0 0 0 -348140252.49269104 527978993.15758133 0 527978993.15758133 -270224462.77444458 0 0 0 0 -441056831.98822021 636218606.17723083 0 636218606.17723083 -291711533.70274353 0 0 0 0 -329828799.5929451 560849067.09573364 0 560849067.09573364 -315734712.29887295 0 0 0 0 -405396300.85850525 609333243.44252014 0 609333243.44252014 -321482314.23918343 0 0 0 0 -429573002.79491806 582372547.20128632 0 582372547.20128632 -269846166.57141876 0 0 0 0 -402894885.36588287 530055612.98957539 0 530055612.98957539 -268971490.35344696 0 0 0 0 -503818793.8810482 533571023.03160667 0 533571023.03160667 -268555412.31773376 0 0 0 0 -707925769.05264282 566536548.55568314 0 566536548.55568314 -230430268.8752594 0 0 0 0 -665425621.54221344 492332703.61976051 0 492332703.61976051 -166165982.49803162 0 0 0 0 -732452743.196661 853551705.62290478 0 853551705.62290478 -389299740.41789246 0 0 0 0 -902150807.75550842 452253946.07176208 0 452253946.07176208 -169670748.28414822 0 0 0 0 -918057976.29905319 695477558.4421196 0 695477558.4421196 -292832317.98332214 0 0 0 0 -219216663.94702268 762406996.28816581 0 762406996.28816581 -628005274.89533234 0 0 0 0 -187285628.71324921 380805346.07529831 0 380805346.07529831 -219922704.49864197 0 0 0 0 -187649750.02365112 671639615.80893707 0 671639615.80893707 -464597397.8950119 0 0 0 0 -423440025.16742897 563289976.15229416 0 563289976.15229416 -254726493.75074005 0 0 0 0 -52674467.116512299 353568489.57212448 0 353568489.57212448 -205645436.99109268 0 0 0 0 -182419673.22632217 510537952.37071228 0 510537952.37071228 -333019108.05286407 0 0 0 0 203069903.73325348 -35112611.124130249 0 -35112611.124130249 99828175.801303864 0 0 0 0 -14906150.54523468 386875362.64453506 0 386875362.64453506 -184632227.58943939 0 0 0 0 22361369.047561646 167512008.04117203 0 167512008.04117203 180734484.74441528 0 0 0 0 4569666.6548890825 6362966.721578896 0 6362966.721578896 -554928.98298971355 0 0 0 0 124898324.77061367 193337197.8869381 0 193337197.8869381 -218073729.87203979 0 0 0 0 107784968.39779663 -180338209.5610466 0 -180338209.5610466 103314368.25154114 0 0 0 0 -199451093.04500127 215294548.0555563 0 215294548.0555563 -90317522.453544617 0 0 0 0 -42437239.575695038 38965012.037445068 0 38965012.037445068 7922626.7790336609 0 0 0 0 -1036330.5112198256 -1756911.9119757265 0 -1756911.9119757265 1177826.6139000803 0 0 0 0 1716170.3493871056 3160361.0212419331 0 3160361.0212419331 5929517.1094314158 0 0 0 0 -60131586.459875107 -7006855.0482873917 0 -7006855.0482873917 -8947499.1687774658 0 0 0 0 238298938.99672699 -321559386.69710541 0 -321559386.69710541 -271520709.85746002 0 0 0 0 1295052.4183546957 8062767.5628392324 0 8062767.5628392324 12127215.189257085 0 0 0 0 3933725.2735379301 4235633.5511660874 0 4235633.5511660874 -686195.45941802859 0 0 0 0 850539310.72682571 -135102724.38854218 0 -135102724.38854218 -270604821.83336258 0 0 0 0 28289995.329982758 170246499.56142521 0 170246499.56142521 366947073.59959412 0 0 0 0 543080110.74488831 274421895.66268921 0 274421895.66268921 -96634552.616043091 0 0 0 0 361414198.49731827 -325376245.24644852 0 -325376245.24644852 -528094491.9006958 0 0 0 0 539697058.67173767 -269456765.66721344 0 -269456765.66721344 297241069.17012405 0 0 0 0 486770379.51917648 403661282.66197586 0 403661282.66197586 -136617295.87267303 0 0 0 0 258065572.62850952 69737666.791103363 0 69737666.791103363 -198150413.31774139 0 0 0 0 221870183.04622209 446040722.27490449 0 446040722.27490449 -432262698.59632874 0 0 0 0 129215421.71800709 530967664.72452259 0 530967664.72452259 -540497846.1100769 0 0 0 0 -451669804.64037323 376156875.5631485 0 376156875.5631485 -449943217.8003273 0 0 0 0 -202793582.22589874 94402390.747177124 0 94402390.747177124 -118307087.4576149 0 0 0 0 -366985388.87242317 656946399.77744198 0 656946399.77744198 -798522488.47846222 0 0 0 0 -73686422.065778732 596248508.18607235 0 596248508.18607235 -58912704.060134888 0 0 0 0 88918944.241465569 68087805.779208183 0 68087805.779208183 150617042.66423035 0 0 0 0 1411439.3077478409 228001647.035429 0 228001647.035429 99581193.836341858 0 0 0 0 154090560.78785324 463715042.31152153 0 463715042.31152153 238460576.54217529 0 0 0 0 1088717573.2976685 370709422.61426544 0 370709422.61426544 396988.06578063965 0 0 0 0 1085304529.3298187 521266290.2101059 0 521266290.2101059 21061991.024627686 0 0 0 0 1703734652.7432804 -331788348.87533379 0 -331788348.87533379 -215997209.70045471 0 0 0 0 1754008.0110892728 1105938.4328992665 0 1105938.4328992665 -106160.36250820756 0 0 0 0 -3736402.8174209595 114018722.39407349 0 114018722.39407349 555506178.49485779 0 0 0 0 -37494043.983747482 51689484.08200264 0 51689484.08200264 -2193.6332092285156 0 0 0 0 1404172054.2577629 227958811.27639771 0 227958811.27639771 -619072930.06562805 0 0 0 0 555263.35527260602 55338.196961648762 0 55338.196961648762 2187000.2257760018 0 0 0 0 -1035654.5118547101 -1793835.527771987 0 -1793835.527771987 1041619.9471157044 0 0 0 0 -73147229.399368286 16669722.923286438 0 16669722.923286438 2160207.5062561035 0 0 0 0 -103017.45890617371 4418115.4323329926 0 4418115.4323329926 -14054973.14012146 0 0 0 0 -32416157.475053787 21401537.256072998 0 21401537.256072998 -11334617.597763062 0 0 0 0 -797856099.77760315 1095761772.939537 0 1095761772.939537 -424675355.66320801 0 0 0 0 -447830222.47989082 632199114.72280884 0 632199114.72280884 -357996335.26377106 0 0 0 0 -245106966.0909524 506372511.94628763 0 506372511.94628763 -282432201.335495 0 0 0 0 -371707084.43874931 731976514.32848358 0 731976514.32848358 -86347468.315093994 0 0 0 0 -174922212.59603238 957685591.19031978 0 957685591.19031978 -603094947.22200012 0 0 0 0 691007133.55637741 452771358.4103775 0 452771358.4103775 -401278851.59134674 0 0 0 0 -2380516512.5197601 1306125314.2216835 0 1306125314.2216835 -313174793.40655518 0 0 0 0 -1086662572.394371 1262090752.2302704 0 1262090752.2302704 -848085996.90309906 0 0 0 0 -902671072.4825592 320831284.7124176 0 320831284.7124176 -120443902.20290375 0 0 0 0 -1231521822.8832102 873550377.70059586 0 873550377.70059586 28669929.992042542 0 0 0 0 -623403834.63089943 672095698.24827385 0 672095698.24827385 350466.48153686523 0 0 0 0 -679727121.54610348 630890737.04394531 0 630890737.04394531 52845141.956352234 0 0 0 0 -748031627.37795734 702196302.33997345 0 702196302.33997345 -12745.006774902344 0 0 0 0 -393989266.70191669 740184284.76524353 0 740184284.76524353 -207979249.01326752 0 0 0 0 -619280537.99261665 573460881.41117096 0 573460881.41117096 -183342.24071502686 0 0 0 0 -688815673.16481781 693482540.47957611 0 693482540.47957611 -201987538.77874756 0 0 0 0 -588711392.73399448 579860509.11753845 0 579860509.11753845 -131130552.23196411 0 0 0 0 -530917592.12770271 490772991.58084679 0 490772991.58084679 -53186.94278717041 0 0 0 0 -533215524.97170162 653044222.89281464 0 653044222.89281464 -207079709.29704285 0 0 0 0 -687391577.38558388 437586833.99757385 0 437586833.99757385 -187330595.50132751 0 0 0 0 -360010119.82380295 358527589.92819214 0 358527589.92819214 -140374.60158538818 0 0 0 0 -458208437.01380968 491572606.92780113 0 491572606.92780113 -176772720.98462677 0 0 0 0 -187112108.48001289 461796980.5338974 0 461796980.5338974 -181052948.02247143 0 0 0 0 -301259358.94158649 346215877.25111198 0 346215877.25111198 -287792083.16004181 0 0 0 0 -1352633.9784353096 526261.22552505136 0 526261.22552505136 2104533.369124189 0 0 0 0 124223426.31550789 310764924.0900116 0 310764924.0900116 -286823833.92662048 0 0 0 0 -52055037.861741066 658295691.43687916 0 658295691.43687916 -241814601.44618225 0 0 0 0 309056096.34545708 273034895.51721954 0 273034895.51721954 81086791.127487183 0 0 0 0 782528.66420459747 180814296.65306473 0 180814296.65306473 195230866.05358124 0 0 0 0 -67395327.571836472 150083172.69541168 0 150083172.69541168 457333703.54976654 0 0 0 0 -276878000.83344078 225922515.52152252 0 225922515.52152252 448386040.17967224 0 0 0 0 -435742083.56853104 540948433.56105423 0 540948433.56105423 -523608818.70146942 0 0 0 0 -818732.47067931108 1650086.1323186308 0 1650086.1323186308 -2616744.3003179282 0 0 0 0 -896124420.89821339 353704889.64953804 0 353704889.64953804 45006960.566757202 0 0 0 0 -704472620.78275299 -85110782.355848312 0 -85110782.355848312 -2098948.6363220215 0 0 0 0 -464612792.72572756 496077900.7915554 0 496077900.7915554 -47933913.369369507 0 0 0 0 -725115152.96983337 714901261.33268738 0 714901261.33268738 -221665063.8543396 0 0 0 0 -376175845.90506744 581822380.185112 0 581822380.185112 3505788.9614028931 0 0 0 0 -143909085.67258072 489254968.44664001 0 489254968.44664001 38489547.333892822 0 0 0 0 -90778822.535346985 515605092.82250977 0 515605092.82250977 50200938.046485901 0 0 0 0 -22066442.410968781 436045597.06034088 0 436045597.06034088 124335516.97283936 0 0 0 0 219552805.19408798 344683907.61889648 0 344683907.61889648 77286173.823829651 0 0 0 0 209646368.54770088 44614016.560264587 0 44614016.560264587 -12398730.461730957 0 0 0 0 -70413540.371976376 234383242.21781588 0 234383242.21781588 43518934.742507935 0 0 0 0 -92852097.413420916 27299386.405591011 0 27299386.405591011 15819688.680633545 0 0 0 0 -123023784.68667603 248121110.59013367 0 248121110.59013367 46061714.411018372 0 0 0 0 -385931376.53021723 183657585.33347297 0 183657585.33347297 87924239.456420898 0 0 0 0 56318550.448760569 25489388.206455946 0 25489388.206455946 -12537620.435905457 0 0 0 0 -2261073.1328849699 5899833.9461389743 0 5899833.9461389743 -4685540.898749575 0 0 0 0 52799354.645397186 -21144608.998443604 0 -21144608.998443604 -33793923.895198822 0 0 0 0 15741852.221890926 60094247.571445584 0 60094247.571445584 239153887.84616089 0 0 0 0 14433568.50429821 98932550.940048218 0 98932550.940048218 228485061.88990974 0 0 0 0 67267125.367931366 2796951.4117660522 0 2796951.4117660522 8655481.3297195435 0 0 0 0 72183591.573448181 28295210.729721069 0 28295210.729721069 11350260.760174751 0 0 0 0 61973006.851146698 64668888.463562012 0 64668888.463562012 20074483.389923096 0 0 0 0 100730437.79047775 -47022.097877502441 0 -47022.097877502441 -6236966.8051300049 0 0 0 0 796822852.45056534 17417409.528743744 0 17417409.528743744 -21345817.957801819 0 0 0 0 166425.86277103052 1527482.475651145 0 1527482.475651145 1306333.3965721428 0 0 0 0 -1551207.5426996946 98350083.428224564 0 98350083.428224564 -480768030.33222961 0 0 0 0 13305.840586269274 2170696.8366273753 0 2170696.8366273753 -1197250.7499444932 0 0 0 0 47128.845738656819 5166941.136954613 0 5166941.136954613 2253655.8468621373 0 0 0 0 -30042294.472812653 -133489189.82518768 0 -133489189.82518768 -180024426.39002991 0 0 0 0 -106742182.01642799 359904561.81945038 0 359904561.81945038 -416028785.40242004 0 0 0 0 -1147701466.9230614 683652433.81401062 0 683652433.81401062 -503632191.09869385 0 0 0 0 -347881704.84788418 69790637.371887207 0 69790637.371887207 -328287635.16856384 0 0 0 0 -176121136.1076622 500113369.03175354 0 500113369.03175354 169362707.7442627 0 0 0 0 -933995220.36499786 736807221.08335876 0 736807221.08335876 -30572898.309951782 0 0 0 0 -125739205.39313984 660938915.66355896 0 660938915.66355896 -579282098.61116028 0 0 0 0 69165998.392459869 534377758.5853157 0 534377758.5853157 285992242.85243225 0 0 0 0 -57432643.923883438 219748975.68367767 0 219748975.68367767 -58823273.484649658 0 0 0 0 577737000.55426979 562679004.36062622 0 562679004.36062622 188349718.27549744 0 0 0 0 163041102.0594902 729432090.70027161 0 729432090.70027161 95230165.595943451 0 0 0 0 241911373.71440887 501893922.23067474 0 501893922.23067474 596462396.8026886 0 0 0 0 -1840924.3641150668 2566421.1177804768 0 2566421.1177804768 -489114.9114953801 0 0 0 0 491877755.8175447 97626211.481697083 0 97626211.481697083 329844811.93521118 0 0 0 0 389371337.29420853 375506295.5064621 0 375506295.5064621 -294915358.61302185 0 0 0 0 -181407541.6914711 679846713.21054077 0 679846713.21054077 383291400.43675995 0 0 0 0 60164421.812995911 497304662.60633087 0 497304662.60633087 470119367.73326111 0 0 0 0 184166884.93977642 331549508.76481247 0 331549508.76481247 301083164.02468872 0 0 0 0 126019699.68724442 477336775.24320221 0 477336775.24320221 134422987.50592804 0 0 0 0 50571245.604891777 348837564.76714134 0 348837564.76714134 190515530.50857544 0 0 0 0 491403367.5997963 692441755.32417297 0 692441755.32417297 210773037.73299885 0 0 0 0 132912425.72032738 467182975.14455986 0 467182975.14455986 227063501.9315033 0 0 0 0 -51789226.609482169 74514404.705310822 0 74514404.705310822 -147257812.31806946 0 0 0 0 -22538364.871015549 174911978.82335472 0 174911978.82335472 -371864007.9861145 0 0 0 0 -152435679.47665215 234018104.30226135 0 234018104.30226135 -249278889.11639404 0 0 0 0 -44777327.935855865 121658523.72874451 0 121658523.72874451 -221539329.1598053 0 0 0 0 -45394183.72071743 63769004.335548401 0 63769004.335548401 -106145823.94224548 0 0 0 0 -37610592.506928265 48042885.911102772 0 48042885.911102772 -63799255.736633301 0 0 0 0 -34418624.612134874 76307496.451850414 0 76307496.451850414 -128940335.21569824 0 0 0 0 5079356.995143652 7009712.1490221024 0 7009712.1490221024 -83683500.748199463 0 0 0 0 1271494.6807107925 40381455.014892578 0 40381455.014892578 -145892960.04785156 0 0 0 0 391043.40348310955 11051019.720285609 0 11051019.720285609 4180218.33897385 0 0 0 0 -7220905.794406414 -15354210.885364532 0 -15354210.885364532 -35725625.272155762 0 0 0 0 23356452.516549885 -17211305.340856075 0 -17211305.340856075 -93540136.274765015 0 0 0 0 -55551869.613213539 -27962678.882415771 0 -27962678.882415771 44612424.667236328 0 0 0 0 -7913838.1772786155 3521652.1632653326 0 3521652.1632653326 4625105.9052134082 0 0 0 0 13914458.132190704 54830187.989151001 0 54830187.989151001 11277647.223350525 0 0 0 0 14320589.96243763 50323266.651908875 0 50323266.651908875 -171421760.32610703 0 0 0 0 -96654651.423858643 -73993192.577825546 0 -73993192.577825546 9316650.2532577515 0 0 0 0 168382574.27510834 -110159375.53041077 0 -110159375.53041077 -339142484.78933716 0 0 0 0 199656363.52513885 154640864.31550598 0 154640864.31550598 -671520887.79278564 0 0 0 0 -883731413.87405777 435265908.02130127 0 435265908.02130127 -569958386.24957275 0 0 0 0 -976233078.09224319 335367902.66997528 0 335367902.66997528 -172079778.09946632 0 0 0 0 -357449658.87952232 396634113.71944427 0 396634113.71944427 -647901285.93402863 0 0 0 0 -3200033.0836258419 1518583.5137517005 0 1518583.5137517005 170897.76360120624 0 0 0 0 -1227305522.2236695 357090332.47270393 0 357090332.47270393 -452600141.15936279 0 0 0 0 -1170380911.4060745 355047856.79746246 0 355047856.79746246 -93826826.313568115 0 0 0 0 -735121046.54487038 269579661.76999664 0 269579661.76999664 -621620410.18864441 0 0 0 0 -590494126.59266853 622676857.7361145 0 622676857.7361145 -625572287.74307072 0 0 0 0 -375743.02016353607 245851337.00626755 0 245851337.00626755 -510671971.07357788 0 0 0 0 -95886288.228252411 182782206.93882751 0 182782206.93882751 -315872050.03948784 0 0 0 0 -245053161.68775177 333115440.66156006 0 333115440.66156006 -496355086.07000732 0 0 0 0 -220022509.5391674 426165169.81372833 0 426165169.81372833 -685582638.2407608 0 0 0 0 -444801116.20019913 395542431.84230804 0 395542431.84230804 -280013921.23356628 0 0 0 0 -262773531.86229706 435930776.30253601 0 435930776.30253601 -460484777.36997414 0 0 0 0 -328696602.64138794 311830633.86853409 0 311830633.86853409 -177162981.70915222 0 0 0 0 -414931553.91546392 442093204.36969757 0 442093204.36969757 -200584914.15061951 0 0 0 0 -443735311.82965469 458987685.51476288 0 458987685.51476288 -304897831.8908844 0 0 0 0 -568185916.18435287 172577452.4600296 0 172577452.4600296 -54003137.332250595 0 0 0 0 -683593611.84004593 445483151.83102417 0 445483151.83102417 -177231766.68952179 0 0 0 0 -3101435.8924365025 4253247.9872318208 0 4253247.9872318208 4579470.3542515785 0 0 0 0 -177674843.54075241 15333135.172393799 0 15333135.172393799 295163378.07603836 0 0 0 0 -497002003.40171051 389678860.02243805 0 389678860.02243805 -198525742.74489594 0 0 0 0 -658402084.35264683 711098746.85821533 0 711098746.85821533 -193787613.22388458 0 0 0 0 -1556354.4156915881 1256904.7647756115 0 1256904.7647756115 2665961.204114303 0 0 0 0 -549963092.6229496 480236590.67181778 0 480236590.67181778 290166643.10249329 0 0 0 0 -278319899.8918395 286729223.44668198 0 286729223.44668198 -31030670.402984619 0 0 0 0 -358017711.07228565 298895874.4213562 0 298895874.4213562 152055847.95146942 0 0 0 0 -357669448.79219246 399268649.86729813 0 399268649.86729813 -43119563.849906921 0 0 0 0 -236542710.06932259 277921601.60186768 0 277921601.60186768 -109419145.86782646 0 0 0 0 -119834139.80793095 171057227.93772888 0 171057227.93772888 -126480344.83320618 0 0 0 0 -171442665.01055342 202696778.26660204 0 202696778.26660204 -143844595.2144928 0 0 0 0 -166229326.0206871 303626099.11496735 0 303626099.11496735 -289049206.83295822 0 0 0 0 -136549376.25366211 141835731.77707672 0 141835731.77707672 -68357690.252471924 0 0 0 0 -186702681.40474892 174653171.19301605 0 174653171.19301605 39822533.714576721 0 0 0 0 -86144669.763246536 119535604.68428802 0 119535604.68428802 -62601433.90171814 0 0 0 0 -168307860.38624763 185832292.67111969 0 185832292.67111969 31037519.213104248 0 0 0 0 -335598721.35739732 179251671.9168644 0 179251671.9168644 110067539.76502228 0 0 0 0 -335782843.97288895 144024535.14294434 0 144024535.14294434 138530107.5749588 0 0 0 0 -480208593.67769241 111087984.61186981 0 111087984.61186981 139417694.17713165 0 0 0 0 -508277133.43730092 232773005.72560692 0 232773005.72560692 219212029.03477478 0 0 0 0 -503166900.96011567 180151913.54447556 0 180151913.54447556 551724892.6542511 0 0 0 0 -503808769.74668407 157285122.46530151 0 157285122.46530151 293886687.72694397 0 0 0 0 -407499240.52546215 77591477.865722656 0 77591477.865722656 132307035.62818909 0 0 0 0 -518582349.74291182 183501246.6984024 0 183501246.6984024 31961644.626739502 0 0 0 0 -565064330.45195007 39032572.57359314 0 39032572.57359314 104794246.28458405 0 0 0 0 -550212318.28471613 -65174889.945628643 0 -65174889.945628643 63560490.943267822 0 0 0 0 -538470179.32819796 57292178.180495739 0 57292178.180495739 37902487.981079102 0 0 0 0 -385896985.03875709 -54871246.363819122 0 -54871246.363819122 27187832.974014282 0 0 0 0 -502693733.46520329 108243380.73868561 0 108243380.73868561 147785357.9973526 0 0 0 0 -8962932.5977580547 -330202494.43585014 0 -330202494.43585014 770252452.75462341 0 0 0 0 -328706327.63276482 272151512.22005081 0 272151512.22005081 668114225.57909012 0 0 0 0 -207703052.36731339 68446011.945930481 0 68446011.945930481 171590068.24819183 0 0 0 0 -391426935.68528861 211618887.96040726 0 211618887.96040726 63876690.315307617 0 0 0 0 -369037549.87206078 142253522.05567169 0 142253522.05567169 22691307.75460434 0 0 0 0 -195150746.95933056 6260156.8615179062 0 6260156.8615179062 -8526014.4540176392 0 0 0 0 -310475455.86360216 335379266.11890793 0 335379266.11890793 -191754609.09034729 0 0 0 0 -308863554.12064266 348153989.10195923 0 348153989.10195923 -100372547.99036026 0 0 0 0 -1685440.9870658405 1169539.0858927593 0 1169539.0858927593 2782565.3065226078 0 0 0 0 -247532597.79858351 199757438.54836082 0 199757438.54836082 -205112667.87414551 0 0 0 0 -2072601.8641096633 667657.40978193283 0 667657.40978193283 1907043.5100397319 0 0 0 0 -356164226.54814482 230336928.85902023 0 230336928.85902023 -344684.54067230225 0 0 0 0 -363114484.90648556 301349541.85286331 0 301349541.85286331 -272605142.78181076 0 0 0 0 -357931642.76901913 291457452.21130753 0 291457452.21130753 -187519072.06759882 0 0 0 0 -426341139.28121257 -84837648.270822525 0 -84837648.270822525 -36018047.791427612 0 0 0 0 -725216880.81878948 44306170.954154968 0 44306170.954154968 -153650365.02510452 0 0 0 0 -1149170509.0567079 -58281288.023422241 0 -58281288.023422241 -110394571.47963333 0 0 0 0 -1011597353.9059544 -109594538.03767395 0 -109594538.03767395 -159737715.32798672 0 0 0 0 -853983729.19569302 -476627035.35437012 0 -476627035.35437012 -36533496.070087433 0 0 0 0 -695022.44416432921 1029563.8400265351 0 1029563.8400265351 219219.55599537864 0 0 0 0 -785765749.60618019 11122002.445167542 0 11122002.445167542 30582743.573501587 0 0 0 0 -539014771.72918415 139394152.66685486 0 139394152.66685486 -8502628.1489181519 0 0 0 0 -459160092.27661896 276298898.4067421 0 276298898.4067421 -175664799.37745667 0 0 0 0 -657819661.76374459 257564893.89020729 0 257564893.89020729 -95673279.106307983 0 0 0 0 -1018774350.5283079 198711925.83007812 0 198711925.83007812 -91991955.574225903 0 0 0 0 -1079720896.3827009 414561171.92340851 0 414561171.92340851 -718211.59572853171 0 0 0 0 -382167639.98186684 240042438.36579895 0 240042438.36579895 -214603739.45883179 0 0 0 0 -521594989.15028024 389634690.01990891 0 389634690.01990891 -177880325.42527771 0 0 0 0 -1561061765.5134511 -76613163.985507965 0 -76613163.985507965 79092879.101409912 0 0 0 0 -22285.002102809376 -240091.58432164788 0 -240091.58432164788 -1818599.0958371311 0 0 0 0 437365.59684449434 3790800.0247402191 0 3790800.0247402191 -229.58528900146484 0 0 0 0 -736365.02194786072 2693498.8098869324 0 2693498.8098869324 -1018422.5792999268 0 0 0 0 -493854.66902307421 2612841.7872918695 0 2612841.7872918695 170091.11588077247 0 0 0 0 9917307.0380704403 8835917.6252059937 0 8835917.6252059937 -15336486.646907806 0 0 0 0 15883082.829972744 -11604640.238288879 0 -11604640.238288879 3790524.6210746765 0 0 0 0 21645283.700398564 3022930.4894113541 0 3022930.4894113541 -39503938.375297546 0 0 0 0 -1611497.9635829926 2935600.1166629791 0 2935600.1166629791 -5093.0218658447266 0 0 0 0 -19300603.841981888 -23178371.057235718 0 -23178371.057235718 22421992.605895996 0 0 0 0 -801677.94024476502 2025009.1166508049 0 2025009.1166508049 792215.6561210677 0 0 0 0 248507.75046825409 2722503.9573898315 0 2722503.9573898315 -1539879.0744857788 0 0 0 0 2592167.1046886444 761535.86426544189 0 761535.86426544189 16047.574676513672 0 0 0 0 597667.85008335114 44042796.110961914 0 44042796.110961914 -40780668.139846802 0 0 0 0 21255134.035996437 12406968.040950775 0 12406968.040950775 -79620685.424827576 0 0 0 0 -360315.54279070348 -173670.6354328692 0 -173670.6354328692 511291.2416574806 0 0 0 0 -26073076.36205101 20978760.816093445 0 20978760.816093445 -51966311.306846619 0 0 0 0 -81681762.817865372 30739398.831855774 0 30739398.831855774 -2207376.5630149841 0 0 0 0 -28691589.123585224 36669256.364547729 0 36669256.364547729 -23747709.12171936 0 0 0 0 -31145057.350568771 -9112108.7019882202 0 -9112108.7019882202 4455446.403002739 0 0 0 0 -10298594.354237685 174095.78298950195 0 174095.78298950195 5789174.7443707585 0 0 0 0 -24076435.891974553 5132579.8039684296 0 5132579.8039684296 4118979.0269622803 0 0 0 0 -21163437.725460529 14029634.045841217 0 14029634.045841217 -8266627.2035980225 0 0 0 0 191703.88507342339 10684073.926879883 0 10684073.926879883 -1903735.5638580322 0 0 0 0 -8489410.2580654956 302534.41736364365 0 302534.41736364365 6556216.9544594586 0 0 0 0 -7748738.3345575333 15238392.873371124 0 15238392.873371124 -3291214.2457885742 0 0 0 0 -2460051.0988029693 4809340.144861687 0 4809340.144861687 -6330049.4073830843 0 0 0 0 -170457989.61279869 -4360499.0370101929 0 -4360499.0370101929 36088863.049972534 0 0 0 0 -108500047.83456588 73662451.566186905 0 73662451.566186905 14141041.92792511 0 0 0 0 -2115356.9165393845 2281598.7533302791 0 2281598.7533302791 -3909483.3392667472 0 0 0 0 19987963.114959717 -7316923.1156234741 0 -7316923.1156234741 -17130212.326362133 0 0 0 0 121743118.65093613 65621838.683204651 0 65621838.683204651 -10679181.118133545 0 0 0 0 45592763.105056763 29247877.049121857 0 29247877.049121857 -20631064.405731201 0 0 0 0 36492566.773770332 40190190.882489204 0 40190190.882489204 -28599.966293334961 0 0 0 0 19166267.202299118 34924297.687494278 0 34924297.687494278 -525572.19654846191 0 0 0 0 37891062.953268528 36988816.382025719 0 36988816.382025719 -7486553.8436584473 0 0 0 0 68464488.823631287 50878358.581619263 0 50878358.581619263 -5945650.908788681 0 0 0 0 47258074.71606636 45387175.094223022 0 45387175.094223022 -23831.336334228516 0 0 0 0 22304883.375329971 28818951.12430191 0 28818951.12430191 14765736.03162384 0 0 0 0 52664404.476501465 51015327.70847702 0 51015327.70847702 13269221.50038147 0 0 0 0 35520714.326200485 55009910.947494507 0 55009910.947494507 67484262.180603027 0 0 0 0 27002426.434669495 29623871.366744995 0 29623871.366744995 8371602.6695747375 0 0 0 0 21477563.134985924 15436058.428606033 0 15436058.428606033 -8742884.441116333 0 0 0 0 -9519122.9402141571 8160846.2158126831 0 8160846.2158126831 8333850.8904418945 0 0 0 0 -1479635.0796056446 813921.85669282451 0 813921.85669282451 -447167.17598712444 0 0 0 0 -56132286.141029358 42449981.820617676 0 42449981.820617676 15219.334609985352 0 0 0 0 71086949.18266964 26823770.679004669 0 26823770.679004669 -6522764.0581512451 0 0 0 0 -2326094.3817520067 431729.49835531414 0 431729.49835531414 1793683.66405797 0 0 0 0 -42640973.861917496 20524864.750915527 0 20524864.750915527 -6841929.6850090027 0 0 0 0 -764943.30394358933 1671478.6132333428 0 1671478.6132333428 694994.42647381127 0 0 0 0 -34354930.804233551 33955606.503814697 0 33955606.503814697 -27549516.954116821 0 0 0 0 -27353958.405200005 42739091.044322968 0 42739091.044322968 -17666354.125167847 0 0 0 0 -9370065.5733413696 6098812.4857940674 0 6098812.4857940674 8875350.938583374 0 0 0 0 -4213095.281404214 1615326.0539851561 0 1615326.0539851561 1666140.7207178175 0 0 0 0 -6532869.0266017914 8080400.8188285828 0 8080400.8188285828 126242.06762695312 0 0 0 0 -22704488.529506207 36070309.317129135 0 36070309.317129135 -27246067.144668579 0 0 0 0 -11913651.094069587 6939478.7642727792 0 6939478.7642727792 68212.258327813819 0 0 0 0 -25143734.611601114 15331329.887775421 0 15331329.887775421 -2138249.5609512329 0 0 0 0 -21022822.533932209 12970401.153553963 0 12970401.153553963 -9982690.9508972168 0 0 0 0 -24915479.233027458 47147129.650821686 0 47147129.650821686 16198994.396057129 0 0 0 0 -6490633.000213623 9677808.9147605896 0 9677808.9147605896 -10316834.560180664 0 0 0 0 5576691.3600054104 5764669.0927145891 0 5764669.0927145891 -5069554.9316824079 0 0 0 0 8092624.0525302887 29666249.212165833 0 29666249.212165833 -87618507.572149277 0 0 0 0 4100669.2710448876 4258139.6746603921 0 4258139.6746603921 -3446256.6489910483 0 0 0 0 31292868.060993195 84237437.925308228 0 84237437.925308228 29145545.540733337 0 0 0 0 2798263.6656761169 -22675710.140510559 0 -22675710.140510559 99596114.972385406 0 0 0 0 -22127923.732357025 8409677.5906524658 0 8409677.5906524658 49132599.096160889 0 0 0 0 5318933.8873958588 93480881.218765259 0 93480881.218765259 81345819.807296753 0 0 0 0 -29659415.389564514 36721736.980049133 0 36721736.980049133 84095050.968597412 0 0 0 0 268006828.25274658 102822466.37535095 0 102822466.37535095 -42688617.109161377 0 0 0 0 1349435.9090438075 1032413.2940454707 0 1032413.2940454707 -748060.65771638602 0 0 0 0 137866272.52015877 -44178848.668106079 0 -44178848.668106079 -136966308.02386475 0 0 0 0 -731698.27426269092 201821.25202221051 0 201821.25202221051 1644533.4550276697 0 0 0 0 123909848.89882278 156015104.15706635 0 156015104.15706635 157449230.98872375 0 0 0 0 123523647.12978172 -314135533.94703674 0 -314135533.94703674 -89953540.825042725 0 0 0 0 287147244.26556396 72399374.312789917 0 72399374.312789917 -21417011.764472961 0 0 0 0 143289627.63044357 28226020.318717957 0 28226020.318717957 -24810489.223838806 0 0 0 0 3483587.3894066811 9296285.5147190094 0 9296285.5147190094 -26068285.455795288 0 0 0 0 2192405.6487668902 14512126.425692335 0 14512126.425692335 6356895.8177749291 0 0 0 0 25566830.076093674 35215567.383594513 0 35215567.383594513 -85210093.902641296 0 0 0 0 9630723.6960353851 -13344378.635185242 0 -13344378.635185242 -20436156.956611633 0 0 0 0 -3247669.4288730621 12344614.107772827 0 12344614.107772827 -55381395.433113098 0 0 0 0 -21609023.579080582 1904745.6138954163 0 1904745.6138954163 3164468.6509246826 0 0 0 0 6326768.4698670711 5329065.6880198047 0 5329065.6880198047 -4551274.7553848922 0 0 0 0 -44807466.564314842 27301937.971996307 0 27301937.971996307 -5040074.8817663193 0 0 0 0 -24864470.83283329 9918014.5178718567 0 9918014.5178718567 -12243448.189651489 0 0 0 0 -9604818.1195421219 14301152.95835495 0 14301152.95835495 -11943982.578475952 0 0 0 0 -100006977.13553905 169627859.38510132 0 169627859.38510132 -191736196.86515045 0 0 0 0 -96385608.467388153 181365937.5538311 0 181365937.5538311 -200513204.33664703 0 0 0 0 -81819666.435297966 249849912.24985886 0 249849912.24985886 -400683920.57054138 0 0 0 0 -1378942.7858161852 14151826.385821082 0 14151826.385821082 6612613.5773472413 0 0 0 0 147276252.16201401 183342726.29693604 0 183342726.29693604 -662633366.44169617 0 0 0 0 -94167800.083899498 230560559.80467701 0 230560559.80467701 -340842803.56144714 0 0 0 0 -116811634.81405258 396444695.40058136 0 396444695.40058136 -118116099.68003082 0 0 0 0 -122493624.62639141 399210182.8416605 0 399210182.8416605 246039664.88656616 0 0 0 0 313122057.83111191 851337439.55531693 0 851337439.55531693 -744010284.73604584 0 0 0 0 68110243.200634003 117078132.38573074 0 117078132.38573074 -718046495.73184204 0 0 0 0 -9742913.987610817 62940957.72357893 0 62940957.72357893 -547590711.03405762 0 0 0 0 33776467.128509521 222188904.34788513 0 222188904.34788513 -675924076.01804733 0 0 0 0 95917917.313193321 62980053.509811401 0 62980053.509811401 9526160.1225738525 0 0 0 0 61633756.924701214 58786751.886108398 0 58786751.886108398 130849127.29293823 0 0 0 0 110929535.15681553 157382775.53395081 0 157382775.53395081 156305713.79047012 0 0 0 0 -10844105.362944365 47155408.004737854 0 47155408.004737854 125374322.22125244 0 0 0 0 18706661.374197245 37322277.718544006 0 37322277.718544006 -33359368.261642456 0 0 0 0 50294901.267616272 75148513.655227661 0 75148513.655227661 11074485.803525925 0 0 0 0 70580182.050669193 27253530.201316833 0 27253530.201316833 -45812650.005783081 0 0 0 0 41353262.990329742 14798560.015014648 0 14798560.015014648 -13378551.220306396 0 0 0 0 36515173.253418922 42104240.297210693 0 42104240.297210693 10353686.03237915 0 0 0 0 -1033043.2066478729 30331702.956336975 0 30331702.956336975 -56942192.889953613 0 0 0 0 52073.450702667236 43608196.458641052 0 43608196.458641052 -33262910.572418213 0 0 0 0 -93139823.368665457 105027980.19397926 0 105027980.19397926 -4755921.3978118896 0 0 0 0 -41697800.02362442 47237415.997489929 0 47237415.997489929 59119880.891601562 0 0 0 0 105118409.29286957 45734520.89112854 0 45734520.89112854 4623485.911857605 0 0 0 0 -14336605.373875618 76223027.47277832 0 76223027.47277832 17022464.848190308 0 0 0 0 17364355.789607048 27686494.078742981 0 27686494.078742981 90381560.262969971 0 0 0 0 230689577.21444321 130046004.42657471 0 130046004.42657471 33303581.101455688 0 0 0 0 -48076149.757344723 49971937.664699554 0 49971937.664699554 21944948.765380859 0 0 0 0 151361546.47374058 46055558.323776245 0 46055558.323776245 71116986.749938965 0 0 0 0 -189458492.34198475 138031033.36448669 0 138031033.36448669 103137738.3117981 0 0 0 0 -53985511.165475845 38179665.4009552 0 38179665.4009552 157549018.28622437 0 0 0 0 -67803094.031995773 123636938.42951965 0 123636938.42951965 39751091.643959045 0 0 0 0 -11103333.402098894 9126227.9639892578 0 9126227.9639892578 5836761.0731658936 0 0 0 0 -19053731.494572282 -20127239.535804749 0 -20127239.535804749 14138406.155578613 0 0 0 0 92032384.711219788 142872838.89845276 0 142872838.89845276 187661930.34609985 0 0 0 0 -2256610.8192044301 823015.80436630547 0 823015.80436630547 1236331.022665292 0 0 0 0 -1334666.0520645562 668745.11264662445 0 668745.11264662445 378042.3179949671 0 0 0 0 -18768643.118525922 2916626.806186676 0 2916626.806186676 20180502.906326294 0 0 0 0 -14206028.207672402 26145857.371902466 0 26145857.371902466 7964055.9312591553 0 0 0 0 -35348656.519498706 9562287.8564376831 0 9562287.8564376831 1879113.1984558105 0 0 0 0 -34325104.389415815 49218707.456184387 0 49218707.456184387 -10198949.692077637 0 0 0 0 -26395141.569890231 41810930.549415588 0 41810930.549415588 -19873721.084945679 0 0 0 0 -24073107.731351376 44277323.953338623 0 44277323.953338623 39040048.476493835 0 0 0 0 -23990643.739109635 36677815.471889496 0 36677815.471889496 -9563851.3532104492 0 0 0 0 15311524.044547081 72582589.318939209 0 72582589.318939209 -13760010.791183472 0 0 0 0 -33965374.909081772 46365057.826473236 0 46365057.826473236 -3089861.0353393555 0 0 0 0 -3065822.7657315731 44713775.472198486 0 44713775.472198486 -49284795.355102539 0 0 0 0 6592917.3987118993 14166255.404732093 0 14166255.404732093 1682076.993986614 0 0 0 0 5302235.7487597466 60450194.905883789 0 60450194.905883789 -60872989.422969818 0 0 0 0 -79470366.065862656 157588956.47721863 0 157588956.47721863 -227959363.76674271 0 0 0 0 8089391.8053263472 7850813.2494350784 0 7850813.2494350784 -7633142.2596070915 0 0 0 0 -6540662.3766869605 15323304.930934295 0 15323304.930934295 8020502.244558543 0 0 0 0 -8618355.4808878899 17908590.88082695 0 17908590.88082695 -26983546.894729614 0 0 0 0 3080654.6167338612 3674380.686206717 0 3674380.686206717 -4580952.5030208528 0 0 0 0 -91824350.784024239 164653019.9408226 0 164653019.9408226 -192609667.02624512 0 0 0 0 -82365633.664385796 183947828.50276947 0 183947828.50276947 -159308172.53805542 0 0 0 0 -51964602.504083633 80111609.758300781 0 80111609.758300781 -117980957.86686707 0 0 0 0 5525590.1342325211 28436630.588903427 0 28436630.588903427 -33986623.769538879 0 0 0 0 -94788207.963016033 80173692.311691284 0 80173692.311691284 -32340619.746368408 0 0 0 0 -3676372.8580436707 71216455.56174469 0 71216455.56174469 -78220022.301643372 0 0 0 0 -132757062.78716278 205544224.00043488 0 205544224.00043488 -162268617.6652832 0 0 0 0 4487010.204288546 10693791.090491623 0 10693791.090491623 3868027.9652904831 0 0 0 0 -66217530.965167999 67973579.4947052 0 67973579.4947052 74663207.88293457 0 0 0 0 13649429.074601606 578739.84470748901 0 578739.84470748901 23361417.528778076 0 0 0 0 40309249.146134377 3321730.9166870117 0 3321730.9166870117 7118435.395904541 0 0 0 0 32086594.167782307 33079993.761650085 0 33079993.761650085 -101060885.56253052 0 0 0 0 -207806.88764381409 18065323.309298038 0 18065323.309298038 -73444659.208328247 0 0 0 0 53179234.332215309 52789392.96471405 0 52789392.96471405 -58821082.482635498 0 0 0 0 28029641.228587151 36749946.204719543 0 36749946.204719543 -46821963.33455658 0 0 0 0 16174488.145628929 17286394.829353333 0 17286394.829353333 -100721906.27671051 0 0 0 0 37326860.512237549 10968378.56262207 0 10968378.56262207 -70808616.48638916 0 0 0 0 17123874.044221878 23734672.351356506 0 23734672.351356506 -77822895.914764404 0 0 0 0 8544751.5176477432 15260281.400123596 0 15260281.400123596 -79790716.958213806 0 0 0 0 8730912.4808559418 14341912.778327942 0 14341912.778327942 -75777562.889198303 0 0 0 0 -1441979.1891138395 4609296.0583957881 0 4609296.0583957881 4329294.8904578704 0 0 0 0 -12510417.3137784 17765339.319335938 0 17765339.319335938 49748118.011194229 0 0 0 0 19835867.605453849 119648420.40192032 0 119648420.40192032 95024603.926704407 0 0 0 0 17625515.710109711 168775193.48668671 0 168775193.48668671 171597668.07379723 0 0 0 0 61683179.9705365 224937446.5098362 0 224937446.5098362 -66241671.706619263 0 0 0 0 -291834.37527114199 2776476.0606528744 0 2776476.0606528744 -115650.09353640489 0 0 0 0 19410771.639182091 90426205.510261536 0 90426205.510261536 -199787020.43286133 0 0 0 0 18034411.207578182 150848732.63848877 0 150848732.63848877 -313053629.45636749 0 0 0 0 78893198.499235868 253835724.41642761 0 253835724.41642761 -173880704.79860687 0 0 0 0 -14167952.789889455 230014898.375278 0 230014898.375278 -72090998.76499939 0 0 0 0 -9019300.2418111265 169247276.26619196 0 169247276.26619196 -185956933.18533325 0 0 0 0 117891110.59616804 365401023.28832626 0 365401023.28832626 -133156490.7387085 0 0 0 0 99959105.681728125 332708494.58905792 0 332708494.58905792 -4855672.6785430908 0 0 0 0 158584787.25809383 354396181.15882874 0 354396181.15882874 -150711276.53632355 0 0 0 0 189420804.68616375 290921687.24959475 0 290921687.24959475 -93097359.770889282 0 0 0 0 198304303.04013669 308023904.98794937 0 308023904.98794937 -154803576.6139679 0 0 0 0 89741433.813218117 146813745.47849274 0 146813745.47849274 -173011141.02332306 0 0 0 0 -649112376.31344986 248687540.94578552 0 248687540.94578552 225090102.23940277 0 0 0 0 3441916.5017496068 9357821.3291921318 0 9357821.3291921318 11689102.65512526 0 0 0 0 -88857934.072914913 231326218.2894733 0 231326218.2894733 -212077897.69000244 0 0 0 0 -90005884.343434811 169508458.95449066 0 169508458.95449066 -125199507.81209564 0 0 0 0 -101806499.45699501 156574192.4098053 0 156574192.4098053 -175271887.50040436 0 0 0 0 -146269031.3903141 154611245.111763 0 154611245.111763 -166248448.16281891 0 0 0 0 -107966392.19626808 146119855.71525192 0 146119855.71525192 -178932804.65116882 0 0 0 0 -143704120.01498222 159863250.75518036 0 159863250.75518036 -165433939.12215424 0 0 0 0 -105131588.19051266 151792187.41150284 0 151792187.41150284 -170545822.7006073 0 0 0 0 -87404507.436979294 187681752.13850403 0 187681752.13850403 -129265258.09254456 0 0 0 0 -106499165.44352531 139053366.69491577 0 139053366.69491577 -141772787.53735352 0 0 0 0 -134699527.051404 191745051.50652313 0 191745051.50652313 -187873699.02516174 0 0 0 0 -150923067.69683778 111844677.34802437 0 111844677.34802437 -193443635.17861938 0 0 0 0 -81505393.011006355 168923979.6504488 0 168923979.6504488 -196673138.49719238 0 0 0 0 -60721413.267176628 129320990.47372437 0 129320990.47372437 -254405922.79129791 0 0 0 0 -118660919.76614761 161459281.59246826 0 161459281.59246826 -195160846.30223846 0 0 0 0 -114717582.88119888 178261987.00707626 0 178261987.00707626 -181796503.59580994 0 0 0 0 -135641515.6887455 192870101.57749176 0 192870101.57749176 -191992332.36158371 0 0 0 0 -153647106.44036865 180724987.71683311 0 180724987.71683311 -162617636.00001526 0 0 0 0 7348809.9015592001 7690534.025981985 0 7690534.025981985 6256022.8046486527 0 0 0 0 -135176076.2294445 163764364.65131402 0 163764364.65131402 -160486704.20962524 0 0 0 0 -128842249.67380524 174428146.94564819 0 174428146.94564819 -188500433.42402935 0 0 0 0 -136369052.13069034 172554629.23712873 0 172554629.23712873 -182913171.21069336 0 0 0 0 34051684.416554451 -416274333.60634756 0 -416274333.60634756 -248297000.00811005 0 0 0 0 -129612139.71782684 127243155.01205444 0 127243155.01205444 222033415.9779439 0 0 0 0 1958384.0808722042 2496470.5013262555 0 2496470.5013262555 2591251.0492598638 0 0 0 0 -122346546.02549362 124435217.72753143 0 124435217.72753143 -73034853.006004333 0 0 0 0 223296666.63693237 153876430.04061127 0 153876430.04061127 -730986226.33799744 0 0 0 0 176788784.43988037 -12324914.891208649 0 -12324914.891208649 -182089551.49763489 0 0 0 0 616169.35255138436 2885948.8074502572 0 2885948.8074502572 223757.51695027947 0 0 0 0 -57459846.358846664 35493287.800403595 0 35493287.800403595 -104949762.13378906 0 0 0 0 63418691.626010895 61546433.56804657 0 61546433.56804657 -190502695.6829958 0 0 0 0 34047349.189079285 -27957416.29889679 0 -27957416.29889679 -108386288.12897491 0 0 0 0 -28533568.368625641 -183092294.93591309 0 -183092294.93591309 -57386876.481359482 0 0 0 0 -43024267.143767715 7427782.5487917662 0 7427782.5487917662 992972483.3319931 0 0 0 0 -210834286.86016464 362968.33073043823 0 362968.33073043823 342781242.37997818 0 0 0 0 305548.80745786428 3458734.3580306489 0 3458734.3580306489 2509002.0846722573 0 0 0 0 701598281.2387886 1724395678.3411942 0 1724395678.3411942 -441216902.74542236 0 0 0 0 8215046.5811916944 11279904.627630197 0 11279904.627630197 10480266.631992109 0 0 0 0 -160347784.83833313 196698274.76334381 0 196698274.76334381 -184010332.11906719 0 0 0 0 123194526.27376938 -695226849.66939163 0 -695226849.66939163 -137544093.30394173 0 0 0 0 611528181.70539474 662428080.48184204 0 662428080.48184204 606815072.60348129 0 0 0 0 134582.60705670994 753389.00271863863 0 753389.00271863863 10578201.448001385 0 0 0 0 1077883073.3818903 364959670.03606033 0 364959670.03606033 113879139.45317078 0 0 0 0 -877790904.10325623 -467141890.02438354 0 -467141890.02438354 797574218.86150742 0 0 0 0 161682446.71724081 -425009038.00894547 0 -425009038.00894547 319252401.52108002 0 0 0 0 -429463208.77792549 -76229513.450584412 0 -76229513.450584412 115281091.45573425 0 0 0 0 481900865.06061983 475907784.69577789 0 475907784.69577789 156607937.52380371 0 0 0 0 550015545.47271729 78569643.527751923 0 78569643.527751923 -21516152.544372559 0 0 0 0 129730788.89808273 31422219.86995697 0 31422219.86995697 57129786.767379761 0 0 0 0 88514737.15499115 67562218.009208679 0 67562218.009208679 129275985.25937653 0 0 0 0 -390484613.41540241 41553417.426740646 0 41553417.426740646 252805562.2134552 0 0 0 0 1761023.1366404835 7822651.669829295 0 7822651.669829295 27896425.813887805 0 0 0 0 102240106.29867172 43727052.236881256 0 43727052.236881256 55102176.780075073 0 0 0 0 97304100.01700592 -34028565.998054504 0 -34028565.998054504 58669456.1824646 0 0 0 0 -5085671.0101811439 -894908.23815001175 0 -894908.23815001175 8096085.3177557066 0 0 0 0 -323860401.35445404 138046811.87632751 0 138046811.87632751 -114822879.28633547 0 0 0 0 191690986.3591423 191653923.28152466 0 191653923.28152466 7042581.5537567139 0 0 0 0 289170961.00699615 393110385.59690094 0 393110385.59690094 128315347.06343079 0 0 0 0 200041664.27965927 372559253.49168015 0 372559253.49168015 404704103.81790924 0 0 0 0 -82176167.242492676 414090744.69625473 0 414090744.69625473 508046388.93340683 0 0 0 0 130414219.80205917 253668960.05892944 0 253668960.05892944 268720709.70606613 0 0 0 0 290599785.48840714 388858862.94588089 0 388858862.94588089 135748029.09951019 0 0 0 0 89679.543709920719 2110145.2886354849 0 2110145.2886354849 1617788.9274038076 0 0 0 0 525612694.83141708 580901455.94044495 0 580901455.94044495 220524879.89495087 0 0 0 0 -868263067.32190561 649216102.7086463 0 649216102.7086463 592770898.45747375 0 0 0 0 -612189627.71983147 585569176.47922897 0 585569176.47922897 514831557.56443024 0 0 0 0 -162371340.67707253 16891861.886823654 0 16891861.886823654 -74018986.98802948 0 0 0 0 -340529781.18321609 525847201.52480316 0 525847201.52480316 -347303418.76869965 0 0 0 0 -42028247.036991596 91041083.872539282 0 91041083.872539282 118551922.62109375 0 0 0 0 87847497.524650574 229896769.55921555 0 229896769.55921555 20783503.687217712 0 0 0 0 -620816244.30762482 326247859.65911484 0 326247859.65911484 -140466762.75946808 0 0 0 0 -106499964.69819069 108185996.76115036 0 108185996.76115036 -47536217.741470337 0 0 0 0 -300370714.28493118 248872408.69690704 0 248872408.69690704 -75294556.703468323 0 0 0 0 38373720.527626038 189502985.40228271 0 189502985.40228271 -231522884.86291504 0 0 0 0 -29360693.859416962 182333046.90394783 0 182333046.90394783 -246959779.35707092 0 0 0 0 18109150.516525269 -16273610.761974335 0 -16273610.761974335 -164198231.3764801 0 0 0 0 2926846.8953201957 2869205.2436605468 0 2869205.2436605468 -6072337.9470502585 0 0 0 0 -791048129.42847443 569142397.35085678 0 569142397.35085678 -109296782.72125244 0 0 0 0 24750227.98246479 37400422.724757195 0 37400422.724757195 -20095833.429244995 0 0 0 0 4688235.9241849985 8378447.8334310707 0 8378447.8334310707 3531156.6252477765 0 0 0 0 41813791.404779434 -14318855.549907684 0 -14318855.549907684 -20372822.638648987 0 0 0 0 -53011860.171386719 47874383.831512451 0 47874383.831512451 38450152.918380737 0 0 0 0 5098675.9492721558 163326467.67041588 0 163326467.67041588 -46613750.109268188 0 0 0 0 -237915623.12352371 155772089.88259506 0 155772089.88259506 52634330.183708191 0 0 0 0 96575756.793989599 98816204.597214147 0 98816204.597214147 -37863884.085510254 0 0 0 0 202196883.62541199 -44120506.361621857 0 -44120506.361621857 -112460480.01876831 0 0 0 0 1358383.7969815359 1388310.0757168252 0 1388310.0757168252 -1389430.0581318289 0 0 0 0 -65569221.594126701 -37644804.018106461 0 -37644804.018106461 42978805.362838745 0 0 0 0 -216616141.42028809 153991689.94148254 0 153991689.94148254 75872259.31754303 0 0 0 0 -199462819.86085033 -86668209.101596355 0 -86668209.101596355 69684689.585662842 0 0 0 0 4714401.2655448914 2073065.2878990173 0 2073065.2878990173 12043603.580036163 0 0 0 0 12544950.900220156 110416930.64722908 0 110416930.64722908 -32244948.670967102 0 0 0 0 -320502321.41926193 438220064.29494476 0 438220064.29494476 -91012428.124908447 0 0 0 0 9475823.8698867895 17568900.467069421 0 17568900.467069421 30937871.686498016 0 0 0 0 -379491345.86548328 263732719.1520443 0 263732719.1520443 14621684.743377686 0 0 0 0 -126326039.76811218 257213668.36766052 0 257213668.36766052 -42165114.911827087 0 0 0 0 46588204.664305687 213164974.81452179 0 213164974.81452179 -369663417.94680786 0 0 0 0 372953609.85282612 253843442.0574646 0 253843442.0574646 -113315575.59385395 0 0 0 0 -2849492.5766963959 271792156.46270752 0 271792156.46270752 -108600930.46887207 0 0 0 0 -127619221.21950769 361690594.52446747 0 361690594.52446747 368810314.84869385 0 0 0 0 -43561780.774886131 218188926.36795044 0 218188926.36795044 -275752133.15214157 0 0 0 0 24011916.196341351 30515868.77914368 0 30515868.77914368 32746418.288134143 0 0 0 0 -25008672.819658279 410639636.0644989 0 410639636.0644989 -365350064.83161628 0 0 0 0 99802104.293596745 134877522.77744293 0 134877522.77744293 -240660655.72213745 0 0 0 0 97348640.306838512 106612332.65368652 0 106612332.65368652 -428556624.31144714 0 0 0 0 239548751.17923355 234436402.91023254 0 234436402.91023254 -286054969.20417786 0 0 0 0 230343084.78739309 606873973.97784424 0 606873973.97784424 -462523454.63846207 0 0 0 0 656171025.62150002 -101542557.45198059 0 -101542557.45198059 -676995050.42451096 0 0 0 0 780180027.05945206 -426514761.43876648 0 -426514761.43876648 -14393861.000814438 0 0 0 0 -155505919.8820734 242301828.21629333 0 242301828.21629333 -300412213.71495056 0 0 0 0 225526845.71342194 63386865.547393799 0 63386865.547393799 -216696505.87686157 0 0 0 0 -171077513.76750618 -241705926.02595687 0 -241705926.02595687 -125491514.11724854 0 0 0 0 176639821.87282372 -152339075.77475739 0 -152339075.77475739 -126016357.17328644 0 0 0 0 13537520.676855803 -57223667.535579681 0 -57223667.535579681 -11946296.131759644 0 0 0 0 311452676.70194244 -184297969.53179169 0 -184297969.53179169 41907896.582733154 0 0 0 0 173942071.33084869 135130507.84934235 0 135130507.84934235 157919237.13110352 0 0 0 0 102094010.05370855 118308487.79780197 0 118308487.79780197 -95444692.410247803 0 0 0 0 373548734.99676681 158602930.97049713 0 158602930.97049713 -92808932.126018047 0 0 0 0 955524501.62267017 279734387.19342804 0 279734387.19342804 161600192.55937195 0 0 0 0 177483234.78139782 -150110995.9451561 0 -150110995.9451561 600613859.50521851 0 0 0 0 70513677.455795586 21643813.293783188 0 21643813.293783188 367824579.03753662 0 0 0 0 264700924.92277789 536317976.08127975 0 536317976.08127975 288330099.5484848 0 0 0 0 385988679.39693737 200053976.91923523 0 200053976.91923523 -260217207.37917709 0 0 0 0 -37085120.216112137 -353294848.07619476 0 -353294848.07619476 1046846989.1101303 0 0 0 0 -770383.60243220441 3529237.0780736953 0 3529237.0780736953 6371470.8564642519 0 0 0 0 -109116641.60869765 -27324620.772961617 0 -27324620.772961617 308356195.44302368 0 0 0 0 -430413870.98654747 -45588810.424804688 0 -45588810.424804688 531804497.0435257 0 0 0 0 -208763268.09297943 250435747.57012939 0 250435747.57012939 327272828.82001495 0 0 0 0 -330667145.09813976 212448746.05649567 0 212448746.05649567 328897722.52838135 0 0 0 0 -93477018.786690235 87555649.571502686 0 87555649.571502686 357881576.35757446 0 0 0 0 13455126.172093391 457273957.34946442 0 457273957.34946442 1018885683.7205174 0 0 0 0 -54621155.178642273 -20439993.784101486 0 -20439993.784101486 126644420.9595871 0 0 0 0 -2003374.5904960632 51369779.461872101 0 51369779.461872101 -17328638.109809875 0 0 0 0 36046721.411358833 -121686357.10816765 0 -121686357.10816765 -39075678.336952209 0 0 0 0 -44753882.127840042 54817127.523687363 0 54817127.523687363 -97481051.23677063 0 0 0 0 4538383.8801822364 917075.84706988931 0 917075.84706988931 163736.81168301404 0 0 0 0 -23833721.943107605 48514557.036407471 0 48514557.036407471 -109020566.56203079 0 0 0 0 -28453683.234807968 63977801.645889282 0 63977801.645889282 -115875874.13137054 0 0 0 0 6353913.3786964417 18798563.77488327 0 18798563.77488327 6251096.3340072632 0 0 0 0 -58665647.935284615 25710959.791072845 0 25710959.791072845 87539920.531455994 0 0 0 0 -1031529.2479799837 3774442.7872496396 0 3774442.7872496396 6070030.0017514825 0 0 0 0 11624005.426606189 18389903.376942337 0 18389903.376942337 16591798.210223563 0 0 0 0 -30450894.868541718 59678574.809856415 0 59678574.809856415 26177035.02970314 0 0 0 0 -21199631.95260191 31135831.291111946 0 31135831.291111946 56353047.75428009 0 0 0 0 -12257980.528800964 85447809.739543915 0 85447809.739543915 -33830566.110488892 0 0 0 0 -10278518.580815792 -4186745.4705142975 0 -4186745.4705142975 105073287.55480957 0 0 0 0 8316555.3869631365 12902147.467258101 0 12902147.467258101 17471083.389674626 0 0 0 0 -59231014.712597847 26599444.66153717 0 26599444.66153717 107110241.96945953 0 0 0 0 -38040022.802577972 14200359.5247612 0 14200359.5247612 114018704.34405518 0 0 0 0 -60927745.77318573 69081290.361335754 0 69081290.361335754 88136040.13495636 0 0 0 0 -48769833.556062698 47486703.319091797 0 47486703.319091797 115588264.01617432 0 0 0 0 -134705270.59123611 84211354.753557205 0 84211354.753557205 117527970.40566254 0 0 0 0 -158645075.90315247 96994886.591880798 0 96994886.591880798 126298402.14647293 0 0 0 0 -90044611.176647186 26557755.002241135 0 26557755.002241135 164398171.51773834 0 0 0 0 28209130.452946663 -150493966.70948505 0 -150493966.70948505 240333623.46528244 0 0 0 0 -149124523.80426788 -18627201.660427094 0 -18627201.660427094 218011491.67068338 0 0 0 0 6643169.1638109237 9457966.8952548541 0 9457966.8952548541 12987310.77841296 0 0 0 0 -214910171.39385223 77490929.033565521 0 77490929.033565521 -13501089.803969383 0 0 0 0 -171666841.94420242 -30875780.570414543 0 -30875780.570414543 167822399.73296356 0 0 0 0 -156850735.56754875 284986854.5029335 0 284986854.5029335 -52075204.256975174 0 0 0 0 -130316808.92553902 167478260.00753403 0 167478260.00753403 175268171.55402374 0 0 0 0 361434583.15117645 421254488.93567657 0 421254488.93567657 301309775.69451141 0 0 0 0 378199942.50619459 540642686.47997475 0 540642686.47997475 158214056.84240723 0 0 0 0 -853040496.99860001 -529294577.62176895 0 -529294577.62176895 205505416.73122406 0 0 0 0 -499280524.41692352 1147312299.6012878 0 1147312299.6012878 1754962833.3129272 0 0 0 0 -306769633.16207886 3555793.0994033813 0 3555793.0994033813 615829740.74469376 0 0 0 0 -311314851.16253662 -197126939.60947418 0 -197126939.60947418 1694174.6792602539 0 0 0 0 84624226.934337616 98820600.630367279 0 98820600.630367279 14370564.283966064 0 0 0 0 9877468.5290518478 13387640.749862822 0 13387640.749862822 7755270.6124580428 0 0 0 0 1422177244.1756058 363538134.9041481 0 363538134.9041481 -165192680.81377411 0 0 0 0 680603044.1934433 -264508372.25218582 0 -264508372.25218582 2132779.4620714188 0 0 0 0 2151654519.0705719 1202299139.6699486 0 1202299139.6699486 350919908.28559875 0 0 0 0 4435567.9624905325 1751858.4112518057 0 1751858.4112518057 868647.25780642778 0 0 0 0 14675952.691673279 226270007.61838531 0 226270007.61838531 686421431.11769104 0 0 0 0 2726232245.0966492 822796235.44750977 0 822796235.44750977 812485225.82176208 0 0 0 0 2088325893.8669434 -278713748.69620514 0 -278713748.69620514 -16900759.131004333 0 0 0 0 5784066.8591952175 4043978.1629353035 0 4043978.1629353035 2287656.3805968016 0 0 0 0 -229417804.40620422 1142938780.3632469 0 1142938780.3632469 978318340.82544327 0 0 0 0 -28651240.264133453 28227157.918346405 0 28227157.918346405 -197948290.76119995 0 0 0 0 1096242910.7609043 460940918.73070526 0 460940918.73070526 -88141120.761650085 0 0 0 0 56321831.734512329 247899287.63864899 0 247899287.63864899 -121831783.13282394 0 0 0 0 484688856.82019234 -13208653.680072784 0 -13208653.680072784 -196310452.71155548 0 0 0 0 458189494.27534676 -59900621.829999924 0 -59900621.829999924 -140093213.81895447 0 0 0 0 138052429.40254211 79837483.968761444 0 79837483.968761444 -206964150.43729401 0 0 0 0 158696028.60199738 58543124.637008667 0 58543124.637008667 -185464867.46028137 0 0 0 0 92491701.001893997 74019478.397464752 0 74019478.397464752 -168014270.08359528 0 0 0 0 -164471508.31295776 85983859.705909729 0 85983859.705909729 -126739600.71102905 0 0 0 0 56070890.034309387 168731763.48862076 0 168731763.48862076 -277427217.54761887 0 0 0 0 -87161039.679571152 -251118705.58750153 0 -251118705.58750153 -169939529.41234589 0 0 0 0 7482807.6602879092 2288376.1634073853 0 2288376.1634073853 594581.73185627535 0 0 0 0 -52821765.297180176 139870752.53366089 0 139870752.53366089 -182459778.94550323 0 0 0 0 115939648.18637085 -92742154.763725281 0 -92742154.763725281 -120504154.50569534 0 0 0 0 -130837853.74080658 96502468.377799988 0 96502468.377799988 -66446279.577972412 0 0 0 0 147628715.4811058 27162787.40826416 0 27162787.40826416 -158262048.55185699 0 0 0 0 -66663557.130996704 30224042.273910522 0 30224042.273910522 -65932462.028015137 0 0 0 0 1077555.4596641921 -98600.098163533956 0 -98600.098163533956 -793547.36656416208 0 0 0 0 -8709122.1390419006 80944725.182518005 0 80944725.182518005 -171805165.22984314 0 0 0 0 -31839977.309087753 75318669.703702927 0 75318669.703702927 14823891.810058594 0 0 0 0 1531949.0413633473 183888.28821307421 0 183888.28821307421 -809170.90628843755 0 0 0 0 101778207.25745201 60106175.917240143 0 60106175.917240143 -103163299.64668274 0 0 0 0 77144443.841423035 13481376.975223541 0 13481376.975223541 -151119278.16484261 0 0 0 0 13331799.124080658 59254030.415065765 0 59254030.415065765 166250132.23950195 0 0 0 0 48858637.775561333 78686089.879364014 0 78686089.879364014 5851976.8068389893 0 0 0 0 -197524797.4117713 203129039.74455404 0 203129039.74455404 -86259133.835189819 0 0 0 0 123202064.83073807 60866951.266292572 0 60866951.266292572 -164382944.81134796 0 0 0 0 132517162.33672714 78668127.018249512 0 78668127.018249512 -171803658.91665268 0 0 0 0 106432015.94442749 153872076.97973251 0 153872076.97973251 -2018193.3798751831 0 0 0 0 116731513.52580643 127698616.59060669 0 127698616.59060669 -140481448.76317024 0 0 0 0 -30547742.703328133 57626979.814655304 0 57626979.814655304 -891879.55912780762 0 0 0 0 219613610.59599447 332800299.55222321 0 332800299.55222321 380751444.29678345 0 0 0 0 162388223.58718491 176779444.84403229 0 176779444.84403229 49633484.525146484 0 0 0 0 -13612157.260288239 43112789.146846771 0 43112789.146846771 464572728.93917084 0 0 0 0 -75841357.867987633 50542985.804567337 0 50542985.804567337 496799079.63498688 0 0 0 0 -4290944.2604435831 831056.122304447 0 831056.122304447 -20544.640232892707 0 0 0 0 313294548.34194183 330475243.43608856 0 330475243.43608856 -897125203.33020973 0 0 0 0 555697636.57571459 564050706.39342499 0 564050706.39342499 -672209893.9256134 0 0 0 0 206153223.07154083 -823894235.23735046 0 -823894235.23735046 -877048688.74450684 0 0 0 0 -206801810.5326767 33541995.898086548 0 33541995.898086548 923314088.29627991 0 0 0 0 27476064.05547905 18377766.216985703 0 18377766.216985703 166434901.09651947 0 0 0 0 -70225384.349380493 22552478.897277832 0 22552478.897277832 171226745.53515816 0 0 0 0 35721044.485790253 70906646.857414246 0 70906646.857414246 171511717.25228882 0 0 0 0 -11625549.106302388 1589203.3818615973 0 1589203.3818615973 277566.44196936395 0 0 0 0 -42889772.106170654 13411596.259685516 0 13411596.259685516 366688357.84496307 0 0 0 0 -296925697.20956039 244185094.87644196 0 244185094.87644196 -220657191.90367413 0 0 0 0 2904880.1648635864 29986920.102500916 0 29986920.102500916 -304938547.26736832 0 0 0 0 -15831101.193977647 1825748.5716016591 0 1825748.5716016591 378745.70361987874 0 0 0 0 -68705735.919994354 26985803.908977509 0 26985803.908977509 270934195.21452904 0 0 0 0 -5079663.3215589523 9544498.5700654984 0 9544498.5700654984 149636717.31443787 0 0 0 0 -76964320.882928848 17353239.364982605 0 17353239.364982605 149779205.35150534 0 0 0 0 -6202452.2845420837 35877398.681928635 0 35877398.681928635 9769107.3374633789 0 0 0 0 -71574980.338085175 135358001.83802032 0 135358001.83802032 -17059886.983621597 0 0 0 0 1418786.4095445834 291019.50450097024 0 291019.50450097024 -580241.12746891379 0 0 0 0 -35718108.715276718 53911965.33316803 0 53911965.33316803 -81242460.570617676 0 0 0 0 -39936552.690486908 56704622.920078278 0 56704622.920078278 -82097040.353462219 0 0 0 0 1836299.0141077042 82943361.468427658 0 82943361.468427658 -157017003.92146301 0 0 0 0 -33372080.209209442 53648986.106666565 0 53648986.106666565 -97470891.176700652 0 0 0 0 -6367815.2029037476 50897810.134868622 0 50897810.134868622 -74965370.032974243 0 0 0 0 -1670489.0504274368 53589433.313735962 0 53589433.313735962 -78771035.172645569 0 0 0 0 -17957565.298938751 35209968.554254532 0 35209968.554254532 -81380815.279632568 0 0 0 0 -35699216.883588076 54660673.654307365 0 54660673.654307365 -68291932.77494812 0 0 0 0 19801470.355443954 48601974.397094727 0 48601974.397094727 -83364687.202056885 0 0 0 0 811787.65388482064 67753.623657748103 0 67753.623657748103 -403485.8585383296 0 0 0 0 31169480.320539474 102636001.07588196 0 102636001.07588196 -25837966.355182648 0 0 0 0 -31149345.265604019 77479934.05921936 0 77479934.05921936 88297037.236679077 0 0 0 0 -5992071.6627521515 22324901.584003448 0 22324901.584003448 69811098.135383606 0 0 0 0 34566921.941745758 56687503.857723236 0 56687503.857723236 84914497.413818359 0 0 0 0 15076937.609272003 74892165.586013794 0 74892165.586013794 136191246.8213501 0 0 0 0 -65644850.030005932 86082866.278270245 0 86082866.278270245 141618053.6002121 0 0 0 0 -23693102.467433929 52807063.030416489 0 52807063.030416489 123610621.16000366 0 0 0 0 43960641.907470703 88043676.642944336 0 88043676.642944336 -39146850.041213989 0 0 0 0 -18042497.106451593 1635664.7481881604 0 1635664.7481881604 621896.40569604654 0 0 0 0 -5630786.5767402649 37098895.494194031 0 37098895.494194031 136094876.94501114 0 0 0 0 -15408141.155853271 1189746.4574975967 0 1189746.4574975967 53275938.447906494 0 0 0 0 -18745903.75541687 12576991.837844849 0 12576991.837844849 100288901.93965721 0 0 0 0 -33562709.3446064 13449643.92647171 0 13449643.92647171 10787660.734085083 0 0 0 0 -299244258.9491539 314559731.78234863 0 314559731.78234863 -154643850.49465942 0 0 0 0 -1225473.572873529 927048.74412255734 0 927048.74412255734 933251.94288159907 0 0 0 0 -21816643.074119568 15242351.306015015 0 15242351.306015015 7723770.0940322876 0 0 0 0 -23138271.866691589 13276950.272407532 0 13276950.272407532 6964207.8882446289 0 0 0 0 -129736397.86458874 305806550.86988544 0 305806550.86988544 -221131716.16894531 0 0 0 0 -132257061.15660095 291896630.13183403 0 291896630.13183403 -205604069.56411743 0 0 0 0 -273797461.94285583 209755883.17520142 0 209755883.17520142 -206544528.05751705 0 0 0 0 -12422957.620943069 -22182852.497590065 0 -22182852.497590065 -29568542.823516846 0 0 0 0 -88163628.540167212 204125993.74438703 0 204125993.74438703 -223752496.25930786 0 0 0 0 -280436.19503195584 296117.52183169127 0 296117.52183169127 350606.98653790355 0 0 0 0 -88183635.794223785 203442048.77004623 0 203442048.77004623 -206695090.40008354 0 0 0 0 -79387853.281295776 97735268.950538635 0 97735268.950538635 -23118062.97718811 0 0 0 0 -78079557.652290344 70917548.010551453 0 70917548.010551453 -302855174.80090332 0 0 0 0 35447406.917533875 109356302.0697403 0 109356302.0697403 -482773528.99909973 0 0 0 0 -3001815.6418609619 171315545.98262787 0 171315545.98262787 -274090841.80835342 0 0 0 0 -27998083.480819702 216323444.05330658 0 216323444.05330658 -312846510.95610046 0 0 0 0 107169315.51124191 13062476.246749878 0 13062476.246749878 -355364241.03045654 0 0 0 0 149274750.72824097 405612023.78973389 0 405612023.78973389 -731595292.09428406 0 0 0 0 92700979.89680481 352290365.02443314 0 352290365.02443314 -419030414.59338379 0 0 0 0 111399692.63567352 384502329.38835144 0 384502329.38835144 -399259402.71876526 0 0 0 0 77707980.457862854 308228511.19213867 0 308228511.19213867 -474246314.84601116 0 0 0 0 -19761033.362319946 299638559.92140198 0 299638559.92140198 -353429912.67694092 0 0 0 0 -31777286.849723816 269869191.74324036 0 269869191.74324036 -280599742.43681335 0 0 0 0 5794226.2211875916 353704089.42325592 0 353704089.42325592 -284192119.37535095 0 0 0 0 -83597964.505187988 396245150.44226456 0 396245150.44226456 -139487167.90214539 0 0 0 0 -31401324.479019165 372473590.26331329 0 372473590.26331329 -283978287.52237988 0 0 0 0 -145647295.83540344 352431009.5758667 0 352431009.5758667 -133263162.06890869 0 0 0 0 38295211.677913666 504252506.92668152 0 504252506.92668152 -151655759.50926208 0 0 0 0 19160746.806758881 456690759.5010376 0 456690759.5010376 -143795447.71409607 0 0 0 0 53926649.271156311 425836272.42177582 0 425836272.42177582 -403131722.10286427 0 0 0 0 16043505.355926514 446812641.71487427 0 446812641.71487427 -147797641.76787949 0 0 0 0 20874733.183395386 404164961.30589294 0 404164961.30589294 -42024244.185440063 0 0 0 0 106565039.5499649 471911817.21243286 0 471911817.21243286 -69232232.314620972 0 0 0 0 96071516.93510437 426904911.62689972 0 426904911.62689972 -154712050.47836304 0 0 0 0 26960070.431545258 394917215.73080826 0 394917215.73080826 63926446.686576843 0 0 0 0 28279045.634658813 443254497.95835114 0 443254497.95835114 44545158.806884766 0 0 0 0 219071383.2806015 317575248.20846558 0 317575248.20846558 7970767.7895069122 0 0 0 0 4367491.7926559448 347764118.50527191 0 347764118.50527191 -34269844.530723572 0 0 0 0 -95932434.268730164 388132541.93228149 0 388132541.93228149 -107638100.96665955 0 0 0 0 -184007344.40411758 406401308.19998169 0 406401308.19998169 -21637803.07774353 0 0 0 0 -91649302.411941528 409300079.45594025 0 409300079.45594025 -3687723.471244812 0 0 0 0 -208270584.28987122 345908583.50749969 0 345908583.50749969 -19916264.6278193 0 0 0 0 -234651443.37492371 366331432.41213989 0 366331432.41213989 -53011612.882278442 0 0 0 0 -370465496.34453583 308816343.08439636 0 308816343.08439636 1745784.2315101624 0 0 0 0 -241936624.80118561 320832553.89374542 0 320832553.89374542 -82940331.341247559 0 0 0 0 -373131687.30118561 292915543.36183167 0 292915543.36183167 -8123403.7230911255 0 0 0 0 -415436908.51979065 210613025.71929932 0 210613025.71929932 26759476.121124268 0 0 0 0 -402742084.85369873 240066389.35160828 0 240066389.35160828 -39135780.265449524 0 0 0 0 -365763564.08491135 222652609.06626892 0 222652609.06626892 -60125036.74262619 0 0 0 0 -295333009.12080383 265500452.14144135 0 265500452.14144135 -177537385.01889801 0 0 0 0 -149595682.13444519 308145740.13287354 0 308145740.13287354 -199176761.14630508 0 0 0 0 -150296223.35931396 323167021.78967285 0 323167021.78967285 -216310102.76329803 0 0 0 0 -287755672.50889301 299402704.70064449 0 299402704.70064449 -92912796.843322754 0 0 0 0 242650263.2936821 -21827944.569068909 0 -21827944.569068909 -610467691.31451416 0 0 0 0 122348721.24956512 -60854061.722820282 0 -60854061.722820282 -269165447.26118469 0 0 0 0 575066204.83423424 605824112.64970779 0 605824112.64970779 -164052334.08862305 0 0 0 0 -203837195.50082684 483610773.43679428 0 483610773.43679428 1233834609.9906311 0 0 0 0 955617077.03164291 129140649.80161476 0 129140649.80161476 -917687446.27490234 0 0 0 0 335557.89449370047 395183.31207174435 0 395183.31207174435 -450556.2710583359 0 0 0 0 303404279.91517258 219350640.54302979 0 219350640.54302979 -713759696.22764587 0 0 0 0 -8620979.8244247437 297767007.26951599 0 297767007.26951599 -698274969.01799774 0 0 0 0 255794156.0591011 318448561.75499535 0 318448561.75499535 -780950001.8657074 0 0 0 0 24079808.889019012 -79395132.224105835 0 -79395132.224105835 -526304592.40361404 0 0 0 0 168641508.2508297 -48050795.319616318 0 -48050795.319616318 -553699224.41265869 0 0 0 0 142347726.68848038 -30295301.851539612 0 -30295301.851539612 -511400762.08018875 0 0 0 0 -231148131.23681641 -536987110.50376892 0 -536987110.50376892 -670080827.52362061 0 0 0 0 806759.67916793143 16121.699764057994 0 16121.699764057994 -4390405.9976618588 0 0 0 0 126710792.63672543 78688464.718420029 0 78688464.718420029 -1202750321.5762939 0 0 0 0 -725076560.74606705 569723609.0255127 0 569723609.0255127 -255239749.52880859 0 0 0 0 -67952304.95056057 436306515.6595974 0 436306515.6595974 -917775890.09693909 0 0 0 0 -752687896.94545937 -164891266.28172302 0 -164891266.28172302 -564362927.8677063 0 0 0 0 165718527.12772369 111202898.93364716 0 111202898.93364716 -1379165330.4346237 0 0 0 0 141156448.65174866 225065763.5218811 0 225065763.5218811 -608792053.01998138 0 0 0 0 144705054.38658142 -107970308.73405075 0 -107970308.73405075 -892565836.30030823 0 0 0 0 -31340565.360710144 705831070.21504974 0 705831070.21504974 -1055464532.5497894 0 0 0 0 48322987.319351196 458896027.44374466 0 458896027.44374466 -400174366.86961365 0 0 0 0 125277780.20865631 450651880.82319641 0 450651880.82319641 -400386292.2433722 0 0 0 0 -57004897.367544174 444724847.67710495 0 444724847.67710495 -123063635.35693359 0 0 0 0 135161864.32283974 90462152.52485466 0 90462152.52485466 -86724480.412643433 0 0 0 0 517535806.59720039 -88075152.603673935 0 -88075152.603673935 -39232742.193344116 0 0 0 0 357579788.05545807 449572218.79601288 0 449572218.79601288 18861815.322601318 0 0 0 0 308342430.08678055 364816046.74352264 0 364816046.74352264 -119501913.50650024 0 0 0 0 112551387.18554688 337376228.83220673 0 337376228.83220673 135558803.69873047 0 0 0 0 650551600.8143692 222372565.18632889 0 222372565.18632889 -9712223.3165588379 0 0 0 0 281086583.0634079 311250865.27201843 0 311250865.27201843 -5853068.4361419678 0 0 0 0 216714628.40713501 235379597.17430878 0 235379597.17430878 200382860.13861084 0 0 0 0 290250924.48199081 194888710.43291664 0 194888710.43291664 415464286.890625 0 0 0 0 596206385.02518845 260900912.12802505 0 260900912.12802505 111099158.39594269 0 0 0 0 -19980774.7253685 23176697.398117065 0 23176697.398117065 7356079.4341697693 0 0 0 0 344150.17556485021 4936492.2665579505 0 4936492.2665579505 7070898.1155397296 0 0 0 0 -542083.91532222927 2489597.5085187182 0 2489597.5085187182 754679.05324499682 0 0 0 0 -8058962.2150917053 -42853746.024616003 0 -42853746.024616003 -179771882.72759247 0 0 0 0 132244368.58474731 95871655.825996399 0 95871655.825996399 -74787685.080223083 0 0 0 0 3856348.9429471595 4683851.6261887923 0 4683851.6261887923 -11156497.467356637 0 0 0 0 6446333.119165048 14700973.317501374 0 14700973.317501374 4711690.8968421705 0 0 0 0 -67361631.879817963 -23806840.57957077 0 -23806840.57957077 -185375850.00902557 0 0 0 0 -17370413.914670944 37313962.727535248 0 37313962.727535248 12522198.804870605 0 0 0 0 -22829157.763317108 29040902.58706665 0 29040902.58706665 739383.10958480835 0 0 0 0 -18159439.820831299 41178652.96333313 0 41178652.96333313 -3231815.9772491455 0 0 0 0 -9936886.2182369232 59676023.037466049 0 59676023.037466049 14722960.463516235 0 0 0 0 13095964.669414639 79387375.845420599 0 79387375.845420599 -52611573.974334717 0 0 0 0 121979547.21868515 2691372.0894165039 0 2691372.0894165039 -522956709.21465683 0 0 0 0 4622038.7373471484 14443909.182084963 0 14443909.182084963 6115606.7291551828 0 0 0 0 -16994007.686004639 14686764.882247925 0 14686764.882247925 -28744934.278858185 0 0 0 0 -30412408.338283539 18907265.968887329 0 18907265.968887329 -8564089.7313995361 0 0 0 0 -31191650.702287674 15958932.665119171 0 15958932.665119171 -14641245.911193848 0 0 0 0 -21966535.328178406 2400483.6663513184 0 2400483.6663513184 -8354694.5296478271 0 0 0 0 -32918086.581130981 10304409.189933777 0 10304409.189933777 23956071.740158081 0 0 0 0 -29704972.445174515 26256121.941413581 0 26256121.941413581 25178188.165115356 0 0 0 0 -38620867.258605957 34936180.637268066 0 34936180.637268066 51614735.707199097 0 0 0 0 -37318308.761523247 28594013.582217693 0 28594013.582217693 12803742.512329102 0 0 0 0 -28826674.471184731 18377894.731855392 0 18377894.731855392 8118762.9287338257 0 0 0 0 -47464245.266507268 12069492.01332444 0 12069492.01332444 6938838.7243804932 0 0 0 0 -38721793.496822357 30900801.05280304 0 30900801.05280304 17703296.62197113 0 0 0 0 -46980143.443210602 30330771.130767822 0 30330771.130767822 13446794.153205872 0 0 0 0 -80165636.359149933 28407333.408313751 0 28407333.408313751 169635.24645614624 0 0 0 0 1021799313.0101662 325990791.83909988 0 325990791.83909988 -34042754.926437378 0 0 0 0 813394.69558844622 1515743.6614462472 0 1515743.6614462472 2894803.8819288164 0 0 0 0 511275126.45137405 288611103.77417755 0 288611103.77417755 11571787.210540771 0 0 0 0 348318155.84719467 272347266.8724823 0 272347266.8724823 62203095.453712463 0 0 0 0 772995276.34687424 166449515.68465805 0 166449515.68465805 -10998307.984703064 0 0 0 0 757384988.76905155 166398745.70417142 0 166398745.70417142 122522728.03184509 0 0 0 0 740340660.00071037 357044099.18944359 0 357044099.18944359 -46222461.136688232 0 0 0 0 900906026.3571167 443657242.40090179 0 443657242.40090179 191886.25297546387 0 0 0 0 -229735772.9461484 233255359.77886295 0 233255359.77886295 906564.71551513672 0 0 0 0 1552896297.1816769 216143828.87545776 0 216143828.87545776 -134511137.4956131 0 0 0 0 1290802.8084407635 -82800.055535785854 0 -82800.055535785854 545688.06676855683 0 0 0 0 -38362087.297166824 26918932.82477951 0 26918932.82477951 -29463965.414978027 0 0 0 0 -35526279.080953598 20569713.338947296 0 20569713.338947296 -16542535.382902145 0 0 0 0 -1808673.2073803544 -154490.13964806497 0 -154490.13964806497 2182087.1182276458 0 0 0 0 -45540581.561473846 28796623.687404633 0 28796623.687404633 -1938.2567379219895 0 0 0 0 -85201322.577795029 10609518.232299805 0 10609518.232299805 -15462741.295333862 0 0 0 0 -20017314.017850876 -3730122.0048027039 0 -3730122.0048027039 -22997466.388206482 0 0 0 0 -1322218.5129842572 319729.98455834016 0 319729.98455834016 2640577.0207186341 0 0 0 0 -32366559.044750214 27084010.652523041 0 27084010.652523041 -25762320.290997505 0 0 0 0 13485307.203723669 40503468.683148861 0 40503468.683148861 -21017391.420372009 0 0 0 0 -139040217.27917767 51100445.294904709 0 51100445.294904709 39604487.449653625 0 0 0 0 -283122385.6004982 424606897.62100601 0 424606897.62100601 90861139.679718018 0 0 0 0 -597840089.45162201 293030816.82372284 0 293030816.82372284 104051562.33016348 0 0 0 0 -764080254.39828682 285366385.49352455 0 285366385.49352455 83661282.953044891 0 0 0 0 -510592721.54354095 216250012.40602112 0 216250012.40602112 -7898110.3218688965 0 0 0 0 -564146160.84084511 183595303.8343792 0 183595303.8343792 22058218.997039795 0 0 0 0 -486504678.36289024 316669204.73789215 0 316669204.73789215 52440220.878250122 0 0 0 0 -485828305.23513222 353629172.81058788 0 353629172.81058788 107285838.0816803 0 0 0 0 -238792680.00720978 350982760.3352356 0 350982760.3352356 8808781.9677734375 0 0 0 0 -310384322.2904377 393985212.54569626 0 393985212.54569626 45559920.27796936 0 0 0 0 -101033324.13149643 341251996.30187225 0 341251996.30187225 22205688.541618347 0 0 0 0 -112474948.89210129 445749963.41988754 0 445749963.41988754 39383542.411010742 0 0 0 0 -233360044.10629654 373650181.52697468 0 373650181.52697468 88243938.76776123 0 0 0 0 375703791.70487595 312976948.38463593 0 312976948.38463593 -9663674.8831710815 0 0 0 0 258023821.37308884 386611400.13700104 0 386611400.13700104 115634234.95657349 0 0 0 0 -45056911.727508545 435822930.63855362 0 435822930.63855362 82201930.116539001 0 0 0 0 224298465.10052872 307939596.70415497 0 307939596.70415497 -25822011.857122421 0 0 0 0 -159154667.85028076 532999832.90952492 0 532999832.90952492 50556402.125114441 0 0 0 0 413443460.43852615 165337872.85630035 0 165337872.85630035 99743862.561689377 0 0 0 0 193636533.90571308 500188198.07415009 0 500188198.07415009 70648.428092956543 0 0 0 0 -410941107.1780777 210410403.80823135 0 210410403.80823135 24791876.137237549 0 0 0 0 -590934530.6386137 514564914.90031433 0 514564914.90031433 -432559.56224060059 0 0 0 0 -571751936.40203857 261180719.28419971 0 261180719.28419971 -7509963.1284942627 0 0 0 0 -1705355818.6180763 75946099.990390778 0 75946099.990390778 103895630.78425598 0 0 0 0 144304947.16202545 64546941.763813019 0 64546941.763813019 67346.51082611084 0 0 0 0 62788377.621173859 120614575.22693634 0 120614575.22693634 -15978154.966247559 0 0 0 0 -1277841.3336586487 113598.27158055454 0 113598.27158055454 -1868561.971907109 0 0 0 0 242154263.84655762 95473887.059524536 0 95473887.059524536 -35196280.326721191 0 0 0 0 138567364.88937378 79501220.400238037 0 79501220.400238037 17970990.80922699 0 0 0 0 136935695.67546535 45232252.875885367 0 45232252.875885367 -18940143.847106934 0 0 0 0 25729722.754951477 22723717.359970093 0 22723717.359970093 -13325880.255279541 0 0 0 0 184723087.65895844 94166629.871566772 0 94166629.871566772 -27332365.838317871 0 0 0 0 153626498.24629211 75301509.096149445 0 75301509.096149445 -3349188.7466888428 0 0 0 0 146221122.94464111 106351964.37361908 0 106351964.37361908 -29025403.129547119 0 0 0 0 171192518.18515968 52355206.94956398 0 52355206.94956398 -87801988.572906494 0 0 0 0 127607.31260075234 -1483554.6535541117 0 -1483554.6535541117 -231152.83801679313 0 0 0 0 40699114.008813858 -44816233.094835281 0 -44816233.094835281 71669078.716796875 0 0 0 0 271818628.82310867 73812081.237991333 0 73812081.237991333 -50398482.363998413 0 0 0 0 240811582.47096252 45511106.774719238 0 45511106.774719238 -26640689.508956909 0 0 0 0 165042744.38946533 55888395.996452332 0 55888395.996452332 11765260.304153442 0 0 0 0 32181255.157512665 64503344.651321411 0 64503344.651321411 57232933.652519226 0 0 0 0 -1009649070.0629063 -727084.48734092712 0 -727084.48734092712 60082150.038299561 0 0 0 0 -924025.20723764785 2554599.3230904713 0 2554599.3230904713 -5423406.7119596899 0 0 0 0 -1940318.127512306 -372453.91285279393 0 -372453.91285279393 149539.54339084029 0 0 0 0 168062.3988494873 25729075.954391479 0 25729075.954391479 -39854488.080993652 0 0 0 0 217781526.3603363 117467710.35100937 0 117467710.35100937 -46964281.264038086 0 0 0 0 176988888.66615677 147037164.06564713 0 147037164.06564713 24288026.388137817 0 0 0 0 84257077.412881851 126965913.43622971 0 126965913.43622971 95390964.692512512 0 0 0 0 -2757389.8196593896 2450385.5429696813 0 2450385.5429696813 465797.3087002337 0 0 0 0 199926787.97041702 631250.38816452026 0 631250.38816452026 -6889132.4799957275 0 0 0 0 -9265355.1960258484 6409432.3132553101 0 6409432.3132553101 33205841.389629364 0 0 0 0 -2403030.1935863737 3591382.6923561357 0 3591382.6923561357 -3568696.015316397 0 0 0 0 -495208220.9593811 124725540.7037735 0 124725540.7037735 46785670.326842308 0 0 0 0 -462709057.55800056 119196424.90286922 0 119196424.90286922 -9723122.0761413574 0 0 0 0 -358708.34038017876 2610862.1463046595 0 2610862.1463046595 -4673358.0573028028 0 0 0 0 -40618606.772247314 22682491.860603333 0 22682491.860603333 43932118.122772217 0 0 0 0 -61172432.842582703 78916770.874107361 0 78916770.874107361 76931303.914802551 0 0 0 0 198460236.81804657 104055541.43210983 0 104055541.43210983 17697971.426544189 0 0 0 0 70893402.223243713 158063782.24645233 0 158063782.24645233 105552047.47268677 0 0 0 0 173666293.66174316 -509986.6317024231 0 -509986.6317024231 -151382835.38433075 0 0 0 0 -162169539.46881104 89665626.145843506 0 89665626.145843506 161018659.52069473 0 0 0 0 -216464.6411845535 1369520.6652786583 0 1369520.6652786583 -914770.19902198017 0 0 0 0 -97473986.755149841 -72373562.072710037 0 -72373562.072710037 -17001351.1746521 0 0 0 0 -64843053.968046188 88266918.390375137 0 88266918.390375137 -75865766.865486145 0 0 0 0 -183473184.93982697 -20955467.434188843 0 -20955467.434188843 7789105.1090393066 0 0 0 0 22338649.186653137 36253295.807518005 0 36253295.807518005 19059107.621757507 0 0 0 0 -27148159.657165527 37239032.836009979 0 37239032.836009979 21755585.092453003 0 0 0 0 49860722.997711182 69125836.094200134 0 69125836.094200134 -93116.003574192189 0 0 0 0 -94163151.823566437 87597903.984214783 0 87597903.984214783 279793.03243255615 0 0 0 0 -100892482.62563705 95194743.911750793 0 95194743.911750793 46242136.445526123 0 0 0 0 1428596.7235470563 1683821.4318867177 0 1683821.4318867177 -1467647.4828093052 0 0 0 0 -58282301.535900116 42583991.06313324 0 42583991.06313324 109083821.80245972 0 0 0 0 5411456.5872802734 4500075.9077377319 0 4500075.9077377319 -4766.805453031845 0 0 0 0 8958322.2886352539 -1843542.3501815796 0 -1843542.3501815796 68603507.049224854 0 0 0 0 -30316878.568496704 20519417.849891663 0 20519417.849891663 56093779.684967041 0 0 0 0 20799695.578014374 4945457.3367919922 0 4945457.3367919922 32349277.921646118 0 0 0 0 -31197916.488098145 32734447.915283203 0 32734447.915283203 25644006.071292877 0 0 0 0 -24879531.252105713 21327063.298931122 0 21327063.298931122 33980762.601478577 0 0 0 0 72267465.00532341 64477273.942510605 0 64477273.942510605 81502053.240341187 0 0 0 0 23944219.814115524 28575013.354253769 0 28575013.354253769 27511771.469032288 0 0 0 0 37411849.609327316 61085319.234111786 0 61085319.234111786 78118029.929969788 0 0 0 0 54008635.391105652 25234702.259120941 0 25234702.259120941 80191.593734741211 0 0 0 0 1455922.7202073634 1900424.165793784 0 1900424.165793784 -1607966.7841072679 0 0 0 0 -4603731.3850650787 33772290.760186195 0 33772290.760186195 73848427.125839233 0 0 0 0 8859163.0610427856 10659735.623954773 0 10659735.623954773 37691943.273544312 0 0 0 0 1165545.4589538425 1391237.7504633665 0 1391237.7504633665 -1175148.9829110801 0 0 0 0 25706788.146339417 64564339.624565125 0 64564339.624565125 27210997.985610962 0 0 0 0 125990419.72079468 182432617.08864594 0 182432617.08864594 122854814.64443016 0 0 0 0 15870122.280715942 47368589.328132629 0 47368589.328132629 79829577.839950562 0 0 0 0 1329837.4669418335 22554417.776229858 0 22554417.776229858 -2702553.5369796753 0 0 0 0 -9233177.9735965729 -24155330.553321362 0 -24155330.553321362 31547991.652984619 0 0 0 0 -245296.96240997314 25619393.349151611 0 25619393.349151611 27309743.895805359 0 0 0 0 -4956412.7948608398 20165261.086601257 0 20165261.086601257 7372261.0370140076 0 0 0 0 -2342441.3608999401 5754949.452344805 0 5754949.452344805 2701.3681436777115 0 0 0 0 10674573.091480255 -153794.42278385162 0 -153794.42278385162 -7116888.1064529419 0 0 0 0 -31444350.982597351 13437551.877635956 0 13437551.877635956 -32712180.169296265 0 0 0 0 173349838.60986328 -24760700.776210785 0 -24760700.776210785 -46476672.702819824 0 0 0 0 2565825.1343139708 1878544.4818932116 0 1878544.4818932116 426479.63947694004 0 0 0 0 264169254.17802429 99086779.583694458 0 99086779.583694458 2822236.9192657471 0 0 0 0 1392839.2343907654 3666750.0802565441 0 3666750.0802565441 3792572.8816831112 0 0 0 0 3004822.7478256226 -676329.65790557861 0 -676329.65790557861 -16801893.450195312 0 0 0 0 -1995025.4294959977 2520654.915764153 0 2520654.915764153 -942835.30640120804 0 0 0 0 -16978992.673492432 29061606.016365051 0 29061606.016365051 17493283.90190506 0 0 0 0 -883910.92032623291 16424552.692611694 0 16424552.692611694 7683637.7148742676 0 0 0 0 -9913723.0261993408 6438867.6906661987 0 6438867.6906661987 22047217.616439819 0 0 0 0 -23244711.440078735 -495371.64846038818 0 -495371.64846038818 18528794.293922424 0 0 0 0 -30201405.910240173 5464784.5631637573 0 5464784.5631637573 30048299.218841553 0 0 0 0 -20327333.126556396 20570847.785308838 0 20570847.785308838 35804562.241874695 0 0 0 0 -31950820.374549866 6638400.1899414062 0 6638400.1899414062 56345646.997268677 0 0 0 0 -26787626.745441437 27598843.59803772 0 27598843.59803772 34501307.724945068 0 0 0 0 -13462034.803405762 35650002.139663696 0 35650002.139663696 12998469.446334839 0 0 0 0 -8430378.795879364 46096540.806293488 0 46096540.806293488 33412421.870254517 0 0 0 0 -13267082.647224426 34709062.51197052 0 34709062.51197052 2994201.1871337891 0 0 0 0 -20938525.616214752 15930831.851970673 0 15930831.851970673 14115001.555679321 0 0 0 0 -9311807.3387641907 25146911.687423706 0 25146911.687423706 -8861404.920715332 0 0 0 0 -9266596.3805007935 16668847.029838562 0 16668847.029838562 8721652.0053443909 0 0 0 0 -12396462.090942383 26571378.161277771 0 26571378.161277771 20730113.20583725 0 0 0 0 -110975721.09585571 108760575.54151154 0 108760575.54151154 44520641.100585938 0 0 0 0 -7093397.8384113312 37057521.267621517 0 37057521.267621517 -2209043.3165283203 0 0 0 0 13480621.712472685 12088974.603776753 0 12088974.603776753 6581657.2414094806 0 0 0 0 -6695189.0423288345 42860234.192565918 0 42860234.192565918 -28238409.54095459 0 0 0 0 2474766.361951828 3341534.5628198832 0 3341534.5628198832 306843.94270609319 0 0 0 0 -37440217.21484375 60794401.605255127 0 60794401.605255127 3385153.41847229 0 0 0 0 -12350472.54246521 35886232.732650757 0 35886232.732650757 -3632264.0888366699 0 0 0 0 1285134.3298339844 43552846.842285156 0 43552846.842285156 -17966076.773422241 0 0 0 0 2775201.7234344482 43112892.473823547 0 43112892.473823547 -3686190.4841003418 0 0 0 0 309177.63778877258 45603313.867006302 0 45603313.867006302 -1266490.3837585449 0 0 0 0 -4436901.8390731812 45669948.865814209 0 45669948.865814209 8120600.9284667969 0 0 0 0 -15115540.259643555 39412640.507736206 0 39412640.507736206 7206795.9696044922 0 0 0 0 14847753.997993469 -20696112.094432831 0 -20696112.094432831 -67013071.615249634 0 0 0 0 -85404807.91261673 2572006.57604599 0 2572006.57604599 -32444418.887130737 0 0 0 0 -40355069.145828247 -45953621.824855804 0 -45953621.824855804 -69435202.804031372 0 0 0 0 10338688.673774809 8584618.084301088 0 8584618.084301088 4316464.6703009158 0 0 0 0 -7941854.2609405518 21201257.764129639 0 21201257.764129639 8256902.8687782288 0 0 0 0 39494271.248380661 73848125.225074768 0 73848125.225074768 -105389300.59960938 0 0 0 0 225266370.18474579 68201384.68812561 0 68201384.68812561 -111643890.21916962 0 0 0 0 -103756093.50347614 155334962.66044903 0 155334962.66044903 242741018.41850281 0 0 0 0 -113186575.0541687 -68297216.66317749 0 -68297216.66317749 237715338.25984526 0 0 0 0 160670401.98191071 -83720840.674606323 0 -83720840.674606323 -62496156.565608978 0 0 0 0 -24158190.063674927 -8549511.9160079956 0 -8549511.9160079956 213365158.12284088 0 0 0 0 1429889.3369479626 1008313.8873736337 0 1008313.8873736337 462927.1632387042 0 0 0 0 43669504.365280151 9019517.478515625 0 9019517.478515625 -28863362.032808304 0 0 0 0 27456220.216430664 166155835.66357422 0 166155835.66357422 125416651.53237915 0 0 0 0 42998279.24052906 82058002.288638115 0 82058002.288638115 -128517202.76577759 0 0 0 0 1444185.3281480968 -3855878.6998262703 0 -3855878.6998262703 -4928591.8994479217 0 0 0 0 9898872.482421875 12103916.724357605 0 12103916.724357605 -5193088.0831565857 0 0 0 0 13959399.834134251 12151695.786872856 0 12151695.786872856 -2085018.39229206 0 0 0 0 5491836.7947054952 7073034.6251735538 0 7073034.6251735538 3701855.1056564748 0 0 0 0 237840910.91853714 -122358520.9803524 0 -122358520.9803524 -192091388.51000977 0 0 0 0 26616956.198280334 46701887.479423523 0 46701887.479423523 -64280111.929636955 0 0 0 0 20153560.403603166 12978614.272590041 0 12978614.272590041 -6900389.8137313798 0 0 0 0 40475525.735214233 37649812.050605774 0 37649812.050605774 -138952851.82242393 0 0 0 0 21625202.836555481 41792331.927619934 0 41792331.927619934 -66942614.944839478 0 0 0 0 -7727670.8574371338 46551564.752960205 0 46551564.752960205 1663426.1153869629 0 0 0 0 9878199.8644561768 17177993.199970245 0 17177993.199970245 -7248224.9089660645 0 0 0 0 12388870.350226402 16850765.840661816 0 16850765.840661816 10159057.398037434 0 0 0 0 6314105.9014282227 45851953.897888184 0 45851953.897888184 -2131217.876739502 0 0 0 0 8801393.0994873047 50815875.993774414 0 50815875.993774414 -7629064.8020019531 0 0 0 0 8232232.4430847168 16176375.137802124 0 16176375.137802124 6417630.3718109131 0 0 0 0 3095846.2314678431 11393707.536453694 0 11393707.536453694 4397503.9813319594 0 0 0 0 -104519383.98336792 -85758433.588645935 0 -85758433.588645935 -67589510.981937408 0 0 0 0 7033165.1552581787 44612646.265605927 0 44612646.265605927 -28038088.722846985 0 0 0 0 7495978.3769073486 49449404.920288086 0 49449404.920288086 -8229574.6689729691 0 0 0 0 12585948.580149636 19438862.949697085 0 19438862.949697085 10488521.592879251 0 0 0 0 -14849944.27519989 28837539.700515747 0 28837539.700515747 -11571282.219966888 0 0 0 0 4561618.7301410064 21725740.875717029 0 21725740.875717029 12476209.738718783 0 0 0 0 18820101.169598252 18307115.998645276 0 18307115.998645276 4354119.3900309578 0 0 0 0 10674229.381278992 42113084.08795929 0 42113084.08795929 -6916221.5837478638 0 0 0 0 18443642.674690247 46959148.584236145 0 46959148.584236145 -7668174.6997756958 0 0 0 0 6151520.3176460266 44453705.285285473 0 44453705.285285473 -8115775.1251907349 0 0 0 0 9013014.811164856 48400024.307556152 0 48400024.307556152 -4848521.4956054688 0 0 0 0 32304596.18813324 23604821.736862183 0 23604821.736862183 -15993175.912467957 0 0 0 0 20193678.991111755 48344390.698791504 0 48344390.698791504 -6827068.2895812988 0 0 0 0 3800686.6747252345 18262364.570533432 0 18262364.570533432 4741887.707717929 0 0 0 0 11899944.109652996 22643901.437753677 0 22643901.437753677 -19813510.011871338 0 0 0 0 32658613.852645874 26706291.319641113 0 26706291.319641113 15748611.972854614 0 0 0 0 -9623002.1743850708 18079129.109580994 0 18079129.109580994 10344824.944610596 0 0 0 0 -2191741.4180374146 30721128.977779388 0 30721128.977779388 27303099.879760742 0 0 0 0 -21136299.054626465 -883370.29238891602 0 -883370.29238891602 27927449.006454468 0 0 0 0 5808249.9611968994 22501777.535507202 0 22501777.535507202 8571050.7564888 0 0 0 0 17719910.966583252 13468430.908737183 0 13468430.908737183 8825901.3775215149 0 0 0 0 18700432.578422546 17473878.163230896 0 17473878.163230896 2366204.3833007812 0 0 0 0 4242399.8735188879 7248540.709344089 0 7248540.709344089 -759775.10678982735 0 0 0 0 -716509.42982286215 5049479.0892341807 0 5049479.0892341807 2780164.4964853972 0 0 0 0 1980888.6092740539 15397771.266387604 0 15397771.266387604 7143475.7054977715 0 0 0 0 15500270.488271713 25194291.997961044 0 25194291.997961044 15008325.195892334 0 0 0 0 -15054231.174085133 25677879.506114155 0 25677879.506114155 20464735.30470489 0 0 0 0 -1220453.617767334 14980178.23890686 0 14980178.23890686 14935627.608566284 0 0 0 0 4866996.6831054688 26935704.924407959 0 26935704.924407959 17748638.721282959 0 0 0 0 7191780.7568439022 23505552.123592254 0 23505552.123592254 -5717262.4350930983 0 0 0 0 -1241774.6234264188 461738.67294881493 0 461738.67294881493 1680863.5609579384 0 0 0 0 2511088.8477783203 19417474.681152344 0 19417474.681152344 11832762.010864258 0 0 0 0 -14607322.965698242 16596571.050018311 0 16596571.050018311 7605738.409614563 0 0 0 0 -21132874.144246317 5865463.4501939192 0 5865463.4501939192 4074634.9769269917 0 0 0 0 -23615547.423866272 18906947.752487183 0 18906947.752487183 10247280.193077087 0 0 0 0 -2197969.7325897217 17509759.576568604 0 17509759.576568604 9049084.8203582764 0 0 0 0 -12280697.355934143 1956376.7636260986 0 1956376.7636260986 20237743.3152771 0 0 0 0 -11307787.680999756 18392678.292419434 0 18392678.292419434 10503121.837280273 0 0 0 0 -1432833.2790985107 13190882.248016357 0 13190882.248016357 9153889.1806793213 0 0 0 0 -12149819.903930664 17054901.621643066 0 17054901.621643066 9003263.2797546387 0 0 0 0 -11606380.070922852 14810114.31338501 0 14810114.31338501 11104921.554016113 0 0 0 0 -10468258.407669067 15977434.310295105 0 15977434.310295105 7023697.8734741211 0 0 0 0 -14771899.119476318 19152439.588058472 0 19152439.588058472 7927920.1595993042 0 0 0 0 -13469095.59179306 15762200.650108337 0 15762200.650108337 8539055.3100585938 0 0 0 0 2087301.6666107178 12651471.215621948 0 12651471.215621948 -8195323.6555023193 0 0 0 0 -2111585.7248697085 602895.43482178077 0 602895.43482178077 76864.283289805055 0 0 0 0 -21937549.002825499 17062466.463894844 0 17062466.463894844 7811259.8762207031 0 0 0 0 -14098683.96131897 17096607.474060059 0 17096607.474060059 3893586.1409416199 0 0 0 0 -13759712.156021118 18125917.489143372 0 18125917.489143372 5797654.5077514648 0 0 0 0 -10694695.532867432 18014657.757049561 0 18014657.757049561 5411058.8425140381 0 0 0 0 -13996296.137023926 22817739.764633179 0 22817739.764633179 -2844694.7356262207 0 0 0 0 -6385949.7591400146 17083455.47769165 0 17083455.47769165 -2951591.5272521973 0 0 0 0 -10413605.913795471 12434847.205581665 0 12434847.205581665 -2903211.5323944092 0 0 0 0 -9792671.0543823242 11415768.269836426 0 11415768.269836426 -3144815.9489440918 0 0 0 0 -14961050.112091064 14188300.013397217 0 14188300.013397217 3483798.6776180267 0 0 0 0 -21812600.767974854 9054448.1063671112 0 9054448.1063671112 595720.95440673828 0 0 0 0 53287068.505235672 9869778.7689685822 0 9869778.7689685822 -19255963.312927246 0 0 0 0 54552508.819763184 25208773.403709412 0 25208773.403709412 6870302.3602294922 0 0 0 0 -29373169.861091614 23944238.523368835 0 23944238.523368835 678983.64469718933 0 0 0 0 -727307.54772680625 8507310.6553355902 0 8507310.6553355902 -9607477.1478773206 0 0 0 0 314078.70200209692 5874685.2447990552 0 5874685.2447990552 -3273199.7108126283 0 0 0 0 13676513.837574005 26101614.864627838 0 26101614.864627838 -14864346.970993042 0 0 0 0 4273337.7136993408 -1573922.1437683105 0 -1573922.1437683105 4725847.0764770508 0 0 0 0 -43407024.152259827 -9953067.231552124 0 -9953067.231552124 13473311.636901855 0 0 0 0 34580830.569374084 15759029.186740875 0 15759029.186740875 2082067.9861450195 0 0 0 0 1802045.490342591 2468044.8923853263 0 2468044.8923853263 -6927362.2287844867 0 0 0 0 59617540.810661316 28617462.20759201 0 28617462.20759201 -15724145.525146484 0 0 0 0 22764845.633152008 1345078.3664741516 0 1345078.3664741516 -719874.64470672607 0 0 0 0 -18397304.681846619 16347664.890357971 0 16347664.890357971 -11956867.716262817 0 0 0 0 -4720309.1547298729 2910707.040928727 0 2910707.040928727 206720.42561399937 0 0 0 0 -12703972.294044495 7637001.7962265015 0 7637001.7962265015 -7304923.2820587158 0 0 0 0 -18010592.208534241 18404087.394691467 0 18404087.394691467 -9277750.9836578369 0 0 0 0 -2148585.8604354858 3714134.3777236938 0 3714134.3777236938 -7060144.072265625 0 0 0 0 -18226221.605804443 18001093.894271851 0 18001093.894271851 -12187100.188842773 0 0 0 0 -27265392.734573364 7561499.2320404053 0 7561499.2320404053 8541119.0325622559 0 0 0 0 -5008795.573820116 7461596.4785427935 0 7461596.4785427935 -4764995.8717730492 0 0 0 0 1580069.3022114411 -726426.03314263374 0 -726426.03314263374 -632420.11948612332 0 0 0 0 -358420177.29284525 173526826.9580574 0 173526826.9580574 -50620977.168243408 0 0 0 0 -2416156.084602356 833523.12068557739 0 833523.12068557739 -1122371.0955810547 0 0 0 0 34447763.111656189 6713825.1275100708 0 6713825.1275100708 -3124879.72265625 0 0 0 0 -11401561.590933457 10611952.018038131 0 10611952.018038131 -7355482.5857230276 0 0 0 0 -449164692.02928925 144192485.54654694 0 144192485.54654694 -56929024.050981522 0 0 0 0 87640025.06893158 -13574159.910064697 0 -13574159.910064697 -6087883.2302703857 0 0 0 0 109789865.02791977 56665832.168571472 0 56665832.168571472 -7726684.3980560303 0 0 0 0 50854926.058982849 74618780.227531433 0 74618780.227531433 12668133.25246048 0 0 0 0 50887367.689880982 82150461.397663414 0 82150461.397663414 29929341.624160767 0 0 0 0 1468912.2690124512 46913655.686634064 0 46913655.686634064 10395704.852783203 0 0 0 0 7525044.2005386353 61066785.264762878 0 61066785.264762878 19699257.931854248 0 0 0 0 4812656.7642669678 49115186.032752991 0 49115186.032752991 11142844.091751099 0 0 0 0 20630469.606812477 51148810.67804718 0 51148810.67804718 -4368426.1267852783 0 0 0 0 19900619.541913033 46737888.859770775 0 46737888.859770775 -5188168.8851623535 0 0 0 0 39998232.152206421 37676197.691436768 0 37676197.691436768 -12874623.491317749 0 0 0 0 49368715.110466003 55943945.808441162 0 55943945.808441162 -2563328.1870574951 0 0 0 0 385463123.56453323 1685747232.2733917 0 1685747232.2733917 366110600.69208527 0 0 0 0 1835789.0153845109 1010524243.1595609 0 1010524243.1595609 943041831.20809937 0 0 0 0 727497589.82728195 942997911.70581436 0 942997911.70581436 579977728.38034821 0 0 0 0 -622829.25689443946 3114143.3426669985 0 3114143.3426669985 -491814.64531260729 0 0 0 0 1360826454.8808022 1920760311.6097126 0 1920760311.6097126 -417622.84407043457 0 0 0 0 1786576115.8636475 1593507485.8211136 0 1593507485.8211136 -357205139.30204582 0 0 0 0 3062314534.2960892 1268566911.3716202 0 1268566911.3716202 -284067031.6922226 0 0 0 0 6981281.4580257162 3874474.2834976353 0 3874474.2834976353 3258816.2186505646 0 0 0 0 3597674323.5797768 -500191499.95193005 0 -500191499.95193005 -97368999.324150085 0 0 0 0 1472728182.70609 -297875374.58911514 0 -297875374.58911514 -78428753.921386719 0 0 0 0 878070149.96140862 386262635.65090179 0 386262635.65090179 -318442929.93650818 0 0 0 0 -428824.08178508282 1805797.5856328458 0 1805797.5856328458 -94874.168028645217 0 0 0 0 840235662.62828064 995521159.66141129 0 995521159.66141129 -720839496.43436432 0 0 0 0 714501227.97038269 367989821.16363525 0 367989821.16363525 401124011.57640266 0 0 0 0 1085555279.9875031 1246352415.3041267 0 1246352415.3041267 690953754.21945953 0 0 0 0 556137070.02806091 425084067.58785248 0 425084067.58785248 -84465888.144362926 0 0 0 0 223948546.44204712 -176326639.48789978 0 -176326639.48789978 -142239389.45029879 0 0 0 0 50240317.236606598 76394118.991252899 0 76394118.991252899 -172233879.87796021 0 0 0 0 11223757.852621563 19366443.910488874 0 19366443.910488874 18170162.175981432 0 0 0 0 -161826565.98030853 281560293.88747978 0 281560293.88747978 68541555.738349915 0 0 0 0 -160094155.70962143 121325906.10133171 0 121325906.10133171 137059115.52607727 0 0 0 0 194583493.38916397 -91484315.657539368 0 -91484315.657539368 -120733982.75836945 0 0 0 0 732242860.67195892 225056956.21058273 0 225056956.21058273 -418009846.35965347 0 0 0 0 751599628.56200409 92892553.385746002 0 92892553.385746002 -171881259.30303419 0 0 0 0 12418116.382356279 12364412.385853035 0 12364412.385853035 10636052.523821414 0 0 0 0 -77832609.157501221 60644909.13064003 0 60644909.13064003 -32610.440238952637 0 0 0 0 68219816.488624573 68440419.821929932 0 68440419.821929932 25728.014854431152 0 0 0 0 -17400542.923107147 -5909521.0011329651 0 -5909521.0011329651 -15212277.046691895 0 0 0 0 60124284.68006134 57453128.213176727 0 57453128.213176727 -57728588.808876038 0 0 0 0 59419553.288958073 50068426.787349939 0 50068426.787349939 9540188.8882293701 0 0 0 0 77061482.659484863 55472216.527671814 0 55472216.527671814 -210577480.3986702 0 0 0 0 -367562608.78060102 -130070323.41201591 0 -130070323.41201591 69947266.86138916 0 0 0 0 175189712.69269562 30805255.622226715 0 30805255.622226715 -44910207.653526306 0 0 0 0 197564.62470600102 -1627445.966474697 0 -1627445.966474697 -137506.98847644031 0 0 0 0 -68236216.255218506 30398445.446228027 0 30398445.446228027 -213069.31340961508 0 0 0 0 108801071.47149849 -153599.19174385071 0 -153599.19174385071 -46589906.833908081 0 0 0 0 321766753.21295166 120948003.66209412 0 120948003.66209412 -100892007.98453522 0 0 0 0 77977744.91078186 69750037.178787231 0 69750037.178787231 -12869659.765724182 0 0 0 0 -65069937.333251953 -214267196.96479034 0 -214267196.96479034 -73519756.290390015 0 0 0 0 71317149.604255676 -11679618.314479828 0 -11679618.314479828 268033917.46644592 0 0 0 0 720941977.70976257 -416128679.53173065 0 -416128679.53173065 515146473.89306641 0 0 0 0 131589442.38922119 311656427.20716858 0 311656427.20716858 323244484.09285736 0 0 0 0 -6801499.6369256973 3034193.1940593719 0 3034193.1940593719 206011057.79324341 0 0 0 0 183229.69560793042 1026493.1839732453 0 1026493.1839732453 1776717.085987702 0 0 0 0 52499211.992538452 27993244.764541626 0 27993244.764541626 -4278456.7639560699 0 0 0 0 382772494.01351929 -201157694.92068481 0 -201157694.92068481 11129038.940719604 0 0 0 0 164151716.42416763 391082121.74702835 0 391082121.74702835 224195636.34814453 0 0 0 0 45235424.833824158 43610833.294834137 0 43610833.294834137 34379082.564979553 0 0 0 0 1334008.925374276 309923.46971606463 0 309923.46971606463 -1363471.0054764301 0 0 0 0 -471609646.13306427 114019308.22824478 0 114019308.22824478 358094195.23448181 0 0 0 0 163577.53315693885 720875.36410685629 0 720875.36410685629 -402396.25534296036 0 0 0 0 -38580085.617542267 -38155156.423505783 0 -38155156.423505783 -75806345.34513855 0 0 0 0 9063272.0626525879 70989487.484630585 0 70989487.484630585 -38528598.992225647 0 0 0 0 7685853.9586770535 5389934.7912682593 0 5389934.7912682593 -8053718.2991998345 0 0 0 0 67474.777824401855 12801342.448726654 0 12801342.448726654 -5884442.8584747314 0 0 0 0 2152462.8186842129 4740777.8806403242 0 4740777.8806403242 2035273.6936691403 0 0 0 0 -145268551.51698589 -104842769.92823792 0 -104842769.92823792 9175955.1188049316 0 0 0 0 -109130189.96109772 250308454.02284622 0 250308454.02284622 -190021104.45777321 0 0 0 0 106946983.13070679 -235181369.0134964 0 -235181369.0134964 -293836712.59543228 0 0 0 0 12291366.152366638 6630104.1324005127 0 6630104.1324005127 6883488.6369781494 0 0 0 0 -3671371.1083984375 21120597.112579346 0 21120597.112579346 13296630.83682251 0 0 0 0 276916733.60720825 322363526.1197052 0 322363526.1197052 -148894354.21609497 0 0 0 0 2766156.887459375 3013293.1979575418 0 3013293.1979575418 1952427.0399568826 0 0 0 0 -4043533.0856100321 -2615655.6228368282 0 -2615655.6228368282 1747120.9405822754 0 0 0 0 -4013085.9979613721 -41310.094855383039 0 -41310.094855383039 2550859.2016322762 0 0 0 0 3345386.2537962478 16115697.694547869 0 16115697.694547869 19801236.176371038 0 0 0 0 -31962175.510043144 -7072352.8502452374 0 -7072352.8502452374 57529499.808906555 0 0 0 0 15531636.785842896 28600796.728164673 0 28600796.728164673 15542725.773193359 0 0 0 0 -24938549.187784433 9771201.8827928305 0 9771201.8827928305 91931240.684539795 0 0 0 0 40414494.668079376 91684763.580284595 0 91684763.580284595 8512748.2574615479 0 0 0 0 18144846.47442627 46314523.630516052 0 46314523.630516052 22978789.060348511 0 0 0 0 20663296.971801758 24503539.047821045 0 24503539.047821045 96563074.841194153 0 0 0 0 21667149.210968018 17653465.963241577 0 17653465.963241577 -25584878.043857574 0 0 0 0 24762569.800829887 29552408.828040123 0 29552408.828040123 9735126.0126113892 0 0 0 0 21897903.190338001 9955372.906665422 0 9955372.906665422 -9706580.1250586063 0 0 0 0 44623941.1459198 59131026.446403503 0 59131026.446403503 -395259984.06164169 0 0 0 0 1941283.1701002121 4001542.9198710471 0 4001542.9198710471 860108.54118198156 0 0 0 0 -105660066.45554733 444831296.72820759 0 444831296.72820759 -1319561006.0541992 0 0 0 0 1593333.0534864552 3493721.2630778328 0 3493721.2630778328 220533.68751128018 0 0 0 0 -1257714.1900749207 39141746.376106262 0 39141746.376106262 20458000.496898651 0 0 0 0 -2386615.5892066872 13383746.310542077 0 13383746.310542077 24401398.83516109 0 0 0 0 -276690763.59671783 -37122800.550319672 0 -37122800.550319672 16016150.627182007 0 0 0 0 -508845934.98953819 115914683.93947744 0 115914683.93947744 8459166.4471969604 0 0 0 0 -107935676.94700623 176623256.43431473 0 176623256.43431473 -205382848.44844055 0 0 0 0 -119488960.78004456 88299847.314926147 0 88299847.314926147 -603718266.30044556 0 0 0 0 -1064083986.5048218 105095381.25170898 0 105095381.25170898 140170137.85980225 0 0 0 0 121712738.77363586 -18672103.93296051 0 -18672103.93296051 -145803709.19151878 0 0 0 0 10057382.284191132 251193299.86900711 0 251193299.86900711 -77180908.053268433 0 0 0 0 18149649.913486481 101063444.13819695 0 101063444.13819695 259843350.48782349 0 0 0 0 -398804194.81299782 57866112.640819311 0 57866112.640819311 178002408.18744659 0 0 0 0 11471078.783737183 172173150.78536606 0 172173150.78536606 -1076046.6877202988 0 0 0 0 141382610.22220612 103368641.60970688 0 103368641.60970688 -107104505.40316772 0 0 0 0 -368798.2165030688 86923.067503720522 0 86923.067503720522 882160.0443425402 0 0 0 0 243370886.11329079 520876741.80688906 0 520876741.80688906 362619724.44584656 0 0 0 0 468228301.4936676 572719197.58947611 0 572719197.58947611 231024923.83579254 0 0 0 0 629146702.39487457 294790057.27592468 0 294790057.27592468 107807485.80621719 0 0 0 0 649767.83616937697 823340.11120221019 0 823340.11120221019 93595.478401891887 0 0 0 0 270655274.9464798 359227682.29479599 0 359227682.29479599 275785394.94828796 0 0 0 0 320640365.73901367 232935541.94538879 0 232935541.94538879 45267474.506065369 0 0 0 0 141192151.42179871 99223930.012916565 0 99223930.012916565 76076187.405582428 0 0 0 0 250914555.05498505 192705591.03899002 0 192705591.03899002 13645359.310676575 0 0 0 0 150202444.84275818 68411553.894561768 0 68411553.894561768 85976859.695281982 0 0 0 0 194972381.82084656 67324459.761264801 0 67324459.761264801 13682320.164485928 0 0 0 0 169702671.17524719 130907830.78389931 0 130907830.78389931 258656961.83042908 0 0 0 0 219739498.25267029 157294919.14945984 0 157294919.14945984 138141317.69787216 0 0 0 0 202132.83761899173 638860.45867909491 0 638860.45867909491 284645.45959534496 0 0 0 0 228906341.83350754 178634650.53476858 0 178634650.53476858 95457978.413421631 0 0 0 0 105682997.93070984 225542924.32217026 0 225542924.32217026 119151845.79594135 0 0 0 0 -16501872.578765869 321198508.40043449 0 321198508.40043449 1340422567.2011261 0 0 0 0 -35486.478499731325 689532391.65385747 0 689532391.65385747 462025516.83493042 0 0 0 0 1059397.3646774292 690660572.87167358 0 690660572.87167358 462518418.62511826 0 0 0 0 591950961.89147186 392570898.99617386 0 392570898.99617386 63005559.712154388 0 0 0 0 428622234.51287079 1006006253.7534142 0 1006006253.7534142 332081616.26270294 0 0 0 0 589317942.56534672 498616959.48784161 0 498616959.48784161 325668043.96994781 0 0 0 0 851681094.1237011 713255873.7802763 0 713255873.7802763 366067903.46472931 0 0 0 0 -111311.11041581631 1927592.3215040416 0 1927592.3215040416 890880.59126638621 0 0 0 0 -4273306.9253540039 36203909.24146843 0 36203909.24146843 -132603869.53951263 0 0 0 0 -17725967.934108734 59910997.756961823 0 59910997.756961823 -106830803.48591614 0 0 0 0 11337.692192077637 71212973.433467865 0 71212973.433467865 -176034726.15231514 0 0 0 0 -35558.641155151687 66215102.485047042 0 66215102.485047042 -217451446.06583405 0 0 0 0 2418557.0090453923 338119.523147773 0 338119.523147773 567047.882869564 0 0 0 0 -9196005.4086532593 50387072.84916687 0 50387072.84916687 -192747550.56550026 0 0 0 0 -8793689.2582750022 89855769.168181241 0 89855769.168181241 -251750069.323246 0 0 0 0 5576274.2477723211 2892208.798841197 0 2892208.798841197 1717262.0338703766 0 0 0 0 139739410.32460785 -95559170.603313446 0 -95559170.603313446 401686872.9763813 0 0 0 0 147458172.81938648 -69465750.174660206 0 -69465750.174660206 29185112.088058472 0 0 0 0 -20962103.783782601 113614236.02799112 0 113614236.02799112 -336945679.90489578 0 0 0 0 -18669700.11089325 54868080.811805725 0 54868080.811805725 -196747032.1856842 0 0 0 0 1471715.4611282349 41469377.63199234 0 41469377.63199234 -199249672.74578714 0 0 0 0 -51721057.148933411 48666884.627696991 0 48666884.627696991 -120665077.49336243 0 0 0 0 -8892547.67237854 33883403.68491745 0 33883403.68491745 -118434789.12149048 0 0 0 0 -12644526.051742554 14151069.942569733 0 14151069.942569733 -126280476.56160498 0 0 0 0 78740674.93977356 48513043.311504364 0 48513043.311504364 -601779969.17209625 0 0 0 0 12391514.337655827 9131359.0089768041 0 9131359.0089768041 5242741.0986382402 0 0 0 0 -12700106.633796692 584238.46517372131 0 584238.46517372131 -248688074.8989563 0 0 0 0 -66429205.036094666 29646645.430332184 0 29646645.430332184 -123528476.42944574 0 0 0 0 56234282.565216064 -292056403.74138641 0 -292056403.74138641 373266712.3398037 0 0 0 0 8647210.9050804675 5516308.057668142 0 5516308.057668142 3164996.3703133799 0 0 0 0 -277827317.86454773 -189000022.85427856 0 -189000022.85427856 16537416.199756622 0 0 0 0 -132725673.29956055 -191380886.1760788 0 -191380886.1760788 -344636735.9548378 0 0 0 0 -731770793.45678139 -168464575.3699398 0 -168464575.3699398 -285857166.19845581 0 0 0 0 -850764493.40853882 696486632.14756775 0 696486632.14756775 -1089253656.4388046 0 0 0 0 -440507738.76724243 313719518.63310623 0 313719518.63310623 -242134921.05859375 0 0 0 0 -327430459.1333847 74198983.206127167 0 74198983.206127167 396514126.74188232 0 0 0 0 178101275.62870789 -111678985.40258408 0 -111678985.40258408 8789576.4963989258 0 0 0 0 -57923763.256271362 -239383849.30517578 0 -239383849.30517578 550686324.75221825 0 0 0 0 57360453.246841431 56094032.599140167 0 56094032.599140167 138853815.47668839 0 0 0 0 -126444010.98563004 158849005.25597 0 158849005.25597 117528772.23039246 0 0 0 0 -469462081.41070557 282038831.83578491 0 282038831.83578491 -135995321.22114563 0 0 0 0 -29809316.943496704 9181216.949382782 0 9181216.949382782 13550436.263206482 0 0 0 0 -438162723.28552246 135968677.23575592 0 135968677.23575592 -155572771.56045532 0 0 0 0 187977816.73850155 -91881767.97130394 0 -91881767.97130394 -975120715.51295471 0 0 0 0 -433839935.50460815 132960070.1153717 0 132960070.1153717 -351284957.2442627 0 0 0 0 12731455.921836853 1931758.2471199036 0 1931758.2471199036 -178138193.85786438 0 0 0 0 -41002.718536376953 202035437.35747147 0 202035437.35747147 -191372998.63032532 0 0 0 0 -49204142.775039673 151903775.27382469 0 151903775.27382469 161258047.91923523 0 0 0 0 21938237.523445129 73723297.000694275 0 73723297.000694275 47783275.571250916 0 0 0 0 16637418.753015891 13262875.511822145 0 13262875.511822145 7367173.9461318441 0 0 0 0 2130293.0012359619 -25468114.90908432 0 -25468114.90908432 283927879.08667183 0 0 0 0 53494218.699584961 -147426378.56722736 0 -147426378.56722736 -28520148.17142868 0 0 0 0 344183814.31735611 318823353.99042225 0 318823353.99042225 -677435280.36046982 0 0 0 0 -258437999.54208374 213475205.09491539 0 213475205.09491539 347043394.77973175 0 0 0 0 13387523.14251709 -215357748.05157089 0 -215357748.05157089 342431089.63417053 0 0 0 0 -102479078.62129211 25560106.772115707 0 25560106.772115707 287108034.10351181 0 0 0 0 168055621.93746948 264469827.62041092 0 264469827.62041092 176629353.80485535 0 0 0 0 164203705.01494026 191498877.51402283 0 191498877.51402283 64569220.217605591 0 0 0 0 108758599.72366333 9169746.8528671265 0 9169746.8528671265 -15433253.276553154 0 0 0 0 393109071.15114212 48906616.827242851 0 48906616.827242851 -11293481.432285309 0 0 0 0 861654.27638931572 2170235.378606353 0 2170235.378606353 1637678.479198806 0 0 0 0 43775825.193012238 19644906.084405422 0 19644906.084405422 8567245.1491622925 0 0 0 0 88914083.264465332 16874073.285209656 0 16874073.285209656 -6764090.9759483337 0 0 0 0 49134144.990112305 23021396.736927032 0 23021396.736927032 -2406416.1500282288 0 0 0 0 63745302.002960205 20345213.471336365 0 20345213.471336365 -11368013.979961395 0 0 0 0 39578842.530059814 25519384.054586411 0 25519384.054586411 -6148068.2647209167 0 0 0 0 19241837.321575165 85523774.51746583 0 85523774.51746583 29791546.151679993 0 0 0 0 49989491.062759399 26099377.47353363 0 26099377.47353363 -4287676.1915817261 0 0 0 0 25512912.221099854 30886261.991931915 0 30886261.991931915 -2528203.9693984985 0 0 0 0 57776019.397834778 45301162.630495071 0 45301162.630495071 2091473.239906311 0 0 0 0 73192622.747169495 114921812.30270195 0 114921812.30270195 29941996.220703125 0 0 0 0 89601637.763656616 47290575.421768188 0 47290575.421768188 -7369369.4216957092 0 0 0 0 196848905.91304016 53418311.186546326 0 53418311.186546326 -24716706.261573792 0 0 0 0 87262736.930988312 49108119.974177957 0 49108119.974177957 -4806818.6829147339 0 0 0 0 31818913.253967285 121625554.21209717 0 121625554.21209717 30294794.412143707 0 0 0 0 -3464288.0393943787 125706767.23297596 0 125706767.23297596 51670427.363464355 0 0 0 0 31895128.296051025 138725706.21566391 0 138725706.21566391 55731592.024215698 0 0 0 0 19008351.181427002 92117315.334344864 0 92117315.334344864 23103076.06098175 0 0 0 0 -42397792.992736816 70123646.09210968 0 70123646.09210968 26559163.857639313 0 0 0 0 -12296694.706314087 102687338.03289413 0 102687338.03289413 53454473.075287819 0 0 0 0 -8443462.1227645874 121515141.23723984 0 121515141.23723984 51395248.060988665 0 0 0 0 -2502603.9230079651 110538585.60296154 0 110538585.60296154 68374906.84841156 0 0 0 0 -22996974.386936188 95983135.388207436 0 95983135.388207436 41166936.961296082 0 0 0 0 -32824689.581604004 99352146.429353714 0 99352146.429353714 40530752.282208443 0 0 0 0 198590.83976745605 164292392.92099953 0 164292392.92099953 119723633.78953552 0 0 0 0 -41483841.264778137 118427839.53091621 0 118427839.53091621 103573043.90581131 0 0 0 0 -70191255.552619934 26743496.694517136 0 26743496.694517136 13978494.912200928 0 0 0 0 -23685615.585006714 72485828.773828506 0 72485828.773828506 -30873185.094524384 0 0 0 0 -49791104.071540833 55212372.541233063 0 55212372.541233063 15234892.446239471 0 0 0 0 -27671093.657218933 114925255.25897026 0 114925255.25897026 68036324.070739746 0 0 0 0 -7039308.0864028931 87482258.675634384 0 87482258.675634384 23587153.280532837 0 0 0 0 93519.393287658691 113113158.43138123 0 113113158.43138123 70857910.803184509 0 0 0 0 9838591.4218902588 74464136.73428154 0 74464136.73428154 80504202.212535858 0 0 0 0 -10454241.928192139 101053604.37448502 0 101053604.37448502 60532864.119457245 0 0 0 0 -6766880.9837608337 53360333.349964738 0 53360333.349964738 46217089.519134521 0 0 0 0 3350036.9118118286 79290973.087869644 0 79290973.087869644 87218636.623504639 0 0 0 0 36695851.287872314 61398506.730167389 0 61398506.730167389 95636865.837802887 0 0 0 0 24047.983459472656 68043861.644916534 0 68043861.644916534 103946452.20837402 0 0 0 0 16235492.845312119 49960910.326839447 0 49960910.326839447 50853968.018596649 0 0 0 0 -37325.953636169434 77925569.32349205 0 77925569.32349205 39907931.082468987 0 0 0 0 19540075.11901474 66485725.832175255 0 66485725.832175255 -15219045.804450989 0 0 0 0 -28628141.241142273 44070452.80373764 0 44070452.80373764 -21931949.191238403 0 0 0 0 -10444112.867752075 34121217.498418331 0 34121217.498418331 -85230645.348884583 0 0 0 0 18345.401817802947 73868256.453078702 0 73868256.453078702 -86228107.740516663 0 0 0 0 38347316.508323669 52388920.813934326 0 52388920.813934326 35696511.311615527 0 0 0 0 62663793.781044006 100294119.59045029 0 100294119.59045029 65272743.821006775 0 0 0 0 -2688557.5354835205 20226663.099397622 0 20226663.099397622 5633268.198899582 0 0 0 0 -8602465.3699148446 11873224.432570241 0 11873224.432570241 3372945.680009678 0 0 0 0 52506039.312660217 82673305.618232727 0 82673305.618232727 38084202.759460449 0 0 0 0 167639919.99484253 -9355482.9599533081 0 -9355482.9599533081 -11973455.334262848 0 0 0 0 2145092.7349739075 28142053.210419655 0 28142053.210419655 8700514.4838867188 0 0 0 0 -9951328.0941467285 106552085.25265503 0 106552085.25265503 84870471.433811188 0 0 0 0 209442117.7925415 65151155.823883057 0 65151155.823883057 36045028.309421539 0 0 0 0 86941195.397338867 86475723.079208374 0 86475723.079208374 -57497282.911804199 0 0 0 0 109227132.41160393 8725610.0635352135 0 8725610.0635352135 -227762936.09386444 0 0 0 0 6911106.1119303703 -45146737.704123259 0 -45146737.704123259 -119847567.54390717 0 0 0 0 167824278.77077523 81889201.510477304 0 81889201.510477304 -61432087.832046509 0 0 0 0 70445140.880310059 105686231.54013062 0 105686231.54013062 -27799533.360771179 0 0 0 0 116361225.08178711 74102121.890071869 0 74102121.890071869 -54206059.207191467 0 0 0 0 -20604342.08184433 41714243.645189285 0 41714243.645189285 -13413245.111175537 0 0 0 0 64763404.795547485 36721789.192394257 0 36721789.192394257 -30636773.828620911 0 0 0 0 -1801566.2248889133 25452193.891941905 0 25452193.891941905 -23264115.252758197 0 0 0 0 -11049707.293315098 20702133.029383779 0 20702133.029383779 9395275.1757387742 0 0 0 0 -18827472.834064484 44532026.913734436 0 44532026.913734436 -9045196.4079055786 0 0 0 0 -21856196.95489502 47172949.178722382 0 47172949.178722382 -11073413.411750793 0 0 0 0 -17533324.96521759 37926864.398727417 0 37926864.398727417 1079666.8621673584 0 0 0 0 -4773043.4106392264 18465811.523143791 0 18465811.523143791 17347019.443475422 0 0 0 0 -27906885.748878479 35079451.660274506 0 35079451.660274506 29728343.077476501 0 0 0 0 -20345143.851203918 38424704.717979431 0 38424704.717979431 -10788658.544868469 0 0 0 0 12684990.622804105 13275266.94371818 0 13275266.94371818 2355265.2486947477 0 0 0 0 -28953206.964962006 57218552.617973328 0 57218552.617973328 -23375714.536617756 0 0 0 0 -22290771.855157375 92087975.525514603 0 92087975.525514603 -27848244.761413574 0 0 0 0 -11557771.396636963 16705240.710975647 0 16705240.710975647 6275355.174243927 0 0 0 0 1470566.0942548104 20585820.029868767 0 20585820.029868767 16137955.247723021 0 0 0 0 -12484354.275028229 31443616.715881348 0 31443616.715881348 -823859.00797080994 0 0 0 0 -52103639.563572407 71793296.859136581 0 71793296.859136581 11794284.446624756 0 0 0 0 -26225727.160951614 44055220.720878601 0 44055220.720878601 10217083.460540771 0 0 0 0 -4782706.8165812436 20480315.00052648 0 20480315.00052648 11984805.68287614 0 0 0 0 -56846614.61219883 57550331.645751953 0 57550331.645751953 36370162.245269775 0 0 0 0 -40166376.488025665 32993018.509162903 0 32993018.509162903 37229477.788125515 0 0 0 0 -28760286.630355835 14209540.394203186 0 14209540.394203186 41839270.214546204 0 0 0 0 -42099281.135547638 29143353.686065674 0 29143353.686065674 80390063.091499329 0 0 0 0 -41777314.420914769 35173372.428074121 0 35173372.428074121 43370894.079650879 0 0 0 0 -37890545.993900299 14398032.934814453 0 14398032.934814453 47820742.779174805 0 0 0 0 3560719.301902771 7510350.190612793 0 7510350.190612793 2906262.5625457764 0 0 0 0 41177626.837646484 18019501.286331177 0 18019501.286331177 5344048.7509155273 0 0 0 0 30362039.706285581 12821802.970393024 0 12821802.970393024 2457903.5142482668 0 0 0 0 -42573206.980335236 40156870.905399323 0 40156870.905399323 26845444.685165405 0 0 0 0 -35209393.274393082 19637778.688110352 0 19637778.688110352 26067222.010223389 0 0 0 0 -4007544.0704438668 7975986.6005735472 0 7975986.6005735472 5276081.2827327698 0 0 0 0 16446497.327087402 21354900.618255615 0 21354900.618255615 7236799.7329406738 0 0 0 0 -7311264.4951072261 20218221.26899001 0 20218221.26899001 8154769.9853934646 0 0 0 0 3083387.459100876 9178892.8409172818 0 9178892.8409172818 -313397.4291626364 0 0 0 0 41902326.937675476 17719238.451126099 0 17719238.451126099 228430.45323181152 0 0 0 0 8789095.9645004272 23989204.929111481 0 23989204.929111481 10018621.32749176 0 0 0 0 19596064.399871826 26130515.27526474 0 26130515.27526474 -2943122.2557830811 0 0 0 0 25739018.171798706 46431803.551757812 0 46431803.551757812 9298752.9282150269 0 0 0 0 12293147.514907837 30611097.043476105 0 30611097.043476105 -8861030.9901275635 0 0 0 0 3692717.444660902 43663829.829418778 0 43663829.829418778 -5198282.3205718994 0 0 0 0 8610105.3353957236 19353460.161800511 0 19353460.161800511 12644664.943395607 0 0 0 0 2658143.9795455933 18565603.509048462 0 18565603.509048462 566856.7201385498 0 0 0 0 16856086.905324951 17795441.037604176 0 17795441.037604176 1026238.8882116824 0 0 0 0 8509358.5289448351 9935877.146135278 0 9935877.146135278 4038042.1870361269 0 0 0 0 11336801.901612997 4004882.8176736981 0 4004882.8176736981 1425267.0776112974 0 0 0 0 129351687.69364929 38505060.820960999 0 38505060.820960999 -1722609.8268432617 0 0 0 0 3419391.9038696289 7885930.1236724854 0 7885930.1236724854 4958749.5462646484 0 0 0 0 8024250.8247117102 10112037.933963187 0 10112037.933963187 -4515643.91397544 0 0 0 0 9266265.3511581421 10446779.783119202 0 10446779.783119202 4572795.4598693848 0 0 0 0 47547812.645248413 25307317.007919312 0 25307317.007919312 19927021.591827393 0 0 0 0 -7233456.9329194129 24386956.303829458 0 24386956.303829458 8243486.4383125305 0 0 0 0 -28442010.338059776 25374828.384235397 0 25374828.384235397 22329815.853032313 0 0 0 0 -18252367.752876282 33220813.072109222 0 33220813.072109222 11769329.749008179 0 0 0 0 -1559451.7124328613 32951621.91872406 0 32951621.91872406 9650186.3282470703 0 0 0 0 779554.17530822754 32942162.915527344 0 32942162.915527344 9065388.7362670898 0 0 0 0 -2996835.820640564 28042151.887701035 0 28042151.887701035 8983514.5849838257 0 0 0 0 13041050.59828949 30346188.743717194 0 30346188.743717194 4605387.8450164795 0 0 0 0 1979414.7180023193 35001451.38669014 0 35001451.38669014 2681011.5648956299 0 0 0 0 9223971.7724285126 46772142.574244499 0 46772142.574244499 -4643583.210975647 0 0 0 0 -10113309.068664551 55898354.321720123 0 55898354.321720123 6152758.7458610535 0 0 0 0 -6324704.3701171875 68842199.221717834 0 68842199.221717834 11713151.191589355 0 0 0 0 9852237.8504638672 75087293.811759949 0 75087293.811759949 -16201234.976898193 0 0 0 0 -3198374.6512718201 100428079.02022743 0 100428079.02022743 32223055.883079529 0 0 0 0 -27489271.833602905 73798496.750366211 0 73798496.750366211 12314526.936703682 0 0 0 0 -22102908.024459839 63553163.657791138 0 63553163.657791138 31195186.336669922 0 0 0 0 -23812883.631612778 55009956.307284355 0 55009956.307284355 14744636.503143311 0 0 0 0 40981290.883758545 80414091.524822235 0 80414091.524822235 -83163288.126703262 0 0 0 0 14989292.278930664 83405760.051036835 0 83405760.051036835 -4260712.1907577515 0 0 0 0 21192772.108795166 87772065.963951111 0 87772065.963951111 -3670852.0468730927 0 0 0 0 4404925.0634841919 78950939.448280334 0 78950939.448280334 75025004.063053131 0 0 0 0 23205936.372901917 120968183.12205124 0 120968183.12205124 -11001862.548763275 0 0 0 0 10411973.121505737 55623886.39138031 0 55623886.39138031 60405067.66617775 0 0 0 0 55620084.661224365 369175020.15709305 0 369175020.15709305 -726700260.42251587 0 0 0 0 18836005.196963698 16478774.260412857 0 16478774.260412857 9297341.3346427158 0 0 0 0 43618016.020975113 4416937.4501786232 0 4416937.4501786232 109997833.42440033 0 0 0 0 -259102399.62241569 414043419.8516252 0 414043419.8516252 -99794706.566368103 0 0 0 0 -95221678.368530273 61211018.007614136 0 61211018.007614136 39023185.669960022 0 0 0 0 -43536132.132675171 6243811.0506973267 0 6243811.0506973267 6540512.0220718384 0 0 0 0 -26715501.711166382 76977108.286869049 0 76977108.286869049 38949025.180137634 0 0 0 0 -31603248.454185486 89509344.407970428 0 89509344.407970428 36142082.75756073 0 0 0 0 -57770689.172843933 137139554.31070328 0 137139554.31070328 42655109.451515198 0 0 0 0 83653107.46544075 87429645.593379974 0 87429645.593379974 -92999.509468078613 0 0 0 0 -179674213.0067215 75211688.991012573 0 75211688.991012573 64401239.232032776 0 0 0 0 971532.85059292614 1559760.2525169551 0 1559760.2525169551 -3220163.2588484883 0 0 0 0 256467203.31018066 174374685.24214172 0 174374685.24214172 -314307628.38327026 0 0 0 0 -168290966.72468567 -28592882.864337921 0 -28592882.864337921 25943476.977361679 0 0 0 0 290080902.06751251 396788371.63763809 0 396788371.63763809 -213635643.92619324 0 0 0 0 104085924.26348877 304674044.29492188 0 304674044.29492188 71570969.737915039 0 0 0 0 -104951284.46408081 435887097.43981552 0 435887097.43981552 3127481.0887718201 0 0 0 0 -29843502.798306465 -245374567.10989559 0 -245374567.10989559 116902465.49230957 0 0 0 0 -210012081.66055298 -328151201.88191223 0 -328151201.88191223 -48355963.399940491 0 0 0 0 2402750.5992774367 481150.5792510137 0 481150.5792510137 -410248.71861568093 0 0 0 0 18418998.400071383 17931041.943467133 0 17931041.943467133 9928020.3925054707 0 0 0 0 -36256749.834594727 107105502.67052078 0 107105502.67052078 -173640266.59913063 0 0 0 0 -100938035.3196106 139053176.40425873 0 139053176.40425873 -97227672.089391708 0 0 0 0 -124989669.39678955 119372595.62593842 0 119372595.62593842 -102635108.40583229 0 0 0 0 -129503420.15571976 137082833.63280296 0 137082833.63280296 -97187112.081542969 0 0 0 0 -72406773.587677002 75630377.39730072 0 75630377.39730072 -67898216.407188416 0 0 0 0 -78657759.468917847 89139137.490207672 0 89139137.490207672 -50128850.954704285 0 0 0 0 6536584.5098724365 41961149.694919586 0 41961149.694919586 -49730495.859901428 0 0 0 0 1514830.465637207 8375643.7557067871 0 8375643.7557067871 -77468991.818725586 0 0 0 0 -25253181.622680664 63752171.274978638 0 63752171.274978638 -119453096.89474487 0 0 0 0 -6014166.2430419922 30425888.587799072 0 30425888.587799072 -132121149.88169861 0 0 0 0 -22215400.585021973 49184353.290206909 0 49184353.290206909 -51401042.847892761 0 0 0 0 -168020030.1169281 -5516597.072052002 0 -5516597.072052002 135003517.08773041 0 0 0 0 -78537641.873199463 20586326.417549133 0 20586326.417549133 140180986.36795044 0 0 0 0 -178160927.62957764 235062021.0387001 0 235062021.0387001 294276165.00616455 0 0 0 0 -52328304.514709473 247973605.06465149 0 247973605.06465149 56573627.107681274 0 0 0 0 -245888232.40203857 144276084.65634918 0 144276084.65634918 180991261.1814003 0 0 0 0 -13666867.9949646 174911623.53946686 0 174911623.53946686 175563355.83021259 0 0 0 0 -55963093.252456665 -185834394.30382919 0 -185834394.30382919 -137079217.64847565 0 0 0 0 -65550255.395721436 406018733.39691162 0 406018733.39691162 175050491.28096008 0 0 0 0 -57269838.119903564 185177565.30374908 0 185177565.30374908 -65829265.494537354 0 0 0 0 74903216.187728882 169462472.1791153 0 169462472.1791153 101843695.39814377 0 0 0 0 -191928953.13157654 71807799.696186066 0 71807799.696186066 -10007603.562316895 0 0 0 0 -151700915.29325867 45056237.822322845 0 45056237.822322845 6673463.1153144836 0 0 0 0 -592979.24026468396 1956023.7170335948 0 1956023.7170335948 1910534.2379492596 0 0 0 0 79376700.663299561 52290696.619792938 0 52290696.619792938 198035995.47190857 0 0 0 0 1247137.2412126809 1111980.4587451741 0 1111980.4587451741 -2241963.1942865774 0 0 0 0 -91547598.537559509 3520971.8441085815 0 3520971.8441085815 136207843.2355957 0 0 0 0 -5422783.8170166016 33940156.212818146 0 33940156.212818146 112464495.43993568 0 0 0 0 15376622.499750137 45548305.354249477 0 45548305.354249477 119969298.1499176 0 0 0 0 -65895376.32566452 29540970.95878315 0 29540970.95878315 116828141.92190552 0 0 0 0 -80230813.52331543 106569154.35743713 0 106569154.35743713 130333862.95599365 0 0 0 0 24414189.804626465 116342238.79359436 0 116342238.79359436 130751275.72993994 0 0 0 0 -45025821.320465088 3200678.3326034546 0 3200678.3326034546 108374308.842659 0 0 0 0 2151605.4369546473 9440779.3594308347 0 9440779.3594308347 299242.74553970248 0 0 0 0 40946304.543235779 31325928.298353672 0 31325928.298353672 -6538782.3126220703 0 0 0 0 5356052.8829116821 8954244.8080253601 0 8954244.8080253601 -11563283.518127441 0 0 0 0 50508336.36213398 13384455.418088436 0 13384455.418088436 -17455040.415756226 0 0 0 0 -2080093.1387627795 14129513.031122468 0 14129513.031122468 -9026371.6335367188 0 0 0 0 3309508.6926775277 10423487.701236382 0 10423487.701236382 14281625.354139231 0 0 0 0 -15607075.00786972 40292092.13831234 0 40292092.13831234 -19237769.135684967 0 0 0 0 -63172235.709182739 25857110.872711182 0 25857110.872711182 2908230.7125244141 0 0 0 0 4410842.6375106573 7040846.7424054965 0 7040846.7424054965 -6645195.7392441891 0 0 0 0 51917963.814605713 24171407.958955765 0 24171407.958955765 -45943494.453205109 0 0 0 0 -896097.35163116455 6680186.9238948822 0 6680186.9238948822 -25784259.1121521 0 0 0 0 31960420.029205322 5546906.7640075684 0 5546906.7640075684 -8288084.3267383575 0 0 0 0 -2255952.1026659012 -6804043.6763510108 0 -6804043.6763510108 115448723.46298218 0 0 0 0 -6879018.4983276799 12934911.710185006 0 12934911.710185006 -12647453.42949659 0 0 0 0 -44839860.250354767 61517506.444176674 0 61517506.444176674 -28374765.607597351 0 0 0 0 -42597566.404304504 69455174.083699226 0 69455174.083699226 -11559051.549308777 0 0 0 0 -84459833.281051636 65136518.307283401 0 65136518.307283401 7800121.8652877808 0 0 0 0 8715539.6539104432 17424570.180089802 0 17424570.180089802 23050305.688078269 0 0 0 0 -68239486.384094238 80454022.812173843 0 80454022.812173843 -898191.07130146027 0 0 0 0 -90642345.656845093 102061580.95781422 0 102061580.95781422 -12943702.117830276 0 0 0 0 -51854469.058265686 40746607.493572235 0 40746607.493572235 7254033.3629188538 0 0 0 0 -14819459.322456349 35753331.522161588 0 35753331.522161588 -424849.58511050045 0 0 0 0 52352439.096738815 99015449.7629776 0 99015449.7629776 651772.34281158447 0 0 0 0 -1609968.7961730957 73533483.393333435 0 73533483.393333435 -2100391.7679071426 0 0 0 0 14224382.499864578 81212426.590843201 0 81212426.590843201 23516599.152488708 0 0 0 0 -8702943.3088912964 108202368.46925545 0 108202368.46925545 8241323.9819564819 0 0 0 0 -25452067.426727295 61014994.244287968 0 61014994.244287968 16987853.307937622 0 0 0 0 -43223844.401714325 51277648.728143692 0 51277648.728143692 37321539.440383911 0 0 0 0 -18373165.657657623 83840343.053431511 0 83840343.053431511 64289871.942779541 0 0 0 0 -6206759.7613067627 35155361.148822784 0 35155361.148822784 7235618.3531160355 0 0 0 0 54702956.618988037 52988971.582052231 0 52988971.582052231 -32273941.983673096 0 0 0 0 -16972843.436983176 36876873.758761838 0 36876873.758761838 -829088.94784224033 0 0 0 0 2187378.9446748197 16741541.314752113 0 16741541.314752113 1236290.9561014753 0 0 0 0 15836796.276550293 58595902.253130913 0 58595902.253130913 -20119768.435863495 0 0 0 0 3309962.4937095642 28988089.398950577 0 28988089.398950577 -12910928.980495453 0 0 0 0 -36659446.638183594 15917269.930526733 0 15917269.930526733 -7434415.4739685059 0 0 0 0 -34528663.084422112 47587255.338423729 0 47587255.338423729 4056220.3400802612 0 0 0 0 -44510031.879724503 62938892.0228405 0 62938892.0228405 74484156.921905518 0 0 0 0 9023643.8954280242 23337431.20120351 0 23337431.20120351 -1379355.7211651392 0 0 0 0 4875746.5230636597 46382711.361965179 0 46382711.361965179 -17319236.568012238 0 0 0 0 -13256401.792480469 26267827.422409058 0 26267827.422409058 -4678624.5276947021 0 0 0 0 -36203370.278264135 20057391.872154173 0 20057391.872154173 7927365.185072409 0 0 0 0 4966786.5547173098 32319937.346247949 0 32319937.346247949 4078532.5371891111 0 0 0 0 6200628.3424064666 28521848.662180338 0 28521848.662180338 -26977459.358172506 0 0 0 0 23026632.872859955 49888834.766513824 0 49888834.766513824 -31008650.01782608 0 0 0 0 15218353.143915176 44688853.045236588 0 44688853.045236588 8303533.4313964844 0 0 0 0 -6357997.0823574066 40224502.008951187 0 40224502.008951187 -14289012.93661499 0 0 0 0 8433042.8282928467 99493524.81842804 0 99493524.81842804 156219999.49489594 0 0 0 0 -100980682.42196751 262471723.57709086 0 262471723.57709086 43783859.361465454 0 0 0 0 12634696.904890895 25851148.188049354 0 25851148.188049354 5608005.3233585209 0 0 0 0 68093292.829727173 92189593.242378235 0 92189593.242378235 -58004056.489639282 0 0 0 0 -23398114.788452148 36750519.183231354 0 36750519.183231354 -14316535.824611664 0 0 0 0 -6881233.0779457092 54107234.073279381 0 54107234.073279381 3834305.463394165 0 0 0 0 -36051768.005302429 62343365.060438156 0 62343365.060438156 -10056054.887947083 0 0 0 0 -11972928.484537125 52220656.712043762 0 52220656.712043762 -15553926.244247437 0 0 0 0 4875231.5020143986 46505631.956751853 0 46505631.956751853 -45529889.970306396 0 0 0 0 -19920751.978363037 54904582.575386047 0 54904582.575386047 -16433016.237400055 0 0 0 0 -18022434.035224915 55687442.746612549 0 55687442.746612549 -46989072.403930664 0 0 0 0 -24483010.045700073 37936943.164886475 0 37936943.164886475 -45071801.749310017 0 0 0 0 -5299284.496218428 13361888.792669658 0 13361888.792669658 -3127692.6894484982 0 0 0 0 -19526376.939216614 63027179.486610413 0 63027179.486610413 -53928753.510696411 0 0 0 0 -1134452.6121540144 2952850.8130843528 0 2952850.8130843528 -1491757.7643369623 0 0 0 0 -1500987.6023178101 80154944.990594864 0 80154944.990594864 -148050787.43755722 0 0 0 0 -36674911.82157135 95773178.317741394 0 95773178.317741394 -43622732.810983658 0 0 0 0 -53803732.465923309 64520808.55034256 0 64520808.55034256 206832313.62924004 0 0 0 0 -51466638.109348297 96309440.071153641 0 96309440.071153641 95673257.100593567 0 0 0 0 -22632909.534553528 85302352.4724617 0 85302352.4724617 74656610.475402832 0 0 0 0 -18976317.271018982 95131617.25831604 0 95131617.25831604 42068508.159355164 0 0 0 0 -12383486.335021973 46260496.016090393 0 46260496.016090393 87703293.046516418 0 0 0 0 -12026478.229476929 61999677.82844162 0 61999677.82844162 44524878.239479065 0 0 0 0 -42639329.768043518 98978574.808616638 0 98978574.808616638 98130396.325046539 0 0 0 0 -16152357.075073242 107849962.92582321 0 107849962.92582321 45355877.687261581 0 0 0 0 -27126191.069644928 131993360.27732086 0 131993360.27732086 1833967.9785995483 0 0 0 0 -67566798.896066666 116471244.80560684 0 116471244.80560684 57160055.186820984 0 0 0 0 -61859840.622234344 107618458.28965759 0 107618458.28965759 66775555.395240784 0 0 0 0 -97403005.092998505 150386078.42546082 0 150386078.42546082 44643373.104406357 0 0 0 0 -38412858.808029175 122827895.29121017 0 122827895.29121017 -101357834.36746979 0 0 0 0 -44005770.055118561 130203828.65814209 0 130203828.65814209 22711904.454780579 0 0 0 0 9384797.1651535034 129161786.97228241 0 129161786.97228241 -1671483.8708877563 0 0 0 0 9579287.2824106216 124853534.20438385 0 124853534.20438385 -71364383.74835968 0 0 0 0 90996925.659824371 60701539.938819885 0 60701539.938819885 -179301769.7960968 0 0 0 0 67256440.693216324 99195207.308076382 0 99195207.308076382 -92617092.353439331 0 0 0 0 -62926158.622505188 66474119.221878052 0 66474119.221878052 -76408253.792396545 0 0 0 0 -19347148.485649109 118399754.27362061 0 118399754.27362061 -101566875.77628708 0 0 0 0 -39861078.103042603 -6219870.6873245239 0 -6219870.6873245239 -190811018.54289246 0 0 0 0 11366698.59859848 -7022870.7754554749 0 -7022870.7754554749 361668345.537323 0 0 0 0 3045524.0497519448 2461605.2196625471 0 2461605.2196625471 558399.24156097276 0 0 0 0 72895752.971946716 62786359.369571686 0 62786359.369571686 -325858780.53406143 0 0 0 0 -27756502.188194275 90217168.409820557 0 90217168.409820557 523133604.38774872 0 0 0 0 -200479332.49020386 320125076.20895386 0 320125076.20895386 581573820.54325104 0 0 0 0 111803037.88101959 20260187.236679077 0 20260187.236679077 150169762.86982727 0 0 0 0 11058142.00001432 23094536.558486462 0 23094536.558486462 -12105591.618587477 0 0 0 0 9387631.5681535453 3239398.2861441597 0 3239398.2861441597 2300123.2584968433 0 0 0 0 27058264.226325989 49247545.349411011 0 49247545.349411011 187297235.93436432 0 0 0 0 34032994.227027893 84135345.231689453 0 84135345.231689453 155711300.75746155 0 0 0 0 30125987.561206818 101250803.49625778 0 101250803.49625778 122046361.51339722 0 0 0 0 9391300.5899214 30622002.677942418 0 30622002.677942418 -13273078.203599572 0 0 0 0 19542264.629417419 32342172.098445892 0 32342172.098445892 -22056532.147171021 0 0 0 0 38574220.995895386 51643060.184120178 0 51643060.184120178 101765462.58421326 0 0 0 0 6180577.4575881958 48718588.34768486 0 48718588.34768486 9778003.7845973969 0 0 0 0 18229294.794914246 34484007.487843513 0 34484007.487843513 -12325547.319103241 0 0 0 0 17434086.538101196 36396405.982955933 0 36396405.982955933 -2323309.5637397766 0 0 0 0 16375298.029830933 43647119.433479309 0 43647119.433479309 -11816787.083770752 0 0 0 0 -25758476.263183594 43402743.79548645 0 43402743.79548645 18247952.939182281 0 0 0 0 -16253464.875244141 33338474.832489014 0 33338474.832489014 15657060.898384094 0 0 0 0 -25245315.662963867 49180356.465106964 0 49180356.465106964 12425574.861381531 0 0 0 0 -25497442.125788689 43384475.636715114 0 43384475.636715114 23039007.42591095 0 0 0 0 -10862247.544950485 62704450.630955696 0 62704450.630955696 -6197829.0900650024 0 0 0 0 -21120364.439029694 39506329.741143227 0 39506329.741143227 13454557.348800659 0 0 0 0 -31572848.648803711 53816114.868421555 0 53816114.868421555 -4283643.6775588989 0 0 0 0 -29273264.564331055 40775014.249710083 0 40775014.249710083 17613215.295188904 0 0 0 0 -27514079.670349121 40488270.055198669 0 40488270.055198669 -2873358.1650085449 0 0 0 0 -40823484.367950439 34547995.523302078 0 34547995.523302078 14427282.609397888 0 0 0 0 15720009.434385538 31996374.639488932 0 31996374.639488932 30132033.264814816 0 0 0 0 -20559458.403495789 27003072.072840691 0 27003072.072840691 25911768.894638062 0 0 0 0 -25759125.939712524 30318685.978980541 0 30318685.978980541 33529873.577049255 0 0 0 0 -27674309.100860596 48070213.948913574 0 48070213.948913574 47529144.464431763 0 0 0 0 16664085.189696863 9112211.7984981257 0 9112211.7984981257 -22640672.874669254 0 0 0 0 9415724.6477761269 72725183.885313272 0 72725183.885313272 208963515.18136597 0 0 0 0 -90344161.666900635 31504484.104904175 0 31504484.104904175 -98344449.473937988 0 0 0 0 37184537.073458329 37811037.961530477 0 37811037.961530477 7534451.2489330284 0 0 0 0 8993306.8018341064 60411907.096359253 0 60411907.096359253 166587683.15020752 0 0 0 0 105245937.17982483 169329390.45613098 0 169329390.45613098 137793449.97864532 0 0 0 0 34762512.009801865 123142642.48307133 0 123142642.48307133 216954644.8609314 0 0 0 0 31397812.608016968 99787245.765441895 0 99787245.765441895 117968850.56373596 0 0 0 0 24564713.159347534 209106761.72693634 0 209106761.72693634 131875774.16731262 0 0 0 0 162440543.27070618 77221347.708221436 0 77221347.708221436 -130183762.90037537 0 0 0 0 -37216213.178115845 -39900371.875595093 0 -39900371.875595093 6639433.1256561279 0 0 0 0 63126283.602905273 -705397.95817565918 0 -705397.95817565918 12100355.109672546 0 0 0 0 -86739123.331031799 -13386445.68497467 0 -13386445.68497467 49558664.218322754 0 0 0 0 44583516.487770081 24589049.014854431 0 24589049.014854431 95251716.117233276 0 0 0 0 76083379.245521545 106560574.50524902 0 106560574.50524902 45693519.508209229 0 0 0 0 55625998.565788269 100584242.45798492 0 100584242.45798492 117947551.06556702 0 0 0 0 -4988704.6473999023 18782499.357872009 0 18782499.357872009 49439718.382492065 0 0 0 0 13957944.132939354 16780395.645359356 0 16780395.645359356 13543979.176747855 0 0 0 0 -50899338.069854736 20674244.077651978 0 20674244.077651978 54460197.981227875 0 0 0 0 -85780081.663926482 19404736.428439975 0 19404736.428439975 60859067.86126709 0 0 0 0 23417.376046769321 20453945.477969568 0 20453945.477969568 29005304.30825457 0 0 0 0 -21307039.90561676 48174341.518882751 0 48174341.518882751 13853930.117698669 0 0 0 0 -31409595.995941162 52136790.908039093 0 52136790.908039093 17298208.655143738 0 0 0 0 -38380495.658996582 21880579.71380043 0 21880579.71380043 -2675575.2055969238 0 0 0 0 -22934414.05585441 39302742.529899716 0 39302742.529899716 48425886.59709999 0 0 0 0 -24933622.688659668 22697314.72038269 0 22697314.72038269 13818105.227451324 0 0 0 0 -11730587.900515161 44800269.585778818 0 44800269.585778818 4888141.5731800348 0 0 0 0 -14248404.316167831 65436437.396400452 0 65436437.396400452 105027398.50315475 0 0 0 0 19291722.418340914 22477580.655613691 0 22477580.655613691 10846838.346790224 0 0 0 0 98267365.187728882 67467322.843765259 0 67467322.843765259 5725520.404794693 0 0 0 0 4731804.0777520984 16611227.005189314 0 16611227.005189314 9727255.8621301055 0 0 0 0 -16560873.605819568 37881074.428752117 0 37881074.428752117 28000895.974825114 0 0 0 0 1244672.6484885216 1986925.0503241494 0 1986925.0503241494 3938160.9493947923 0 0 0 0 -75536741.30916214 -40531658.610626221 0 -40531658.610626221 82196428.53578186 0 0 0 0 24013350.572414875 226209874.09330702 0 226209874.09330702 188245034.80490112 0 0 0 0 109410360.93825531 114748039.70086288 0 114748039.70086288 -12269780.450565338 0 0 0 0 52002643.567764282 45659471.929092407 0 45659471.929092407 -130112446.90952682 0 0 0 0 15974206.299550056 99349861.766410351 0 99349861.766410351 10422888.581466675 0 0 0 0 47294080.461568832 24660570.203984261 0 24660570.203984261 -21201284.394767761 0 0 0 0 12619873.893241882 88000777.016651154 0 88000777.016651154 -136866.12565612793 0 0 0 0 -67640286.062866211 72890813.911515713 0 72890813.911515713 -4144288.7097167969 0 0 0 0 3121430.7483134121 1944677.5581435934 0 1944677.5581435934 -2522357.2267997228 0 0 0 0 233780979.16871643 33120001.37852478 0 33120001.37852478 -145634004.79793549 0 0 0 0 -240499177.73054504 50072639.8058815 0 50072639.8058815 297669374.73911476 0 0 0 0 158358476.25160217 137694353.52274895 0 137694353.52274895 67800266.263195038 0 0 0 0 133570142.47787476 144668602.33658981 0 144668602.33658981 87088909.68555069 0 0 0 0 171834541.61505127 166319831.19068909 0 166319831.19068909 94456583.609318733 0 0 0 0 -134763828.53479004 69938621.761188507 0 69938621.761188507 113483321.58458328 0 0 0 0 146137464.21100807 33301316.935602784 0 33301316.935602784 99631138.646968842 0 0 0 0 -217041131.55541992 161751863.21855736 0 161751863.21855736 97009350.689674377 0 0 0 0 -12674065.632349581 28118877.270854034 0 28118877.270854034 38941278.160878114 0 0 0 0 -134995272.60601807 4478484.2779426575 0 4478484.2779426575 7837287.5396652222 0 0 0 0 -59739271.894836426 11968676.853118896 0 11968676.853118896 -26513610.940547943 0 0 0 0 -17470888.209815651 33749531.682372034 0 33749531.682372034 36090073.47148224 0 0 0 0 61673168.989936829 -152240097.01428986 0 -152240097.01428986 11408208.148071289 0 0 0 0 68808559.468002319 -70053599.970796585 0 -70053599.970796585 -154808157.16510773 0 0 0 0 -4204982.8878631592 48640939.376850128 0 48640939.376850128 61384330.630420685 0 0 0 0 80008987.660614014 -25830067.727209091 0 -25830067.727209091 14653609.294687271 0 0 0 0 17704777.874404907 -45688432.36403656 0 -45688432.36403656 15747557.431591034 0 0 0 0 100725461.92425537 102927473.46175003 0 102927473.46175003 87420516.50444603 0 0 0 0 209904064.53259277 96987142.359750748 0 96987142.359750748 82951960.052979469 0 0 0 0 95125181.527862549 99578866.800515175 0 99578866.800515175 84393186.280506134 0 0 0 0 75437002.40802002 156212351.43120193 0 156212351.43120193 71573503.181432724 0 0 0 0 77947376.632049561 56805111.762131691 0 56805111.762131691 22300528.351703644 0 0 0 0 123434358.82656097 93828773.495061874 0 93828773.495061874 28009845.46906662 0 0 0 0 44000401.247749329 3497461.8082237244 0 3497461.8082237244 -8955032.6567687988 0 0 0 0 93172927.480957031 71471397.85442543 0 71471397.85442543 -101553121.99245071 0 0 0 0 -11868623.775588989 152503706.39442635 0 152503706.39442635 -2740662.8118190765 0 0 0 0 -3825705.841383934 67289102.796626091 0 67289102.796626091 -19587812.499984741 0 0 0 0 74840671.092144012 50200572.284154773 0 50200572.284154773 -254395837.12501526 0 0 0 0 73207682.504699707 27522608.342559814 0 27522608.342559814 -65648724.93727684 0 0 0 0 485034.13514709473 130310001.99108076 0 130310001.99108076 201124098.91167831 0 0 0 0 34914429.076278687 95023611.874713898 0 95023611.874713898 60506871.993141174 0 0 0 0 51593959.80316925 177302486.29956913 0 177302486.29956913 179654146.76254272 0 0 0 0 92339672.733337402 165815686.50451279 0 165815686.50451279 67656173.020559788 0 0 0 0 -14225656.635684595 8993027.5781159252 0 8993027.5781159252 4104098.7942188452 0 0 0 0 111395028.10338974 157542997.4793911 0 157542997.4793911 142552212.35157585 0 0 0 0 109103097.83805847 153799173.25282097 0 153799173.25282097 188895260.07714605 0 0 0 0 90941955.47819519 129754676.01687431 0 129754676.01687431 96724726.593875885 0 0 0 0 194975421.45077515 188083585.58652306 0 188083585.58652306 151671791.68338871 0 0 0 0 90302597.376554489 131719382.60665691 0 131719382.60665691 222578018.40208054 0 0 0 0 -29315726.256988525 77014861.429745913 0 77014861.429745913 -35357672.573448658 0 0 0 0 10298835.368934631 57135408.210238934 0 57135408.210238934 -166403453.30831766 0 0 0 0 15304780.303665161 14692455.89917779 0 14692455.89917779 -60400623.19546175 0 0 0 0 164842438.14610291 232502857.25491428 0 232502857.25491428 178160281.60839033 0 0 0 0 24886183.480384827 -17554407.14052856 0 -17554407.14052856 -255723750.27825606 0 0 0 0 -9913995.1692975014 4275248.1675153747 0 4275248.1675153747 232474.69520064443 0 0 0 0 51654253.135795593 253264871.61983871 0 253264871.61983871 400741085.61499929 0 0 0 0 -22806296.240216374 11290738.491315871 0 11290738.491315871 23890634.728802208 0 0 0 0 3880823.9091644287 37025369.602434158 0 37025369.602434158 21482886.392291069 0 0 0 0 -82396677.340194702 37860510.872133255 0 37860510.872133255 106369547.43436456 0 0 0 0 -2907855.2082449198 29645272.774994269 0 29645272.774994269 13677537.722175077 0 0 0 0 3363347.3029632568 33597955.546813965 0 33597955.546813965 39248195.702152729 0 0 0 0 11694375.746557578 46450069.567987785 0 46450069.567987785 18453169.353869248 0 0 0 0 12711417.467384338 38707309.830507278 0 38707309.830507278 22303384.892501831 0 0 0 0 -1781392.4164389372 18586474.458995324 0 18586474.458995324 10613740.759229921 0 0 0 0 34963102.318481445 9537545.6564407349 0 9537545.6564407349 79402172.894635677 0 0 0 0 -4227861.5748901367 90115038.511888504 0 90115038.511888504 266716534.70121765 0 0 0 0 -5284572.8048099875 1503471.1646807417 0 1503471.1646807417 3002032.8832066804 0 0 0 0 -18802288.036987305 81723425.351589113 0 81723425.351589113 -77206489.657321811 0 0 0 0 -277687.58756707609 18007006.105120126 0 18007006.105120126 14807918.891496779 0 0 0 0 -27481397.282286167 8780832.1157655288 0 8780832.1157655288 -4864023.4606232047 0 0 0 0 -5829177.2122802734 27731201.791999817 0 27731201.791999817 17966199.702379704 0 0 0 0 5809088.404127663 29441823.532196373 0 29441823.532196373 7390496.1500544325 0 0 0 0 21718841.038101196 44503891.664920807 0 44503891.664920807 -472776.17201042175 0 0 0 0 -249179579.07440186 228575118.03479958 0 228575118.03479958 -120611162.66949677 0 0 0 0 53186573.971611023 22458760.861040592 0 22458760.861040592 -378389734.66783619 0 0 0 0 5807808.8410862498 8903245.7137808129 0 8903245.7137808129 1791044.8652127408 0 0 0 0 -181760513.99995422 122628470.6659396 0 122628470.6659396 2726342.646430783 0 0 0 0 -73566234.040115356 287553362.46909797 0 287553362.46909797 -378952398.95602226 0 0 0 0 45552714.442932129 106363209.45474881 0 106363209.45474881 -171697675.69280702 0 0 0 0 26462317.926433563 157294128.282545 0 157294128.282545 -253568344.76249284 0 0 0 0 110145998.88858795 95689423.980633736 0 95689423.980633736 -321653254.93933821 0 0 0 0 80413452.649429321 -1775076.2730793953 0 -1775076.2730793953 -517186886.35508823 0 0 0 0 -227626213.2386322 322263837.980739 0 322263837.980739 -304411208.81566048 0 0 0 0 24465738.641860962 243206751.38153291 0 243206751.38153291 -541246520.92912579 0 0 0 0 48453243.324298859 62518920.801255137 0 62518920.801255137 -234694729.59080458 0 0 0 0 3285886.3613510132 37546019.486077487 0 37546019.486077487 -245201265.32574177 0 0 0 0 -41261580.164550781 -36243016.46979861 0 -36243016.46979861 -276205464.04148048 0 0 0 0 53204178.480682373 72629333.025239408 0 72629333.025239408 -287482284.17590868 0 0 0 0 103838375.43968201 45950145.534654975 0 45950145.534654975 -305717354.08763546 0 0 0 0 145553922.4763031 -21601584.657724023 0 -21601584.657724023 -234899556.0514791 0 0 0 0 86369280.73551178 7267280.5529735982 0 7267280.5529735982 -238023101.5105716 0 0 0 0 43995599.223953247 28310025.394173712 0 28310025.394173712 -200316802.20217127 0 0 0 0 41142033.140192986 -12727663.513362121 0 -12727663.513362121 -123937736.10604 0 0 0 0 18483850.879699707 -47555126.184843063 0 -47555126.184843063 -28867193.831125975 0 0 0 0 94143063.770889282 -55766304.676120043 0 -55766304.676120043 -136486750.53789091 0 0 0 0 18421953.995513916 -44780771.874988794 0 -44780771.874988794 -39856262.038365841 0 0 0 0 22730236.637531042 -56243233.82187707 0 -56243233.82187707 -48162630.750759602 0 0 0 0 22719854.011963367 -56418494.417387143 0 -56418494.417387143 -33223900.676840305 0 0 0 0 145477148.95574951 -106550769.54846883 0 -106550769.54846883 -87333146.436863899 0 0 0 0 89736031.785858154 -18688623.112845421 0 -18688623.112845421 -203458471.496665 0 0 0 0 10584387.091278076 -34951020.372924805 0 -34951020.372924805 21931691.032081127 0 0 0 0 177341445.53007507 -113435568.96515322 0 -113435568.96515322 -87504784.645822525 0 0 0 0 21988185.234779358 -95034962.881725311 0 -95034962.881725311 70942410.844359398 0 0 0 0 67141882.486190796 -142141797.83638954 0 -142141797.83638954 185631961.37066293 0 0 0 0 3921517.7138366699 -54567765.378297091 0 -54567765.378297091 -19693784.696161747 0 0 0 0 9900360.8202056885 -45039852.057403088 0 -45039852.057403088 -8882944.5190091133 0 0 0 0 33799819.351791382 210002212.89973664 0 210002212.89973664 -261972537.76503229 0 0 0 0 73267125.50352478 207825930.76694345 0 207825930.76694345 -174427731.84902906 0 0 0 0 180342096.0355072 263546618.25483513 0 263546618.25483513 -246640929.48648477 0 0 0 0 294121766.33413696 -11500744.618625879 0 -11500744.618625879 -307559971.13085842 0 0 0 0 33860824.675292969 101349167.24000216 0 101349167.24000216 -138938522.41453314 0 0 0 0 333359850.14109802 2629637.7742333412 0 2629637.7742333412 -116746676.80930579 0 0 0 0 440489030.91002083 156556978.8764399 0 156556978.8764399 61251083.402604103 0 0 0 0 383369333.46020508 -275027755.19587183 0 -275027755.19587183 38970613.354692459 0 0 0 0 731442798.00674438 -260293418.54204845 0 -260293418.54204845 172418987.72991681 0 0 0 0 259354436.57353973 287387174.03700227 0 287387174.03700227 -144491116.22843075 0 0 0 0 382576044.1441803 84400069.372207165 0 84400069.372207165 -81835353.672361135 0 0 0 0 115012172.73646545 160809962.75525165 0 160809962.75525165 41934943.612127304 0 0 0 0 -7790418.3744659424 178835787.63879609 0 178835787.63879609 -78548505.694918156 0 0 0 0 -17083279.468093872 291642805.68455172 0 291642805.68455172 -315885339.04609919 0 0 0 0 130948718.71065998 260593994.31522587 0 260593994.31522587 -212309704.29870701 0 0 0 0 -51184683.394775391 312334920.68556356 0 312334920.68556356 -136907351.81510997 0 0 0 0 94267981.967744827 299025396.62642086 0 299025396.62642086 -244883633.39394474 0 0 0 0 -138175255.77027893 372205505.25063777 0 372205505.25063777 -203835057.06732607 0 0 0 0 -51377971.00667572 290935255.57111669 0 290935255.57111669 -280551246.73498917 0 0 0 0 -32916921.471862793 340358829.9704392 0 340358829.9704392 -277064798.43280387 0 0 0 0 -30544195.351501465 356661559.39260411 0 356661559.39260411 -227647719.67439884 0 0 0 0 -194195912.49894714 285737867.14398289 0 285737867.14398289 -271878621.82709098 0 0 0 0 -422795846.67185974 306290550.56062937 0 306290550.56062937 -196005162.81975842 0 0 0 0 -158851087.55075073 371510054.07763457 0 371510054.07763457 -253483685.94207668 0 0 0 0 -199844967.93476868 256857180.05273628 0 256857180.05273628 -202092457.7147882 0 0 0 0 -338143551.19832611 433906875.64392805 0 433906875.64392805 -338042067.55240726 0 0 0 0 -471486093.0852356 406987990.28068793 0 406987990.28068793 -221819382.31043816 0 0 0 0 203163648.6075592 49135631.162551403 0 49135631.162551403 -156081292.41623497 0 0 0 0 -438850624.32778931 290191588.20019007 0 290191588.20019007 -315524704.42522573 0 0 0 0 -173922337.12043762 137120834.95666385 0 137120834.95666385 59204890.113700867 0 0 0 0 -28191546.067840576 -94801719.342858791 0 -94801719.342858791 -1808199.6310062408 0 0 0 0 10964758.820539206 9250967.241711691 0 9250967.241711691 6881757.6580033852 0 0 0 0 -8476838.9776306152 28774599.697675228 0 28774599.697675228 87530040.83489871 0 0 0 0 22828447.99155426 17527923.240347624 0 17527923.240347624 -111624571.54054165 0 0 0 0 27567309.004902326 25409904.53058473 0 25409904.53058473 17575522.475617994 0 0 0 0 -79726237.185668945 124590640.86029148 0 124590640.86029148 -79769826.440418243 0 0 0 0 45852427.819633484 17680784.101564407 0 17680784.101564407 -3190289.5940666199 0 0 0 0 31089535.792480469 132832530.70256805 0 132832530.70256805 -116743575.95336589 0 0 0 0 54751.143325805664 105586896.66527843 0 105586896.66527843 -63177114.864477158 0 0 0 0 43774550.637718201 8314855.0669379234 0 8314855.0669379234 -80602617.582353592 0 0 0 0 -69115249.842987061 10090576.196146011 0 10090576.196146011 -80438496.235658169 0 0 0 0 10479812.785527572 626054.11367928982 0 626054.11367928982 -11014514.393157797 0 0 0 0 18377908.37768963 16153257.347914811 0 16153257.347914811 10799214.453839265 0 0 0 0 -43146932.119361877 68411208.765170097 0 68411208.765170097 -44546321.935829163 0 0 0 0 76873921.975082397 3904390.713973999 0 3904390.713973999 -110416684.04069138 0 0 0 0 -136541422.80355835 -92687547.534266472 0 -92687547.534266472 -116642731.56510925 0 0 0 0 -177016471.15635681 -25275064.255257607 0 -25275064.255257607 -46623848.892604828 0 0 0 0 287236460.10766602 -56272265.470251083 0 -56272265.470251083 -267190612.14554405 0 0 0 0 169287367.59253311 252292581.66835618 0 252292581.66835618 80245673.971752167 0 0 0 0 -34568530.304290771 164621804.02522469 0 164621804.02522469 163738951.37920666 0 0 0 0 22463776.73248291 27298703.672847748 0 27298703.672847748 6621977.9259529114 0 0 0 0 17520951.600143433 38976541.087877274 0 38976541.087877274 -3576990.9225845337 0 0 0 0 34596466.977867126 28597884.403055191 0 28597884.403055191 -10556577.542274475 0 0 0 0 19017846.517425537 44219858.460784912 0 44219858.460784912 -17048914.641025543 0 0 0 0 28470392.283874512 38536995.093730927 0 38536995.093730927 -17621335.023052216 0 0 0 0 23909619.781524658 39352306.324951172 0 39352306.324951172 -10286639.750686526 0 0 0 0 25531239.574556351 36321030.534955025 0 36321030.534955025 -13163961.811851501 0 0 0 0 20182698.937774658 38854300.050071716 0 38854300.050071716 -13396004.333214521 0 0 0 0 23576649.412223101 39126234.394965887 0 39126234.394965887 -15417027.959884644 0 0 0 0 23670019.523829937 40956594.564860225 0 40956594.564860225 -15091815.888870239 0 0 0 0 20272214.028266907 38157068.355735779 0 38157068.355735779 -19553078.41411972 0 0 0 0 25789025.694137134 21863408.306301996 0 21863408.306301996 147921.91987367161 0 0 0 0 17341008.886573792 40817286.08181572 0 40817286.08181572 -14521091.097496033 0 0 0 0 -27955030.370025635 74807292.984201431 0 74807292.984201431 64802620.533439636 0 0 0 0 130469304.52459717 190492260.06135941 0 190492260.06135941 80877570.00151825 0 0 0 0 14832845.999061242 3678242.1240626238 0 3678242.1240626238 -11806496.710665181 0 0 0 0 -31725093.003631592 135560886.6642189 0 135560886.6642189 150292097.85323524 0 0 0 0 -42508731.459980011 32252009.949694157 0 32252009.949694157 -59302639.450443268 0 0 0 0 -37127000.564788818 12383377.53112793 0 12383377.53112793 -40611058.723175049 0 0 0 0 -15259931.53364563 -17602522.691447258 0 -17602522.691447258 -214398727.04567719 0 0 0 0 -39988962.815795898 131766147.53716087 0 131766147.53716087 63656362.574501038 0 0 0 0 -46130869.809295654 85801448.133270264 0 85801448.133270264 41063017.33782196 0 0 0 0 -31577918.206176758 115502770.58185577 0 115502770.58185577 48803125.51280117 0 0 0 0 -43011474.775802612 108450275.1436348 0 108450275.1436348 85446630.701164246 0 0 0 0 -36885505.325515747 104706705.07416534 0 104706705.07416534 29094032.777786255 0 0 0 0 -15383190.598052979 109769348.48381042 0 109769348.48381042 30214062.47303009 0 0 0 0 -45570998.85209465 72403819.037074208 0 72403819.037074208 -13617154.701797485 0 0 0 0 53749579.348266602 174969937.54652405 0 174969937.54652405 15273570.616394043 0 0 0 0 -30236127.044952393 70905358.167346954 0 70905358.167346954 46825110.416680455 0 0 0 0 131013560.92990112 -26494559.171844482 0 -26494559.171844482 -358656316.23957062 0 0 0 0 197260184.18817139 55504647.085609436 0 55504647.085609436 -365923773.35338593 0 0 0 0 316542786.64505005 213743047.33104324 0 213743047.33104324 -274779427.10043335 0 0 0 0 3150992.5799811184 5661729.0192077085 0 5661729.0192077085 5351687.3113902602 0 0 0 0 68117830.744934082 90523347.611083984 0 90523347.611083984 -92758989.634679794 0 0 0 0 15051536.788757324 111938464.08412933 0 111938464.08412933 -87041359.368293762 0 0 0 0 -68553669.972488403 74929954.917712212 0 74929954.917712212 14532356.727321625 0 0 0 0 -30274107.167358398 79292637.964626312 0 79292637.964626312 8072881.766210556 0 0 0 0 -39097398.618057251 36289082.516641617 0 36289082.516641617 -14981110.262191772 0 0 0 0 26317637.34488678 -2539775.043703258 0 -2539775.043703258 -256940525.49250174 0 0 0 0 -17470295.119003296 56444750.816232681 0 56444750.816232681 -107695272.71025848 0 0 0 0 26715161.901065029 26870380.501107905 0 26870380.501107905 12508954.871511642 0 0 0 0 -183075346.32589722 -96543773.220531464 0 -96543773.220531464 336313152.00986481 0 0 0 0 -91330271.568481445 -96933730.88835144 0 -96933730.88835144 -84995630.232703686 0 0 0 0 -28391015.471862793 60466197.342824936 0 60466197.342824936 -4889172.2016792297 0 0 0 0 -87080727.072250366 77088728.451839447 0 77088728.451839447 158840456.78526115 0 0 0 0 -105442764.0884552 164611201.37322998 0 164611201.37322998 302305516.86640596 0 0 0 0 12551644.951461792 213375529.93124342 0 213375529.93124342 -203838135.56824875 0 0 0 0 -119734996.59682083 315360499.78875542 0 315360499.78875542 -282264912.65700388 0 0 0 0 181922845.78565216 22464184.443904877 0 22464184.443904877 -72000006.212356567 0 0 0 0 24534894.65409191 17620757.167758923 0 17620757.167758923 6241743.0969883036 0 0 0 0 -116973643.71054077 330550910.28788114 0 330550910.28788114 -259989186.35548204 0 0 0 0 12046063.255588859 4886631.0907716304 0 4886631.0907716304 -4698797.2384798545 0 0 0 0 -32696570.598297119 134664790.0433569 0 134664790.0433569 61710560.879833221 0 0 0 0 -27751914.601074219 159628936.03554344 0 159628936.03554344 126571256.36964989 0 0 0 0 60129.529792785645 34947573.245825768 0 34947573.245825768 -14379913.016082764 0 0 0 0 14800891.629938483 28866963.095151529 0 28866963.095151529 -19694655.424171448 0 0 0 0 5071565.8343963623 47575378.071666718 0 47575378.071666718 -58968602.12078476 0 0 0 0 14840296.653442383 33652689.725200653 0 33652689.725200653 -41816004.521636963 0 0 0 0 11133802.582420349 77467874.868942261 0 77467874.868942261 -74572807.856491089 0 0 0 0 -1253807.8834881783 63863002.402704239 0 63863002.402704239 -36366042.7486763 0 0 0 0 10057608.080604553 88431580.094659805 0 88431580.094659805 48329232.996883392 0 0 0 0 -22726.155746459961 60092995.340679169 0 60092995.340679169 134123747.27113724 0 0 0 0 32925210.777740479 45783062.837364197 0 45783062.837364197 87174515.38861084 0 0 0 0 14308834.805515289 49412583.272914886 0 49412583.272914886 123684408.71788788 0 0 0 0 7552568.8024959564 68438302.229572773 0 68438302.229572773 161284068.66968536 0 0 0 0 2568544.8839950562 96034089.702937126 0 96034089.702937126 306315624.39580917 0 0 0 0 109455118.83673096 31203982.383872986 0 31203982.383872986 -130677237.8880806 0 0 0 0 54741356.453567505 99275033.204689026 0 99275033.204689026 143263257.1779871 0 0 0 0 -163183.70110371709 -1269323.696809914 0 -1269323.696809914 373453.65890298784 0 0 0 0 -68631783.421798706 -251313.25825309753 0 -251313.25825309753 -2558838.8371505737 0 0 0 0 12712086.516212463 82783827.517679214 0 82783827.517679214 151955916.55236053 0 0 0 0 29653068.65609169 50425522.757056236 0 50425522.757056236 134091830.75824738 0 0 0 0 21130381.495555878 94364458.734410286 0 94364458.734410286 106491055.3321991 0 0 0 0 24673976.929824829 36113042.31829071 0 36113042.31829071 163608664.56044769 0 0 0 0 22693196.884460449 40276800.370660782 0 40276800.370660782 85147588.545425415 0 0 0 0 1506329.1295471191 86486495.391670227 0 86486495.391670227 101128816.2394104 0 0 0 0 26392.527723550797 -1339989.2564416043 0 -1339989.2564416043 399927.62666376494 0 0 0 0 -2630792.2194671631 703711.1348991394 0 703711.1348991394 -15941819.774925232 0 0 0 0 11654933.166320801 -15751.786777496338 0 -15751.786777496338 -25079552.213413239 0 0 0 0 4809928.6954269409 66484737.823806763 0 66484737.823806763 171909987.39305115 0 0 0 0 1367065.0231323242 14394738.694288731 0 14394738.694288731 -5843521.3713378906 0 0 0 0 1538770.2041168958 -751506.43496407475 0 -751506.43496407475 -1474184.5138865709 0 0 0 0 -7821170.0171813965 -14779254.591854095 0 -14779254.591854095 -1450308.4358406067 0 0 0 0 -1810380.2668662071 57556663.364706099 0 57556663.364706099 -67686459.479206085 0 0 0 0 -11111953.38432312 34270207.656520844 0 34270207.656520844 -66279286.826422691 0 0 0 0 -25251611.632827759 33562593.7825737 0 33562593.7825737 -28391885.805229187 0 0 0 0 -24205385.834480286 34629712.952832222 0 34629712.952832222 -39461347.607299805 0 0 0 0 -16882853.05632019 27095442.755813599 0 27095442.755813599 -55860638.776348114 0 0 0 0 -4310750.606262207 7177792.2383804321 0 7177792.2383804321 2714966.6434020996 0 0 0 0 1443471.0087939799 872828.8567312099 0 872828.8567312099 -4351279.5022774823 0 0 0 0 -28472510.960006714 29549598.87338829 0 29549598.87338829 -33380544.613393784 0 0 0 0 -3416435.3178520203 7172185.7091588974 0 7172185.7091588974 632117.56916809082 0 0 0 0 -6501993.1571239159 14198449.040159494 0 14198449.040159494 -18891154.026744466 0 0 0 0 -2273872.8552000672 5819403.5678594559 0 5819403.5678594559 866118.79555725306 0 0 0 0 -16132974.909408569 6622842.508562088 0 6622842.508562088 5855883.1628456116 0 0 0 0 -9891600.2168750763 40078985.254505396 0 40078985.254505396 25978837.024147034 0 0 0 0 -871270.83068880439 10813399.216326589 0 10813399.216326589 -18556772.785224952 0 0 0 0 -25023168.533813477 -21095371.26008606 0 -21095371.26008606 10281551.928089142 0 0 0 0 -3530346.873260498 8693386.6804275513 0 8693386.6804275513 -891604.8131942749 0 0 0 0 -781781.14581298828 4378919.7384567261 0 4378919.7384567261 -1787572.3929204941 0 0 0 0 -4201925.7176818848 8822758.0507545471 0 8822758.0507545471 2655032.6099219322 0 0 0 0 -621976.3744430542 5708916.7637653351 0 5708916.7637653351 -4426090.9783973694 0 0 0 0 -2460909.8839416504 50206967.936058044 0 50206967.936058044 62710235.430477142 0 0 0 0 370972.14557114244 -893565.98173702508 0 -893565.98173702508 76768.496170362458 0 0 0 0 832876.52293395996 4586789.8757038116 0 4586789.8757038116 -6603704.1402015686 0 0 0 0 16498547.137191772 58423098.108819008 0 58423098.108819008 43213086.842483521 0 0 0 0 7017631.8434448242 67322274.828399658 0 67322274.828399658 58717465.803844452 0 0 0 0 686607.08446884155 100374286.76879776 0 100374286.76879776 39120763.628265381 0 0 0 0 -7053588.7934265137 109933308.74991226 0 109933308.74991226 21598308.684768677 0 0 0 0 -61033114.318954468 89524436.587802887 0 89524436.587802887 25097789.463321686 0 0 0 0 33959878.629821777 -7967989.6938781738 0 -7967989.6938781738 -1361672.3426380157 0 0 0 0 -3266558.2876052856 95393048.814226151 0 95393048.814226151 -8971821.8712844849 0 0 0 0 -49077413.825695038 58211136.803310394 0 58211136.803310394 -8247703.5295562744 0 0 0 0 -1067997.2247093096 2809756.9235409498 0 2809756.9235409498 1359819.2734488249 0 0 0 0 -58755717.252510071 92553780.37694931 0 92553780.37694931 -142585434.94593048 0 0 0 0 -68954787.244857788 -43374416.566207886 0 -43374416.566207886 -31576253.56338501 0 0 0 0 -497116.94926023483 -468875.08670474216 0 -468875.08670474216 490492.41929644533 0 0 0 0 -49234473.42515564 -11768712.339729309 0 -11768712.339729309 15798543.168556213 0 0 0 0 393149.77143096924 3739277.628900528 0 3739277.628900528 -4520081.6235542297 0 0 0 0 -216366.83335902542 870834.99301710725 0 870834.99301710725 216335.19244164228 0 0 0 0 68551744.981399536 121308209.76932144 0 121308209.76932144 -13768114.904695511 0 0 0 0 -121117596.32349586 144918432.95346928 0 144918432.95346928 6458216.6949272156 0 0 0 0 -9701666.6851383448 14221183.952171922 0 14221183.952171922 -18348163.571522102 0 0 0 0 -108423150.63031006 13157468.073566437 0 13157468.073566437 -1851056.4710159302 0 0 0 0 -133195792.66603088 130313599.40454483 0 130313599.40454483 -65186091.21849823 0 0 0 0 53338616.82875061 -46163585.181669235 0 -46163585.181669235 -50880616.350059509 0 0 0 0 -63276265.969543457 81154601.183135986 0 81154601.183135986 20802247.315872192 0 0 0 0 -8636240.7876281738 -3800111.4845695496 0 -3800111.4845695496 300742.67382049561 0 0 0 0 -9152832.6296832711 13388963.394349329 0 13388963.394349329 -17049728.001638409 0 0 0 0 112444688.41070557 56521803.597734451 0 56521803.597734451 -37983291.363679886 0 0 0 0 -247740546.38404846 445242368.2515564 0 445242368.2515564 -513561611.60655975 0 0 0 0 48427279.194366455 29105343.047623634 0 29105343.047623634 -4861999.1062927246 0 0 0 0 119471513.44988251 -126307388.99230385 0 -126307388.99230385 -277657393.20487595 0 0 0 0 -261400317.82191467 216502293.29895592 0 216502293.29895592 -129769945.85766602 0 0 0 0 -295743092.60249138 -44581761.796779752 0 -44581761.796779752 37126328.103487015 0 0 0 0 130820025.16827393 -255881892.83281517 0 -255881892.83281517 304738149.46557236 0 0 0 0 -24727444.488708496 169583681.20039368 0 169583681.20039368 -392904740.42359543 0 0 0 0 -3598397.4291874245 3480835.3148601651 0 3480835.3148601651 962862.33715198562 0 0 0 0 -203771861.6240387 138809089.60746002 0 138809089.60746002 -38793759.116502762 0 0 0 0 -130646706.38380432 106294929.60003567 0 106294929.60003567 68790322.246753693 0 0 0 0 67547306.352996826 81279891.916915894 0 81279891.916915894 37794681.405992508 0 0 0 0 -42021576.559799194 101115550.80292797 0 101115550.80292797 178453197.98527527 0 0 0 0 87297831.311035156 38773435.609512329 0 38773435.609512329 -65369805.755770922 0 0 0 0 -88210519.134601593 -109628396.62818384 0 -109628396.62818384 -23507487.870269775 0 0 0 0 -85769966.028762817 225675889.14185524 0 225675889.14185524 -66205453.707168579 0 0 0 0 518269.09440553188 4092991.6696166024 0 4092991.6696166024 -8021628.3479328919 0 0 0 0 -94372398.017745972 52656313.362823009 0 52656313.362823009 136703053.630867 0 0 0 0 -7041572.5307769775 -17412373.309196472 0 -17412373.309196472 -11442732.457351685 0 0 0 0 51461103.185012817 10969201.303053856 0 10969201.303053856 123163033.22085631 0 0 0 0 -46697195.632614136 21172746.213665485 0 21172746.213665485 -41507781.184671402 0 0 0 0 116691660.51469421 -80105929.073825836 0 -80105929.073825836 -15483029.801383972 0 0 0 0 175970244.90930176 382827756.36627007 0 382827756.36627007 90013860.634410858 0 0 0 0 115942779.64465332 269896312.39635932 0 269896312.39635932 -3759848.3316452503 0 0 0 0 269536848.14828491 408655503.02054381 0 408655503.02054381 27184134.816540003 0 0 0 0 40490617.771194458 426080641.80621874 0 426080641.80621874 577233358.75403202 0 0 0 0 154437115.61852694 72446408.299831182 0 72446408.299831182 175321622.71813583 0 0 0 0 3277786.4688262939 135958934.60522747 0 135958934.60522747 476524943.1902647 0 0 0 0 657222.31718444824 -92403530.832619667 0 -92403530.832619667 -453613376.04163307 0 0 0 0 -4412182.6730868965 603281.3736898154 0 603281.3736898154 742634.76917145005 0 0 0 0 145325117.63426208 41070785.706502795 0 41070785.706502795 -942551603.95085454 0 0 0 0 61432834.653411865 -152280457.80668658 0 -152280457.80668658 -21340484.475496218 0 0 0 0 -8359338.0833740234 71261606.354375124 0 71261606.354375124 -229385090.13200939 0 0 0 0 -338213747.5446167 815706525.64501286 0 815706525.64501286 183246304.82672739 0 0 0 0 166866312.01399994 81784260.310066223 0 81784260.310066223 -1261251.1290300488 0 0 0 0 277637397.00718498 355396914.09618759 0 355396914.09618759 -315448409.2660675 0 0 0 0 757476922.85662842 -837651072.82299209 0 -837651072.82299209 -167208997.26611134 0 0 0 0 1945644.3972508609 983994.38937256858 0 983994.38937256858 -4810803.067069605 0 0 0 0 3067093.6030908413 -5088582.7089720741 0 -5088582.7089720741 -1757331.3731998638 0 0 0 0 -7642419.0749511719 -24315191.407613516 0 -24315191.407613516 9950238.42304039 0 0 0 0 8286929.1655036211 3188316.7064313851 0 3188316.7064313851 -28653686.255727328 0 0 0 0 234669310.93115234 32755834.927495629 0 32755834.927495629 -114665943.53866029 0 0 0 0 1290108.1889132038 9062396.3454687148 0 9062396.3454687148 -30793605.828393441 0 0 0 0 72267905.192825317 -34126101.50460887 0 -34126101.50460887 -30148358.702019691 0 0 0 0 -34681473.919158936 4651012.0978294611 0 4651012.0978294611 -68805718.834460735 0 0 0 0 2514011.2403259277 61740242.249257326 0 61740242.249257326 -221782966.01768988 0 0 0 0 14027266.85118103 -5996487.2042915821 0 -5996487.2042915821 -102697347.63952279 0 0 0 0 38228850.500030518 -53936379.995619059 0 -53936379.995619059 -85656928.547223806 0 0 0 0 65674405.474281311 -20011536.157221794 0 -20011536.157221794 -53594625.227631569 0 0 0 0 30714131.59703064 -50081641.463403046 0 -50081641.463403046 -40487154.483413696 0 0 0 0 20450941.154327393 -37635825.778510809 0 -37635825.778510809 -20400559.813988686 0 0 0 0 18717218.96661377 -41097575.623247147 0 -41097575.623247147 -21696432.145252466 0 0 0 0 20369407.82311821 -30819053.848502129 0 -30819053.848502129 -25425947.685712814 0 0 0 0 43665802.815536499 16154585.711787701 0 16154585.711787701 -51660594.429728508 0 0 0 0 -11250349.375595093 3844885.9406218529 0 3844885.9406218529 -42843562.087478638 0 0 0 0 55146469.768737793 -24732567.925724983 0 -24732567.925724983 -38312831.56828928 0 0 0 0 74378198.913574219 -23196027.159241438 0 -23196027.159241438 -29642243.69933331 0 0 0 0 74534590.577384949 -24453474.563303292 0 -24453474.563303292 -19691572.760429382 0 0 0 0 1530395.6375306845 4275052.2423021039 0 4275052.2423021039 -9416230.6129032113 0 0 0 0 106703728.83368683 -24569157.366140723 0 -24569157.366140723 -50141521.161867857 0 0 0 0 -891156.74405494146 10515911.460326672 0 10515911.460326672 -34319900.685728803 0 0 0 0 150873071.54302979 92154882.410995483 0 92154882.410995483 -68953427.766834259 0 0 0 0 202912356.37954712 95979114.855402946 0 95979114.855402946 -180748114.60351944 0 0 0 0 140176550.69863892 -56219189.415252686 0 -56219189.415252686 -215083735.76059341 0 0 0 0 -164920036.68911743 11474183.82717514 0 11474183.82717514 75318012.647827148 0 0 0 0 -143237738.60986328 -104124133.01431274 0 -104124133.01431274 -76991173.504699707 0 0 0 0 -41905811.944641113 -192010155.65938759 0 -192010155.65938759 -306257857.038414 0 0 0 0 137557908.31600189 147174651.43332767 0 147174651.43332767 234379924.77714539 0 0 0 0 287411489.79492188 138045111.24648571 0 138045111.24648571 -387600504.55754852 0 0 0 0 -3853682.7203906924 8279361.8824048862 0 8279361.8824048862 -16880809.003879625 0 0 0 0 -1476824.0411376953 -24139432.293355942 0 -24139432.293355942 36214035.129781723 0 0 0 0 -1958647.9913841188 1136772.0880764946 0 1136772.0880764946 -14106564.274379464 0 0 0 0 2284051.7590942383 2476792.6809043884 0 2476792.6809043884 -12746301.27748394 0 0 0 0 2162507.1781151593 5772952.9802787974 0 5772952.9802787974 -22573483.328526113 0 0 0 0 -342870068.57688141 -344922140.68938828 0 -344922140.68938828 -101060498.93250275 0 0 0 0 -7699030.1821319759 1876459.4417345896 0 1876459.4417345896 -3785958.1709285253 0 0 0 0 -64582976.987136841 51147575.533872604 0 51147575.533872604 -84104910.625230789 0 0 0 0 607276.58075337112 2520256.467145972 0 2520256.467145972 -5326223.1099010892 0 0 0 0 -25371986.596336365 14533037.103693962 0 14533037.103693962 -15361609.264554977 0 0 0 0 -296234279.80027771 -163751265.24849129 0 -163751265.24849129 -50668812.65348053 0 0 0 0 -312821.69088961557 860261.308194004 0 860261.308194004 -1593587.3486762345 0 0 0 0 -220519111.99925995 218855966.26669693 0 218855966.26669693 84235117.195995331 0 0 0 0 -441319051.5524826 54095071.565702438 0 54095071.565702438 79794893.486064911 0 0 0 0 -69903256.156986237 54689170.668097496 0 54689170.668097496 -42354998.652297974 0 0 0 0 -139165635.73810577 8877647.8682274818 0 8877647.8682274818 -11510654.20741272 0 0 0 0 -74549195.197761536 63810939.435606003 0 63810939.435606003 -49325662.614608765 0 0 0 0 -134535.20488942042 1927764.8453051969 0 1927764.8453051969 -5446565.2039329894 0 0 0 0 -56304148.696556091 69590800.522486687 0 69590800.522486687 -36584586.660568237 0 0 0 0 -79444606.892978668 59778684.069591999 0 59778684.069591999 -35264976.996631622 0 0 0 0 -78790894.77180481 33815297.854682922 0 33815297.854682922 -19533174.566524506 0 0 0 0 -136790197.89822388 58416229.966012955 0 58416229.966012955 -21802644.609592438 0 0 0 0 -83778345.661155701 70873879.933642387 0 70873879.933642387 -47180749.711174011 0 0 0 0 -60024747.5831604 -143909772.59470749 0 -143909772.59470749 7908437.7122612 0 0 0 0 101126095.16996384 -17904643.15161562 0 -17904643.15161562 -71689245.482673645 0 0 0 0 84698832.458946228 -876900.75418663025 0 -876900.75418663025 -90888178.783130646 0 0 0 0 687793.59962438792 -323805.78629618138 0 -323805.78629618138 -305504.55192922428 0 0 0 0 -26075720.200180054 -3795736.87865448 0 -3795736.87865448 12355069.803352356 0 0 0 0 6222032.5481872559 -99792689.946281433 0 -99792689.946281433 -104637774.45189476 0 0 0 0 -22608531.826080322 -48900404.275554657 0 -48900404.275554657 80246285.468624115 0 0 0 0 -60736370.871490479 -109257769.22557449 0 -109257769.22557449 32914901.095636368 0 0 0 0 22605441.049499512 -15427438.461471558 0 -15427438.461471558 -22493767.424072266 0 0 0 0 7478511.9529003426 -4717968.8831318915 0 -4717968.8831318915 -5966845.6272387803 0 0 0 0 13958417.02935791 -11140041.261367798 0 -11140041.261367798 7869861.7756919861 0 0 0 0 25327083.216583252 1830317.4494972229 0 1830317.4494972229 -21697492.172798157 0 0 0 0 5865959.2701808363 7213543.7805149481 0 7213543.7805149481 -25953347.897027552 0 0 0 0 3825124.939239502 2982481.9654388428 0 2982481.9654388428 -15140194.088939667 0 0 0 0 2386128.6797436327 -1159044.2608223185 0 -1159044.2608223185 -6324289.1454774439 0 0 0 0 1587139.0431544781 2937096.83550708 0 2937096.83550708 -6415248.8309858404 0 0 0 0 2319237.4916687012 -15973086.793357849 0 -15973086.793357849 -17323278.693077087 0 0 0 0 6430816.0467224121 2113705.6599159241 0 2113705.6599159241 -6359319.122800827 0 0 0 0 -14039772.580402374 18542793.935581684 0 18542793.935581684 -25558943.215888977 0 0 0 0 -46353129.675361633 39113928.304093361 0 39113928.304093361 -27104541.47567749 0 0 0 0 -42356798.740966797 30116339.362957001 0 30116339.362957001 -10563474.514526367 0 0 0 0 -63049955.016479492 42247622.720695496 0 42247622.720695496 -15263284.701522827 0 0 0 0 -55562240.310516357 13455236.372291565 0 13455236.372291565 5544744.82472229 0 0 0 0 -91917863.026031494 25923692.336982727 0 25923692.336982727 7864575.8472137451 0 0 0 0 1138000.9569855928 -748376.5670280233 0 -748376.5670280233 -1348786.4799585864 0 0 0 0 -23139529.702804565 47801542.425909042 0 47801542.425909042 -30661993.967035294 0 0 0 0 -30084457.474365234 49263340.216255188 0 49263340.216255188 -30230588.244253159 0 0 0 0 -22878199.997467041 48151508.78452301 0 48151508.78452301 -31131042.999491692 0 0 0 0 -21841271.519897461 42791544.249601364 0 42791544.249601364 -34031480.426506042 0 0 0 0 -15580847.685916901 50046484.831023216 0 50046484.831023216 -32447334.627426147 0 0 0 0 2829187.0642623901 41085253.38599205 0 41085253.38599205 -48256912.853945732 0 0 0 0 1316114.0267982483 38018796.413435459 0 38018796.413435459 -2441592.7443161011 0 0 0 0 13668301.47334671 5597595.4055337906 0 5597595.4055337906 -28812213.50359726 0 0 0 0 48671354.87322998 33462109.505487442 0 33462109.505487442 -56267342.391098022 0 0 0 0 -26460223.201126099 77356640.524049759 0 77356640.524049759 -67476807.731777191 0 0 0 0 224540021.87524414 57541239.636798859 0 57541239.636798859 -71609938.289700031 0 0 0 0 23335747.997306824 -11945575.692335129 0 -11945575.692335129 -22483321.886018753 0 0 0 0 -9345608.1258773804 -12243847.943835735 0 -12243847.943835735 -19305540.886070251 0 0 0 0 -5469337.4651672542 876649.81801708043 0 876649.81801708043 -922421.52185541159 0 0 0 0 4089768.7982673645 1390796.6287212372 0 1390796.6287212372 -7165255.1399726868 0 0 0 0 10062313.531028748 4305186.6248884201 0 4305186.6248884201 -19319757.547076225 0 0 0 0 13952652.194763184 2255997.118894577 0 2255997.118894577 -28168416.311375618 0 0 0 0 7864411.4383773804 11210738.621486664 0 11210738.621486664 -28130234.91766715 0 0 0 0 3500064.4079971313 10924690.615216732 0 10924690.615216732 -6587445.7176675797 0 0 0 0 -11735.94847705776 24297535.235811364 0 24297535.235811364 10942107.485908508 0 0 0 0 7521.8957977294922 26448889.117099762 0 26448889.117099762 -25587160.032009125 0 0 0 0 -2198160.1273789257 -147376.9765561223 0 -147376.9765561223 2117125.8180329651 0 0 0 0 17725723.589851379 7850092.5527200699 0 7850092.5527200699 -57922391.220825195 0 0 0 0 14204319.548400879 2227950.926214695 0 2227950.926214695 -14493264.993965149 0 0 0 0 18466893.155609131 2789511.8550100327 0 2789511.8550100327 -25130520.681553364 0 0 0 0 -1691431.4656730741 -101348.51848811656 0 -101348.51848811656 1605987.2591150962 0 0 0 0 17228323.326278687 8312243.3346309662 0 8312243.3346309662 -49460233.707551003 0 0 0 0 4897.5598602294922 22790961.316271782 0 22790961.316271782 17195881.690355301 0 0 0 0 13654452.555948257 4464063.1923809052 0 4464063.1923809052 -7574678.2936706543 0 0 0 0 -9236228.55418396 47276100.257097244 0 47276100.257097244 -22881004.084718704 0 0 0 0 -1322517.0668334961 62172365.187800407 0 62172365.187800407 -20518621.795783997 0 0 0 0 4700577.7814331055 42915337.832362175 0 42915337.832362175 -20139225.498188019 0 0 0 0 8850329.4520874023 36595418.455734253 0 36595418.455734253 -19194335.389475822 0 0 0 0 -18095609.239395142 128692293.37777996 0 128692293.37777996 11876251.592126846 0 0 0 0 -19826146.296142578 -55070530.908569336 0 -55070530.908569336 -181244642.94715118 0 0 0 0 20304954.605743408 44848693.573044777 0 44848693.573044777 -49982792.685405731 0 0 0 0 -4819994.8641357422 13579792.254055023 0 13579792.254055023 -40283962.936346054 0 0 0 0 15367196.818359375 53600791.389629364 0 53600791.389629364 -65483324.870109558 0 0 0 0 -5950279.8782653809 5550518.67228508 0 5550518.67228508 -89801225.211917877 0 0 0 0 13762227.961395264 43353129.9874897 0 43353129.9874897 -113804196.38473892 0 0 0 0 26936549.184921265 92645831.002356052 0 92645831.002356052 -73405823.98815155 0 0 0 0 101885.14710998535 81817091.393915176 0 81817091.393915176 -64722871.210136414 0 0 0 0 -776216.05888366699 72023444.677814484 0 72023444.677814484 -40351145.423173904 0 0 0 0 4534578.4895660728 768063.44412859902 0 768063.44412859902 -3048924.3552942295 0 0 0 0 -167019156.35842896 353242427.16435623 0 353242427.16435623 -525472060.27795291 0 0 0 0 -34697078.685409546 44236650.581938744 0 44236650.581938744 -28251651.043456554 0 0 0 0 -32332648.361843109 57054853.899692655 0 57054853.899692655 27444383.004962921 0 0 0 0 -11364854.545707703 31993315.787331581 0 31993315.787331581 -53103090.622408867 0 0 0 0 -444.83589535520679 47063824.691375412 0 47063824.691375412 -36990153.523670197 0 0 0 0 -244603566.28897095 468774461.0147543 0 468774461.0147543 -990427384.2212913 0 0 0 0 -56761.49862148986 41045600.905987203 0 41045600.905987203 -60031266.813289642 0 0 0 0 2608734.1336353719 383342.14220767096 0 383342.14220767096 -2905537.6427458096 0 0 0 0 -2897999.9248584788 700312387.88204718 0 700312387.88204718 -993775782.85360718 0 0 0 0 -39312494.180915833 310538659.52064896 0 310538659.52064896 -1373781066.5917263 0 0 0 0 -2154428.4472203851 -290288.63318775967 0 -290288.63318775967 -950210.78305150243 0 0 0 0 35189301.171890259 24122540.361330509 0 24122540.361330509 -828615677.30208492 0 0 0 0 -112389829.11575317 277264103.70312119 0 277264103.70312119 -539768415.74753714 0 0 0 0 -279493641.69483185 420593156.50933909 0 420593156.50933909 -654907061.40130806 0 0 0 0 -101761908.54505348 199762553.18799919 0 199762553.18799919 -439641028.6671257 0 0 0 0 -60741180.572563171 94454601.019948959 0 94454601.019948959 -374353589.67027879 0 0 0 0 3276808.2294158936 23283004.196722746 0 23283004.196722746 -209843172.15078735 0 0 0 0 29914871.513618469 74396582.103524685 0 74396582.103524685 -461801222.60791969 0 0 0 0 -52846324.091751099 224673426.53874493 0 224673426.53874493 -442259922.77389002 0 0 0 0 -8831789.6644210815 164392263.32219744 0 164392263.32219744 -411805231.10364532 0 0 0 0 5028291.1560821533 182556631.81979132 0 182556631.81979132 -452838272.94947433 0 0 0 0 -65403105.554473877 217363199.47581768 0 217363199.47581768 -430270906.54614305 0 0 0 0 -94051193.184688568 198177904.88582444 0 198177904.88582444 -361011537.34533501 0 0 0 0 -30875391.108383179 171647517.49172211 0 171647517.49172211 -369902888.0351429 0 0 0 0 -192531018.64317322 288346372.19583416 0 288346372.19583416 -433625081.7140339 0 0 0 0 -246244648.69885254 144216815.27501678 0 144216815.27501678 11365069.184902668 0 0 0 0 -2481219.9283610582 -456387.18948139995 0 -456387.18948139995 1283036.5902310619 0 0 0 0 53349564.492828369 10413800.335535049 0 10413800.335535049 -228034850.78049254 0 0 0 0 -185017276.93864059 -206564332.25253296 0 -206564332.25253296 -62179923.194368362 0 0 0 0 60070984.651138306 165713264.0527463 0 165713264.0527463 -144095100.47132206 0 0 0 0 57858777.805362701 77164530.105625868 0 77164530.105625868 -224718326.26484871 0 0 0 0 6928174.8161231577 1425037.3972043879 0 1425037.3972043879 -3333359.0303441528 0 0 0 0 -79794584.358215332 196244626.72029352 0 196244626.72029352 -360822368.27125609 0 0 0 0 -79264025.312866211 199282351.89377832 0 199282351.89377832 -343444241.85983849 0 0 0 0 -36307155.843063354 152979851.82178402 0 152979851.82178402 -358991337.3271904 0 0 0 0 -81401809.781570435 149014990.13892841 0 149014990.13892841 -200006162.90648967 0 0 0 0 -15780131.490158081 163025454.1366787 0 163025454.1366787 -399482139.84574366 0 0 0 0 -48270455.625091553 112041251.76022148 0 112041251.76022148 -254068294.80920315 0 0 0 0 -124107969.7963562 216183583.45747566 0 216183583.45747566 -363455467.67337608 0 0 0 0 -56973675.189376831 174541096.58986473 0 174541096.58986473 -379411245.63021088 0 0 0 0 -197991951.59902954 102358862.70380306 0 102358862.70380306 -407184491.85887527 0 0 0 0 -162861358.53729248 129282003.17987442 0 129282003.17987442 -391111262.93532372 0 0 0 0 -20438396.68454361 159767466.61508131 0 159767466.61508131 -497496760.70995331 0 0 0 0 -70203967.488723755 161359848.97766447 0 161359848.97766447 -350606402.47825241 0 0 0 0 -27550565.848861694 164987375.26948547 0 164987375.26948547 -430055505.91284561 0 0 0 0 -5182711.2402954102 170537283.92514992 0 170537283.92514992 -428682387.18956375 0 0 0 0 -5726926.0069885254 178323944.47053719 0 178323944.47053719 -427713986.71552181 0 0 0 0 -20987994.947463989 158563618.0899601 0 158563618.0899601 -431381764.38187027 0 0 0 0 -47548307.848007202 180890587.53857708 0 180890587.53857708 -356861121.39752197 0 0 0 0 -48370336.883270264 168508789.46446133 0 168508789.46446133 -361033731.11964417 0 0 0 0 -12107488.002593994 182339190.05096436 0 182339190.05096436 -381001952.279562 0 0 0 0 -42308002.994842529 106669484.56380367 0 106669484.56380367 -193668442.092556 0 0 0 0 -14146144.870193481 46275865.497016907 0 46275865.497016907 -135659416.22516632 0 0 0 0 1939766.2561798096 105950561.64177704 0 105950561.64177704 -389819611.877563 0 0 0 0 -82771658.113830566 125895240.41982651 0 125895240.41982651 -166026826.83603859 0 0 0 0 -49614304.885406494 76772359.138869286 0 76772359.138869286 -138553752.49981689 0 0 0 0 59467690.716400146 2525654.5146141052 0 2525654.5146141052 -97452167.96487999 0 0 0 0 382237.49752377905 -1654644.0609118491 0 -1654644.0609118491 -7968249.3580900747 0 0 0 0 9899302.3607254028 -23872977.91849041 0 -23872977.91849041 -80758024.840682983 0 0 0 0 12207473.348861694 -29475791.411364555 0 -29475791.411364555 -47138228.641952515 0 0 0 0 -91036062.953643799 67468228.968158722 0 67468228.968158722 -62862874.441076279 0 0 0 0 -120645505.5456543 195201988.99417305 0 195201988.99417305 -167678578.06616068 0 0 0 0 -248812782.59963989 85029449.324707031 0 85029449.324707031 73819990.718320847 0 0 0 0 -350007975.87258911 269260404.09729004 0 269260404.09729004 -126368884.31455994 0 0 0 0 -458151.97878205404 -753945.3703039512 0 -753945.3703039512 -1079010.6850102246 0 0 0 0 73520646.508354187 -148065992.82194757 0 -148065992.82194757 -284777829.63461304 0 0 0 0 -107845366.67802429 167642736.82372093 0 167642736.82372093 -199210316.23923492 0 0 0 0 -218872365.97009277 356428556.31209755 0 356428556.31209755 -346379698.64388275 0 0 0 0 -80827164.592208862 142849593.1259532 0 142849593.1259532 -676660529.97766876 0 0 0 0 -65745529.818725586 203695527.31075954 0 203695527.31075954 -431463856.50422668 0 0 0 0 -164213927.32339478 235762942.16141117 0 235762942.16141117 -387411380.48076439 0 0 0 0 -31552916.381961823 86528833.453183174 0 86528833.453183174 -148184868.81221771 0 0 0 0 44856084.033691406 87230715.222913742 0 87230715.222913742 -491269541.09853554 0 0 0 0 -101685400.07662964 -8556718.7038373947 0 -8556718.7038373947 -30898759.76307106 0 0 0 0 6487769.3230089396 -6170529.3461606018 0 -6170529.3461606018 -12303071.402641639 0 0 0 0 412638.80452057719 -2172348.2102573216 0 -2172348.2102573216 -3595099.4042255571 0 0 0 0 414497.19978809357 -924449.88912278414 0 -924449.88912278414 -4230280.6835422516 0 0 0 0 28701878.370483398 5533734.2848930359 0 5533734.2848930359 -43797376.36513114 0 0 0 0 14875924.942974091 -25171543.921241641 0 -25171543.921241641 -37685714.653320312 0 0 0 0 8116151.3515539467 -14046393.445946077 0 -14046393.445946077 -2808821.2989760898 0 0 0 0 6460243.3365478516 -12168802.747969627 0 -12168802.747969627 -37591091.753085285 0 0 0 0 1352546.2088863254 -1919258.9026839808 0 -1919258.9026839808 2188920.419120918 0 0 0 0 -20715877.502946854 11007432.350740552 0 11007432.350740552 -149182542.08335018 0 0 0 0 20095932.473213196 89518744.579468727 0 89518744.579468727 -278615844.85676193 0 0 0 0 -97617811.751083374 192714507.89777517 0 192714507.89777517 -304899366.55717945 0 0 0 0 -65936315.625595093 103662076.75349104 0 103662076.75349104 -215315583.94656754 0 0 0 0 -69528654.411148071 122996240.41757679 0 122996240.41757679 -239459936.44548416 0 0 0 0 -120545736.6312561 226035280.90827036 0 226035280.90827036 -336680421.06620836 0 0 0 0 -50038253.518539429 177739628.69048595 0 177739628.69048595 -365310095.41707706 0 0 0 0 -198471901.00360107 351060245.8585043 0 351060245.8585043 -392382121.25915408 0 0 0 0 -78806381.29132843 187149702.3893919 0 187149702.3893919 -335457397.04258823 0 0 0 0 -144730162.01464081 194467445.81159449 0 194467445.81159449 -229321085.19599438 0 0 0 0 -80112634.440963745 223468319.78684187 0 223468319.78684187 -261669553.5669384 0 0 0 0 -132256766.33591461 308013641.35651386 0 308013641.35651386 33932669.209849358 0 0 0 0 -90042824.377670288 352444264.18178868 0 352444264.18178868 -253795820.27481687 0 0 0 0 -106436901.32759094 227459857.55348301 0 227459857.55348301 609509629.59994698 0 0 0 0 -658244.42951965332 173444762.27065897 0 173444762.27065897 -808254563.83881474 0 0 0 0 -941729.80786593258 -98175.756667084992 0 -98175.756667084992 199294.36606669519 0 0 0 0 69457970.076675415 83732133.197468758 0 83732133.197468758 265790770.07227373 0 0 0 0 -131461425.31240845 352655211.18047833 0 352655211.18047833 261933236.66369724 0 0 0 0 43628492.58552742 100351779.06461722 0 100351779.06461722 94005198.545028687 0 0 0 0 42964555.451499939 129064069.56216332 0 129064069.56216332 229421303.53055954 0 0 0 0 -39760445.902946472 146607257.39699817 0 146607257.39699817 80384496.401477337 0 0 0 0 -26575234.326921463 199785547.313052 0 199785547.313052 -34548006.323811531 0 0 0 0 -8830891.1788673401 224011519.21324992 0 224011519.21324992 116614373.09936643 0 0 0 0 -21542657.12771225 65056510.603578597 0 65056510.603578597 204910671.71459782 0 0 0 0 97817260.15420723 133491456.88970295 0 133491456.88970295 -2584239.2044131756 0 0 0 0 101943149.28961945 148808622.27388489 0 148808622.27388489 42714603.001174986 0 0 0 0 104321710.42375183 -6225118.9880383611 0 -6225118.9880383611 -259147314.5703162 0 0 0 0 11655981.150970459 233165184.2763676 0 233165184.2763676 467177157.98421311 0 0 0 0 1048110.0834988058 -330463.74723608326 0 -330463.74723608326 -9909.3038286365481 0 0 0 0 1877639.5889550745 106436.14425893407 0 106436.14425893407 -12188.039383481468 0 0 0 0 -44723701.596336365 144188608.24418843 0 144188608.24418843 98087322.329633236 0 0 0 0 60653516.747924805 127890693.89419401 0 127890693.89419401 -52600672.525519371 0 0 0 0 54642570.428115845 104710446.95310497 0 104710446.95310497 103143061.77530575 0 0 0 0 -19430181.107410431 97846297.137305617 0 97846297.137305617 229691423.58018446 0 0 0 0 -7425365.6301574707 19169894.518642426 0 19169894.518642426 477944958.94254112 0 0 0 0 114223680.69487 56341065.930836678 0 56341065.930836678 18766048.264832735 0 0 0 0 96591208.624145508 196857446.81965208 0 196857446.81965208 216367396.08939075 0 0 0 0 38035209.418869019 23802524.586052895 0 23802524.586052895 254941887.59420109 0 0 0 0 -1076894.9547411203 1944092.9943678603 0 1944092.9943678603 -437139.7443452375 0 0 0 0 131069475.82711792 209554481.47310257 0 209554481.47310257 304716361.20983124 0 0 0 0 -41326085.037155151 115776881.70278549 0 115776881.70278549 -232223294.30186939 0 0 0 0 -623331.48066112399 736985.0057534948 0 736985.0057534948 -271797.43361127656 0 0 0 0 65306725.602005005 181619552.62542009 0 181619552.62542009 371983452.8414011 0 0 0 0 15825337.961322784 80640913.623690844 0 80640913.623690844 -298196772.88589287 0 0 0 0 -9579870.9692299068 1696305.8821051419 0 1696305.8821051419 1329209.6908378238 0 0 0 0 7787976.6634561568 3991587.8548434265 0 3991587.8548434265 -2442889.7842461308 0 0 0 0 -39138263.065719604 49071987.739984989 0 49071987.739984989 -199906107.10811859 0 0 0 0 -6212757.2741851807 100205227.0016923 0 100205227.0016923 -275939729.43126965 0 0 0 0 39578060.898483276 46471703.843693972 0 46471703.843693972 17732110.889306307 0 0 0 0 26952025.993606567 62962966.458726406 0 62962966.458726406 24512639.876373529 0 0 0 0 -143840026.24952698 -21458212.290141582 0 -21458212.290141582 97645856.602191448 0 0 0 0 -107813887.81123352 -98994327.005399466 0 -98994327.005399466 31064621.245238304 0 0 0 0 -76606078.507949829 -48883875.7451334 0 -48883875.7451334 47161140.360908508 0 0 0 0 -4002446.7126273513 -789158.5997714866 0 -789158.5997714866 791433.69268250163 0 0 0 0 -91039465.676696777 8560477.7387566566 0 8560477.7387566566 109152037.96347332 0 0 0 0 52975495.273952484 111299648.26264238 0 111299648.26264238 -81264170.433522224 0 0 0 0 -30679864.899726868 113436283.82160497 0 113436283.82160497 236111385.33179474 0 0 0 0 16574950.190353394 90093883.618673682 0 90093883.618673682 111909441.63158393 0 0 0 0 8127581.3703842163 75784016.499961495 0 75784016.499961495 109419326.42644525 0 0 0 0 11420118.931632996 178874351.80881253 0 178874351.80881253 21161280.115369096 0 0 0 0 208285967.48391724 140076782.62246215 0 140076782.62246215 -332942189.89027935 0 0 0 0 141360973.12561035 38369270.553437322 0 38369270.553437322 -265648942.0889824 0 0 0 0 -42675460.411369324 25359089.70849736 0 25359089.70849736 787344.00309583172 0 0 0 0 974445.29662203789 -377942.95482246857 0 -377942.95482246857 -72730.635828984086 0 0 0 0 -43766037.528476715 52358169.138801932 0 52358169.138801932 256212249.88642049 0 0 0 0 -58153158.698150635 212362057.20615661 0 212362057.20615661 429483465.0611164 0 0 0 0 201409074.19153595 -63566173.137175083 0 -63566173.137175083 215757992.65214372 0 0 0 0 -1129494.8167980462 3487916.0207648799 0 3487916.0207648799 -2314092.7166814739 0 0 0 0 218900254.40684509 74377235.814373732 0 74377235.814373732 170455437.57893181 0 0 0 0 112900880.11508179 173836761.83331698 0 173836761.83331698 -122511554.95151031 0 0 0 0 207825253.54927063 108488093.33868742 0 108488093.33868742 -175933871.70479277 0 0 0 0 137511548.97598267 103113132.30274677 0 103113132.30274677 -35316615.276396364 0 0 0 0 199796533.59884644 129315991.38963446 0 129315991.38963446 -52200966.558652997 0 0 0 0 -895192.66613191366 3038105.9230636656 0 3038105.9230636656 -1184617.9191848177 0 0 0 0 -10097.462921142578 5335697.7796732187 0 5335697.7796732187 -1556047.3580527306 0 0 0 0 -786.09931945800781 6315512.3887183666 0 6315512.3887183666 -1578722.0777955055 0 0 0 0 2708128.7523040771 6483389.7710422277 0 6483389.7710422277 -2482028.5214214325 0 0 0 0 2095550.7658233643 5638657.1611828804 0 5638657.1611828804 -1605843.5084125996 0 0 0 0 1205727.8342514038 7352401.2403161526 0 7352401.2403161526 -2317002.6632041931 0 0 0 0 -66293190.597045898 361907385.23160982 0 361907385.23160982 121438432.51988757 0 0 0 0 -530458673.13327026 -262088969.77228045 0 -262088969.77228045 460917706.31225014 0 0 0 0 -34540243.970062256 12588951.005941391 0 12588951.005941391 44613037.698604584 0 0 0 0 19092669.078155518 149654138.48182011 0 149654138.48182011 -108488380.10147858 0 0 0 0 -301977192.63882446 544254539.37697315 0 544254539.37697315 -507851910.35526276 0 0 0 0 -26138711.075515747 -49810503.718834877 0 -49810503.718834877 39060412.295570374 0 0 0 0 55000021.260803223 94172675.002641678 0 94172675.002641678 -74918409.130321503 0 0 0 0 -1806119.0664251409 3955767.4868754968 0 3955767.4868754968 -1635097.7553556953 0 0 0 0 -34944522.113861084 -19652484.50147438 0 -19652484.50147438 58942016.512733936 0 0 0 0 32754663.701065063 -25625963.300474167 0 -25625963.300474167 26553347.267003059 0 0 0 0 -65892376.458099365 22159112.677770138 0 22159112.677770138 4699698.8761692047 0 0 0 0 -239118.2954980284 453705.91860314459 0 453705.91860314459 187286.62381856889 0 0 0 0 12830528.5105896 2800381.9029426575 0 2800381.9029426575 1761298.8496627808 0 0 0 0 84246141.803466797 24210739.748882294 0 24210739.748882294 -54865890.939430237 0 0 0 0 47640.678230285645 48219394.211442471 0 48219394.211442471 -1633192.7069363594 0 0 0 0 -1323801.1374062747 -1295421.0315387659 0 -1295421.0315387659 950255.75931378826 0 0 0 0 4480190.1363983154 1057536.6902415752 0 1057536.6902415752 -11370119.373825073 0 0 0 0 -6412535.8093643188 42170877.788694859 0 42170877.788694859 28992772.691801548 0 0 0 0 202335687.26700592 -79445452.765670121 0 -79445452.765670121 -120373972.63418078 0 0 0 0 -53045154.636703491 37468036.276372194 0 37468036.276372194 -194589646.92385238 0 0 0 0 249483642.55479431 -64772910.33825469 0 -64772910.33825469 -208788869.29646206 0 0 0 0 310629556.85906982 -204454115.58632976 0 -204454115.58632976 -124716261.2236208 0 0 0 0 306028537.67720032 -87553870.491174221 0 -87553870.491174221 -177577841.45545363 0 0 0 0 349632732.0761261 -192342120.97313428 0 -192342120.97313428 -62122514.075900473 0 0 0 0 308520752.97631836 41707557.413210951 0 41707557.413210951 -62765545.839055389 0 0 0 0 251071437.77468109 111186792.566921 0 111186792.566921 -211183931.81780243 0 0 0 0 167797262.16647339 -37183770.167150974 0 -37183770.167150974 -105063948.96346736 0 0 0 0 97913436.787887573 244952823.96395016 0 244952823.96395016 -117805665.04338884 0 0 0 0 128180685.67575836 263636080.48631012 0 263636080.48631012 -143874492.84003806 0 0 0 0 221310281.75778198 145981655.02578175 0 145981655.02578175 -58580770.780780628 0 0 0 0 107676252.05387878 287841812.54357207 0 287841812.54357207 -4415767.1744222939 0 0 0 0 148803469.56581116 251137378.56867504 0 251137378.56867504 -286347672.6035943 0 0 0 0 7708809.7661132812 294210742.39407885 0 294210742.39407885 -144237413.92150259 0 0 0 0 -497323.76820373535 314006012.60852623 0 314006012.60852623 -279635239.09023714 0 0 0 0 -73843182.807510376 414117919.84687328 0 414117919.84687328 -395740946.81106424 0 0 0 0 26401620.845855713 30750060.175337315 0 30750060.175337315 -122023656.05816716 0 0 0 0 79821673.423141479 198845800.42710757 0 198845800.42710757 -248658175.50137246 0 0 0 0 -8956956.6325073242 170067863.99917531 0 170067863.99917531 -250768256.59606838 0 0 0 0 9438709.6777801514 41512350.183586717 0 41512350.183586717 -382079449.71183538 0 0 0 0 -192750253.8751297 310709439.99170423 0 310709439.99170423 -339469498.98045778 0 0 0 0 -180286174.68128967 348427499.83394766 0 348427499.83394766 -836363897.02913713 0 0 0 0 -321476801.70604706 242560491.92974269 0 242560491.92974269 -375822008.77331257 0 0 0 0 -21992947.371025562 442975568.06588858 0 442975568.06588858 -380417632.40059471 0 0 0 0 -307684863.57035828 169965724.9886899 0 169965724.9886899 -476136512.01280308 0 0 0 0 -357590970.16358948 484813193.15077543 0 484813193.15077543 -348164640.37611675 0 0 0 0 -150706934.31126404 594771050.74758911 0 594771050.74758911 -403351446.76571655 0 0 0 0 242731946.82413483 -78984445.734478712 0 -78984445.734478712 -243365289.00876713 0 0 0 0 -144732244.23348999 264061359.78641677 0 264061359.78641677 -539623647.15070152 0 0 0 0 -647811.69717492163 -1326006.0177022815 0 -1326006.0177022815 -1245189.6504531559 0 0 0 0 -952164167.68667603 778453423.9002943 0 778453423.9002943 -438424862.8487587 0 0 0 0 -643243000.67242432 717344663.66845894 0 717344663.66845894 -726349142.88534546 0 0 0 0 -306312868.74886322 359470558.8634789 0 359470558.8634789 -508983283.03735542 0 0 0 0 -895610010.23544693 460315181.41280442 0 460315181.41280442 -287950157.33132172 0 0 0 0 -126486015.80752563 210336826.2830677 0 210336826.2830677 -380253838.32187736 0 0 0 0 -143361333.88562775 198530334.79689348 0 198530334.79689348 -204712212.4759779 0 0 0 0 85169571.174804688 108670637.79104257 0 108670637.79104257 -341300456.93108988 0 0 0 0 -341208140.30207825 342989535.71104097 0 342989535.71104097 -395775930.55930901 0 0 0 0 -73450014.170562744 113815958.38498116 0 113815958.38498116 -458219221.99051476 0 0 0 0 168389348.84391785 -15046695.066605568 0 -15046695.066605568 -319771002.39703321 0 0 0 0 -106282492.8360939 106031139.51035249 0 106031139.51035249 -221411794.02686882 0 0 0 0 136268496.14797974 -105462697.01635146 0 -105462697.01635146 -109065000.62986994 0 0 0 0 264570267.60153198 -13217480.819635868 0 -13217480.819635868 -227931535.72739244 0 0 0 0 61671260.28302002 44191499.996175289 0 44191499.996175289 -83941948.621853352 0 0 0 0 205639706.24973679 110071838.59896314 0 110071838.59896314 -228702302.27528667 0 0 0 0 186701858.28875732 48607589.224909008 0 48607589.224909008 67521824.663764954 0 0 0 0 429860667.69075012 -70605862.503537178 0 -70605862.503537178 -111751990.02811861 0 0 0 0 453727690.42582703 -14249331.272839069 0 -14249331.272839069 -11500109.788216591 0 0 0 0 633703443.85946655 -170533830.03035164 0 -170533830.03035164 82683797.552545547 0 0 0 0 763291059.3944397 -63567230.141571045 0 -63567230.141571045 -6938835.8409461975 0 0 0 0 363014809.31076431 52884994.366774321 0 52884994.366774321 154837446.50684547 0 0 0 0 1146128745.368454 -87995667.300126076 0 -87995667.300126076 -58037691.616084099 0 0 0 0 1186384247.6472168 -150019202.57934189 0 -150019202.57934189 23482568.926025391 0 0 0 0 806149993.79590607 68434926.877961278 0 68434926.877961278 148411389.08909798 0 0 0 0 505707.15597483702 -4565304.9261092171 0 -4565304.9261092171 738520.30693297461 0 0 0 0 -43132316.013131142 12783198.270176083 0 12783198.270176083 67155364.734097481 0 0 0 0 113160.26653335989 -190673.86861293484 0 -190673.86861293484 -756404.2321508982 0 0 0 0 625291341.28729248 -65649004.415902138 0 -65649004.415902138 185297611.48680675 0 0 0 0 1133442630.1107178 166748615.51067924 0 166748615.51067924 -22740366.619932055 0 0 0 0 3536362.3123986386 957270.22788449377 0 957270.22788449377 -21427078.70511575 0 0 0 0 736681383.85062408 -38309130.451455235 0 -38309130.451455235 -86952567.787093878 0 0 0 0 674273597.70992661 18249059.330447853 0 18249059.330447853 -79262510.491211891 0 0 0 0 59568055.082969666 -20943969.27964735 0 -20943969.27964735 -54307040.273870468 0 0 0 0 317251051.10560226 -164810193.73153007 0 -164810193.73153007 -51758762.245817661 0 0 0 0 264076896.93422091 -89212136.809307307 0 -89212136.809307307 -28678176.216444016 0 0 0 0 442000272.42675781 -63742694.941911697 0 -63742694.941911697 -125113234.88257957 0 0 0 0 511726139.33933258 -164537870.44793367 0 -164537870.44793367 -45037745.649485588 0 0 0 0 -6702866.8702392578 -11903756.752477646 0 -11903756.752477646 -14299401.410056114 0 0 0 0 46571114.092910767 -33289379.862720966 0 -33289379.862720966 -19591107.076938987 0 0 0 0 8085732.1879249066 -13689970.443525393 0 -13689970.443525393 -1022143.9710274045 0 0 0 0 16237166.320800781 -22256366.126953125 0 -22256366.126953125 -4508479.1868200302 0 0 0 0 -6178105.3167014122 -35724354.400360055 0 -35724354.400360055 23221273.191263199 0 0 0 0 -7710620.185333252 -10862841.937400818 0 -10862841.937400818 18243013.076420426 0 0 0 0 2283028.2072753906 -47034076.037581921 0 -47034076.037581921 -39017495.032196045 0 0 0 0 -59214537.647689819 108678547.67215443 0 108678547.67215443 -213164472.7080183 0 0 0 0 -27784846.004371643 39404770.112935543 0 39404770.112935543 -74739519.250375748 0 0 0 0 -6609292.2260971069 40993302.349581242 0 40993302.349581242 -107732387.86928129 0 0 0 0 43460688.97769165 58404918.71604538 0 58404918.71604538 -100593829.90901375 0 0 0 0 7616507.0758972168 -7937432.4562200308 0 -7937432.4562200308 1644098.4416503906 0 0 0 0 -63270297.933380127 59155864.148353338 0 59155864.148353338 -6396991.9758052826 0 0 0 0 -102898869.96001434 174040765.18530416 0 174040765.18530416 -160078753.41331458 0 0 0 0 -75316045.535827637 199202518.77954102 0 199202518.77954102 -144553649.91237068 0 0 0 0 422853373.00182343 -160146602.58584464 0 -160146602.58584464 -113893115.30514824 0 0 0 0 438168245.55278587 -105346100.64213233 0 -105346100.64213233 -65787214.741191864 0 0 0 0 556219.9699384775 2722419.400347881 0 2722419.400347881 -15287559.313590329 0 0 0 0 423360303.34086609 -81665217.000840187 0 -81665217.000840187 -5680083.5983228087 0 0 0 0 313988238.46233368 -93091780.245891869 0 -93091780.245891869 -38155420.809734374 0 0 0 0 306203803.4126358 -181519483.23575896 0 -181519483.23575896 -40379899.462628782 0 0 0 0 316009389.22567749 -180214287.2101751 0 -180214287.2101751 -40990119.866093874 0 0 0 0 -182322.90170981921 1788318.6747242436 0 1788318.6747242436 -8661592.360259315 0 0 0 0 97704595.44304657 -130674918.75541437 0 -130674918.75541437 61008396.523917317 0 0 0 0 117577664.06887436 -11381073.754099965 0 -11381073.754099965 -56696865.819917917 0 0 0 0 -91506801.566902161 17598984.414947629 0 17598984.414947629 170944222.08618069 0 0 0 0 -372727.26765042264 936793.94986981153 0 936793.94986981153 -2606606.5564647447 0 0 0 0 198622819.91964722 -169072361.99601293 0 -169072361.99601293 203650730.95501399 0 0 0 0 265756322.91931152 -94281133.522455901 0 -94281133.522455901 121305316.20359969 0 0 0 0 -136291245.36535645 277534819.94371819 0 277534819.94371819 -124777302.67387611 0 0 0 0 -187005725.3950758 147284323.88995621 0 147284323.88995621 -67477470.766835213 0 0 0 0 -777171519.13822174 215792697.13068891 0 215792697.13068891 99459266.948137045 0 0 0 0 -325526475.00006866 117153998.03725529 0 117153998.03725529 -45229860.777142763 0 0 0 0 -233704342.46883011 325703902.28145427 0 325703902.28145427 -19331287.033062935 0 0 0 0 -116736076.42482758 180290155.73910296 0 180290155.73910296 100421945.0093646 0 0 0 0 -107128254.26218414 194533362.71626264 0 194533362.71626264 -103740415.35258317 0 0 0 0 -373732761.24673462 367562132.00977957 0 367562132.00977957 -63105794.543190718 0 0 0 0 -135469431.68605804 98075073.032522351 0 98075073.032522351 34104895.954286695 0 0 0 0 -413025832.37123108 258618103.44687697 0 258618103.44687697 436172215.72842294 0 0 0 0 -171077666.54711151 147341709.70078355 0 147341709.70078355 366969145.42017514 0 0 0 0 146226173.65138245 -16607230.966967463 0 -16607230.966967463 496414097.55215573 0 0 0 0 105654226.85197449 108870447.84787333 0 108870447.84787333 148043977.37776867 0 0 0 0 172637181.8475647 226324158.70956963 0 226324158.70956963 279463432.21681809 0 0 0 0 52322568.159816742 15734317.425150692 0 15734317.425150692 15232988.967695236 0 0 0 0 -98879770.046398163 571533281.61796677 0 571533281.61796677 107686330.65634918 0 0 0 0 -56507220.516975403 410106501.16897589 0 410106501.16897589 693606514.98324203 0 0 0 0 -21200568.147223473 430628110.12030274 0 430628110.12030274 930876633.31631136 0 0 0 0 283540859.22431183 348194899.76035774 0 348194899.76035774 658945700.58656836 0 0 0 0 393471234.29696655 74473033.762879133 0 74473033.762879133 1339972604.9174178 0 0 0 0 513233619.44957733 687954632.91203737 0 687954632.91203737 883214473.57007504 0 0 0 0 709130453.20050812 217604479.24506688 0 217604479.24506688 1044769442.0819077 0 0 0 0 564909883.5253067 5943969.109564662 0 5943969.109564662 491480041.0103364 0 0 0 0 663961333.67613983 -267320101.9542768 0 -267320101.9542768 1172036776.7358046 0 0 0 0 228984691.2980957 24189325.500614405 0 24189325.500614405 969608326.70918632 0 0 0 0 389387614.77526855 -207436637.05177456 0 -207436637.05177456 223462176.05077791 0 0 0 0 401575069.52723694 -78453443.929469764 0 -78453443.929469764 271525197.0022006 0 0 0 0 572556939.92851257 -277780145.96069765 0 -277780145.96069765 499491175.30032158 0 0 0 0 706898575.05399323 29995453.968374193 0 29995453.968374193 280082259.83896971 0 0 0 0 620122174.39385986 -102262861.16742754 0 -102262861.16742754 175532071.63719201 0 0 0 0 484116367.75016558 15834158.510756163 0 15834158.510756163 74252939.26342535 0 0 0 0 488424198.73260844 -243866445.1541943 0 -243866445.1541943 129435473.83520865 0 0 0 0 355020887.51399231 -124973454.31419757 0 -124973454.31419757 27448237.625775278 0 0 0 0 349132551.58966064 -243126286.82201141 0 -243126286.82201141 34750412.323013127 0 0 0 0 244815675.47286224 335955024.93372548 0 335955024.93372548 244364223.50758553 0 0 0 0 381326409.11528015 213242186.8958559 0 213242186.8958559 111744215.50286178 0 0 0 0 243104578.17408752 304505355.93403333 0 304505355.93403333 139940759.61694717 0 0 0 0 99129168.648284912 315130531.36151814 0 315130531.36151814 142204601.68404794 0 0 0 0 223597966.97867584 239347064.59739047 0 239347064.59739047 110560873.80451965 0 0 0 0 245558665.73828125 233552121.97887471 0 233552121.97887471 5247819.471241653 0 0 0 0 360273887.73355103 198448326.06768548 0 198448326.06768548 -38963580.526331365 0 0 0 0 472165797.31100464 -55718937.600864053 0 -55718937.600864053 -18780973.727319598 0 0 0 0 282338495.62300873 120377083.74760965 0 120377083.74760965 78250457.758865595 0 0 0 0 362566569.11135101 236501904.57363379 0 236501904.57363379 252490837.48459578 0 0 0 0 555229247.5032959 83146895.82034111 0 83146895.82034111 83325550.962176561 0 0 0 0 580645604.27613831 196770918.27784872 0 196770918.27784872 252915903.81171274 0 0 0 0 571057120.37481689 136139949.50922012 0 136139949.50922012 188311516.98669767 0 0 0 0 790904099.24505615 5457361.73290205 0 5457361.73290205 259346791.6895895 0 0 0 0 667437764.1885376 -34751628.41059494 0 -34751628.41059494 505386093.54063272 0 0 0 0 665366457.12930298 326946755.60862064 0 326946755.60862064 451847711.38676453 0 0 0 0 496474448.44920349 449403507.07741666 0 449403507.07741666 440810876.56153059 0 0 0 0 276471792.89732361 444910451.33001423 0 444910451.33001423 616973849.96944904 0 0 0 0 367410012.00979614 286971482.37314427 0 286971482.37314427 254757759.08481884 0 0 0 0 193110523.98836517 355524782.4662044 0 355524782.4662044 348920028.58640194 0 0 0 0 191922462.59870148 367363721.18036032 0 367363721.18036032 546219489.73624325 0 0 0 0 582519949.72840881 642187758.17564082 0 642187758.17564082 1047235520.8286543 0 0 0 0 461443098.1366272 386776519.34691525 0 386776519.34691525 604712077.68826437 0 0 0 0 100591905.74171448 350265574.68984413 0 350265574.68984413 1048273673.1641598 0 0 0 0 1195231693.036377 -25349700.335393906 0 -25349700.335393906 504599848.93634105 0 0 0 0 1104477162.2258759 254614307.08372021 0 254614307.08372021 462644782.76065063 0 0 0 0 2029838458.6233826 -111002610.4994936 0 -111002610.4994936 777682492.94864619 0 0 0 0 945253837.14971161 134629934.71918416 0 134629934.71918416 744866905.88538647 0 0 0 0 -112491309.72717285 106571596.14265871 0 106571596.14265871 1387102368.3125 0 0 0 0 830477363.44400787 -226242836.39948177 0 -226242836.39948177 2448134339.1920681 0 0 0 0 875873378.3715744 855970892.82522106 0 855970892.82522106 1886412412.6252098 0 0 0 0 1697779627.765152 982313283.94599581 0 982313283.94599581 1329536053.4012938 0 0 0 0 32632546.981796265 272697539.6896925 0 272697539.6896925 1268708039.141798 0 0 0 0 410042490.9042511 214739478.58200073 0 214739478.58200073 1167286303.3240738 0 0 0 0 389809652.37612915 303670400.28023243 0 303670400.28023243 905644739.44096231 0 0 0 0 -45689502.76776123 -228443137.13014698 0 -228443137.13014698 1249844951.825901 0 0 0 0 -8322815.7573547363 -91676451.301924706 0 -91676451.301924706 758798065.92128563 0 0 0 0 -141074705.89862061 55102605.51261425 0 55102605.51261425 901598544.77938557 0 0 0 0 -42374001.821296692 -164304162.1076479 0 -164304162.1076479 722323088.35110092 0 0 0 0 -10535249.371574402 83421420.082879066 0 83421420.082879066 809043274.50675201 0 0 0 0 -186597509.76353455 200989336.95571804 0 200989336.95571804 685980873.11542618 0 0 0 0 -130238211.03842926 55388489.848077297 0 55388489.848077297 625371248.71857643 0 0 0 0 -201924086.18531799 96329711.337251663 0 96329711.337251663 504097371.06928635 0 0 0 0 -202469491.44718933 94289626.786860466 0 94289626.786860466 499046666.24638033 0 0 0 0 -256769858.40327454 206551982.04022622 0 206551982.04022622 510294412.7621069 0 0 0 0 -193473584.68162537 28273787.726474285 0 28273787.726474285 663261568.86222267 0 0 0 0 -225144207.67325592 148795366.4951663 0 148795366.4951663 615630081.40288067 0 0 0 0 -255973264.8430481 271517472.08902693 0 271517472.08902693 584295314.20226097 0 0 0 0 -214123036.5690155 293638165.06260729 0 293638165.06260729 591563800.39081383 0 0 0 0 -135888959.21060181 252915662.7542882 0 252915662.7542882 542890267.67011642 0 0 0 0 -96057328.101821899 340631464.64413691 0 340631464.64413691 735800316.23188162 0 0 0 0 -17434598.326858521 256114157.38270998 0 256114157.38270998 657206974.3109026 0 0 0 0 101010380.14640236 345529615.33338833 0 345529615.33338833 705320118.05622101 0 0 0 0 -98426923.536743164 256219814.6973362 0 256219814.6973362 969996614.80732346 0 0 0 0 -128200753.92965698 162231920.78777218 0 162231920.78777218 674593777.57427597 0 0 0 0 -59879967.476038933 250265424.79560262 0 250265424.79560262 371283585.69343948 0 0 0 0 -196039242.9163208 289516369.76184082 0 289516369.76184082 369700815.76823747 0 0 0 0 -291591758.06464386 199370705.1123333 0 199370705.1123333 527918691.47467661 0 0 0 0 -305167718.32104492 288634199.98755431 0 288634199.98755431 472347566.91829681 0 0 0 0 -250697660.86201477 284412246.40928221 0 284412246.40928221 435797642.71649623 0 0 0 0 -251011998.50336456 340164773.66481304 0 340164773.66481304 514016500.0277338 0 0 0 0 -125335600.46074677 347768407.03691006 0 347768407.03691006 414936249.55864811 0 0 0 0 -126919368.10203552 389203691.67661262 0 389203691.67661262 299435571.1277771 0 0 0 0 -322258350.9505291 516913295.47283363 0 516913295.47283363 578689482.33993053 0 0 0 0 -449418121.88005066 236063354.03822923 0 236063354.03822923 482092110.2756021 0 0 0 0 -288373366.83644104 366314485.84063005 0 366314485.84063005 238406727.65515521 0 0 0 0 -275319690.56474304 253074532.87953591 0 253074532.87953591 227424327.48414183 0 0 0 0 -302653202.2566452 267771974.74496007 0 267771974.74496007 432669278.60401726 0 0 0 0 -240541228.28089905 328710926.98929209 0 328710926.98929209 140762088.580158 0 0 0 0 -244653270.18005371 432298800.87308514 0 432298800.87308514 94039507.91642952 0 0 0 0 -218983282.09851837 379218491.86621571 0 379218491.86621571 2205947.6012189388 0 0 0 0 -236954123.88937378 402348943.31775594 0 402348943.31775594 57085717.803980723 0 0 0 0 -313859126.07720006 267271486.80092272 0 267271486.80092272 -13316392.839491367 0 0 0 0 -314313375.95729828 277659625.44900393 0 277659625.44900393 72134370.118935227 0 0 0 0 -85894573.009063721 377211672.93466341 0 377211672.93466341 392780467.47059637 0 0 0 0 -70043538.06942749 388047168.59512591 0 388047168.59512591 262694454.89066625 0 0 0 0 20639827.947914124 427865119.29011345 0 427865119.29011345 614449561.39210606 0 0 0 0 -21858663.736999512 325114155.45023727 0 325114155.45023727 366025242.33776999 0 0 0 0 -150588982.2241745 361922079.38618827 0 361922079.38618827 612166873.1102457 0 0 0 0 -164420935.40113068 293682452.73488259 0 293682452.73488259 396400617.3749485 0 0 0 0 -182182482.82617188 336336945.90044975 0 336336945.90044975 293852270.73196864 0 0 0 0 -225140711.38128662 346000736.90335941 0 346000736.90335941 437774246.67160869 0 0 0 0 -168763366.13384724 332514013.83413088 0 332514013.83413088 232383974.34178805 0 0 0 0 -163550275.15432739 414625944.44351506 0 414625944.44351506 151460587.55982029 0 0 0 0 -263545202.68832397 352210962.81321788 0 352210962.81321788 305935186.35833585 0 0 0 0 -251009272.73782349 440540516.48914027 0 440540516.48914027 51315946.947187781 0 0 0 0 -214042906.44686508 356489129.17499763 0 356489129.17499763 99767686.54832375 0 0 0 0 -88452025.338150024 404682168.79686153 0 404682168.79686153 94689197.797268987 0 0 0 0 -48706894.090202332 309076829.70450902 0 309076829.70450902 51695567.999190748 0 0 0 0 53873808.503265381 362871032.57940042 0 362871032.57940042 366125219.70574033 0 0 0 0 53358723.647003174 326970295.49851489 0 326970295.49851489 193767054.04803753 0 0 0 0 109986744.60042572 290844005.09995961 0 290844005.09995961 17039448.869532585 0 0 0 0 -25946346.997177124 373413333.16076618 0 373413333.16076618 197350252.17394841 0 0 0 0 -10528596.102157593 317143184.55274415 0 317143184.55274415 18612758.350419864 0 0 0 0 6593401.9977035522 308924486.76431358 0 308924486.76431358 -118572065.99531531 0 0 0 0 -115217110.80459595 356087139.87772679 0 356087139.87772679 41267389.577618778 0 0 0 0 -98698991.794502258 368538344.94013274 0 368538344.94013274 -66114607.390557051 0 0 0 0 -87771958.790603638 323813852.76063287 0 323813852.76063287 -255289662.19830751 0 0 0 0 31236032.443511963 303601786.59064007 0 303601786.59064007 -313188035.92597103 0 0 0 0 -112856242.34130859 312948056.9675746 0 312948056.9675746 -118318752.8675579 0 0 0 0 19373691.809286118 409849755.95151424 0 409849755.95151424 -495688594.727314 0 0 0 0 -37131695.333435059 308484778.67810202 0 308484778.67810202 -306886992.73437333 0 0 0 0 -29742707.490707397 304182357.64262462 0 304182357.64262462 -480236261.02824497 0 0 0 0 -257679433.70860291 294801712.82153201 0 294801712.82153201 -259420484.72454357 0 0 0 0 74114020.020263672 365577971.43428707 0 365577971.43428707 -684249373.68633986 0 0 0 0 -117252209.04763794 259991346.856493 0 259991346.856493 -500310512.90857935 0 0 0 0 -148604762.62668991 154490406.85643542 0 154490406.85643542 -695830939.94124413 0 0 0 0 -5028893.1899719238 246177619.77383614 0 246177619.77383614 -698794843.46421981 0 0 0 0 -5833322.8127746582 257167559.48919106 0 257167559.48919106 -789924403.67133999 0 0 0 0 77498041.16784668 417297653.76988649 0 417297653.76988649 -505470123.32585621 0 0 0 0 -413905632.84554672 346994159.38382578 0 346994159.38382578 -569337960.32703209 0 0 0 0 -464728255.9907341 491082215.51327014 0 491082215.51327014 -464202425.62053108 0 0 0 0 -199105441.70690918 461099057.88607788 0 461099057.88607788 -743952150.33935165 0 0 0 0 -264318607.38458252 450086602.66143608 0 450086602.66143608 -745583979.94770193 0 0 0 0 -990038939.80943298 602022285.27616978 0 602022285.27616978 -651392665.24942279 0 0 0 0 -368718764.58758545 441585330.80992126 0 441585330.80992126 -484318319.17582035 0 0 0 0 -221900478.91000366 284079879.19542789 0 284079879.19542789 -373428243.05239463 0 0 0 0 -542110776.83799744 252371805.25760269 0 252371805.25760269 -374980298.77747631 0 0 0 0 -402695454.87286377 375532492.51653624 0 375532492.51653624 -210837132.38005924 0 0 0 0 -287485019.48049927 453660519.03241634 0 453660519.03241634 -321796698.51592779 0 0 0 0 -428024090.6254425 392167001.72933006 0 392167001.72933006 -342756196.19571114 0 0 0 0 -272755447.08229065 456546139.68396807 0 456546139.68396807 -460219113.36437035 0 0 0 0 -290852735.82043457 383689306.9256649 0 383689306.9256649 -220776082.22379065 0 0 0 0 -238538855.56986618 430926748.83655977 0 430926748.83655977 -127265857.77148151 0 0 0 0 -296871380.97933388 455760403.18841028 0 455760403.18841028 -134573459.98989534 0 0 0 0 -231421299.81643677 306840776.4643997 0 306840776.4643997 -93056936.92920804 0 0 0 0 -221334860.55982971 407143414.53744233 0 407143414.53744233 -132983737.9397459 0 0 0 0 -274061353.9940834 340609540.54946578 0 340609540.54946578 -202572423.70336342 0 0 0 0 -194313272.83886719 342498442.44977498 0 342498442.44977498 59919303.235516667 0 0 0 0 -166220805.73444366 396098525.71879637 0 396098525.71879637 -9175991.6221399307 0 0 0 0 -258466126.77932739 361227766.42049491 0 361227766.42049491 -20026804.566415548 0 0 0 0 -239542229.79623413 380413684.01896501 0 380413684.01896501 -9631757.3287217617 0 0 0 0 -238971914.32557678 460762062.32724285 0 460762062.32724285 -64017390.295802116 0 0 0 0 -170014029.60214233 384921599.90770674 0 384921599.90770674 -146652122.51183343 0 0 0 0 -155715879.58150482 391702890.14319301 0 391702890.14319301 -216710154.60689545 0 0 0 0 -277589084.13601685 323615237.584086 0 323615237.584086 -76493370.18883431 0 0 0 0 -120645579.91848755 318319991.59902978 0 318319991.59902978 -79952197.590460837 0 0 0 0 297115.87228918076 61822390.795191303 0 61822390.795191303 -25738128.738175869 0 0 0 0 -17292379.673965454 225768273.4478507 0 225768273.4478507 -328208281.56604624 0 0 0 0 -44605945.805114746 186503807.64563036 0 186503807.64563036 -287419737.13527489 0 0 0 0 -225903749.93552399 465559608.85455704 0 465559608.85455704 -321820484.16921616 0 0 0 0 -101614633.866745 378284969.46703768 0 378284969.46703768 -374892966.94430828 0 0 0 0 -232379745.19551849 457289228.79916549 0 457289228.79916549 -211756635.70920181 0 0 0 0 -284979791.07519531 447968521.12924194 0 447968521.12924194 -306042996.99215078 0 0 0 0 -114024297.22106934 343268716.56501245 0 343268716.56501245 -201223325.0491755 0 0 0 0 -149453064.62823486 445707415.31040668 0 445707415.31040668 -467457413.80198097 0 0 0 0 -199485533.53713989 428038449.52176285 0 428038449.52176285 -459430763.5159626 0 0 0 0 3670594.7270507812 218143493.82270622 0 218143493.82270622 -602027488.03551483 0 0 0 0 99482463.146850586 169216756.21643829 0 169216756.21643829 -738089248.39911842 0 0 0 0 -123246014.49061584 470640933.13162136 0 470640933.13162136 -1058258335.2567253 0 0 0 0 -16949236.659423828 257757304.6421032 0 257757304.6421032 -632826822.88174057 0 0 0 0 105418980.58709717 232393111.59950018 0 232393111.59950018 -1061694950.8759384 0 0 0 0 113636485.14456177 218808161.2447319 0 218808161.2447319 -1055593836.1870804 0 0 0 0 47530037.3344431 30718670.580025475 0 30718670.580025475 7418862.9149671309 0 0 0 0 43540331.823505402 39546368.314626694 0 39546368.314626694 45441824.455537796 0 0 0 0 56796105.731014252 36597350.163198471 0 36597350.163198471 29969108.570404053 0 0 0 0 52173155.797851562 45675675.388763428 0 45675675.388763428 31545855.83612442 0 0 0 0 70437457.975420952 46811774.634726048 0 46811774.634726048 -60245053.773757935 0 0 0 0 70701990.971427917 40647897.828603745 0 40647897.828603745 16386515.244159698 0 0 0 0 10177320.658363342 111323835.49151516 0 111323835.49151516 21517462.585170746 0 0 0 0 49015643.044166565 68911454.965255737 0 68911454.965255737 -8530291.673784256 0 0 0 0 49719692.474658966 174358010.54966927 0 174358010.54966927 62752737.465297699 0 0 0 0 41991674.430526733 36370678.196601868 0 36370678.196601868 39848291.963737488 0 0 0 0 29974046.743530273 48942511.323001862 0 48942511.323001862 36327785.461410522 0 0 0 0 24080475.882904053 51231197.231416702 0 51231197.231416702 32875341.31223011 0 0 0 0 18246315.010375977 30071812.799808502 0 30071812.799808502 58974626.083246231 0 0 0 0 47462914.769563675 17837370.386771679 0 17837370.386771679 43538038.61725235 0 0 0 0 130282707.262146 -444532820.26239157 0 -444532820.26239157 -217241830.26347166 0 0 0 0 226439916.57196426 239984211.81789857 0 239984211.81789857 -138427559.16979456 0 0 0 0 -122573731.18243408 365927437.56992388 0 365927437.56992388 -91745533.289461136 0 0 0 0 3715397.3019375801 2978131.6497978792 0 2978131.6497978792 2094481.0586151285 0 0 0 0 -125960246.5375061 562546288.96464729 0 562546288.96464729 -370914557.68532848 0 0 0 0 26085895.969726562 819513107.01226139 0 819513107.01226139 36915921.968532085 0 0 0 0 173622226.66287231 725084897.45895338 0 725084897.45895338 -428087861.05437326 0 0 0 0 -18151164.4233675 540131728.08923399 0 540131728.08923399 -587848708.15265751 0 0 0 0 564811832.55450439 1037862315.9139128 0 1037862315.9139128 -456893322.71666718 0 0 0 0 235389425.77387619 581334287.45215476 0 581334287.45215476 -992019795.79563904 0 0 0 0 847378390.1968956 336393633.07157481 0 336393633.07157481 -1597653853.2734795 0 0 0 0 -796445212.27397156 -267187702.75790119 0 -267187702.75790119 -942195739.36756802 0 0 0 0 35380861.361166917 37156180.162464269 0 37156180.162464269 32397542.354245946 0 0 0 0 -205476391.44301605 585497513.97170162 0 585497513.97170162 395092058.59604359 0 0 0 0 -880191266.64431763 -259160062.24449444 0 -259160062.24449444 -216299776.67897797 0 0 0 0 -438657844.3734436 715197282.47235203 0 715197282.47235203 -1138330952.1830292 0 0 0 0 -128965372.56530762 555850436.84441376 0 555850436.84441376 -1355458023.3487234 0 0 0 0 -6582995.9812747836 15433423.400285097 0 15433423.400285097 11930976.951355353 0 0 0 0 458948821.17032623 -100973799.24196815 0 -100973799.24196815 259045854.36281776 0 0 0 0 225693712.83988953 198327936.67483521 0 198327936.67483521 42322179.321784973 0 0 0 0 76063830.912132263 -948916689.70323753 0 -948916689.70323753 -327268104.70162773 0 0 0 0 1255509349.708313 -93248809.851178169 0 -93248809.851178169 -728498351.99002457 0 0 0 0 1398450591.5247192 231567151.89774895 0 231567151.89774895 -603898988.09054756 0 0 0 0 794736913.00952148 48159216.894367218 0 48159216.894367218 -307379190.30498886 0 0 0 0 885168608.22029114 -9696978.0456867218 0 -9696978.0456867218 -594739933.14042473 0 0 0 0 806852306.41477966 -312404457.27348137 0 -312404457.27348137 -688727764.51204395 0 0 0 0 488726360.31246185 -183621505.09848976 0 -183621505.09848976 -173199409.17924118 0 0 0 0 767695340.61435699 13803097.622665405 0 13803097.622665405 -194079168.01299667 0 0 0 0 722855920.13785553 -132717710.46434975 0 -132717710.46434975 -211716408.87402344 0 0 0 0 495533623.72345734 74983783.603750229 0 74983783.603750229 -306321165.70539856 0 0 0 0 931545871.57647324 -114791643.93494415 0 -114791643.93494415 -120717297.50189209 0 0 0 0 1631299684.2927475 460092427.81167984 0 460092427.81167984 -341398612.48652649 0 0 0 0 784323653.65719318 270841893.22026843 0 270841893.22026843 -289326131.3338623 0 0 0 0 783228514.40950012 -41191210.15681076 0 -41191210.15681076 -259114230.7986393 0 0 0 0 -107875751.54659653 720329547.77873039 0 720329547.77873039 9886528.7651367188 0 0 0 0 649247222.16085815 326950279.84674835 0 326950279.84674835 -307212691.55278015 0 0 0 0 873854074.59486389 956248398.80760956 0 956248398.80760956 -269716398.71470642 0 0 0 0 1052294634.8483276 871957596.15286255 0 871957596.15286255 -241997414.90300179 0 0 0 0 999422608.15081787 818209280.42702103 0 818209280.42702103 -277441948.43764496 0 0 0 0 2171980779.3446045 1060010938.6965485 0 1060010938.6965485 -228992664.12412262 0 0 0 0 5756724.4737862237 4082325.4674856961 0 4082325.4674856961 -83492.311783414334 0 0 0 0 243143675.40512848 575216454.97579956 0 575216454.97579956 13721612.151794434 0 0 0 0 224611564.23420715 -526163801.4852066 0 -526163801.4852066 -1213586147.0801544 0 0 0 0 248908924.69208527 1272413170.481636 0 1272413170.481636 -582500266.2383728 0 0 0 0 156777135.89034653 1299258162.4266281 0 1299258162.4266281 -122345754.11331177 0 0 0 0 698555215.54695892 1081927839.0017548 0 1081927839.0017548 -679608386.32055664 0 0 0 0 816357366.16168976 1365963335.1204224 0 1365963335.1204224 -2400007.1756896973 0 0 0 0 132640054.31410217 97672291.865242004 0 97672291.865242004 -1468952673.1545258 0 0 0 0 166289515.16445923 235298510.5446167 0 235298510.5446167 -180458073.49681854 0 0 0 0 171001416.07925415 204304461.81525421 0 204304461.81525421 -567613712.6898098 0 0 0 0 -29703309.589853287 1871986133.8401289 0 1871986133.8401289 175888292.16099548 0 0 0 0 96802240.460800171 43252662.28717804 0 43252662.28717804 -363710652.3221817 0 0 0 0 93307488.158851624 31495402.469379425 0 31495402.469379425 -76534317.199243546 0 0 0 0 34795587.1837883 955171.09864616394 0 955171.09864616394 40013505.421884537 0 0 0 0 12836376.208814684 9659011.8327449039 0 9659011.8327449039 -6776524.5099780113 0 0 0 0 43307608.729603134 27699045.797319874 0 27699045.797319874 5725845.6130374502 0 0 0 0 67218330.574993134 -5559409.0045747757 0 -5559409.0045747757 -143513629.78271866 0 0 0 0 495193628.73257446 1088509993.5660772 0 1088509993.5660772 -842342914.18065643 0 0 0 0 -645996341.83600235 -23098798.125213623 0 -23098798.125213623 552113858.49132538 0 0 0 0 227548766.91353607 119376556.67173147 0 119376556.67173147 97520129.150620461 0 0 0 0 93746691.143730164 118899036.78644037 0 118899036.78644037 220038219.46721935 0 0 0 0 30255279.364874452 6872495.83313243 0 6872495.83313243 828587.08758248459 0 0 0 0 -28861065.435066223 123992226.30301154 0 123992226.30301154 -84689777.238811731 0 0 0 0 12194992.053951388 9856328.1252663359 0 9856328.1252663359 17449058.161518749 0 0 0 0 -486719099.32390594 220786568.63094211 0 220786568.63094211 26032544.17542398 0 0 0 0 -229399496.93929291 186063559.38721901 0 186063559.38721901 8071423.1465895176 0 0 0 0 553918247.1116333 302382564.94036865 0 302382564.94036865 54039576.758086205 0 0 0 0 710788832.06346893 393294317.74696732 0 393294317.74696732 98940561.441567898 0 0 0 0 400465323.66233826 437476383.82901335 0 437476383.82901335 157398963.7641201 0 0 0 0 625324790.60542297 544076967.01836014 0 544076967.01836014 15180981.719887733 0 0 0 0 497539869.41465759 446327540.24983501 0 446327540.24983501 103809039.37752914 0 0 0 0 615830341.52520752 610915433.42194462 0 610915433.42194462 218750779.74219704 0 0 0 0 468522536.65867615 565009433.99264455 0 565009433.99264455 288264270.06059647 0 0 0 0 1026204975.3660431 -496868206.60526371 0 -496868206.60526371 -1278699780.9499435 0 0 0 0 15641911.120407104 224482900.24815369 0 224482900.24815369 933292220.24789238 0 0 0 0 12609966.730864123 -397482.54280486936 0 -397482.54280486936 -29815.574073418276 0 0 0 0 591309916.27255249 743112513.921731 0 743112513.921731 372394734.47370243 0 0 0 0 136937866.76462555 916776642.82268143 0 916776642.82268143 2297547198.5649004 0 0 0 0 646007008.03281403 613558511.88182092 0 613558511.88182092 207044407.23152161 0 0 0 0 -98874641.650382996 961164624.22305536 0 961164624.22305536 3448696233.5706444 0 0 0 0 1099659139.5677795 1772381196.1290836 0 1772381196.1290836 1385470301.4854298 0 0 0 0 2700913962.1308517 1726138333.2188015 0 1726138333.2188015 -1429496519.3136845 0 0 0 0 -331613842.15259743 -301537008.55544662 0 -301537008.55544662 -121036466.21117401 0 0 0 0 -34510173.852661207 22327652.623961285 0 22327652.623961285 26345031.113494441 0 0 0 0 322465281.60733795 -72149907.351611137 0 -72149907.351611137 -131917402.93446255 0 0 0 0 -409722611.21485895 -179055771.41619742 0 -179055771.41619742 -57214034.746398926 0 0 0 0 1252939152.4394073 -37487005.875782728 0 -37487005.875782728 -760064073.93094635 0 0 0 0 -75376840.201560974 -151064386.63872528 0 -151064386.63872528 -177512518.8562088 0 0 0 0 -807463122.13338804 -379137026.03877068 0 -379137026.03877068 -212482538.61014748 0 0 0 0 12565036.747459888 104273473.38380432 0 104273473.38380432 -258466213.43077087 0 0 0 0 -44310323.592210293 -314075407.76018906 0 -314075407.76018906 -315672748.49765015 0 0 0 0 520330909.04311752 430828271.17107964 0 430828271.17107964 89740819.06001091 0 0 0 0 551884646.84858704 505101228.33151484 0 505101228.33151484 142778814.43310452 0 0 0 0 480538685.42094421 453787432.84381771 0 453787432.84381771 263008528.52489948 0 0 0 0 391030633.01766396 431392098.55038273 0 431392098.55038273 269036341.75514221 0 0 0 0 420297995.53570557 334153982.71317577 0 334153982.71317577 96865022.791215479 0 0 0 0 248750470.79502869 336976554.42721176 0 336976554.42721176 278038368.05018997 0 0 0 0 -593961549.13456345 -614266354.42768097 0 -614266354.42768097 -178002168.66094971 0 0 0 0 -307869458.06678772 -386718220.54958725 0 -386718220.54958725 118519249.4072876 0 0 0 0 61685.652198487893 -576794.64855269343 0 -576794.64855269343 -240561.60884169489 0 0 0 0 -35041667.960279822 21502988.497060854 0 21502988.497060854 29106230.087700985 0 0 0 0 176697614.21824646 484198255.11196899 0 484198255.11196899 325253998.33507919 0 0 0 0 229379343.75474548 435103542.22029495 0 435103542.22029495 356505281.56146622 0 0 0 0 247901594.02468872 614821135.37793493 0 614821135.37793493 152014874.39444351 0 0 0 0 -450291232.78490448 -51760888.889030457 0 -51760888.889030457 54944215.026916504 0 0 0 0 -450030739.53755951 -49494572.977516174 0 -49494572.977516174 -564898059.66141891 0 0 0 0 -329598682.14312553 -116495620.69190979 0 -116495620.69190979 -73433101.007389069 0 0 0 0 -279938620.59560394 -212938940.54559708 0 -212938940.54559708 94620699.703765869 0 0 0 0 -306118378.52388 -438285690.7804451 0 -438285690.7804451 306654405.88423157 0 0 0 0 -272350354.5674839 -187836832.93786621 0 -187836832.93786621 135048212.60371399 0 0 0 0 -244077027.71344757 -333696253.74028015 0 -333696253.74028015 621523363.07302094 0 0 0 0 122628218.11804104 -473594186.90498257 0 -473594186.90498257 277882345.18162537 0 0 0 0 -388343556.88397217 -156956467.82548904 0 -156956467.82548904 84843917.089233398 0 0 0 0 2621101.8066006461 1495980.2429326475 0 1495980.2429326475 10293788.307172323 0 0 0 0 -300386779.34029388 314895657.57338589 0 314895657.57338589 9361334.2491934299 0 0 0 0 596687163.06330109 406590166.04698181 0 406590166.04698181 189089297.97987556 0 0 0 0 1021982388.1367188 330120697.41620064 0 330120697.41620064 194281371.43429363 0 0 0 0 619389462.47912598 425289224.04453182 0 425289224.04453182 157096434.33534956 0 0 0 0 417538873.71442032 494548982.68014252 0 494548982.68014252 439385670.4755497 0 0 0 0 548819027.20963669 644770250.75392449 0 644770250.75392449 347230328.0078125 0 0 0 0 425377669.00004578 491835448.23355961 0 491835448.23355961 231294540.78678703 0 0 0 0 512032120.63793945 82275582.923528671 0 82275582.923528671 -120490792.65837908 0 0 0 0 701224347.33757019 340140284.36476326 0 340140284.36476326 262441365.59917355 0 0 0 0 462479652.35778809 428495319.02730751 0 428495319.02730751 -171912824.05391312 0 0 0 0 456160550.5725174 423528250.28736591 0 423528250.28736591 271608305.42798996 0 0 0 0 474122293.05804443 16713868.438671112 0 16713868.438671112 147259861.3684597 0 0 0 0 698790117.02854538 988510944.67363501 0 988510944.67363501 900450029.2021904 0 0 0 0 1003732945.9837952 597090490.55321789 0 597090490.55321789 306004707.72049904 0 0 0 0 2058495525.0522842 853690255.50236893 0 853690255.50236893 87378039.827740669 0 0 0 0 -1026037966.3479233 102785473.8869133 0 102785473.8869133 335177670.09834456 0 0 0 0 744243.95330790244 181521.48370405287 0 181521.48370405287 3492941.1153577995 0 0 0 0 247892093.04328156 628937570.00960207 0 628937570.00960207 432173494.06964779 0 0 0 0 279587756.38340759 335468908.74005127 0 335468908.74005127 1083622888.3681145 0 0 0 0 315464096.31443787 460322127.85284042 0 460322127.85284042 94457080.06178093 0 0 0 0 416667802.86897659 282935606.86976099 0 282935606.86976099 303092035.1228981 0 0 0 0 -566455929.86008263 -4600517.6806716919 0 -4600517.6806716919 85156649.2472229 0 0 0 0 140122950.92907715 -82495323.17089653 0 -82495323.17089653 263939569.17823219 0 0 0 0 18323698.505096436 182251487.29059505 0 182251487.29059505 297905250.79899216 0 0 0 0 -41597102.02644103 22255652.054057054 0 22255652.054057054 28337448.168910436 0 0 0 0 29407754.668212891 230235910.65742493 0 230235910.65742493 388638384.39302444 0 0 0 0 150538370.06207275 333788494.2131424 0 333788494.2131424 443466934.36747742 0 0 0 0 461754627.9657135 278038927.49143696 0 278038927.49143696 370914340.43482971 0 0 0 0 118788408.33075523 50389175.582294583 0 50389175.582294583 454132547.85250473 0 0 0 0 435036679.87120056 254545549.57313156 0 254545549.57313156 632380036.61170197 0 0 0 0 359037234.85634613 59662990.102582455 0 59662990.102582455 409802974.09889984 0 0 0 0 -517483926.38330841 -5447463.1220779419 0 -5447463.1220779419 34413495.227378845 0 0 0 0 -467749567.96417427 71769866.634742737 0 71769866.634742737 -57590436.244094849 0 0 0 0 38101334.867988586 320502864.42378712 0 320502864.42378712 -431549941.90916443 0 0 0 0 188480792.8142395 122971445.91656876 0 122971445.91656876 43050300.091339111 0 0 0 0 -16935422.992608435 162022.77362751961 0 162022.77362751961 12388458.630221434 0 0 0 0 -29932320.078669421 33477004.224629659 0 33477004.224629659 13679894.211665452 0 0 0 0 72963489.958496094 136727620.71351051 0 136727620.71351051 72339957.740936279 0 0 0 0 102592446.01364136 202215135.77306843 0 202215135.77306843 -24118285.253873825 0 0 0 0 -66217812.915559769 193191985.68916678 0 193191985.68916678 149779234.52183342 0 0 0 0 181957391.63829041 365483374.3394289 0 365483374.3394289 255009384.74429798 0 0 0 0 -341653543.56449318 48795924.871921539 0 48795924.871921539 235986794.50829887 0 0 0 0 -64157947.906270027 121751675.49814701 0 121751675.49814701 319787161.44050598 0 0 0 0 -237442847.80226517 -39446044.943325043 0 -39446044.943325043 188676432.35931206 0 0 0 0 -422216180.58973503 40465561.758682251 0 40465561.758682251 183170701.48690605 0 0 0 0 -256471944.04925466 38733784.973841667 0 38733784.973841667 94675496.144226074 0 0 0 0 -423425360.11959934 68308627.13807106 0 68308627.13807106 -25845998.991043091 0 0 0 0 -583099256.77775574 81689007.506298065 0 81689007.506298065 19920595.710037231 0 0 0 0 -546234192.53002834 10372846.068286896 0 10372846.068286896 156926292.883461 0 0 0 0 -429616911.66129589 42942080.314939499 0 42942080.314939499 86936327.887733459 0 0 0 0 -512094381.63978958 68786711.483417511 0 68786711.483417511 133163856.73312378 0 0 0 0 -398616005.09367371 121706186.89008331 0 121706186.89008331 175267978.33642006 0 0 0 0 -419899934.95595908 193678556.28593731 0 193678556.28593731 30419908.676635742 0 0 0 0 -427665098.22292709 173919945.68645096 0 173919945.68645096 -12779502.310722351 0 0 0 0 -397093683.31963754 113408542.06201792 0 113408542.06201792 120888685.01179886 0 0 0 0 -463164778.09273911 110950364.13970184 0 110950364.13970184 150198926.44671249 0 0 0 0 -206637928.27295208 168842959.87245369 0 168842959.87245369 94009402.699186325 0 0 0 0 -157454359.06783235 -46888993.775117159 0 -46888993.775117159 296635245.06908035 0 0 0 0 -49825791.473977089 -21111287.666482925 0 -21111287.666482925 244959314.71259689 0 0 0 0 132458089.87777495 -203850779.84504747 0 -203850779.84504747 320472819.28429413 0 0 0 0 189509225.14797974 17123895.64809227 0 17123895.64809227 483249204.2627182 0 0 0 0 349310664.0158844 283275995.2029686 0 283275995.2029686 309345828.67063522 0 0 0 0 -107859143.18161345 9433861.0795731544 0 9433861.0795731544 616214102.02578354 0 0 0 0 958015981.98428249 1015286324.1368294 0 1015286324.1368294 1001413099.0063343 0 0 0 0 238550903.14644432 365100384.52690792 0 365100384.52690792 433716429.67316818 0 0 0 0 1968242761.9117298 429621917.87261772 0 429621917.87261772 -4900115.5470471382 0 0 0 0 457005127.99212456 117090680.80111885 0 117090680.80111885 38102150.195468903 0 0 0 0 1153704.1632276196 2677202.6721827928 0 2677202.6721827928 6388154.8774949014 0 0 0 0 2336525.2286019325 -370519788.14948273 0 -370519788.14948273 1465057335.1536865 0 0 0 0 34448207.390377045 851124813.32863235 0 851124813.32863235 1855615576.80233 0 0 0 0 1933340718.6552339 203748205.00453758 0 203748205.00453758 354079948.07935715 0 0 0 0 -153966293.26561165 60482705.676214218 0 60482705.676214218 1626919041.6476078 0 0 0 0 727107583.05273533 -372696529.90265369 0 -372696529.90265369 -623990565.85057068 0 0 0 0 8049152.9237165116 -314322.94779187441 0 -314322.94779187441 -953071.71768720634 0 0 0 0 -182741637.92245746 194695537.32576656 0 194695537.32576656 405877521.91349411 0 0 0 0 7482137.6876928806 34949656.985177994 0 34949656.985177994 -13918238.188162804 0 0 0 0 -8102132.5787425041 33708489.792852402 0 33708489.792852402 44273927.05150795 0 0 0 0 5712541.3529510498 -96883126.45082283 0 -96883126.45082283 -86947547.802188873 0 0 0 0 56064578.003397584 -15155965.128567219 0 -15155965.128567219 -127812187.59954453 0 0 0 0 -54629592.454096794 -259936852.21758652 0 -259936852.21758652 -347028553.85468817 0 0 0 0 -127334579.15024471 -69020585.770847321 0 -69020585.770847321 -72028465.940301895 0 0 0 0 272934030.32165766 -62402769.004357815 0 -62402769.004357815 -152196555.68379974 0 0 0 0 23729520.215353489 126308108.9484272 0 126308108.9484272 165462863.85849762 0 0 0 0 -63034050.864704132 -336399412.3839798 0 -336399412.3839798 230623701.66893578 0 0 0 0 3256725.4064230025 -490196.36661380157 0 -490196.36661380157 -38422.064267927781 0 0 0 0 -427684395.11286926 -48393554.045549393 0 -48393554.045549393 578676889.37186241 0 0 0 0 -145019289.58812523 81643682.599225998 0 81643682.599225998 323163156.64501572 0 0 0 0 -320812842.21301651 116069984.88681412 0 116069984.88681412 124995080.77666473 0 0 0 0 -1403725.8915212154 155456053.98645782 0 155456053.98645782 108481892.4829998 0 0 0 0 -240515.02851949632 2373056.8898987621 0 2373056.8898987621 -1021338.9332782477 0 0 0 0 -180376760.45466101 -174804666.23697948 0 -174804666.23697948 -61917327.587650299 0 0 0 0 -119101122.05444622 332244151.84209442 0 332244151.84209442 402279065.47150612 0 0 0 0 113375667.50068116 425761194.23104858 0 425761194.23104858 416517152.24000645 0 0 0 0 -43449393.734567642 174873796.46019936 0 174873796.46019936 485491203.05993366 0 0 0 0 -18489724.156713724 139401576.26407242 0 139401576.26407242 268697144.30272675 0 0 0 0 -36221697.643258572 113060124.47359467 0 113060124.47359467 112307566.73203278 0 0 0 0 76462407.91067028 -158488352.43415833 0 -158488352.43415833 197152047.29526901 0 0 0 0 -11395862.384028435 578919951.50836563 0 578919951.50836563 742338315.33523273 0 0 0 0 -82128375.696075916 9068388.5708370209 0 9068388.5708370209 1061047548.1656265 0 0 0 0 170164114.72107935 549211326.38167667 0 549211326.38167667 532809421.50224686 0 0 0 0 8218471.5345789697 1367139.550543651 0 1367139.550543651 -1645324.489166297 0 0 0 0 572222494.90473688 290938251.31983471 0 290938251.31983471 -266038222.72991753 0 0 0 0 3868715.27962422 1826138.3067897484 0 1826138.3067897484 -1166791.912102472 0 0 0 0 144918006.36232948 594278072.05209732 0 594278072.05209732 670411690.3727417 0 0 0 0 20836887.581554413 491525436.71350479 0 491525436.71350479 574878854.61545181 0 0 0 0 -31326767.133389473 271076299.41950226 0 271076299.41950226 421994029.21058655 0 0 0 0 343159067.26146126 421956351.55888271 0 421956351.55888271 413374658.52332038 0 0 0 0 -53758811.292427063 280674563.79406548 0 280674563.79406548 425680078.72623825 0 0 0 0 35790303.795924664 154540321.2236867 0 154540321.2236867 481790742.12678146 0 0 0 0 232439881.11093855 245771581.44485664 0 245771581.44485664 31040986.48396492 0 0 0 0 -75167809.053430557 272232233.28092194 0 272232233.28092194 233419207.59964943 0 0 0 0 -334808051.49165702 143727188.53645229 0 143727188.53645229 192472652.62967682 0 0 0 0 -84434919.845385075 306114583.13553715 0 306114583.13553715 467828758.65198898 0 0 0 0 168442709.09414387 -31363959.727849007 0 -31363959.727849007 -119684272.3181076 0 0 0 0 77741476.924074352 34571549.836736202 0 34571549.836736202 -146985884.08055878 0 0 0 0 47708867.298080921 -31976793.758523941 0 -31976793.758523941 -46830740.129260063 0 0 0 0 26494880.290992588 6021152.0277175903 0 6021152.0277175903 -72830734.602371216 0 0 0 0 14275218.277719498 6762519.8506469727 0 6762519.8506469727 -71831127.36630249 0 0 0 0 65092970.045511484 -12304376.026062012 0 -12304376.026062012 -120550972.80518341 0 0 0 0 15447291.472925603 16427160.999544144 0 16427160.999544144 -136830471.18892288 0 0 0 0 -508428.9327043891 14303753.178767204 0 14303753.178767204 -121315567.37601662 0 0 0 0 -6917150.5046821237 58146698.946317673 0 58146698.946317673 -184443885.81734562 0 0 0 0 18077042.713877559 100597941.52150059 0 100597941.52150059 -140483787.98664856 0 0 0 0 24947037.294641495 107601900.16878223 0 107601900.16878223 -190731591.70326805 0 0 0 0 49413990.554440022 16170432.221681595 0 16170432.221681595 -162994328.029109 0 0 0 0 32350438.44573307 32839261.203119278 0 32839261.203119278 -147020191.50424957 0 0 0 0 93137328.823348045 32205181.356878757 0 32205181.356878757 -341150109.65404701 0 0 0 0 -77106742.780888557 -7754279.9223747253 0 -7754279.9223747253 -160028505.49006748 0 0 0 0 -44546222.309165001 190897361.53704071 0 190897361.53704071 -285382615.21785402 0 0 0 0 -322474743.16548276 436394444.08851004 0 436394444.08851004 -665652643.43791389 0 0 0 0 -42124533.399706841 158926333.00776005 0 158926333.00776005 -77961791.123271942 0 0 0 0 -390934849.76200557 -160811251.54997873 0 -160811251.54997873 -369079791.68260574 0 0 0 0 -26409837.436238289 -47759913.182950974 0 -47759913.182950974 -24491017.393488884 0 0 0 0 -82263287.874984026 -107098750.62433338 0 -107098750.62433338 -140845259.14080429 0 0 0 0 1319645.9588855915 -245234.55153233185 0 -245234.55153233185 -1434642.5197909065 0 0 0 0 -31970937.76329422 -129804626.79460526 0 -129804626.79460526 -88356251.331787109 0 0 0 0 -308514578.48294449 -13129625.163246155 0 -13129625.163246155 -98965380.894107819 0 0 0 0 -101625441.86727524 -63256482.047492981 0 -63256482.047492981 -136376972.60995102 0 0 0 0 -7790687.350028038 -121906255.00126648 0 -121906255.00126648 -152695606.74829865 0 0 0 0 -180182488.69268322 -50136783.928295135 0 -50136783.928295135 -90257571.867294312 0 0 0 0 1096920.8438094957 -684039.44152905792 0 -684039.44152905792 -1149226.6513728984 0 0 0 0 -318693880.65517426 -110230979.56502533 0 -110230979.56502533 -10421197.34967041 0 0 0 0 -137618004.83156776 -158929827.00765228 0 -158929827.00765228 -32533796.838150024 0 0 0 0 -405694283.71023822 -47520834.257738948 0 -47520834.257738948 5484070.5387268066 0 0 0 0 -35943819.495293856 -1633780.0037660599 0 -1633780.0037660599 -106185249.24946976 0 0 0 0 35606398.394343495 11505097.181968689 0 11505097.181968689 -88180477.932512283 0 0 0 0 -28127971.322050333 -17271403.695058823 0 -17271403.695058823 -81023033.258594513 0 0 0 0 19723128.852167249 7160378.6801257133 0 7160378.6801257133 -116249763.12641907 0 0 0 0 -39858631.234421849 -3187863.1108732224 0 -3187863.1108732224 -93758552.255031586 0 0 0 0 -85178181.267280579 3239597.1284198761 0 3239597.1284198761 -88891594.812335014 0 0 0 0 -16506367.497714996 20229001.051290512 0 20229001.051290512 -166059691.24273682 0 0 0 0 -12327826.256990433 -27234543.932582855 0 -27234543.932582855 -161426423.28685594 0 0 0 0 -6897337.8961598873 -2732734.9306488037 0 -2732734.9306488037 -113448396.0288043 0 0 0 0 21606256.833276808 -3378356.8059601784 0 -3378356.8059601784 -145846394.43223953 0 0 0 0 -19600502.453178942 1046828.4580812454 0 1046828.4580812454 -94118317.171998978 0 0 0 0 -1603005.0121865273 -3522251.7733325958 0 -3522251.7733325958 -144503718.58049393 0 0 0 0 -2849907.1149761677 -5145204.686255455 0 -5145204.686255455 -121142059.76491165 0 0 0 0 -25352981.389594078 -13008292.600515366 0 -13008292.600515366 -118208584.86403036 0 0 0 0 -36728243.423233509 -33010773.360164642 0 -33010773.360164642 -111744977.28967667 0 0 0 0 -10901852.090154056 -484139.94414608181 0 -484139.94414608181 5887405.8346816637 0 0 0 0 -27665596.095807552 -5997810.9505939484 0 -5997810.9505939484 -96490237.291282654 0 0 0 0 -49870599.994007111 109448662.97690868 0 109448662.97690868 -40772570.858505249 0 0 0 0 -45133492.854988471 45928534.459728047 0 45928534.459728047 -1125852.3633223996 0 0 0 0 -18103860.989801884 -12494590.526965141 0 -12494590.526965141 -371834210.16794586 0 0 0 0 -277721523.55192089 335341894.79184914 0 335341894.79184914 -321605934.09766579 0 0 0 0 -15071016.603430748 -65436646.003667831 0 -65436646.003667831 -65434900.031299591 0 0 0 0 -508676.81604956556 1024811.795120107 0 1024811.795120107 -1258046.2699318379 0 0 0 0 -256032512.6415062 -50234948.66545105 0 -50234948.66545105 -8438026.9921340942 0 0 0 0 -376293482.25217438 230438656.11761093 0 230438656.11761093 -189614612.07297707 0 0 0 0 -594105444.19562244 -173772146.5720005 0 -173772146.5720005 460224694.70272827 0 0 0 0 -74448127.614160538 -171498720.53195572 0 -171498720.53195572 -5122192.9765167236 0 0 0 0 -78531347.694736958 -14974357.067988396 0 -14974357.067988396 -39673418.657119751 0 0 0 0 -40214415.863093607 30728504.196735032 0 30728504.196735032 16590298.545296166 0 0 0 0 -134364846.5257585 -242424596.8374646 0 -242424596.8374646 521450570.30432892 0 0 0 0 -26907960.0111866 -151509501.3971138 0 -151509501.3971138 -51454209.404891968 0 0 0 0 -14487306.179393768 -226332623.46728706 0 -226332623.46728706 36676412.288938522 0 0 0 0 537907260.94866943 395811459.17686272 0 395811459.17686272 -200760208.33533669 0 0 0 0 -77111774.525268555 280426755.68269348 0 280426755.68269348 -83914444.728424072 0 0 0 0 159145114.34384155 117398937.10554123 0 117398937.10554123 -71584298.159597397 0 0 0 0 221343632.15849304 193164154.47014999 0 193164154.47014999 -114967153.92704821 0 0 0 0 318461057.92921448 55019112.728797913 0 55019112.728797913 -54534778.910186768 0 0 0 0 313268865.70439148 157416212.21197891 0 157416212.21197891 -121279139.00440979 0 0 0 0 66272925.478225708 121953612.68559837 0 121953612.68559837 -128898510.93526077 0 0 0 0 37553006.287460655 12201596.055467222 0 12201596.055467222 -5184827.6150487931 0 0 0 0 -256980897.17827606 140200331.90334892 0 140200331.90334892 678142610.67900085 0 0 0 0 66574518.107650757 28491275.428062439 0 28491275.428062439 532056646.22625351 0 0 0 0 -140161915.71941376 89049129.332637787 0 89049129.332637787 280035112.46789169 0 0 0 0 223401756.78921127 214680273.21648026 0 214680273.21648026 229156319.87520599 0 0 0 0 12534173.074630737 289942118.93604279 0 289942118.93604279 462011340.15357971 0 0 0 0 -837679942.05874634 250778381.46317673 0 250778381.46317673 452170965.29165077 0 0 0 0 182611.82270822674 365046.77059799805 0 365046.77059799805 55064.074954941869 0 0 0 0 281572657.99668503 468699697.2614975 0 468699697.2614975 470798093.62019348 0 0 0 0 150905840.90006828 107156833.66776752 0 107156833.66776752 647721945.08941269 0 0 0 0 564689149.9505043 480920302.16287613 0 480920302.16287613 431567403.92145538 0 0 0 0 -47396313.162376404 88120504.738315582 0 88120504.738315582 -14460986.295819283 0 0 0 0 -57771489.479602337 -56473681.25288868 0 -56473681.25288868 100065363.0734024 0 0 0 0 -46182653.965577409 32859933.386811029 0 32859933.386811029 -5425876.9250437729 0 0 0 0 -1513336.6279422329 9352920.1358463205 0 9352920.1358463205 -6171128.2584811589 0 0 0 0 -38114315.828040659 85483405.678799629 0 85483405.678799629 -37827610.69301939 0 0 0 0 -21261371.635161877 430294.77258586884 0 430294.77258586884 26961558.180519104 0 0 0 0 -41186341.236316822 29578357.549699791 0 29578357.549699791 -18858445.341765549 0 0 0 0 234706839.50725174 210723006.50366402 0 210723006.50366402 -10128132.124408722 0 0 0 0 -129701696.78205299 235644374.227705 0 235644374.227705 586135004.93628693 0 0 0 0 -2568788.0277068615 4143012.2713567093 0 4143012.2713567093 9147685.8182261884 0 0 0 0 251551858.36516571 814975186.66555023 0 814975186.66555023 606546313.7338562 0 0 0 0 487524984.48743439 625422920.13241768 0 625422920.13241768 693520793.04886627 0 0 0 0 -249790676.24885941 3196027.9303894043 0 3196027.9303894043 158458259.14618683 0 0 0 0 238211461.55758667 -112495811.9337616 0 -112495811.9337616 -91163249.95993042 0 0 0 0 503872273.86346054 317847897.56866837 0 317847897.56866837 112316545.52567291 0 0 0 0 -35070782.151535034 40550479.141616821 0 40550479.141616821 -2357898.795879364 0 0 0 0 47400448.93926239 403355308.90617371 0 403355308.90617371 540818704.88647842 0 0 0 0 180986012.96649551 222490262.65625954 0 222490262.65625954 36770910.818180084 0 0 0 0 -110504078.16807938 180219000.58970642 0 180219000.58970642 305748048.86137009 0 0 0 0 -97358591.861840248 352834451.31711721 0 352834451.31711721 1206041259.8991547 0 0 0 0 2618116.4311896563 5560934.3538262807 0 5560934.3538262807 2649799.4911168832 0 0 0 0 -14407694.470350742 181305439.91701984 0 181305439.91701984 -165578201.19204712 0 0 0 0 -24169525.824409485 205881933.28423691 0 205881933.28423691 -170463818.18259239 0 0 0 0 8608511.7649176456 1064385.7881346196 0 1064385.7881346196 -2884936.9530413523 0 0 0 0 5481545.7497005463 138714922.16519642 0 138714922.16519642 -328161671.69300842 0 0 0 0 1857024.5357465744 13212220.439965248 0 13212220.439965248 -12388345.656982422 0 0 0 0 4573464.8047331944 5618692.0567916818 0 5618692.0567916818 719617.12593296915 0 0 0 0 76257460.826381683 -36044052.902116776 0 -36044052.902116776 -122257457.79280472 0 0 0 0 1970949.2139587402 11652582.591567993 0 11652582.591567993 -27647422.139526367 0 0 0 0 9502165.314858444 8305780.2494457159 0 8305780.2494457159 968114.0142336674 0 0 0 0 1180916.4565734863 12306255.99149704 0 12306255.99149704 -12292235.201690674 0 0 0 0 -226499373.44526672 191674447.58908463 0 191674447.58908463 -315190741.44807816 0 0 0 0 8884855.6987597961 7125247.6457547955 0 7125247.6457547955 -3590794.400625065 0 0 0 0 17859359.776428223 311790880.06762314 0 311790880.06762314 -439209176.79804993 0 0 0 0 -8917135.9452819824 4340542.5718002319 0 4340542.5718002319 7560646.6589126587 0 0 0 0 868645.92159879953 1687800.4133419544 0 1687800.4133419544 -877400.58889635652 0 0 0 0 -127141477.97090912 261144736.20358658 0 261144736.20358658 -246612447.74221039 0 0 0 0 -7713190.6175231934 365179551.29261208 0 365179551.29261208 -179128990.84410858 0 0 0 0 -121336163.651474 188709103.74044037 0 188709103.74044037 -50144295.729431152 0 0 0 0 187358050.91048813 119517599.4598465 0 119517599.4598465 -219075384.34666443 0 0 0 0 128011481.54880524 264984551.71169233 0 264984551.71169233 236332278.49449158 0 0 0 0 137672207.56402779 289570268.77847862 0 289570268.77847862 -11364901.170440674 0 0 0 0 2446255.6933186725 2061686.7794636339 0 2061686.7794636339 -3080401.4078889787 0 0 0 0 -113968850.35046387 -72399739.447307587 0 -72399739.447307587 3847680.2728118896 0 0 0 0 -140860118.61512285 161801974.30453998 0 161801974.30453998 -89596851.732810974 0 0 0 0 -196412176.92112732 405575421.70811462 0 405575421.70811462 -166951919.33010101 0 0 0 0 -467003954.93931198 355994583.19744205 0 355994583.19744205 -122430825.53135681 0 0 0 0 -281993104.2425468 246064451.87516439 0 246064451.87516439 -30645001.518152237 0 0 0 0 -77471021.331362724 195672774.90011406 0 195672774.90011406 -224395371.15781879 0 0 0 0 -137619257.04755569 140049562.02494574 0 140049562.02494574 -197311587.85069275 0 0 0 0 -87871452.463981748 195177136.38607144 0 195177136.38607144 -68909804.652425766 0 0 0 0 -32211167.792105675 188732624.45615196 0 188732624.45615196 -70880418.173035622 0 0 0 0 -53746998.441967487 218975557.74151516 0 218975557.74151516 -570290.02473855019 0 0 0 0 -225119488.7315979 163512112.6752634 0 163512112.6752634 22772606.772094727 0 0 0 0 -37753590.435402654 31487785.866349049 0 31487785.866349049 -24840202.053376243 0 0 0 0 -24005967.48508358 132095440.71538734 0 132095440.71538734 -18924241.064750671 0 0 0 0 -23847161.101934433 165817879.79320908 0 165817879.79320908 -190042215.39084053 0 0 0 0 -37729373.544427395 75733523.128442764 0 75733523.128442764 -127669679.86166525 0 0 0 0 -127489342.47354889 31563745.810604095 0 31563745.810604095 32407645.978797913 0 0 0 0 1245933410.2971725 640009525.35667419 0 640009525.35667419 119522082.07993698 0 0 0 0 702055254.96800232 -293832641.98877525 0 -293832641.98877525 -739673949.43487549 0 0 0 0 862540509.64005661 1660520540.4973526 0 1660520540.4973526 438824277.58393097 0 0 0 0 3160014.6132606789 2078738.2093047686 0 2078738.2093047686 104262.6637159884 0 0 0 0 -140537745.32621765 12468025.890663147 0 12468025.890663147 -236720475.2024231 0 0 0 0 -805011117.7178669 782211682.12587738 0 782211682.12587738 200813047.31417465 0 0 0 0 309447456.41607666 349962531.69297409 0 349962531.69297409 -257216989.94364166 0 0 0 0 -110166278.60552216 382023992.13994598 0 382023992.13994598 -253527010.9726119 0 0 0 0 -1352172.5151968077 3797949.895034574 0 3797949.895034574 -6098482.4058130831 0 0 0 0 -1297271676.1782932 50707970.242052078 0 50707970.242052078 145709555.67095947 0 0 0 0 -2207323937.3965912 296937499.96333313 0 296937499.96333313 95145799.820289612 0 0 0 0 433035879.87887955 223423879.04670525 0 223423879.04670525 67797359.901148796 0 0 0 0 -38147886.116165303 31397632.707387097 0 31397632.707387097 -24265759.790025808 0 0 0 0 -77812987.693542004 269651533.85971975 0 269651533.85971975 107408642.10915852 0 0 0 0 428840293.72216797 193944104.04010201 0 193944104.04010201 18174788.023731232 0 0 0 0 -91881114.112950325 23157282.447844505 0 23157282.447844505 51653874.103131294 0 0 0 0 6707377.5604486465 173687611.22754049 0 173687611.22754049 -15174043.592339516 0 0 0 0 239019595.0420723 138979772.42615509 0 138979772.42615509 35307193.817920685 0 0 0 0 185203770.53873825 221873934.6831913 0 221873934.6831913 99850823.342124939 0 0 0 0 147306164.55657959 91755061.567951202 0 91755061.567951202 62810830.854959488 0 0 0 0 118521737.70705032 125161660.47128296 0 125161660.47128296 38905855.237075806 0 0 0 0 24192788.488498688 58214458.538936615 0 58214458.538936615 54246706.76574707 0 0 0 0 54657887.766960144 205193468.70101285 0 205193468.70101285 101283076.34658051 0 0 0 0 204820871.15494251 235659111.22850847 0 235659111.22850847 49628537.393939972 0 0 0 0 3727951.5568612218 14820643.544121567 0 14820643.544121567 -16606449.320916355 0 0 0 0 328317353.83496857 182128700.9424305 0 182128700.9424305 23018688.670553207 0 0 0 0 -187316135.69676208 -5104810.6465110779 0 -5104810.6465110779 11801219.094219208 0 0 0 0 160809265.04846191 178246613.29845428 0 178246613.29845428 43059523.293281555 0 0 0 0 -77175799.692443848 -12655729.30355835 0 -12655729.30355835 -32963360.54258728 0 0 0 0 -71794999.340270996 7079394.4154968262 0 7079394.4154968262 -26425469.722816467 0 0 0 0 -54459770.057647705 28793605.169021606 0 28793605.169021606 -9522121.6870880127 0 0 0 0 -104877040.37652588 -688362.45965576172 0 -688362.45965576172 5055364.9900817871 0 0 0 0 -103565901.18093872 -23169424.083190918 0 -23169424.083190918 -21008468.603515625 0 0 0 0 -120321730.08520508 -14357107.97013855 0 -14357107.97013855 -5870133.9748382568 0 0 0 0 -60607028.359993339 72430602.969699025 0 72430602.969699025 54926238.866165161 0 0 0 0 -131297753.80482483 41410892.914070129 0 41410892.914070129 22556320.451126099 0 0 0 0 -61698627.216140747 36091001.064605713 0 36091001.064605713 8562285.0417480469 0 0 0 0 -76569312.639663696 54519359.288879395 0 54519359.288879395 41574461.786956787 0 0 0 0 31805839.144828796 114373649.03491211 0 114373649.03491211 4775763.9144287109 0 0 0 0 -35046018.902755737 36959336.777740479 0 36959336.777740479 18740389.505393982 0 0 0 0 -113440243.23108292 107997113.57557678 0 107997113.57557678 4681394.8129577637 0 0 0 0 -68063952.795013428 64245808.821289062 0 64245808.821289062 -3249830.1977081299 0 0 0 0 -79628747.955947876 40745604.405418396 0 40745604.405418396 -3454342.2486001551 0 0 0 0 -166079269.18191528 154232930.23629761 0 154232930.23629761 -59097266.062850952 0 0 0 0 -216810499.27413559 135880841.46206808 0 135880841.46206808 -56218271.985389709 0 0 0 0 53697194.421279907 225125699.04353333 0 225125699.04353333 -187325501.99657822 0 0 0 0 -130266154.08446503 286456947.44770813 0 286456947.44770813 -107551395.96767044 0 0 0 0 -298172689.78005981 301106483.23810577 0 301106483.23810577 -96127390.561042786 0 0 0 0 -146714086.56303358 368229485.02714348 0 368229485.02714348 -67920495.890083313 0 0 0 0 2008818.966089502 2184432.8815714493 0 2184432.8815714493 -2195382.5451964587 0 0 0 0 209573629.65346622 222572938.87339115 0 222572938.87339115 54058877.330596924 0 0 0 0 191991922.45864487 84182251.405220032 0 84182251.405220032 -57975988.738128662 0 0 0 0 40610731.509098053 76556296.104248047 0 76556296.104248047 86570338.743598938 0 0 0 0 16009832.952558517 -25166782.365938187 0 -25166782.365938187 -252869682.62841797 0 0 0 0 371608561.98706627 60589959.381822586 0 60589959.381822586 -32550055.589813232 0 0 0 0 1349860.3300383296 2631402.5924381129 0 2631402.5924381129 -404998.19353929162 0 0 0 0 156422939.04171753 181980091.77511597 0 181980091.77511597 70554891.039676666 0 0 0 0 155953908.60632324 -1880605.7941246033 0 -1880605.7941246033 21014233.950141907 0 0 0 0 121425131.8941555 19057521.101539612 0 19057521.101539612 -22762306.487106323 0 0 0 0 53544478.336986542 50636977.911552429 0 50636977.911552429 19511584.917709351 0 0 0 0 80738286.202274323 56619460.309381485 0 56619460.309381485 -41525790.638191223 0 0 0 0 -42581515.296894073 77847082.234107971 0 77847082.234107971 36998372.863601685 0 0 0 0 -26957127.229740143 95078654.338539124 0 95078654.338539124 53742310.488021851 0 0 0 0 75483736.641759872 131290032.30564117 0 131290032.30564117 62384803.191940308 0 0 0 0 11144923.491004944 73975233.942626953 0 73975233.942626953 30262233.957462311 0 0 0 0 -5844759.7720336914 100319619.53289795 0 100319619.53289795 45319777.578329086 0 0 0 0 33790325.081050873 65404894.944194794 0 65404894.944194794 54713167.773452759 0 0 0 0 -40242185.938465118 55574031.091350555 0 55574031.091350555 36920365.710083008 0 0 0 0 -56862229.691848755 61414666.226821899 0 61414666.226821899 51643508.334234238 0 0 0 0 40286776.609645844 29495713.956970215 0 29495713.956970215 3253166.1354980469 0 0 0 0 4172573.690251682 32408811.864653934 0 32408811.864653934 13391025.593685344 0 0 0 0 -30058755.93183136 59228824.296796799 0 59228824.296796799 20487110.193878174 0 0 0 0 -40023411.659385681 42376165.045013428 0 42376165.045013428 11550981.787780762 0 0 0 0 11761144.535871018 13260891.842859093 0 13260891.842859093 -19397504.676234439 0 0 0 0 90802465.084152222 124646084.11013794 0 124646084.11013794 105134319.71111679 0 0 0 0 40031157.921793453 55193773.305541068 0 55193773.305541068 -26444119.745245337 0 0 0 0 -38544187.196739197 70816785.11290741 0 70816785.11290741 9017449.1497802734 0 0 0 0 44643776.428998232 13586715.944583893 0 13586715.944583893 -301864018.60009766 0 0 0 0 48299290.580062866 30413897.453468323 0 30413897.453468323 -226170289.06987 0 0 0 0 -31431435.020866394 105287535.77256489 0 105287535.77256489 18635742.095298767 0 0 0 0 31458823.887309246 45428718.630550586 0 45428718.630550586 34524637.89465984 0 0 0 0 -119022405.1399411 91113494.04642868 0 91113494.04642868 173364382.80300903 0 0 0 0 9076891.5200639144 19242978.319786049 0 19242978.319786049 7897859.1080756783 0 0 0 0 33351266.799095735 22153220.357851006 0 22153220.357851006 -71061969.530710325 0 0 0 0 308208139.88435769 373782988.73764801 0 373782988.73764801 -92664125.68307209 0 0 0 0 37005275.243928924 21346090.034282163 0 21346090.034282163 -73042715.449477434 0 0 0 0 130650220.590065 140333485.14201736 0 140333485.14201736 -27236563.739379883 0 0 0 0 213457600.9440155 173521749.27667236 0 173521749.27667236 -17770119.513343811 0 0 0 0 102167704.60384941 80906101.589302063 0 80906101.589302063 117495662.86516571 0 0 0 0 299923718.91223145 44545863.60087204 0 44545863.60087204 -84242455.897239685 0 0 0 0 130400656.52689302 111101338.24845886 0 111101338.24845886 -23697264.21963501 0 0 0 0 136286112.69269896 42608658.055460215 0 42608658.055460215 -55256199.2602005 0 0 0 0 86296802.631535053 168535078.78390932 0 168535078.78390932 194449970.34724426 0 0 0 0 14080370.467762332 2126282.2750960886 0 2126282.2750960886 -20625498.712187394 0 0 0 0 -9148107.1102218628 18612476.85150528 0 18612476.85150528 -33431115.771903992 0 0 0 0 9676746.2768116277 15578712.852128379 0 15578712.852128379 4032859.2432038486 0 0 0 0 -22717165.65984726 -24582595.511386871 0 -24582595.511386871 61207918.419176102 0 0 0 0 -78217863.486448288 43068261.86652565 0 43068261.86652565 37575327.336566925 0 0 0 0 -9391437.2350387573 -44938345.985855103 0 -44938345.985855103 10263627.598705292 0 0 0 0 71254099.364280701 -13827622.213085175 0 -13827622.213085175 -17490731.375106812 0 0 0 0 -57786866.66657877 23439390.817409039 0 23439390.817409039 1198705.5254745483 0 0 0 0 -65429362.958618164 -3785473.988571167 0 -3785473.988571167 11859613.924781799 0 0 0 0 -4147574.3479796797 1236938.2552807834 0 1236938.2552807834 317397.18365724757 0 0 0 0 -56307227.651353836 17317114.285362244 0 17317114.285362244 6279828.9848709106 0 0 0 0 -59115914.753929138 141221144.29082108 0 141221144.29082108 -80465413.958625793 0 0 0 0 29602287.969242096 -96664079.46937561 0 -96664079.46937561 123253318.54901457 0 0 0 0 -115116725.52021503 52777864.641067505 0 52777864.641067505 138254185.74313354 0 0 0 0 -453442416.7827034 466297042.99021149 0 466297042.99021149 -91112179.993396759 0 0 0 0 8425106.8533477783 265275764.06655884 0 265275764.06655884 -138709615.86852264 0 0 0 0 1499015.5754680857 465387.5669567883 0 465387.5669567883 -1566830.504774034 0 0 0 0 -377388069.16087723 342892760.15367126 0 342892760.15367126 -288511180.12372971 0 0 0 0 -424532976.45093918 534156619.60575485 0 534156619.60575485 -436120580.23645782 0 0 0 0 -43732080.508924484 36540416.748962402 0 36540416.748962402 35426066.465240479 0 0 0 0 -320224166.54984283 303088784.63474274 0 303088784.63474274 -433060190.80184078 0 0 0 0 877660.83932293206 1052740.4371031448 0 1052740.4371031448 -1313837.6850293353 0 0 0 0 -222464458.30632687 331853066.90320587 0 331853066.90320587 -371455236.54070282 0 0 0 0 -489824986.5668354 448194219.88201332 0 448194219.88201332 -305822029.37107849 0 0 0 0 -416514593.04032135 148648070.84733582 0 148648070.84733582 -36519169.167247772 0 0 0 0 -388269964.12444305 349222238.4513588 0 349222238.4513588 -171968188.63729858 0 0 0 0 32731791.251113892 90501135.542324066 0 90501135.542324066 -163177412.01305771 0 0 0 0 2343387.4763994403 2586041.0455229618 0 2586041.0455229618 -2495943.1802356839 0 0 0 0 -77146141.130680084 81132219.043682098 0 81132219.043682098 -175282850.83078003 0 0 0 0 -276831988.98407745 128484735.38051605 0 128484735.38051605 147530393.21330261 0 0 0 0 1894677.5861552227 3737173.9864588715 0 3737173.9864588715 1595964.8235368729 0 0 0 0 -185682438.06471062 247586115.58426666 0 247586115.58426666 -66516328.362594604 0 0 0 0 -317747368.22269058 211107314.11205292 0 211107314.11205292 -256981360.90618134 0 0 0 0 -153106430.89333534 283981078.59050941 0 283981078.59050941 -231907531.17471313 0 0 0 0 -159666451.71205139 143380923.36756897 0 143380923.36756897 -134775456.50553894 0 0 0 0 -4856449.4407059625 2194925.2200727388 0 2194925.2200727388 1005606.660754256 0 0 0 0 -428090528.20085239 423310781.63442421 0 423310781.63442421 -256869784.22369385 0 0 0 0 -284668312.48932552 266549217.11917591 0 266549217.11917591 -270094214.80421448 0 0 0 0 -50638354.267040253 14813911.516096115 0 14813911.516096115 19672340.922473907 0 0 0 0 -97959132.788716316 82890547.886167526 0 82890547.886167526 79307186.322212219 0 0 0 0 10422247.025532456 17391761.233879555 0 17391761.233879555 3003011.7090010643 0 0 0 0 408798833.2910881 4588349.7913131714 0 4588349.7913131714 -40310420.502532959 0 0 0 0 549812130.33533192 242169823.45586967 0 242169823.45586967 -26401500.105178833 0 0 0 0 678244724.48409653 261269273.75622177 0 261269273.75622177 -169070108.22392654 0 0 0 0 422084841.63887024 189668176.19782829 0 189668176.19782829 -32663112.257659912 0 0 0 0 39405696.165031433 -25999304.979732513 0 -25999304.979732513 35783060.594654083 0 0 0 0 406997402.23182678 167783292.65883064 0 167783292.65883064 74280665.72618103 0 0 0 0 877341.08655238152 -1112232.1414106824 0 -1112232.1414106824 -1760824.813087862 0 0 0 0 191855093.94683075 -18456812.55991745 0 -18456812.55991745 112978327.82048035 0 0 0 0 27790349.332468033 34279637.33543396 0 34279637.33543396 35557244.074058533 0 0 0 0 112554954.81513596 69905890.656236649 0 69905890.656236649 15486786.708984375 0 0 0 0 403664770.87399292 80996236.892528534 0 80996236.892528534 -74975586.757637024 0 0 0 0 558953231.28985977 -185182301.65839005 0 -185182301.65839005 14488517.62545681 0 0 0 0 660133596.21733093 -125860741.95501328 0 -125860741.95501328 -148046165.02935028 0 0 0 0 108412892.17136383 67467353.609825134 0 67467353.609825134 121307884.775177 0 0 0 0 215423947.62091827 71212647.189743042 0 71212647.189743042 -56738223.338432312 0 0 0 0 295268081.19050217 166863128.59425354 0 166863128.59425354 9897698.8938522339 0 0 0 0 1519969.3798007369 -779845.99569454789 0 -779845.99569454789 -876425.06819125637 0 0 0 0 -35363033.101800919 -55159859.269680977 0 -55159859.269680977 29634671.976646423 0 0 0 0 273241422.01002502 47340454.751689911 0 47340454.751689911 -91431656.287275314 0 0 0 0 846370505.04071426 105842591.42341995 0 105842591.42341995 -95484110.526618004 0 0 0 0 755752689.23666191 -255596688.5512886 0 -255596688.5512886 27822842.289966583 0 0 0 0 488497900.39523506 -137898712.86246681 0 -137898712.86246681 489464116.90817261 0 0 0 0 394859275.23745918 388548591.2338829 0 388548591.2338829 281468521.29285431 0 0 0 0 3061920.1402803548 2314251.6676283814 0 2314251.6676283814 1914125.028878659 0 0 0 0 261015116.12672234 -262649009.74371147 0 -262649009.74371147 800809016.32419968 0 0 0 0 754066125.95001984 401159439.83440208 0 401159439.83440208 -198541701.73666382 0 0 0 0 533322458.38196182 420593914.76105881 0 420593914.76105881 387985314.40574169 0 0 0 0 642271862.57994747 183802955.91866589 0 183802955.91866589 -248377679.09947205 0 0 0 0 5158214.5925649628 6182809.4183456209 0 6182809.4183456209 7853073.650415346 0 0 0 0 189590431.13519096 -304729663.87141418 0 -304729663.87141418 251082478.14458466 0 0 0 0 -224334593.33098793 -216373039.53510666 0 -216373039.53510666 -34549734.027423859 0 0 0 0 218522780.38628387 -57359686.004314423 0 -57359686.004314423 49458061.114421844 0 0 0 0 -91524849.680492401 -23337091.834381104 0 -23337091.834381104 245836199.48141253 0 0 0 0 -133940707.16643715 218914067.79855347 0 218914067.79855347 -81607298.064918518 0 0 0 0 -89046803.462825775 16866296.959280014 0 16866296.959280014 139208176.67144775 0 0 0 0 -266580323.98611832 121707613.0921402 0 121707613.0921402 164949745.63211823 0 0 0 0 -192072552.65011215 44868600.838542938 0 44868600.838542938 174826608.62015152 0 0 0 0 -657310317.27432632 239381156.79397964 0 239381156.79397964 97930416.017539978 0 0 0 0 -165136686.68526363 447197507.92240524 0 447197507.92240524 -256116428.68872833 0 0 0 0 -22300534.267211914 206637279.6598053 0 206637279.6598053 -85163340.417633057 0 0 0 0 154096210.20649719 318459759.43798828 0 318459759.43798828 -330128428.75796509 0 0 0 0 -92735831.534290314 285275528.44165993 0 285275528.44165993 -167103980.15797424 0 0 0 0 156170508.65198517 152401061.07884216 0 152401061.07884216 -233109598.11229134 0 0 0 0 -26801235.980918884 150346610.90283203 0 150346610.90283203 -227279491.73072052 0 0 0 0 125654177.04475403 338591757.2247467 0 338591757.2247467 169014836.213902 0 0 0 0 5051865.901708737 1435967.5137140863 0 1435967.5137140863 -6572647.3867091537 0 0 0 0 91038290.812255859 973249863.07172394 0 973249863.07172394 187451548.21508789 0 0 0 0 -7644983.1780014038 -147904875.37127686 0 -147904875.37127686 558270610.43478394 0 0 0 0 -669915582.40453911 205248861.41772556 0 205248861.41772556 54199543.573738098 0 0 0 0 -8465.0124787315726 5337757.7796122432 0 5337757.7796122432 4262763.5502219424 0 0 0 0 12303502.859413147 62644450.681373596 0 62644450.681373596 -381780579.24412537 0 0 0 0 -566128407.2529068 -19285799.601581573 0 -19285799.601581573 30140896.717082977 0 0 0 0 11166590.459630366 23444734.335465714 0 23444734.335465714 23927990.801596481 0 0 0 0 -374654799.52422714 -11642866.886219025 0 -11642866.886219025 12813953.336641312 0 0 0 0 -326881929.23446655 238859783.95439529 0 238859783.95439529 40696506.729068756 0 0 0 0 4511520.5841903687 53572506.3840065 0 53572506.3840065 -3396466.4018096924 0 0 0 0 4051308.7199392319 51145040.034438133 0 51145040.034438133 -12247536.661102295 0 0 0 0 16251424.980083942 46320035.152635813 0 46320035.152635813 -16265561.368972778 0 0 0 0 -46603254.515613556 351266622.66317749 0 351266622.66317749 114759199.4616394 0 0 0 0 -102197680.88739777 -1227636.3252601624 0 -1227636.3252601624 320657431.76311874 0 0 0 0 -132029427.30045319 179176215.45277023 0 179176215.45277023 -268693126.62801743 0 0 0 0 -489797399.04390335 383343053.54512405 0 383343053.54512405 16650398.395427704 0 0 0 0 -411212548.51675415 300450285.63021851 0 300450285.63021851 47323723.811401367 0 0 0 0 -134028218.21916962 226985310.79466629 0 226985310.79466629 -6715694.1525115967 0 0 0 0 -343971370.2497673 339000800.69453239 0 339000800.69453239 -148503649.83045959 0 0 0 0 52934109.682823181 271950839.2792511 0 271950839.2792511 -27574118.197511673 0 0 0 0 225287990.82380867 124154989.55931091 0 124154989.55931091 3628446.142539978 0 0 0 0 -70891756.822147369 160550639.2554512 0 160550639.2554512 -98067278.250846863 0 0 0 0 -49249788.283367157 268816091.20335388 0 268816091.20335388 -109009690.99011278 0 0 0 0 825999.99841462821 10277.511488288641 0 10277.511488288641 -1419879.8039455041 0 0 0 0 -446690082.29280221 462446963.83409464 0 462446963.83409464 -85998985.72088623 0 0 0 0 9029674.4165192209 17958146.00303768 0 17958146.00303768 26540163.895621546 0 0 0 0 -34793632.47277832 88294544.746923447 0 88294544.746923447 -37946220.785415649 0 0 0 0 -69127730.435909271 57894224.276889801 0 57894224.276889801 -15920786.313079834 0 0 0 0 -20951357.784404755 55887830.037763596 0 55887830.037763596 -51765971.330070496 0 0 0 0 -463695542.02688348 156060550.68371928 0 156060550.68371928 -260917809.18087769 0 0 0 0 -464584952.79286957 644724849.99885559 0 644724849.99885559 -189018492.0106883 0 0 0 0 17729916.150886536 43497753.937163353 0 43497753.937163353 -14856675.463554382 0 0 0 0 21265766.631225586 44002707.611484528 0 44002707.611484528 -23904795.948450089 0 0 0 0 6180007.8347511292 55190180.316025734 0 55190180.316025734 -20768319.992168427 0 0 0 0 -41547960.084472656 66748656.385911942 0 66748656.385911942 -12968356.877246857 0 0 0 0 -11109050.540687561 42866952.066584587 0 42866952.066584587 -11711170.174797058 0 0 0 0 7426170.4486083984 54027446.218254089 0 54027446.218254089 -33384214.659378052 0 0 0 0 -21367272.749900818 61398476.437164307 0 61398476.437164307 -18384614.049156189 0 0 0 0 -1324340.6392440796 51008654.850237846 0 51008654.850237846 -16273304.644275665 0 0 0 0 3776112.4944381714 55323715.751895905 0 55323715.751895905 -34073566.996326447 0 0 0 0 28731481.080207825 44154925.663196564 0 44154925.663196564 -22818499.592532158 0 0 0 0 23031358.113983154 33841071.803699493 0 33841071.803699493 -5754869.3134765625 0 0 0 0 18469256.070526123 43129878.088338852 0 43129878.088338852 -13412134.921695709 0 0 0 0 33694606.616289616 40397471.589344978 0 40397471.589344978 -17798650.8227005 0 0 0 0 49217528.885810852 43584420.897428036 0 43584420.897428036 -2983007.2816429138 0 0 0 0 19510927.05040741 32673710.456531525 0 32673710.456531525 35540815.879018784 0 0 0 0 26554502.62877655 28182612.59299469 0 28182612.59299469 -6672314.3760890961 0 0 0 0 3967609.3568725586 44713598.973731995 0 44713598.973731995 -509156.7223777771 0 0 0 0 -6992676.8643798828 36058877.380859375 0 36058877.380859375 -6713725.3897380829 0 0 0 0 8334986.3979415894 47993737.900359154 0 47993737.900359154 1987556.7949447632 0 0 0 0 41499899.839492798 42559332.409086227 0 42559332.409086227 26071433.241514206 0 0 0 0 15435786.164649963 22410840.460519791 0 22410840.460519791 13380321.463943481 0 0 0 0 32312512.521500185 31777775.273564432 0 31777775.273564432 26400261.16658248 0 0 0 0 47649947.172168732 3019101.6940765381 0 3019101.6940765381 25040869.139938354 0 0 0 0 -151804800.91871834 219784795.88607651 0 219784795.88607651 -43968786.412423611 0 0 0 0 8173785.4295468293 15013242.173814254 0 15013242.173814254 21183508.749515034 0 0 0 0 -70358210.010700226 117040460.75948524 0 117040460.75948524 -47057529.012355804 0 0 0 0 -11862648.636306763 68662137.653371811 0 68662137.653371811 -69729234.782757759 0 0 0 0 -12789161.49747467 68136328.408998489 0 68136328.408998489 -30312593.197532654 0 0 0 0 -30092870.721195221 37188304.089162827 0 37188304.089162827 7470977.046792984 0 0 0 0 1422098.5470466614 41465769.641757965 0 41465769.641757965 32426876.762853622 0 0 0 0 -594271.74584197998 58470786.299236298 0 58470786.299236298 21930279.939258575 0 0 0 0 -72174617.301086426 9270703.6890411377 0 9270703.6890411377 48279296.490711212 0 0 0 0 -26637348.232643127 87700518.066133499 0 87700518.066133499 52692150.819396973 0 0 0 0 -10216942.696662903 112229212.55938911 0 112229212.55938911 89284961.496711731 0 0 0 0 -80827688.935585022 159635036.52744293 0 159635036.52744293 61780971.950357914 0 0 0 0 6439609.6099166311 10174169.678040622 0 10174169.678040622 12058685.242286902 0 0 0 0 -168989484.89443207 275200324.75881577 0 275200324.75881577 537427184.0099659 0 0 0 0 -72334674.102897644 17111710.642845154 0 17111710.642845154 312384063.5921936 0 0 0 0 -1224701304.4002838 698975504.24538803 0 698975504.24538803 -51179510.645278931 0 0 0 0 -32548115.676551819 797638767.84653473 0 797638767.84653473 -247019070.45130205 0 0 0 0 2837683.6232295409 134200.93548628688 0 134200.93548628688 -2450741.3599535003 0 0 0 0 -383332027.61110473 -171462597.58297706 0 -171462597.58297706 -126697127.68210602 0 0 0 0 2011371121.1375923 -424469338.1042366 0 -424469338.1042366 -623274574.04940414 0 0 0 0 582691237.22195435 -877059674.21826172 0 -877059674.21826172 -382314553.83627319 0 0 0 0 2977114219.2951355 2117538420.1791382 0 2117538420.1791382 2776140114.0457916 0 0 0 0 4561247.0241203196 -120146.40844000317 0 -120146.40844000317 -3360011.9620323032 0 0 0 0 32024355.897010088 -543453551.45818114 0 -543453551.45818114 -338958960.44766998 0 0 0 0 -51719233.899436951 -452112392.39621162 0 -452112392.39621162 584183234.07084656 0 0 0 0 -630754339.01180267 -472231946.50294113 0 -472231946.50294113 253996410.03007507 0 0 0 0 -678375730.73846436 -658573838.4929142 0 -658573838.4929142 -420053983.63420105 0 0 0 0 269257790.41026306 470515696.05801392 0 470515696.05801392 -631661875.95370483 0 0 0 0 270493507.51554871 642867230.99767303 0 642867230.99767303 180812707.06328011 0 0 0 0 -897937247.67713928 -2366561175.2613029 0 -2366561175.2613029 -996016939.91714478 0 0 0 0 749119313.12364197 1189906285.6451912 0 1189906285.6451912 771627127.55175018 0 0 0 0 1780427740.7503223 -226637558.77809811 0 -226637558.77809811 -133668099.44962311 0 0 0 0 13946984.04570026 -3720361.0419056453 0 -3720361.0419056453 -148792.36526251957 0 0 0 0 379204460.26889038 703184074.45881271 0 703184074.45881271 1987954823.2740874 0 0 0 0 148930723.34831238 -607229341.67878723 0 -607229341.67878723 607659397.77124882 0 0 0 0 238967859.90367126 -107434666.29853821 0 -107434666.29853821 -10560759.112831116 0 0 0 0 1006206313.7070122 379816925.11120415 0 379816925.11120415 32159620.505432129 0 0 0 0 64307719.66505146 33637668.715116262 0 33637668.715116262 955739088.04391479 0 0 0 0 404115578.87586212 524847415.73770142 0 524847415.73770142 753883975.23220444 0 0 0 0 2128337475.7468033 1083838671.5251923 0 1083838671.5251923 444696997.41161346 0 0 0 0 891218791.86078644 106761931.05596542 0 106761931.05596542 -76409395.871835709 0 0 0 0 814071428.40923691 -50309203.389383316 0 -50309203.389383316 -437162463.22484207 0 0 0 0 1311938754.2980995 17536868.074764252 0 17536868.074764252 -400736931.43299103 0 0 0 0 690179084.54938316 -175333663.62112617 0 -175333663.62112617 -395866139.28701782 0 0 0 0 570881383.88372803 258816192.59122849 0 258816192.59122849 -161486577.28199005 0 0 0 0 525301928.72509766 68721656.02016449 0 68721656.02016449 -164707224.10771179 0 0 0 0 376719895.69389343 57333383.215717316 0 57333383.215717316 -156956449.93478394 0 0 0 0 401258811.94700623 241446625.87921906 0 241446625.87921906 -157866493.90188408 0 0 0 0 432284170.14476013 -124850570.41177368 0 -124850570.41177368 -518367672.23419189 0 0 0 0 567841793.90610504 5829921.5834884644 0 5829921.5834884644 -406304902.18846893 0 0 0 0 581854638.73512268 -60090530.864162445 0 -60090530.864162445 -145646726.03251672 0 0 0 0 546889782.15585423 -41768082.777461767 0 -41768082.777461767 -202716533.7636261 0 0 0 0 529406269.01405334 -164820449.71849823 0 -164820449.71849823 -302420039.17485809 0 0 0 0 101330321.96781158 -96065687.48405838 0 -96065687.48405838 -186869319.76016617 0 0 0 0 -87314937.488662243 104304293.64249134 0 104304293.64249134 -86604359.8931427 0 0 0 0 317872008.05190277 112580988.07577705 0 112580988.07577705 -118781327.13529968 0 0 0 0 -165319151.0830574 87058559.506858826 0 87058559.506858826 -183601449.85691833 0 0 0 0 158389028.37252045 -22631747.582546234 0 -22631747.582546234 -167800929.61089325 0 0 0 0 -263539102.73323059 -358888446.35754585 0 -358888446.35754585 -100226947.02033997 0 0 0 0 502485227.52081871 -337611580.30991173 0 -337611580.30991173 -175343657.9074707 0 0 0 0 646804180.80661011 -172352889.26879883 0 -172352889.26879883 -301992404.42488146 0 0 0 0 
</DataArray>
<DataArray type="Float64" Name="cross_section_updated" format="ascii">
1 1 1 1 1 0.017534999506435996 1 1 1 1 1 1 1 0.018851367938434324 1 1 1 1 0.017212007949414257 1 1 0.021493423255574545 1 1 1 1 0.0097183937871883116 1 1 1 1 0.013523075802772958 1 1 1 1 1 1 1 1 1 1 1 1 1 0.019681391514423593 1 1 0.02001352770023123 1 1 1 1 1 0.02016808033055742 1 1 1 1 1 1 1 0.0087570970157041274 1 1 1 1 0.019081266073729786 1 1 1 1 1 1 1 1 1 0.017784807711304196 1 1 0.020612252239666014 1 1 0.022895807671744914 1 1 1 1 0.020267164156985439 1 1 1 1 1 1 1 0.019253283807617351 0.019995952585438941 0.019316905067361653 1 1 0.019268108202856359 1 1 1 1 1 0.019801450624878782 1 1 1 1 1 1 1 1 1 1 1 1 1 0.020146577203002784 1 1 1 0.020073849351944426 1 1 1 1 1 1 0.02014784062455223 1 1 1 1 1 1 1 1 1 1 1 1 1 1 1 1 1 1 1 1 1 1 1 1 1 0.019911202273189578 1 1 1 0.017920674601539566 1 1 0.019995819906999182 1 1 1 1 1 1 1 1 1 1 1 0.019987032374351465 1 1 1 1 1 1 1 1 0.019906267772427474 1 1 1 1 1 1 1 1 0.020258740355483779 1 1 1 1 1 1 1 1 1 0.019281904178780607 1 1 1 1 1 1 1 1 1 1 1 1 1 1 1 1 1 1 1 1 1 1 1 0.019994025460595331 1 1 1 0.0081764743011288159 1 0.020113332559862813 1 0.015978418144761381 1 1 0.025751263257287875 1 1 1 0.022895475120355557 1 0.016430006669763884 1 0.020034511554869596 1 0.016640567241440071 0.015117598469862249 1 0.01865097609787399 1 1 0.017749200413191175 1 0.022677924181087744 1 1 1 0.017641672372871092 1 0.017570495647102266 0.020381984311750336 1 1 0.021948077851214758 1 1 1 0.018694778479071913 1 0.024897111637168762 0.02253031010581177 0.018326426021400083 1 0.020031324163614792 1 1 1 0.019993088340041647 1 0.021664646587269944 0.017566497412519838 0.019733643042264673 1 1 0.023043778452183732 0.023554357843914835 1 1 1 1 0.027044704448834965 1 0.020000642096930865 1 1 0.022425626811357655 1 1 1 0.018789417589752076 1 0.019308134499607058 0.017305227368068644 0.019321809590708651 1 1 1 0.021515560035333076 1 0.017587062009095471 0.024896416327684967 0.020662088400446008 0.02339845740904848 1 1 1 0.018668625101756244 0.019999248919360394 1 1 0.015072682084588521 0.023269608713575262 0.023378995465018846 1 0.021719092648701734 1 1 1 1 0.019987563415097592 1 1 1 1 1 1 1 0.02225891230328093 1 1 1 1 1 1 0.018920509491618283 0.019990244946483264 1 1 1 0.022831665009912031 1 1 1 0.020015374210219834 1 0.023544183343783304 1 0.015660160491315508 0.025555294350823342 1 1 1 1 0.020101316631260354 1 1 0.027679626804847788 1 1 1 1 0.0199567323810712 1 0.019988468630513782 1 1 1 1 1 0.016795903042883056 0.026762720270159045 1 1 1 1 1 1 1 1 0.019881122857330659 1 1 1 0.019428957308550533 1 1 0.018857846242243514 1 0.019998597479729124 1 1 1 1 1 1 1 1 1 1 1 0.025202408813240484 1 0.017705393845657336 1 0.023998242001946904 1 1 1 0.019313823554126995 1 0.020037420471908884 1 0.018051202734551911 1 1 1 1 1 1 0.021764909586541044 1 0.01744204338393307 1 1 1 0.021826146288300853 1 1 1 0.025258977297749001 1 0.017237182019233719 0.027273051521971008 1 1 1 1 0.018339155010485615 1 1 1 1 0.012024793423534286 0.028184947763018445 1 1 0.023732745509348945 1 0.022463270855455464 1 0.021663443624773366 0.022829301899850354 1 1 1 0.019995880896085456 1 1 1 1 0.014866805567145293 1 1 1 1 1 1 1 1 1 1 1 0.019978659799557742 1 1 1 1 0.023940945786269253 1 1 1 0.016483670880523764 1 0.022460571883505937 0.019453529895990165 0.0199994641697246 1 1 1 0.026503544224184876 0.016530962294176756 1 0.013389037865158543 1 1 0.018698629165345454 1 1 1 1 0.016428717250466591 1 1 1 1 1 1 1 1 1 1 1 0.013592765647752894 0.031988414498958957 1 1 0.014820825594871669 1 1 1 0.020040008396646908 1 1 1 1 1 1 0.024981744559743384 1 1 1 0.019741609360350527 1 1 1 0.018995630630524316 1 1 1 1 1 1 1 1 1 1 1 0.025772834687021375 1 1 1 0.026453929298134438 1 1 1 1 1 1 1 0.019123704389500264 1 1 1 1 1 0.017503507554848686 1 1 1 1 1 1 1 1 1 1 1 1 1 1 1 1 1 1 1 0.020805838803340977 1 1 1 1 0.020655382891775854 1 1 0.020283478210312678 1 1 1 1 1 1 1 0.020287138468560794 1 1 1 1 1 1 1 1 0.019981449484995951 1 0.020871909490077736 1 1 0.018288284335815752 1 1 1 0.018907173020285585 1 1 0.020931442438983941 1 1 1 0.018630409014328577 1 0.019853108732545421 1 1 0.020006561781831161 1 0.01906976546139106 1 1 1 1 1 1 1 1 1 1 1 1 1 1 1 1 1 1 1 1 1 1 0.019889261634488828 1 0.019241059972089608 1 0.019752811942584485 1 1 1 1 1 1 1 1 1 1 1 1 1 1 1 0.019928578782505934 1 1 1 1 1 1 1 1 1 0.019960682851982894 1 1 1 1 1 1 1 1 1 1 1 1 1 1 1 1 1 1 1 1 1 1 1 1 1 1 1 1 1 0.019932914684317144 1 1 0.020020840489898752 1 1 1 0.018235553547460703 0.02415568789402946 1 0.023818209249151109 1 1 1 1 1 0.0184674110465445 1 1 1 1 1 0.018768400394211047 1 1 1 1 1 1 1 1 1 1 1 1 1 1 1 1 1 1 1 1 1 1 1 1 1 1 1 1 1 1 1 1 1 1 1 1 1 1 1 1 1 1 1 1 1 1 1 1 1 0.020578358426201596 1 1 1 1 1 1 1 1 1 1 1 1 1 1 1 0.023108849684201807 1 1 1 1 0.021302914935684761 1 1 1 1 1 1 1 1 1 1 1 1 1 1 1 1 1 1 1 1 1 1 1 1 1 1 1 0.020908622560054844 1 1 0.018061454348464061 1 0.014847472905446763 0.021436746087952784 0.020760402339535189 0.027825699243229789 1 1 0.019935877251300107 1 1 1 1 1 1 1 1 1 1 1 1 1 1 1 1 1 0.013559650954187669 1 1 0.019446084647081377 1 0.021486834134213539 1 1 1 1 0.011914403970037617 1 0.018238803059172269 1 1 1 1 0.019728539152695061 1 1 1 0.020557678617537007 1 1 1 1 1 0.018491543775914627 1 0.021328314633914321 1 1 0.019721133684234001 0.021893760540437335 1 0.019752496375783527 1 1 1 1 1 1 1 1 1 1 1 0.012631874132325895 1 1 1 0.014781814289286994 1 1 1 0.020223232655382398 1 1 0.010094001154102202 0.020003073912828809 0.019988417554529823 1 1 1 1 1 1 1 1 1 1 1 0.019935339085365131 1 1 1 1 1 1 1 1 0.010979611262108111 0.0042859763398418009 0.011858425886361018 1 1 1 1 1 1 1 1 0.0076305090480366551 0.019883482204784357 1 1 1 0.020068485333755614 1 1 0.018787380005303476 1 1 1 1 1 1 1 1 1 1 1 0.019616050594972109 1 1 1 1 1 1 1 1 0.019520528900003116 1 1 1 1 1 1 1 1 1 1 0.02001595261138844 1 0.020949832616928763 0.018572997991913146 0.014889669816852129 1 1 1 1 1 1 1 0.0089668781179417581 0.0072972162292297242 1 0.02222359302323032 1 1 1 1 1 0.021204164083476244 1 0.019887169186181976 0.018099288558854905 1 1 1 0.018292099612985734 1 0.018326103628264138 1 1 1 1 0.019929733086105197 1 1 1 1 1 1 1 1 1 1 1 1 1 1 1 1 1 0.021342983352519659 1 1 1 0.019380169942631614 1 1 1 1 1 0.020625095695445544 1 1 1 1 1 1 0.019712631179484824 1 0.019912929708781221 1 1 1 1 1 1 1 1 0.018669065359542377 1 1 1 0.023015121176962101 1 1 1 1 1 1 1 1 1 1 1 1 1 1 1 1 1 1 1 1 1 1 1 1 1 0.017994447701875207 0.020072581013011119 0.029578636028266308 1 1 1 1 0.018575807458724555 1 1 1 1 0.017089238624464223 1 1 1 1 1 1 1 0.021124328521481443 1 1 1 1 1 1 1 1 0.021923834972156317 1 1 1 1 1 1 1 1 1 1 1 1 0.022691571751175595 1 1 1 1 1 1 0.020561919468447213 1 1 1 1 1 1 1 1 0.018909779052856956 1 1 1 0.027032330192913741 1 1 1 1 1 1 1 1 1 1 1 1 0.020799506450674861 1 1 1 1 1 1 1 1 1 1 1 1 1 1 1 1 1 1 1 1 1 1 1 1 1 1 1 1 1 1 1 1 1 1 1 1 1 1 1 1 1 1 1 1 1 1 1 0.019715984045937232 1 1 1 1 1 1 1 1 1 1 1 1 1 1 1 1 1 1 1 1 1 1 1 1 0.020867512799545528 1 1 1 1 1 1 1 1 1 1 0.019918700053440909 1 1 0.022381739134852491 1 1 1 1 1 1 1 1 1 0.019626043363154974 1 0.019257532994728287 1 1 1 1 0.023563510282000422 1 1 0.019342043189554854 1 0.018467217919107545 1 1 1 1 1 0.018983447925284936 1 1 1 1 1 1 1 1 0.02125106855989134 1 1 1 1 1 1 1 1 1 1 1 1 1 1 0.019004026735260977 1 0.021349375500131385 0.019988350466850841 1 1 1 1 1 0.02000056704172402 1 1 1 1 1 1 1 1 1 1 1 1 1 1 1 0.019684138122912177 1 1 1 1 1 1 1 1 1 1 1 1 1 1 1 1 0.019880393786333966 1 1 1 1 1 0.016775459307212505 0.019466134971182193 1 1 0.018486312038826416 1 1 1 1 1 1 1 1 1 1 0.019142874013280745 1 1 1 1 1 1 1 1 1 0.016988093220064074 1 0.039944429401619769 1 1 1 1 1 0.019043172767429371 1 1 1 1 0.038931690488479234 1 1 1 0.016408022098359488 1 1 1 0.035486712361702831 1 1 0.018490573811680101 1 1 1 1 1 1 1 1 1 1 1 1 1 1 1 1 0.018248355585756479 1 1 1 1 1 1 1 0.019403779862756536 1 1 1 1 1 1 1 1 1 1 1 1 1 1 1 1 1 1 1 1 1 1 1 1 1 1 1 0.035094683315612635 1 1 1 1 0.019493211197104409 1 1 1 0.0031334873637221365 1 1 1 1 1 1 1 1 1 0.0038711213191753233 1 0.020006193885250257 1 1 1 1 1 1 1 1 1 1 1 1 1 1 1 1 1 1 0.020033449292362664 0.031127284547141313 1 1 1 0.017693514854179523 1 1 0.026373313319951644 1 1 0.021412247925417488 1 1 1 0.019829464786339849 1 1 0.020499127217399493 1 1 1 1 1 1 1 1 1 1 1 1 1 1 1 1 1 1 1 1 0.019709858572673811 1 0.021517214471998836 1 1 1 1 1 1 1 1 1 1 1 0.02346066689174256 1 0.023962474055801451 1 1 1 0.0095050502694936749 1 1 1 1 1 0.019979960786476562 1 1 1 1 1 1 0.014376377531832359 1 1 1 1 1 1 1 1 1 1 1 0.017039063636667896 1 1 1 1 1 1 1 1 0.0071037973080785508 1 1 1 0.014874407402669749 1 1 0.019560348504107865 1 1 1 1 1 0.021937745410775387 1 1 1 1 1 1 1 1 1 0.020046108896973568 1 1 0.02992576396213879 1 0.02485376124855973 1 0.01609533788696698 0.02406560955023886 0.02150023418502197 1 0.019855765784210219 1 1 1 1 1 1 0.014571381545406194 1 1 1 1 1 1 0.020538024928295973 1 1 1 1 1 1 1 0.014244402304139946 1 1 1 1 0.014045551637864789 1 1 1 1 1 0.022868864018211796 1 0.019958063693005117 1 1 1 1 1 1 1 1 1 1 0.021458552020304771 1 1 1 1 1 1 1 0.01522176292017572 1 1 1 1 1 1 1 0.020010389261906444 1 0.022206521269000801 1 1 1 1 1 1 1 1 0.029563945491253893 1 1 1 0.028411039246827842 0.020060331539587976 1 1 1 1 1 0.028583587517724489 0.020006407537981059 1 0.028194781135651853 1 1 0.014061897787543819 1 1 0.013534790442702355 1 1 1 1 1 1 1 1 0.007753154657917382 1 1 1 1 1 0.037566867545019762 1 1 1 1 0.030916539725359786 1 1 0.029850453811740923 1 1 1 1 1 1 1 1 1 1 1 1 1 1 1 1 1 1 1 1 1 1 1 1 1 1 1 1 1 1 1 1 1 1 1 1 1 1 1 1 1 0.018962150090827523 1 1 0.020140605607652996 1 1 1 1 1 0.021326676049461077 1 1 1 1 0.01900854653737457 1 1 1 1 1 1 1 1 1 1 1 1 1 1 1 1 1 1 1 1 1 1 1 1 0.021262160886715731 1 1 1 0.02057763007879455 1 1 1 1 1 1 0.020202823930453161 1 1 1 1 1 1 1 1 1 1 1 0.023118830009664717 1 0.017232961757046826 0.023115194317369227 1 1 0.022414762117777993 1 1 1 1 1 1 1 1 1 1 1 0.027063619319716691 1 1 0.0229840815390032 1 1 1 1 1 1 1 1 1 1 1 1 1 1 1 0.024811816886281139 1 1 1 1 1 1 1 0.019950274609192228 1 0.021687263616904824 1 1 1 1 0.017266430197236667 1 0.018739737634307588 1 1 1 1 1 1 1 1 1 0.01755719351972488 1 1 1 1 1 1 1 1 1 1 1 1 1 1 1 1 1 0.01789204725968643 1 1 1 1 1 1 1 1 1 1 1 1 1 1 1 1 1 1 1 1 1 1 1 1 1 0.018007036020771736 0.019954182177595828 1 1 1 1 1 1 1 1 1 1 1 0.017712119858269589 1 1 1 1 0.013225562676573458 1 1 1 1 0.014932021696236492 1 1 1 1 1 1 1 1 0.022946068956570007 1 1 1 1 1 1 1 1 1 0.020493099696198145 1 1 1 1 1 1 1 1 1 1 1 1 1 1 1 1 1 1 1 1 0.0026835972832258848 1 1 1 1 1 1 1 1 1 1 1 1 1 1 0.024785215392514427 1 0.020211492250245305 1 1 1 1 1 1 1 1 0.023917367610954313 1 1 0.020414316180698461 1 1 1 1 1 1 1 1 1 1 1 1 1 1 1 1 1 1 1 1 1 1 1 1 1 1 1 1 1 1 1 1 1 1 1 1 0.020227095633673108 1 1 0.020213897503964112 1 1 1 1 0.017800969278046148 1 0.021950696047707306 1 1 0.020443820518493656 1 0.021783816389020147 1 1 1 1 1 0.020802986797760308 1 1 1 1 1 1 1 1 1 1 1 1 0.010754347016015721 1 1 1 0.016425093041715837 1 1 1 1 1 1 1 1 1 0.023503856938321552 1 1 1 1 0.021773807604095554 0.018560682465272524 1 1 1 1 1 1 1 1 0.0200191982912231 1 1 1 1 1 0.032808467635921962 1 1 1 0.028557064718486933 1 1 1 0.0048436854451785229 1 1 1 1 0.025350883718641592 1 1 1 1 1 1 1 1 1 1 1 1 1 1 0.010647159715269774 1 1 1 1 1 1 0.017612967597221935 1 0.011617671157433413 0.020000769574129405 1 0.018194292095795768 1 0.02310671704405701 1 1 1 1 0.019706169106354414 1 1 1 1 0.019222291758718084 1 1 1 1 1 1 1 1 1 0.020825170284503505 1 1 1 1 1 1 1 1 1 1 1 1 1 1 0.021805999875763343 1 1 1 0.020036654634404169 1 1 1 0.020047009809454348 1 0.020130957493524268 1 1 1 1 1 1 1 1 1 1 1 1 1 1 1 1 0.021227333921469801 1 1 1 1 1 1 0.023999079287200069 1 1 1 1 1 1 1 1 1 1 1 1 1 1 1 1 1 1 0.032184999852104677 1 1 1 1 1 1 1 1 1 1 1 1 1 1 1 1 1 1 1 1 1 1 1 1 1 1 1 1 1 1 1 1 1 1 0.018682929901534414 1 1 1 1 0.020143912513176605 1 1 1 1 1 1 1 0.028295925362635924 1 1 1 1 1 1 1 1 1 0.011137880312973374 1 1 0.03397068582416865 1 1 1 1 1 0.019992910156044708 1 1 1 0.017587869244133046 1 1 0.020525038136916363 1 1 1 1 1 1 1 1 1 1 1 1 1 1 1 1 1 1 1 1 0.010146993974590684 1 1 1 1 1 1 1 1 1 1 0.025361276526340508 0.0095047053689070096 1 0.033487790656538431 1 1 1 1 1 0.035290389626527419 1 1 1 1 0.022515352750251211 1 1 1 1 1 0.019677307851395178 1 0.019749560279102771 1 1 0.016318573870605375 1 1 1 1 1 1 1 1 0.018760034532320956 1 1 1 1 1 1 0.020209161438240517 1 1 1 1 1 1 0.020363320788458001 1 1 1 1 0.021072750898377863 1 1 0.020019048858514746 1 0.02174921523620758 1 1 0.020068218735416074 1 1 1 1 1 1 0.020583917969518604 1 1 1 1 0.020001547500574736 1 1 1 1 1 1 1 1 0.02044986685726239 0.022589561112226458 1 1 1 1 1 1 1 1 0.019714337690581819 1 1 1 1 1 1 0.019960426995416964 1 1 1 1 1 1 1 0.021171538521626565 1 1 1 0.024231728556429782 1 1 1 1 1 1 1 1 1 1 1 1 0.016361741971070258 1 1 1 1 0.014782232930635505 1 1 0.021065677534846953 1 1 1 1 0.020088971065503489 1 1 1 0.020079027672549748 0.020908114787494592 1 1 1 0.020183998634471068 1 1 1 0.014848416297268904 1 1 1 1 1 1 1 1 1 0.021701800382465837 1 1 1 0.020027580045716475 1 1 1 1 1 1 1 1 1 1 1 1 0.018137451467676629 1 0.019977630052792458 1 1 0.011566349777074648 1 1 0.014142478482560322 1 1 1 1 1 1 1 0.02003826052541725 1 1 1 1 1 0.019900679616495123 1 0.010776740322978238 1 1 1 0.019341703080029249 0.020881188269258642 1 0.025997827312814782 0.015380633714012278 1 0.014843888921361056 1 1 1 1 1 1 0.02054466149932303 1 0.031300878351604056 1 1 1 1 1 1 1 1 1 1 1 1 1 0.019959153528533308 1 1 0.023207523731906946 1 0.021707913755060045 1 1 0.027112852383718064 1 1 1 0.022205532114812004 0.018191101240838121 1 1 0.029316647268755998 1 1 1 1 1 1 1 1 1 1 1 1 1 1 1 1 1 1 1 1 1 1 1 0.019104571010591213 0.019972038298017927 1 0.020100878517877074 1 0.020094850093104338 1 1 0.020002254212428031 0.020312222477675772 1 1 0.019997626740792408 1 1 0.02070866486979072 1 1 0.019592666661540185 1 0.020171835919036134 1 1 1 1 0.020028757651388958 1 1 1 1 0.01974661810308118 1 0.019005414546504246 0.020911452407516205 1 0.021103440412800684 1 1 0.019799522015009105 0.018579359948876974 1 1 1 0.020310076058478631 1 1 1 1 0.023384904264417271 0.019052213277589589 1 1 1 1 1 0.020005332447094171 1 1 1 1 1 1 1 1 1 1 1 0.022836876888072021 1 0.017154360838141564 1 0.013611122305079996 1 1 0.020000920843644972 1 0.013378018046655532 1 1 1 1 1 1 1 1 0.019656529036858418 1 1 0.021157475735238802 1 1 1 1 0.020000783167429315 1 1 1 1 1 1 1 1 1 1 1 1 0.019683488563094716 1 1 1 1 1 1 1 1 1 1 1 0.020165873742677715 1 1 1 1 1 1 0.020180484871654795 1 0.02085462186341875 1 1 0.020474044612668458 1 1 1 1 1 1 1 1 1 1 1 1 1 1 1 1 1 0.018895195205497758 0.017956095302068847 1 1 1 0.019853131823589026 1 1 0.016775394612396344 1 1 1 1 1 1 1 1 1 1 1 1 1 1 1 1 1 1 1 1 1 1 1 1 1 0.020007768385364524 0.010984351907219359 1 1 1 1 1 1 1 1 1 1 1 0.0097139615220755843 1 1 1 1 1 1 1 1 1 1 1 1 1 1 1 1 1 1 1 1 1 1 1 1 1 1 1 1 1 1 1 1 1 0.019665010193120259 1 1 1 1 1 0.01976384783339271 1 1 0.021297830555082532 1 1 0.016441327950860677 0.034196506991963749 1 1 1 1 1 1 1 1 1 1 1 1 1 0.032921476628074486 1 1 0.02044484279891947 1 1 1 1 1 1 0.019991505757403404 1 1 0.031202453110295611 1 1 1 1 1 1 1 1 1 1 1 1 1 0.030801024042819213 1 1 1 1 1 1 1 0.019986936567605109 1 1 1 1 1 1 1 1 1 1 1 1 0.020288209291883273 1 1 0.020107724420228481 1 1 1 1 1 1 1 1 1 1 1 1 1 1 1 1 1 1 1 1 0.028512798760095302 1 1 0.020163844507468404 1 0.022911063070008446 1 1 1 0.019942009124003676 1 1 0.016874600890888807 1 0.025811922810201247 1 1 1 0.016532754330312746 1 1 1 1 0.019852393831140142 1 1 1 1 1 1 1 0.019616302370651342 1 1 1 0.018828996677165349 1 1 1 1 1 1 1 1 1 1 1 1 0.020998643964891896 1 1 1 1 1 1 1 1 0.020621705561940495 1 1 1 1 1 1 1 1 1 1 1 0.018729571855791854 1 1 1 1 1 1 1 1 1 1 1 1 1 1 1 1 1 1 1 0.02175429312775554 0.017959498541162463 1 1 1 0.019322126892087604 1 1 1 1 1 1 1 1 1 1 1 1 0.020406733313169566 1 1 1 1 1 1 1 1 1 0.021118232803005291 1 1 1 1 1 1 1 1 1 1 1 1 1 1 1 1 0.015958585199587202 1 0.01925133188798215 1 1 1 1 1 0.016936620876620252 1 1 1 1 0.020139539790985178 1 1 1 0.020028719415557446 1 1 1 0.018198111415270158 1 1 1 1 1 1 1 1 1 0.019238006531140647 1 1 1 0.017941710953781109 1 1 0.019686502134211942 1 1 1 1 1 1 0.019797827537258811 1 1 1 1 1 1 1 1 0.019687329845201561 1 1 1 0.019769503846099646 1 1 1 1 1 1 1 1 1 1 1 1 1 1 1 1 1 1 1 1 1 1 1 1 1 1 1 0.018935016788114864 1 1 1 1 1 1 1 0.019548779181128552 1 1 1 1 1 1 1 1 1 1 1 1 1 1 1 1 1 1 1 1 1 1 1 1 1 0.019937986269008418 1 0.020011586977751718 1 1 1 1 1 1 0.019491800640865226 1 1 1 0.020088068209322889 1 1 0.020225859223830044 1 1 1 1 1 1 1 1 1 1 1 1 0 1 1 1 1 1 0.00080997662071122592 1 1 1 1 1 1 1 1 1 1 1 1 1 0.019565401349608519 1 1 1 0.019100944292783896 1 1 1 1 1 1 1 1 1 1 1 1 0.01751219545458875 0.028185678071780768 1 1 1 1 0.028581899462574622 1 1 1 1 1 1 1 1 1 0.019984676694239721 0.015833298880351825 1 1 1 1 1 0.0136187136945362 1 1 1 1 1 0.019789184496518814 1 1 1 1 1 0.020064736431439162 1 0.013247113406163247 1 1 1 1 0.019410852676537881 1 0.018613163208398977 1 0.025719383286308545 0.020021446325289932 1 1 1 1 1 1 1 0.020147228370426616 0.019088467996624385 1 1 1 1 1 1 0.020007875240332977 0.021822509159185103 0.022164566791101788 1 0.017120855682572933 0.01849101557615852 1 1 1 0.022924959931152549 1 1 1 1 1 0.025812814075746295 0.019968846804591711 0.02000142844814513 1 0.02386739023136758 1 1 1 0.019938967001514322 1 0.02006796228920343 0.020385208870213931 1 1 1 1 1 1 1 0.019503117085208146 0.021185918478411274 1 1 0.020094399705604289 0.015377746044445036 0.022953795945469091 1 1 1 1 1 1 1 1 1 1 1 1 1 1 1 1 1 1 1 1 1 1 1 1 1 1 1 1 1 1 1 1 1 1 1 1 1 1 1 1 0.01995458650736677 1 1 1 1 1 1 1 1 1 1 0.019458452049149536 1 1 1 1 1 1 0.018330623794449382 1 1 0.016695926567478609 1 1 1 1 1 1 1 1 1 1 1 1 1 0.021159320769382064 1 0.023520253493500013 1 1 1 1 0.021179125196675686 1 1 1 0.027074562997064556 1 1 0.027961374432693701 1 1 1 0.019978149623768916 1 1 0.019942563926739043 1 1 1 1 1 0.019921120712275545 1 1 1 1 1 1 1 0.019962982321905642 1 1 1 1 1 1 1 0.027981820141302301 1 1 0.027751107977978404 1 1 1 1 0.019039347367916289 1 0.020421004622791884 1 1 1 1 1 0.016788073079016572 1 1 1 1 0.021113863298457446 1 1 1 1 1 1 0.023441240293404352 0.0097939251973026796 1 1 1 1 1 0.028770839177229487 1 1 0.020783627980099365 1 1 1 1 1 1 1 1 1 1 0.020084933658653371 1 1 1 1 1 1 1 1 1 1 1 1 1 1 1 1 1 1 0.020036807557566896 1 1 1 1 1 1 0.020060098647011301 1 1 1 1 1 1 1 0.017800912352472553 0.020153004209397495 1 1 1 1 0.019968455242111618 1 1 1 1 1 1 1 0.02044915999683997 1 1 0.010551560306987007 1 0.020026530585166985 0.026906617148575201 0.012478323643586062 1 1 1 1 1 1 0.012959486720477337 1 1 1 1 1 0.020001638432068838 1 1 1 1 0.013914527306517672 1 1 1 0.023857161322350891 1 1 1 0.02371512516555746 1 1 1 1 1 1 1 1 1 1 1 1 1 1 1 1 1 1 1 1 1 1 1 1 1 0.021694893445569473 1 1 1 1 1 1 1 0.021632594456955964 1 0.022313636749595734 1 1 1 1 1 1 0.028985070318348394 1 1 0.021226026402974156 1 1 1 0.019954485084793229 1 1 0.018813143206629884 1 1 1 1 1 0.019817924442962705 1 1 1 0.019945763904424197 0.019706554218542522 1 1 1 1 1 1 1 1 1 1 1 1 0.020807275418737056 1 1 1 1 1 1 1 1 1 0.022404843650971808 1 1 1 1 1 0.019955135846496292 0.013688259737003047 1 1 1 1 1 1 1 1 1 0.019178342857800987 1 1 1 1 1 1 1 1 0.015981852267334819 1 1 1 1 1 1 1 1 1 1 1 1 1 1 1 1 1 1 0.018997102750960636 1 1 1 1 0.017826099428125977 1 0.01865220873225797 1 0.019690448679972841 1 1 1 1 1 1 1 1 1 1 1 1 1 1 1 1 1 0.01989201360525087 1 1 1 1 1 0.016541438159893493 1 1 1 0.021495001365209793 0.014892417494693146 1 1 1 1 1 0.017305871227731986 1 1 1 1 0.018300570670765685 1 1 1 1 1 1 1 1 0.015846306018358347 1 1 1 1 1 1 1 0.017354053395531581 1 1 1 1 1 1 1 1 1 0.020300204991254202 1 1 1 1 1 1 1 1 1 1 1 1 1 1 1 1 1 1 0.019800232785374402 1 1 1 1 1 1 1 1 1 1 1 1 1 0.020509023046765048 1 1 1 1 1 1 0.020007070920589527 1 1 0.019917825999101919 1 1 0.020043183829062158 1 1 1 1 1 1 1 1 1 1 1 1 1 1 1 1 1 1 1 1 1 1 1 1 1 1 0.020097326727765808 1 0.019753862202877261 1 0.020003686263995415 0.020530610638852705 1 1 1 0.021503090046742043 1 1 1 1 1 1 1 1 1 0.019462528935784897 0.021514237678026307 1 0.032774413701975792 1 1 1 1 1 1 1 1 1 1 1 1 1 1 0.019998094827312837 1 0.016810835281551379 0.016811146841060397 1 0.025631745987717145 1 1 1 1 1 1 1 1 1 0.01655451335080256 0.01969464749364697 1 1 1 1 1 1 1 1 1 1 1 1 1 1 1 1 1 1 1 1 1 1 0.020767086255943083 1 1 1 1 1 0.019525718232779453 1 1 1 1 1 0.018403356770245641 1 1 1 0.023223859789107779 1 1 1 1 1 1 1 1 1 0.021822069596711541 1 1 1 1 0.032811969638938593 1 1 1 1 1 1 0.017704215424547701 1 1 1 1 1 1 1 0.019065617193552091 1 1 1 1 0.017349297499125199 1 1 1 1 1 1 1 1 1 1 0.020648807082756338 1 1 1 1 0.019469270167742664 1 1 1 0.027142407290870595 1 1 1 1 1 0.011837702329321007 1 1 1 1 1 1 1 1 1 1 1 1 1 1 0.016561489944210743 0.03272248140070793 1 1 0.027581566480713013 1 1 1 1 1 1 1 0.018786594296957101 1 1 1 1 1 1 0.018052993732876995 1 1 1 1 1 1 1 1 1 1 1 1 1 1 1 1 1 1 1 1 1 1 1 0.015151784906988715 1 1 1 1 1 1 1 1 0.019914812763630076 1 1 1 1 0.020058668704628132 1 1 1 1 1 0.013620946124104239 1 0.020042666353168429 1 0.021778076890972671 1 1 1 1 1 1 1 0.020009631005329299 1 1 1 0.020061171243999552 1 1 1 1 1 0.022401249587670362 1 1 1 1 1 0.020017495995811603 1 0.019996944844852732 1 1 0.020232213150958703 1 0.021314368947785097 1 1 1 1 1 0.018179375750489748 1 1 1 0.014669247662564555 1 1 1 1 1 1 1 1 1 1 0.020082153044764201 1 1 1 1 1 1 1 1 1 1 1 1 1 1 1 1 1 1 1 1 1 1 0.01744743566927924 1 1 1 1 1 1 1 1 1 1 1 1 1 1 1 1 1 1 0.013367935471155539 1 1 1 0.010547700793966226 1 1 1 1 1 1 0.027830474665041436 1 1 1 0.021874117586250935 0.022057154279325815 1 0.014787825137576441 1 0.021107252409311186 0.024539068670063644 1 0.025328180400976851 1 1 0.020003219842358689 1 1 0.020264143234987382 0.019991185718679173 1 1 1 1 1 1 1 1 0.019965119819172098 1 0.019999872043431358 1 1 1 1 1 1 1 1 1 1 1 1 1 1 1 1 1 1 1 1 1 1 0.023546624613393088 1 1 1 1 1 1 1 1 0.025278053675785679 1 1 0.020178658915827274 1 1 0.026819619785271785 0.020096706236344561 1 1 0.0200298981888496 1 1 1 1 1 1 1 1 1 1 1 1 1 1 1 1 1 1 1 1 1 1 1 1 1 1 1 1 1 1 1 1 1 1 1 1 1 1 1 0.026914921641615887 1 0.027163267868391166 1 1 1 1 1 1 1 1 1 1 1 1 1 1 1 1 1 1 1 1 1 1 1 1 1 1 1 1 1 1 1 1 1 1 1 1 1 1 1 1 0.01709125937816167 1 1 0.015756538122248982 1 1 1 1 1 0.020582542268960564 1 0.020399339589363477 1 1 0.018770665038008953 1 1 1 1 1 1 0.019053589085921956 1 1 1 1 1 1 1 1 1 1 1 0.019839398577498155 1 1 0.033463769835674048 0.025184259817776375 1 0.027625805976456298 1 1 0.013185855414608302 1 1 1 1 0.027157557830672759 1 1 1 1 1 1 1 1 1 0.01996779766560873 1 0.031830956676451264 1 1 1 1 1 1 1 0.020105316578532262 1 0.016208425057017341 1 1 1 1 1 1 1 1 1 0.020244892816551438 1 0.016585382243492975 1 1 1 1 1 1 1 1 1 1 0.020812620808020842 1 1 1 0.031277287433088913 1 1 0.019997496754356078 1 1 0.022574247801250849 1 1 1 1 0.021492032064235424 1 1 1 0.02003611290847265 1 1 1 1 1 1 1 1 1 1 1 1 1 1 0.020485789664196511 1 1 1 1 1 1 0.020099095249344247 1 0.01998679781767362 1 0.031107760308091165 1 1 1 0.019894441851597732 1 1 1 1 1 1 1 1 0.032637948270221505 1 1 1 1 1 0.019997894609854849 1 1 0.033476397659172534 1 1 1 1 1 1 1 1 1 0.025848967593226919 1 1 1 0.022088213798161952 1 1 1 1 1 1 0.02909991470172087 1 1 1 1 1 1 1 1 1 1 1 1 1 1 1 1 1 1 1 1 1 1 1 1 1 1 1 1 1 1 1 0.017982426207177937 1 1 1 1 1 0.019441711190219292 1 1 0.018988096503543196 0.018811136828190942 1 1 1 1 0.016371287327942532 1 1 1 1 1 0.019475762250404569 1 1 1 1 1 1 1 1 1 1 1 1 1 1 1 1 0.019083474791902491 1 1 1 1 1 1 1 1 0.01810655951843983 0.016370030543117284 1 1 1 1 1 1 0.018098611704579923 1 1 1 1 0.021076696946586499 1 1 1 1 1 1 1 1 1 1 1 1 1 1 1 1 1 1 1 1 1 1 1 1 0.018444070584894057 1 1 0.019545119169618624 1 1 1 1 1 1 1 1 1 1 1 1 1 1 1 1 1 1 1 1 1 1 1 1 1 1 1 0.018916968015080003 1 0.017765852027715325 1 1 1 1 1 0.015569549038416959 1 1 1 1 1 1 1 1 1 1 1 1 1 1 1 1 1 1 1 1 0.022240304341232 0.016616327517311798 1 0.021152656732605617 1 1 1 1 1 1 1 1 1 1 1 1 1 1 1 1 0.020495752471277679 1 1 1 0.02013365596110948 1 1 1 1 1 1 1 1 1 1 1 1 1 0.017803697010701645 1 1 1 1 1 1 1 1 1 1 1 1 1 1 1 1 1 1 1 1 1 1 0.034101519346240318 1 1 1 1 1 1 1 1 1 1 1 1 1 0.032406371080067893 1 0.0058920928373187229 1 1 0.022957673920617053 0.012653806189555297 1 1 1 1 1 1 1 1 1 1 1 1 1 1 1 1 1 1 1 1 0.020093647532124559 1 1 0.040722862444387393 1 1 1 0.020899319327155001 1 1 1 1 1 1 0.040815008988680491 1 1 1 0.021108789734254278 1 1 1 1 1 1 1 1 0.020057069497416823 1 1 0.016640162028244747 1 1 0.029196942821369344 1 0.029085412952452531 1 1 1 1 0.026376734094694258 0.031657505660570601 1 1 0.024689527796326344 0.029486742875369315 1 1 0.011766133311326666 1 1 1 1 0.021176700395235837 1 1 0.013394351169110238 0.0080378016240901969 1 0.020018706118495107 1 1 1 1 1 1 1 1 1 1 1 1 1 1 1 1 1 1 1 1 0.012309779132911081 1 1 1 1 0.013203546406791895 1 1 1 1 0.019581484282128352 0.019880228407096023 1 1 1 1 1 1 1 1 1 1 1 1 0.020038997146795811 1 1 1 0.00086546790407357119 1 1 1 1 1 1 1 0.0030675834997250188 1 1 1 0.020165335618425487 1 1 0.020452318313539362 0.019790268066251376 1 1 1 0.0047417657615577199 1 1 1 0.019939453991659133 1 1 1 1 1 1 1 1 1 1 1 1 1 1 1 1 1 1 0.019873374144250562 1 1 1 1 1 1 1 1 1 1 1 1 1 1 1 1 1 1 0.02010005102076216 0.019736505837095995 1 1 1 1 1 0.019763497975198156 0.020252900594008857 1 0.019893986102104057 1 1 1 1 1 1 1 1 1 0.029469655354111599 1 1 1 0.027810457214138148 1 1 1 1 1 1 1 1 1 1 1 1 1 1 0.03214491929137539 1 1 1 1 1 1 1 0.024531629453069595 1 1 0.026152767982800824 1 1 1 1 1 1 0.010297084435378186 1 1 1 1 0.011334159949587379 1 1 1 1 1 1 0.018342420746501813 1 1 1 1 1 1 1 1 0.020135172383004121 0.0094233083988030548 1 1 1 0.019819990750518008 0.012682501476678229 1 1 1 1 1 0.020027215542047665 1 1 1 1 1 1 0.021889139866423272 1 1 1 1 0.019686627121407878 1 1 1 1 1 0.020637154145686634 1 1 1 1 0.017487091541000928 1 1 1 1 1 1 1 1 1 1 1 1 1 1 1 1 1 1 1 1 1 1 1 1 1 0.020258411129918399 1 1 1 1 0.025510832227951516 1 0.025743928552222749 1 0.025380418415655127 1 1 0.027901616920946472 1 1 0.013586678182172306 1 1 0.018538665099994502 1 1 1 1 1 1 0.021086513958175918 1 1 0.02048864294533604 1 0.020217845635192598 0.013492909745130227 0.021121900633464676 1 1 0.01043158522180284 1 0.019162801160617023 0.01544580779134775 1 1 1 0.016881836881134052 1 0.020065804219174629 1 1 1 1 1 1 0.019866755647482252 1 1 1 0.01996557571174155 1 1 1 1 1 1 1 0.022632896548394295 1 1 1 0.021259646796630765 1 0.020327404735035776 0.020447714360658897 1 1 1 1 1 1 1 0.018703766205548946 1 1 1 1 1 1 1 1 0.019595427816910024 0.022475229213286294 1 1 1 1 0.023025887333411023 1 1 0.023090116718815869 1 1 1 0.019998836408715151 1 1 1 0.022015178764546593 0.020896251714551502 1 1 1 1 0.019929618457313805 1 1 1 1 1 0.020541515283897638 0.021867083419751042 1 1 1 1 1 1 1 1 1 1 1 1 1 1 1 1 1 1 1 1 1 1 1 1 1 1 1 1 1 1 1 0.018943022497110856 1 1 1 0.020086559621361761 1 1 1 1 1 1 1 1 1 1 1 1 1 1 1 0.020934791850093951 1 0.019950084234744776 0.0182553260786886 1 1 0.021526515723537091 1 1 1 1 1 1 1 1 1 1 1 1 1 1 1 1 1 1 1 1 1 1 1 0.019805869509459926 1 1 0.021739300428212809 0.019982044628845168 1 1 1 1 1 1 1 0.021449140596957138 1 1 1 0.018840898258817788 1 1 1 1 0.019692642364501148 0.019895930534503916 1 1 1 1 1 1 1 0.02201635312927288 1 1 1 1 0.021253825937522057 1 1 1 1 0.02041115862052198 1 1 1 1 1 1 1 1 1 1 1 1 1 1 1 1 1 1 1 0.019376480208530562 1 1 1 1 1 1 1 1 1 1 1 1 1 1 1 1 0.019964029978484493 1 1 1 0.01992883883822754 1 1 1 1 1 1 1 1 1 0.020444803757592007 1 1 1 1 1 1 1 1 1 1 1 1 1 1 1 1 1 1 1 1 1 0.019900051302860287 1 1 1 1 1 1 1 1 1 1 1 1 1 1 1 1 1 0.019543156030450492 1 1 1 1 1 0.019909388014542562 1 1 1 1 1 1 1 1 1 1 1 1 1 1 1 1 1 1 1 1 1 1 1 1 1 1 1 0.020006877107920214 1 1 0.0066472623073484428 1 1 1 0.0049479545144426838 1 1 1 1 1 1 1 1 1 1 1 1 1 1 1 0.010676642752716915 1 0.01861044365032381 1 1 1 1 1 1 1 1 1 0.012206633988728753 1 1 1 1 1 1 1 1 1 0.018286907765372801 0.014926199379781752 1 1 1 1 1 1 1 1 1 1 1 1 1 1 1 1 1 1 1 1 1 1 1 1 1 1 1 1 1 1 1 1 1 1 1 1 1 1 1 1 1 1 1 1 1 1 1 1 1 1 1 1 1 1 1 1 1 1 1 1 1 1 1 1 1 1 1 1 1 1 1 0.018337251645026222 1 1 1 1 1 1 0.015499952098401167 1 1 1 1 1 1 1 1 1 0.018322411378136186 1 0.015449608218747751 1 1 1 1 1 1 1 1 1 1 1 1 1 1 1 1 1 1 1 1 1 1 1 1 1 1 1 1 1 1 1 1 1 1 0.022530152091505898 1 1 1 0.019540172314786938 0.019394811230423487 1 1 1 1 1 1 1 1 1 1 1 1 1 1 1 1 1 1 1 1 1 1 0.02087799005319671 0.019579175684523345 1 1 1 1 1 1 1 1 0.017311801628534233 1 1 1 1 1 1 0.016428320690952493 1 1 1 1 1 0.018965451622847934 1 1 1 1 0.019592487334083961 1 1 1 0.020586959957110993 1 1 1 0.019825284385003215 1 1 0.018547335307397592 1 1 1 1 1 1 1 1 1 1 1 1 1 0.019757134726127758 1 1 1 1 1 1 1 1 0.017655172458591432 1 1 1 1 1 1 1 1 1 1 1 0.02066358953338842 1 1 1 0.02018324920084847 1 1 1 1 0.018989830705917376 1 1 1 1 1 1 1 1 0.018611878413031167 1 0.023062408678949278 1 1 0.015357589457887674 1 1 1 1 1 0.02174073225931538 1 1 1 1 1 1 1 1 1 1 1 1 0.019523007293699688 1 1 1 1 1 1 1 1 1 0.018201165901172146 1 1 1 1 1 1 0.018967120399109277 1 1 1 1 1 1 1 0.019094393860502577 1 1 1 1 1 0.018617401154202254 1 1 1 1 1 1 1 1 1 1 1 1 1 1 1 1 1 1 1 1 1 1 1 1 1 1 1 1 1 1 1 1 1 1 1 1 1 1 1 1 1 1 1 1 1 1 1 0.020449143881037447 1 0.02109423500358211 1 1 1 1 1 1 1 1 1 1 1 1 1 1 0.019959164637636129 1 1 1 1 1 1 1 1 1 1 1 1 1 1 1 0.015600558544533703 1 1 0.020700203305815255 1 0.023132242933611016 1 1 1 1 1 0.022508852042174721 1 1 1 1 1 1 1 1 1 1 1 1 1 1 1 1 1 1 1 1 0.016469182265299129 1 1 1 1 1 1 1 1 1 1 1 0.015360836571274374 1 0.020255678804450963 1 1 0.014644346526684695 1 0.02925066508784406 1 1 1 1 1 1 1 0.019742881138898907 1 0.0050537449919474536 1 1 1 1 6.5718467070102413e-05 1 1 1 1 0.02080346289828109 0.01488977646993149 1 1 0.016541890208453772 1 1 1 1 1 1 1 1 1 1 1 1 1 1 1 1 0.018442549780755265 1 1 1 1 1 1 1 1 1 1 1 1 1 1 0.015511955549180161 1 0.019900385227744899 1 1 1 1 1 1 1 0.045372995534126506 1 0.0408172190439429 1 1 1 1 1 1 1 1 1 0.019758188375316805 0.0012120820780461489 1 1 1 0.012985286819914196 1 1 1 1 0.030377366495518102 1 0.016855453333262854 1 1 0.020243589261752813 1 0.030264954072284755 0.030065670289292433 0.019893979201353679 1 1 0.02000978710057099 1 1 1 0.023935370278940618 0.016561072954745348 0.009431062816852475 1 1 1 1 1 1 1 1 1 1 1 0.012638194457485818 1 1 1 1 1 1 0.00052278515236162592 1 1 1 0.019950545286634258 1 1 1 1 1 1 1 1 0.01558572012363893 1 1 1 0.018484190284043359 1 1 1 1 1 1 1 1 1 1 1 1 1 1 1 1 1 1 1 1 1 1 1 1 1 1 1 1 1 1 1 1 1 1 1 1 1 1 1 1 1 1 1 1 1 1 1 1 1 1 1 1 1 1 1 1 1 1 1 1 0.021500460758484583 1 1 1 1 1 0.023952028804374512 1 1 1 1 0.021187845791644216 1 1 1 0.025016410649018328 1 1 1 1 1 1 1 1 1 1 1 1 1 1 1 1 1 1 1 1 1 1 1 1 1 1 1 1 1 1 1 1 1 1 1 1 1 1 1 1 0.018536792500830405 1 1 0.015764825827938866 1 1 1 1 1 1 1 0.020726326965605665 1 1 1 1 1 1 1 1 1 1 1 0.022215323293215728 1 1 0.019989341084963298 1 0.023312851137988422 1 1 1 0.013179603687721982 1 1 1 1 1 1 1 1 0.019840076308704543 1 1 1 1 0.020736228733148006 1 1 1 1 0.011419110119676102 1 0.02286532812663717 1 1 1 1 1 1 1 1 1 1 1 1 0.013000892448116662 1 0.012021293928433348 1 1 1 1 1 1 1 1 1 1 1 1 1 0.020601758745466953 1 1 1 1 1 1 1 1 1 0.021040721840576926 1 1 1 0.02043896309510999 1 1 1 1 1 1 1 1 1 1 1 1 1 1 1 1 1 1 1 1 1 1 1 1 1 1 1 1 1 1 1 1 1 1 1 0.023487068604102938 1 1 0.019897383574397017 1 1 1 1 0.018241188611632285 1 1 1 1 1 1 1 1 1 1 1 1 1 1 1 0.02197149864513363 1 1 1 1 1 1 1 1 1 0.018951406253042487 1 0.020708699927744854 1 1 1 1 1 1 1 0.019595960257352624 1 1 1 1 1 1 1 1 1 1 1 1 1 1 0.018808291411018179 1 1 1 1 1 1 1 1 1 1 1 0.017406608032123627 1 1 1 1 1 1 1 1 1 1 1 1 1 1 1 1 1 1 1 1 1 1 1 0.019289646106356844 1 0.020588728364888592 1 1 1 1 1 1 0.013530197431506871 1 0.021482033426137474 1 1 1 0.012737017548367174 1 1 1 0.027590734879534024 1 1 1 0.011872062453428589 1 1 0.025457465657332666 1 1 1 1 1 1 1 0.022145554916718067 1 1 1 1 1 1 1 0.014217473811451187 1 1 1 1 1 1 1 1 1 1 1 1 1 0.017738137189860032 1 1 1 1 1 1 1 1 0.011907955564410117 1 1 1 1 1 1 1 1 1 1 1 1 1 1 1 1 1 1 1 1 0.016793581409523951 1 1 1 1 1 1 1 1 1 1 1 1 1 1 1 1 1 1 1 1 1 1 1 1 1 1 1 1 1 1 1 1 1 1 1 1 1 1 1 1 1 1 1 1 1 1 1 1 1 1 0.020974986780420132 1 0.014585353248997967 1 1 1 0.022791663681984015 1 1 0.019727572676278598 0.012885814714261621 1 0.022389664511988577 1 1 1 1 1 1 1 1 1 1 1 1 1 1 1 1 1 1 1 1 1 1 1 1 1 1 1 1 1 1 1 1 1 1 1 0.020118369786777342 1 1 1 1 0.020370522022156796 1 1 0.0094949724629520681 1 1 1 0.019975296582415678 1 1 1 1 0.021956146987097608 1 0.019994964088478152 0.021581008289601508 1 1 1 1 0.022552634861126217 1 1 1 0.020378603994316017 1 1 1 0.020035663432345578 1 1 1 1 1 1 0.019748838590901381 1 1 1 1 1 1 1 1 1 1 1 1 1 1 1 1 1 1 1 1 0.020694606544990269 1 1 1 1 1 1 1 1 1 1 1 1 1 1 1 1 1 1 0.018818611266139318 1 1 0.01669886336692095 1 1 0.025126430036901494 1 1 1 1 1 1 1 1 1 1 1 0.014915187759886137 1 1 1 1 0.020983298772239832 1 1 1 1 0.019961974321122799 1 1 1 0.020904281384550263 1 1 1 1 1 1 1 1 1 1 1 1 1 1 1 1 1 1 1 1 1 1 1 1 1 0.018324561218623567 1 1 1 1 1 1 1 1 0.02090323581023178 1 1 1 0.024217575805402302 1 1 1 1 1 1 1 1 1 1 1 1 1 1 1 1 1 1 1 1 1 1 1 1 0.029884531390319519 1 1 1 0.015077181671867253 1 1 1 1 1 1 1 1 0.028172798099354239 1 1 0.015922067669372677 1 1 1 1 0.018562215510722072 1 1 1 1 1 1 1 0.03153440929792907 1 0.017043056352953417 1 1 0.016401714153633416 1 1 0.029476232282547542 0.019968817553293747 1 1 1 1 1 1 1 1 1 1 1 1 1 1 1 1 1 1 1 1 1 0.035168716999265631 1 1 1 1 0.033413551258028654 1 1 1 1 1 1 1 1 1 1 1 1 1 0.035108498264903476 1 1 0.020865480172578638 1 1 1 1 1 1 1 1 1 1 1 1 1 1 1 1 1 1 1 1 1 1 1 1 1 1 1 1 1 1 1 1 1 1 1 1 1 1 1 1 1 1 1 1 1 1 1 1 1 1 1 1 1 1 1 1 1 1 1 1 1 1 1 1 1 1 1 1 1 1 1 1 1 1 1 1 1 1 1 1 1 1 1 1 1 1 1 1 1 1 1 1 1 1 1 1 1 1 1 1 1 1 1 1 1 1 1 1 1 1 1 1 1 1 1 1 1 1 1 1 1 1 1 1 1 1 1 1 0.018960372886272597 1 1 1 1 1 1 1 0.022083519464799722 1 1 1 1 1 1 1 1 1 0.026069192308588379 1 0.011387682185698494 1 1 1 0.016443912199541246 1 1 0.015885746541377421 1 1 1 1 1 1 1 1 1 1 1 1 1 1 1 1 1 1 1 1 1 1 1 1 1 1 1 1 1 1 1 1 1 1 1 1 1 0.016502272828688117 1 1 0.01620338666749058 0.025514569375929594 1 1 0.020432111829573121 1 1 0.010738433227669736 1 1 1 0.013579742467640422 1 1 1 1 1 1 1 1 1 0.015534664155636885 1 1 1 1 1 1 0.018397150992802102 1 1 1 1 1 1 1 1 1 1 1 1 1 1 1 1 1 1 1 1 1 1 1 1 1 1 1 1 1 1 1 0.038544373381247651 1 1 1 1 1 1 1 1 1 1 1 1 1 1 1 1 1 1 1 1 1 1 1 1 1 1 1 1 1 1 1 1 1 1 1 1 1 1 1 1 1 1 1 1 1 1 0.009531015020080278 1 0.019980544095955923 1 1 1 1 0.020549279711823142 1 1 1 1 0.0082336754705871571 1 1 1 1 0.020331596600815089 1 1 1 1 1 1 1 1 0.022272203560197538 1 1 0.02129199022807278 1 0.020105003372371151 1 1 1 1 0.024782466598068945 1 1 0.013055254378203089 0.026713863278750513 1 1 1 1 1 1 0.019746241214617842 1 1 1 1 1 1 1 1 1 1 0.012977466654496386 0.01673321790906427 1 1 1 1 1 0.014803907189707973 1 1 0.020255619784425093 1 1 1 1 0.027971387303277487 1 1 0.020046224371187308 1 1 1 1 1 1 1 1 1 1 1 1 1 1 1 1 1 1 1 1 1 1 1 1 1 1 1 1 1 0.019674742022849582 1 0.019894308858389421 1 1 1 1 1 1 1 1 1 1 1 1 1 0.020397934424906703 1 1 1 1 0.006061751654902657 0.0044458845377697877 1 1 1 1 1 1 1 1 1 1 1 1 1 1 1 1 1 1 1 1 1 1 1 1 1 1 1 1 1 1 1 1 1 1 1 1 1 1 1 1 1 1 0.020800276003325111 1 1 1 0.020402341578418404 1 1 1 1 1 1 1 1 1 1 1 1 1 1 1 1 1 1 1 1 0.0076832094339788354 1 1 0.0094037076721979959 1 1 1 1 1 1 1 1 1 0.020033578614601245 1 1 1 1 1 0.0089030192423990642 1 1 1 1 1 0.02012884231196262 1 0.01994432111596953 1 1 1 1 1 1 1 1 1 1 1 1 1 0.018407851265999909 1 1 1 0.02341427605039283 0.010453753888233039 1 1 1 1 1 1 1 1 0.020083004072911154 1 1 0.012470343435233762 1 1 0.019999089483865019 0.016189358340436305 1 1 1 1 1 0.020022330693717481 1 1 1 1 1 1 1 0.018695192901718477 1 1 0.016241154473745786 0.019783304047216444 1 1 1 1 1 1 0.019796321193128075 0.019981537193315742 1 1 1 0.019936543261930659 1 1 1 1 1 1 1 0.021216699181800438 1 1 1 1 1 1 1 1 1 1 1 1 1 1 1 1 1 1 1 1 1 1 1 1 1 1 6.9388939039072284e-18 1 1 1 1 1 1 1 0.018991409919172829 1 1 1 1 1 1 1 1 1 1 1 0.0028133325047688344 1 1 1 1 1 1 1 1 0.017392218254429305 1 1 1 1 1 1 1 1 1 1 1 1 1 1 1 1 0.02019661211938802 1 1 1 0.018471724386048823 1 1 1 1 1 0.021850728775991805 1 1 1 1 1 1 1 1 1 1 1 1 1 1 0.017015742018168595 1 1 1 1 0.010931868276212238 1 1 0.0045430402546069032 1 1 1 1 1 0.020148560811542184 1 1 1 1 1 1 1 1 1 1 1 1 1 1 0.02046337596053438 1 0.027760303257580041 1 1 1 0.018084844031109049 1 0.011853807786279938 1 0.0288121911063072 1 1 1 1 1 1 0.02001536896286461 -2.6020852139652106e-17 1 1 1 1 1 1 -2.7755575615628914e-17 1 0.021050521228886697 1 1 1 1 1 1 1 1 1 1 1 1 1 1 1 1 1 0.027366170876238206 1 1 1 0.020187980779359606 0.026465094699400515 1 1 1 1 1 0.015933299191278359 1 1 0.020367073774223182 0.018395655589731618 1 1 1 1 1 1 1 1 1 1 1 1 1 1 1 1 1 1 1 1 1 1 1 1 1 1 1 1 1 1 1 1 1 1 1 1 1 1 1 1 1 1 1 1 0.029237097018549877 1 1 0.010387673452801288 0.014002496589959851 0.022077787966439645 1 1 1 1 1 1 0.020555896662328269 1 1 1 1 1 1 1 1 1 0.020603072579182136 1 1 1 0.025109103470390675 1 1 1 1 1 1 1 1 1 1 1 1 1 1 1 1 1 1 1 1 0.022384620266578621 1 1 1 1 0.020730224316075629 1 1 1 1 1 1 1 1 1 1 1 1 1 1 1 1 1 1 1 1 1 1 1 1 1 1 1 1 1 1 1 1 1 1 0.019609983751714449 1 0.019831607208165077 1 1 1 1 1 1 1 1 0.019719709016661612 1 1 1 0.018536176132115549 1 0.019888101808496532 1 1 1 1 1 1 1 1 0.0074675577039853662 1 1 1 1 0.015228816633691262 1 1 1 1 0.016079204208200398 1 1 1 1 1 1 1 0.014596500130777946 1 1 1 1 0.017443488302978621 1 1 1 1 1 1 1 1 1 1 1 1 1 1 1 1 1 1 1 1 1 1 1 1 1 1 1 1 1 1 1 1 1 1 1 1 1 1 1 1 1 1 1 1 1 1 0.021286659000829634 1 1 1 1 0.02007600626259172 0.022386269586147211 1 1 0.025131908040812362 0.020799274813166711 1 1 1 1 1 1 1 1 1 1 1 1 1 1 1 1 1 1 1 0.0202553263285867 1 1 1 0.020637091278690914 0.020029808143590497 1 1 1 1 1 1 1 1 1 1 1 1 1 1 1 1 1 1 1 1 1 1 1 1 1 1 1 0.02037039439096406 1 1 1 1 1 1 1 0.018867762183952686 1 1 1 1 1 1 1 1 1 1 1 1 1 1 1 0.016998219254377119 1 1 1 1 1 1 1 1 0.020714583858551898 1 0.019097468820202246 0.021997391224467741 1 1 1 1 1 1 1 1 1 1 1 1 0.018920493868380489 1 1 1 1 1 1 1 1 1 1 1 1 1 1 1 1 1 1 0.021846169781787019 1 1 1 0.017318130976148271 1 1 1 1 1 1 1 1 0.018905666299205454 1 1 1 1 1 1 1 1 1 1 1 1 1 1 1 0.021557667559417976 1 1 1 0.020560288223509141 1 1 1 1 1 1 1 1 1 1 1 1 1 1 1 1 1 1 1 1 1 1 1 1 1 1 1 1 1 1 1 1 1 0.020652039718943849 1 0.020282102469472117 1 1 1 1 1 1 1 1 0.01991777466047006 1 1 1 1 1 1 1 1 1 0.019550315457423154 1 1 0.020173835140483362 1 1 1 1 1 0.02001519694570162 1 1 1 1 0.01990511487585896 1 1 1 1 0.019274387973391843 1 1 1 0.019728289604504259 1 0.017116840477301856 1 1 0.018342672893721684 1 1 1 1 1 1 1 1 1 1 1 1 1 1 0.019999755892503142 1 1 0.020035836618790406 1 0.019981574554440603 1 1 1 0.020084572906460953 1 1 0.01570309505566625 1 1 1 1 0.020600086338336245 1 0.020901755991667999 1 1 1 1 1 1 0.020329887033297921 1 0.020295462244262302 1 1 1 1 1 0.022942200429342866 1 1 1 1 0.020667239044116908 1 1 1 1 1 1 0.021826097550197154 1 1 1 1 1 1 1 1 1 1 1 1 1 1 1 1 1 1 1 1 1 1 1 1 1 1 1 1 1 1 1 1 1 0.020067471278207679 0.020053457424142648 1 1 1 1 1 1 1 1 1 1 0.024117969402274571 1 1 0.020667973613464938 0.020485227373339451 1 0.020012834410021562 1 1 1 1 1 1 1 0.023010749578067188 1 1 1 1 1 1 1 1 1 1 1 1 0.019292408160015779 1 1 1 1 0.019748211341815137 1 1 1 1 1 1 1 1 1 1 1 1 0.025026609482357364 1 1 1 1 1 1 1 1 1 1 1 1 1 1 1 1 1 0.024582064212923211 1 1 1 1 1 0.021475268419951898 1 1 1 0.020244115017509681 1 1 1 1 1 1 0.020996397638116334 1 0.026390329279870388 1 1 1 0.023302362825544116 1 1 1 1 1 1 1 1 1 0.029518420710928354 1 1 0.020012057187680565 1 1 1 1 1 1 1 0.020635015852937758 1 1 1 1 1 1 1 1 1 1 1 1 1 0.018634452115124388 1 1 0.022270272188761098 1 1 1 1 1 1 0.020033362824150764 1 1 1 1 1 1 0.031673393670767713 1 1 1 1 1 1 1 0.038538694290961864 1 1 1 1 1 1 1 1 1 1 1 1 1 1 1 1 1 1 1 1 1 1 0.021743075995458293 1 1 1 1 1 1 1 1 1 1 0.021468042054223521 1 1 1 1 0.020686950867333829 0.030369591548934385 1 1 1 1 0.028353766838682799 1 1 1 1 1 1 1 1 1 0.026230872005674519 1 1 1 1 1 1 1 1 1 1 1 0.027045927773188455 1 1 1 0.021632345925610079 1 1 1 0.022560344338699488 1 1 1 1 1 1 1 1 1 1 1 1 0.022588306212958556 1 1 1 1 1 0.020128017693757161 1 1 0.020308846955768692 1 1 1 1 1 1 1 1 1 1 1 1 1 1 0.01868404661909363 1 1 1 1 1 1 1 0.016404263398310227 1 1 1 0.015087683459492978 1 1 1 1 1 0.020338260711631979 1 1 1 1 1 1 1 1 1 0.020157431449620462 1 1 1 1 1 1 1 1 0.014381014284988817 1 1 1 1 1 0.020330857594043732 1 1 1 1 1 1 1 0.020129081224787071 1 1 1 1 1 1 1 1 1 1 1 1 1 1 1 1 1 1 1 1 1 1 1 1 1 1 1 1 1 1 1 1 1 1 1 1 1 1 1 1 1 1 1 1 1 1 1 1 0.019882733232331112 1 1 1 1 1 1 1 0.018612766265076776 1 1 1 1 1 1 1 1 1 1 1 1 1 1 1 1 1 1 1 1 1 1 0.02202847501214469 0.020224130501646006 1 1 0.016282797405182847 0.024210667686010177 1 1 1 1 1 1 1 0.023653423239117347 1 1 1 1 1 1 1 1 1 1 1 1 1 1 0.020852562485100284 1 1 1 1 1 1 1 1 0.02017774014387437 1 1 0.020159846525334979 1 1 1 0.020455163605506862 1 1 1 1 1 1 1 1 1 1 1 1 1 1 1 1 1 1 1 1 1 1 1 1 1 1 1 1 0.019400348408951655 1 1 1 1 1 1 1 1 0.0200262601920035 1 1 1 1 1 1 0.018002555987128091 0.020064854263304507 1 1 1 1 0.0205249220109846 1 1 0.01863299133022342 1 1 0.01823037718492038 1 1 1 1 1 1 0.019624329354496817 1 1 1 1 1 1 1 1 0.019945344761527983 1 1 1 1 1 1 1 1 1 1 1 0.019898030673923161 1 1 0.019952532427322131 1 1 1 1 1 1 1 0.018164645990524586 1 1 1 0.020349166966155477 1 0.022029357269580874 1 0.018889425988267202 1 1 1 1 1 1 1 1 1 1 1 1 1 1 1 1 1 0.026828369512989531 1 0.019993752965000357 1 1 1 1 1 1 1 1 1 1 0.024888545278053873 1 1 1 1 1 1 1 0.020623537572357693 1 1 1 0.019995522634915986 1 0.025566307801580184 0.020179527504781573 1 1 0.022574751688538033 1 1 1 1 0.028824359784897703 1 1 1 0.018631440055499555 1 1 1 0.026022291065463519 1 0.023805384942974146 0.029106232057785252 1 1 1 1 1 1 0.023136783815667958 1 1 1 1 1 1 1 1 0.018478703621361989 0.02001469297771933 0.020126208062476086 1 0.022525597383805395 1 1 0.02335982763048803 0.020000785336108631 1 1 0.013609045822329203 1 1 1 1 1 1 1 1 1 1 1 0.019976754739899558 1 1 1 1 1 1 1 1 1 1 1 1 1 0.015941098859309458 0.017985555890194082 1 1 1 1 0.017599562536894806 1 1 1 0.020387148843260695 1 1 1 1 1 0.017991614632869669 0.019997829011369515 1 1 1 0.020438218220299294 1 1 1 1 1 1 1 1 1 1 1 1 1 1 1 0.018840025951774222 1 1 1 0.022591765703367003 1 1 1 0.019341554668125514 1 1 1 1 1 1 0.030833485704205077 1 1 1 1 1 0.027271775900951777 1 1 1 1 1 1 1 1 0.020009999197266495 1 1 1 1 1 1 1 1 1 0.02066952524630733 1 1 1 1 0.01955927938081976 1 0.020192683957677954 1 1 0.017279880088689716 1 0.022169801081846807 1 1 1 1 1 1 0.021707963421460641 1 0.020099089395616887 0.025743663262678719 1 1 1 1 1 1 1 1 0.023583740651382908 1 0.019728754724358685 1 0.019956609169121221 1 0.027284846323295357 1 1 1 1 1 1 1 1 1 1 1 0.020007767670390499 1 1 1 0.019884867014882453 1 1 1 1 1 1 1 1 0.019877099344491958 1 1 1 1 1 1 1 1 1 0.019496404263282297 1 1 1 1 0.020762166599971332 1 1 0.022231627278766729 1 1 1 1 1 1 1 1 1 0.025604676684954999 1 1 1 0.02370502771346749 1 1 1 1 1 1 1 1 1 1 1 1 1 1 1 1 1 1 1 0.027755915688990947 1 1 1 1 1 1 1 1 1 1 0.021091036693398672 1 1 1 1 1 1 1 1 1 1 1 1 1 1 1 1 1 1 1 1 1 1 1 1 1 1 1 1 1 1 1 1 1 1 1 1 1 1 1 1 1 1 1 1 1 0.018952279465370186 0.020087716545937773 1 1 1 1 1 1 1 1 1 1 1 1 1 0.0095202641935937388 0.021391121418694738 1 1 1 0.022994054479787619 1 1 0.026326861527562771 1 1 1 0.029594135589754128 1 1 1 0.020809147584774444 1 1 1 1 1 1 1 1 0.020470847075221399 1 1 0.020467429001054523 1 0.014202080929101163 0.018311760030437496 1 1 1 1 1 1 0.029546480645536964 1 0.01685480040619346 0.019585472166558364 0.020006798024411479 1 1 0.017064956003342791 1 1 0.028172196891242202 0.028145960389232609 1 1 1 1 1 1 1 1 1 1 1 1 1 1 1 1 1 1 1 1 1 0.029138004605199018 1 1 1 1 1 1 1 1 1 0.019045970012120723 1 1 1 1 1 1 1 0.020786954629587153 0.029364287658649256 1 1 1 1 1 1 1 1 1 1 1 1 1 1 1 1 1 1 1 1 1 1 1 0.019834889814885816 1 0.020022820977624395 1 1 1 1 1 1 1 0.023161624396465533 1 1 1 0.013737574320874784 0.026460179649385303 1 1 0.021254646809474434 1 1 1 1 0.012823858082558613 1 1 1 0.030992682806314269 1 1 1 0.014856697355759209 1 1 1 1 1 1 1 1 1 0.014551711799465777 0.022760595925724332 1 1 1 1 1 0.027768588638131496 1 1 0.011554417259946496 0.016973823285304245 0.0081038383519736329 1 1 1 1 1 0.029303269550981493 1 1 1 1 1 1 1 1 1 0.020003809181515869 1 0.020001892551377392 1 1 1 1 1 1 1 1 1 1 1 1 1 1 1 1 1 1 1 1 1 1 1 1 0.021034297360404818 1 1 1 1 0.01662491600456615 0.023066616233907798 1 1 1 0.014302144881589266 1 1 1 1 1 1 1 1 1 1 1 1 1 1 1 1 0.037666616318733526 1 1 1 0.020126778571905812 1 1 0.020994583783864023 1 1 1 1 1 1 1 1 1 1 1 1 1 0.024901243903863848 1 1 0.032142027583599644 1 1 1 0.01386526163999913 1 0.015320665482948824 1 0.020345567893293268 1 0.020698915747639973 0.035301178370721886 0.020066996800949494 1 1 1 1 1 1 1 1 0.020416835605314945 1 1 1 1 1 1 1 1 0.035069697201116391 1 1 0.0092910637351742743 1 1 1 1 1 1 1 1 1 1 1 1 1 1 1 1 1 1 1 1 1 0.014327191676418129 1 1 1 1 1 1 1 1 1 1 0.016379447643161148 1 0.012574856759031375 1 1 0.020120195795411348 1 0.025018832591111755 1 0.019963201773837352 1 1 0.020099679941084928 1 0.027994707344701122 1 1 0.018374507251548912 1 1 1 0.019434326039197813 1 1 1 1 1 1 1 1 1 1 1 1 1 1 1 1 1 1 1 1 1 1 1 1 1 1 1 1 1 1 1 1 1 1 1 1 1 1 1 1 1 1 1 1 1 1 1 1 1 1 1 1 1 1 1 1 1 1 1 1 1 0.025776922478559158 1 1 0.034490444663403765 1 1 1 1 1 1 0.018003845610626002 0.029772929559427432 1 1 1 1 1 1 1 1 1 1 1 1 1 1 1 1 1 1 0.029679353073977562 1 1 1 0.020395922040192506 1 1 1 1 1 1 1 1 1 1 1 1 1 1 1 1 0.019753449325324361 1 1 1 1 1 1 1 0.03478193712337662 1 1 1 1 1 1 1 1 0.030512409347830931 1 0.020787579765455713 1 1 1 1 1 1 1 1 1 1 1 1 1 1 1 1 0.020036593310073261 1 1 1 1 1 1 1 0.020100984839000323 1 1 1 1 0.020102157402947473 1 1 1 1 1 1 1 0.020307441258067788 1 1 0.011059767337348026 0.019680162412272897 1 1 0.021345157437267889 1 1 1 1 1 1 0.020177516651672809 1 1 1 1 1 1 1 1 1 0.020137434118568248 1 1 0.01987775343207451 1 1 0.019979958944490579 1 1 0.010900192026515119 1 1 1 1 1 0.011482857899096213 1 1 1 1 1 1 1 1 0.019156513604598174 1 1 1 1 1 1 1 0.016950551240920542 1 1 1 1 1 1 1 1 1 1 1 1 0.018731729702374775 1 1 1 1 1 1 1 0.020433227292518716 0.019914416107818519 1 0.021062458246531704 1 0.0096305800096760201 1 1 1 1 1 1 1 1 1 1 1 1 1 1 1 0.020022964641786892 1 0.0083927791150407976 1 1 1 1 1 1 1 1 0.017934804669364399 1 0.018557722264489082 1 0.012481779464759998 1 0.017410967993289735 1 0.020362883422356374 1 1 0.019419707102566758 1 1 1 1 1 0.01812316652295325 1 1 1 1 1 1 1 1 0.020044633482382283 1 1 1 1 1 0.020106517292533821 1 1 0.021652589654467608 1 0.01907807808376099 0.017737576560622106 1 1 1 1 1 1 1 1 0.020000018285551341 1 1 1 1 1 1 1 1 1 1 1 1 1 0.018214183733949365 1 1 1 1 1 1 1 0.019968847875496028 1 1 1 0.01996890151558621 1 1 1 1 1 1 1 1 1 1 1 1 1 1 1 1 1 0.020729295119796577 1 1 1 1 1 1 1 0.020257376782068161 1 1 0.019350566041559502 1 1 1 1 1 1 1 1 1 1 1 1 1 1 1 0.019535429012718191 1 1 1 1 0.021358022598503237 1 1 1 1 1 1 1 1 1 1 1 1 1 1 1 1 1 1 1 1 1 1 1 1 1 0.017665231575381975 1 1 1 1 1 1 0.019726863152036096 1 1 1 1 1 1 1 1 1 0.018487033977235133 0.020238833063324781 1 1 1 0.023308358684716698 1 0.019951045779334098 1 1 1 1 1 1 1 1 1 1 1 1 1 1 1 0.01973447841767096 1 1 1 1 1 1 1 1 1 1 1 1 0.020311676552271691 0.020597344660532198 1 1 1 1 1 1 1 1 0.019391074211152395 1 1 0.020074732184263564 1 1 0.016901785508866722 0.022431069366098448 1 1 1 1 1 1 1 0.018923729505306585 1 1 1 1 1 1 1 1 1 0.020285668108260498 1 1 1 0.018873661895620522 1 1 1 1 1 0.019274587013528396 1 1 1 1 1 1 1 1 1 1 1 1 0.019020040988538784 1 1 1 0.02000212784729468 1 1 1 0.02002243490039237 1 1 1 1 1 1 1 1 1 1 1 1 1 1 1 1 1 1 1 1 1 1 1 1 1 1 1 1 1 1 1 1 0.019307323254662449 1 1 1 1 1 1 1 1 1 1 1 1 1 1 1 1 1 1 1 1 1 1 1 1 0.020391967711294853 1 0.02004419616859093 1 1 0.013188216112226947 1 1 1 1 1 1 1 1 1 0.023283680093533269 1 1 1 1 1 1 1 1 1 1 1 1 1 1 0.015067683086046125 1 1 1 1 0.017196494865360838 1 1 1 0.019142244915046843 1 1 1 1 1 1 1 1 1 1 1 1 1 1 1 1 1 1 1 1 1 1 1 1 1 1 1 1 1 1 1 1 1 1 1 1 1 1 1 1 1 1 1 1 1 1 1 1 1 1 1 1 1 1 1 1 1 1 1 1 1 1 1 1 1 1 1 1 1 1 1 1 1 1 1 1 1 1 1 1 1 1 1 1 1 1 1 1 1 1 1 1 1 1 1 1 1 1 1 1 1 1 1 1 1 1 1 1 1 1 1 1 1 1 1 1 1 1 1 1 1 1 1 1 1 1 1 1 1 1 1 1 1 1 1 1 1 1 1 1 1 1 1 1 1 1 1 1 1 1 1 1 1 1 1 1 1 1 1 1 1 1 1 1 1 1 1 1 1 1 1 1 1 1 1 1 1 1 1 1 1 1 1 1 1 1 1 1 1 0.036750863079518026 1 1 1 1 1 1 1 1 1 1 1 1 1 1 1 1 0.021870565184722423 1 1 1 1 1 1 1 1 0.041974452273693522 1 1 1 1 0.018846788099950499 1 1 1 1 1 1 1 1 1 1 1 1 1 1 1 1 1 1 1 1 1 1 0.022035720290027816 1 1 1 1 1 1 1 1 1 1 1 1 1 0.017431917131841008 0.035243324254946792 1 1 1 1 1 0.029922908435846132 1 0.025070522557648675 1 1 1 1 1 1 1 1 1 1 1 0.023947069844618866 1 1 1 1 1 1 1 0.017530978813857647 1 1 1 1 1 1 1 1 1 1 1 1 1 1 1 0.020152530838897738 0.018376582626692048 1 1 1 1 1 1 1 1 1 1 1 1 0.023184858817891865 1 1 1 1 1 1 1 1 1 1 1 1 1 1 1 1 0.021095665490046968 1 1 1 1 1 1 1 0.017476745189714891 1 1 1 1 1 1 1 1 1 1 0.019950152654555433 0.011806960725216586 1 1 1 1 1 1 1 1 1 1 1 1 1 1 1 1 1 1 1 1 1 1 1 1 1 1 1 1 1 1 0.022371349458708369 1 1 1 1 1 0.022355000334059662 1 1 1 1 1 1 1 1 1 1 0.021028758918985258 1 1 1 1 0.01929136146022796 1 1 1 1 1 1 1 1 1 1 0.022078474247160092 1 0.020752232832085674 1 1 1 1 1 1 1 1 1 1 1 1 1 1 1 1 1 1 1 1 1 1 1 1 1 1 1 1 1 1 1 0.020041096941197968 1 1 1 1 1 0.020193627780095709 1 1 1 1 1 1 1 1 1 1 1 1 1 1 1 1 1 1 0.018389062281881294 1 1 0.0036754142165826391 1 1 1 0.019458775003435139 1 1 1 1 1 0.01245508984116612 1 1 1 1 1 1 1 1 1 1 0.032423561495137976 1 1 1 1 1 1 0.020071756424080014 1 1 1 1 1 0.0069675572591305791 0.019954275345392639 1 1 0.00043279344228655536 1 1 0.020860970350424925 1 1 1 1 1 1 1 1 1 1 0.02167767075351025 1 1 0.022230148522016244 1 1 0.02223178857263754 1 1 0.024598415393045019 1 1 0.020088768618974847 1 1 0.020498613552094702 1 1 1 1 1 1 0.019410118556601887 1 1 1 1 1 1 1 1 1 1 1 1.7347234759768071e-17 1 1 1 1 1 1 1 0.021336992225776077 1 1 1 1 0.017472382937814158 1 1 1 0 1 1 1 1 1 1 1 1 1 1 1 0.012483973971472523 1 1 1 1 1 1 1 1 1 1 1 1 1 1 1 1 1 1 1 1 1 1 1 1 0.020043250953587895 1 1 1 1 1 0.020253371835913615 1 1 1 1 1 1 1 1 1 1 1 1 1 1 0.017436467527108597 1 1 0.013106573793904619 1 0.040533252789336817 1 1 1 1 0.044797741263211149 1 0.018697360233672352 0.0015976265462588242 1 0.0017882264883830393 1 1 1 1 1 1 1 0.020114742444343824 1 0.023599944127122373 1 1 1 1 1 1 0.019306372260360048 1 1 1 1 1 1 0.020132904646345935 1 1 1 1 0.020262049366586675 1 1 1 1 1 0.020076613777738648 1 1 0.021016002933523108 1 1 1 1 0.020093310655031567 1 1 1 1 0.023561935326675953 1 1 1 1 1 1 0.019811273470157577 1 1 1 1 1 1 1 1 1 0.020317391623026468 1 1 1 1 1 1 0.021491303322452995 1 1 1 1 0.024068887452711189 1 1 1 1 1 1 1 1 1 1 1 1 1 1 1 1 0.019920555417529514 1 1 1 0.018944775140837374 1 1 0.033238432175294055 1 1 1 1 1 1 1 1 1 1 1 1 1 1 1 1 0.019928500579121395 1 0.031711278191445716 1 1 1 1 1 1 1 1 1 1 1 1 1 1 1 1 1 1 1 1 1 1 1 1 1 1 0.038765983344987334 1 1 0.029690124241868118 1 1 1 1 1 1 1 1 1 1 0.026265824918987865 1 1 1 1 0.020149898271972628 1 1 1 1 0.020221397692851237 1 1 1 1 1 1 1 1 1 0.024226369629853653 1 1 1 1 1 1 1 1 1 1 1 1 1 1 1 1 1 1 1 1 1 1 1 1 1 1 1 1 
</DataArray>
</CellData>
</Piece>
</UnstructuredGrid>
</VTKFile>
