<?xml version="1.0"?>
<VTKFile type="UnstructuredGrid" version="0.1" byte_order="LittleEndian">
<UnstructuredGrid>
<Piece NumberOfPoints="30578" NumberOfCells="10723">
<Points>
<DataArray type="Float64" NumberOfComponents="3" format="ascii">
-0.5 -0.5 0 -0.47439485679867832 -0.48072581506667478 0 -0.5 -0.44765434486020428 0 -0.5 -0.5 0 -0.47439485679867832 -0.48072581506667478 0 -0.43702443379937372 -0.49999999999999922 0 -0.47439485679867832 -0.48072581506667478 0 -0.45530669598391149 -0.47718009944797551 0 -0.43702443379937372 -0.49999999999999922 0 -0.47439485679867832 -0.48072581506667478 0 -0.45530669598391149 -0.47718009944797551 0 -0.4597353119515426 -0.45943449384344293 0 -0.45530669598391149 -0.47718009944797551 0 -0.44381084376742141 -0.47114793899167112 0 -0.4597353119515426 -0.45943449384344293 0 -0.45530669598391149 -0.47718009944797551 0 -0.44381084376742141 -0.47114793899167112 0 -0.43702443379937372 -0.49999999999999922 0 -0.44381084376742141 -0.47114793899167112 0 -0.43702443379937372 -0.49999999999999922 0 -0.45059725373546922 -0.44229587798334291 0 -0.4339166039271336 -0.43498117536117131 0 -0.43309128002320102 -0.45351235807576151 0 -0.44381084376742141 -0.47114793899167112 0 -0.45059725373546922 -0.44229587798334291 0 -0.4597353119515426 -0.45943449384344293 0 -0.44381084376742141 -0.47114793899167112 0 -0.45059725373546922 -0.44229587798334291 0 -0.43309128002320102 -0.45351235807576151 0 -0.44381084376742141 -0.47114793899167112 0 -0.45059725373546922 -0.44229587798334291 0 -0.4597353119515426 -0.45943449384344293 0 -0.47505511338101108 -0.44868394208069429 0 -0.46517432262153441 -0.43649963461163338 0 -0.45059725373546922 -0.44229587798334291 0 -0.4597353119515426 -0.45943449384344293 0 -0.46517432262153441 -0.43649963461163338 0 -0.47505511338101108 -0.44868394208069429 0 -0.47820614292347569 -0.42776699273468149 0 -0.46517432262153441 -0.43649963461163338 0 -0.47505511338101108 -0.44868394208069429 0 -0.47820614292347569 -0.42776699273468149 0 -0.47439485679867832 -0.48072581506667478 0 -0.47505511338101108 -0.44868394208069429 0 -0.5 -0.44765434486020428 0 -0.47439485679867832 -0.48072581506667478 0 -0.4597353119515426 -0.45943449384344293 0 -0.47505511338101108 -0.44868394208069429 0 -0.47505511338101108 -0.44868394208069429 0 -0.5 -0.44765434486020428 0 -0.47820614292347569 -0.42776699273468149 0 -0.5 -0.44765434486020428 0 -0.49656450065014057 -0.42151023988558672 0 -0.47820614292347569 -0.42776699273468149 0 -0.5 -0.44765434486020428 0 -0.49656450065014057 -0.42151023988558672 0 -0.50000000000000089 -0.37904661106745707 0 -0.49656450065014057 -0.42151023988558672 0 -0.48135717246594062 -0.40685004338866881 0 -0.47820614292347569 -0.42776699273468149 0 -0.49656450065014057 -0.42151023988558672 0 -0.48135717246594062 -0.40685004338866881 0 -0.48135717246594062 -0.40685004338866881 0 -0.47820614292347569 -0.42776699273468149 0 -0.48135717246594062 -0.40685004338866881 0 -0.47820614292347569 -0.42776699273468149 0 -0.45738366370351707 -0.41344381697501481 0 -0.49656450065014057 -0.42151023988558672 0 -0.48135717246594062 -0.40685004338866881 0 -0.50000000000000089 -0.37904661106745707 0 -0.50000000000000089 -0.37904661106745707 0 -0.48466894952205442 -0.38486603086372417 0 -0.48717439863114548 -0.36823452950912272 0 -0.48135717246594062 -0.40685004338866881 0 -0.50000000000000089 -0.37904661106745707 0 -0.48466894952205442 -0.38486603086372417 0 -0.48466894952205442 -0.38486603086372417 0 -0.48717439863114548 -0.36823452950912272 0 -0.50000000000000089 -0.37904661106745707 0 -0.48466894952205442 -0.38486603086372417 0 -0.48135717246594062 -0.40685004338866881 0 -0.48466894952205442 -0.38486603086372417 0 -0.46593083509403682 -0.39197871725165279 0 -0.48135717246594062 -0.40685004338866881 0 -0.48466894952205442 -0.38486603086372417 0 -0.48135717246594062 -0.40685004338866881 0 -0.46593083509403682 -0.39197871725165279 0 -0.48466894952205442 -0.38486603086372417 0 -0.47195833844942919 -0.37959069520904498 0 -0.46593083509403682 -0.39197871725165279 0 -0.48466894952205442 -0.38486603086372417 0 -0.46593083509403682 -0.39197871725165279 0 -0.48466894952205442 -0.38486603086372417 0 -0.47195833844942919 -0.37959069520904498 0 -0.48717439863114548 -0.36823452950912272 0 -0.46593083509403682 -0.39197871725165279 0 -0.44890944387521442 -0.39029302340116001 0 -0.45132291774153199 -0.37789636588759368 0 -0.47195833844942919 -0.37959069520904498 0 -0.46593083509403682 -0.39197871725165279 0 -0.45132291774153199 -0.37789636588759368 0 -0.46593083509403682 -0.39197871725165279 0 -0.45132291774153199 -0.37789636588759368 0 -0.48135717246594062 -0.40685004338866881 0 -0.46593083509403682 -0.39197871725165279 0 -0.45738366370351707 -0.41344381697501481 0 -0.46593083509403682 -0.39197871725165279 0 -0.44275815558040038 -0.40077469311046232 0 -0.45738366370351707 -0.41344381697501481 0 -0.46593083509403682 -0.39197871725165279 0 -0.44275815558040038 -0.40077469311046232 0 -0.46593083509403682 -0.39197871725165279 0 -0.44275815558040038 -0.40077469311046232 0 -0.44890944387521442 -0.39029302340116001 0 -0.44275815558040038 -0.40077469311046232 0 -0.44064580868350911 -0.39542861624611658 0 -0.44890944387521442 -0.39029302340116001 0 -0.44225344557501872 -0.38376649822575309 0 -0.45132291774153199 -0.37789636588759368 0 -0.43671500038902772 -0.36381401452353412 0 -0.44890944387521442 -0.39029302340116001 0 -0.44225344557501872 -0.38376649822575309 0 -0.45132291774153199 -0.37789636588759368 0 -0.44064580868350911 -0.39542861624611658 0 -0.44225344557501872 -0.38376649822575309 0 -0.43040194378266172 -0.3881600185019185 0 -0.44064580868350911 -0.39542861624611658 0 -0.44890944387521442 -0.39029302340116001 0 -0.44225344557501872 -0.38376649822575309 0 -0.47820614292347569 -0.42776699273468149 0 -0.46517432262153441 -0.43649963461163338 0 -0.45738366370351707 -0.41344381697501481 0 -0.45059725373546922 -0.44229587798334291 0 -0.45738366370351707 -0.41344381697501481 0 -0.45059725373546922 -0.44229587798334291 0 -0.46517432262153441 -0.43649963461163338 0 -0.45738366370351707 -0.41344381697501481 0 -0.44275815558040038 -0.40077469311046232 0 -0.45738366370351707 -0.41344381697501481 0 -0.44164244492799948 -0.42121090558557039 0 -0.45059725373546922 -0.44229587798334291 0 -0.45738366370351707 -0.41344381697501481 0 -0.44164244492799948 -0.42121090558557039 0 -0.45059725373546922 -0.44229587798334291 0 -0.44164244492799948 -0.42121090558557039 0 -0.4339166039271336 -0.43498117536117131 0 -0.4339166039271336 -0.43498117536117131 0 -0.42355654769347711 -0.414558964497861 0 -0.41671115160429401 -0.44095791049380378 0 -0.44164244492799948 -0.42121090558557039 0 -0.4339166039271336 -0.43498117536117131 0 -0.42355654769347711 -0.414558964497861 0 -0.44275815558040038 -0.40077469311046232 0 -0.44164244492799948 -0.42121090558557039 0 -0.42355654769347711 -0.414558964497861 0 -0.42355654769347711 -0.414558964497861 0 -0.41056920252370888 -0.3963363404412637 0 -0.40050668374064252 -0.41734442193795029 0 -0.42355654769347711 -0.414558964497861 0 -0.41671115160429401 -0.44095791049380378 0 -0.42355654769347711 -0.414558964497861 0 -0.40050668374064252 -0.41734442193795029 0 -0.41671115160429401 -0.44095791049380378 0 -0.44225344557501872 -0.38376649822575309 0 -0.43040194378266172 -0.3881600185019185 0 -0.43671500038902772 -0.36381401452353412 0 -0.43040194378266172 -0.3881600185019185 0 -0.43671500038902772 -0.36381401452353412 0 -0.44064580868350911 -0.39542861624611658 0 -0.42355654769347711 -0.414558964497861 0 -0.43040194378266172 -0.3881600185019185 0 -0.42355654769347711 -0.414558964497861 0 -0.43040194378266172 -0.3881600185019185 0 -0.44275815558040038 -0.40077469311046232 0 -0.44064580868350911 -0.39542861624611658 0 -0.42355654769347711 -0.414558964497861 0 -0.44064580868350911 -0.39542861624611658 0 -0.43040194378266172 -0.3881600185019185 0 -0.42355654769347711 -0.414558964497861 0 -0.43040194378266172 -0.3881600185019185 0 -0.41056920252370888 -0.3963363404412637 0 -0.43040194378266172 -0.3881600185019185 0 -0.4079689369259607 -0.37224253963894771 0 -0.43040194378266172 -0.3881600185019185 0 -0.41056920252370888 -0.3963363404412637 0 -0.4079689369259607 -0.37224253963894771 0 -0.41056920252370888 -0.3963363404412637 0 -0.39195929229331972 -0.37982250283040359 0 -0.4079689369259607 -0.37224253963894771 0 -0.41056920252370888 -0.3963363404412637 0 -0.39195929229331972 -0.37982250283040359 0 -0.39357845321732049 -0.39746174547711199 0 -0.41056920252370888 -0.3963363404412637 0 -0.39357845321732049 -0.39746174547711199 0 -0.40050668374064252 -0.41734442193795029 0 -0.39357845321732049 -0.39746174547711199 0 -0.38114412328536468 -0.40833987260765031 0 -0.36544727141479139 -0.39026932065168712 0 -0.39195929229331972 -0.37982250283040359 0 -0.37549160074202448 -0.3732971907138336 0 -0.36544727141479139 -0.39026932065168712 0 -0.39195929229331972 -0.37982250283040359 0 -0.39357845321732049 -0.39746174547711199 0 -0.36544727141479139 -0.39026932065168712 0 -0.40050668374064252 -0.41734442193795029 0 -0.3944977858259317 -0.43926335073686201 0 -0.41671115160429401 -0.44095791049380378 0 -0.40050668374064252 -0.41734442193795029 0 -0.38028594703985957 -0.42392304976487449 0 -0.3944977858259317 -0.43926335073686201 0 -0.39357845321732049 -0.39746174547711199 0 -0.40050668374064252 -0.41734442193795029 0 -0.38114412328536468 -0.40833987260765031 0 -0.40050668374064252 -0.41734442193795029 0 -0.38114412328536468 -0.40833987260765031 0 -0.38028594703985957 -0.42392304976487449 0 -0.38114412328536468 -0.40833987260765031 0 -0.38028594703985957 -0.42392304976487449 0 -0.36590226101420908 -0.41270082520662749 0 -0.38028594703985957 -0.42392304976487449 0 -0.3944977858259317 -0.43926335073686201 0 -0.3723601590800425 -0.44005613486137668 0 -0.3944977858259317 -0.43926335073686201 0 -0.38265619596279349 -0.45813348326120767 0 -0.3723601590800425 -0.44005613486137668 0 -0.40093272222703252 -0.45142790024540502 0 -0.3944977858259317 -0.43926335073686201 0 -0.38265619596279349 -0.45813348326120767 0 -0.40093272222703252 -0.45142790024540502 0 -0.3944977858259317 -0.43926335073686201 0 -0.41671115160429401 -0.44095791049380378 0 -0.38265619596279349 -0.45813348326120767 0 -0.40986575551511062 -0.46735685648974662 0 -0.38265619596279349 -0.45813348326120767 0 -0.39389470715733632 -0.47355095168427308 0 -0.40986575551511062 -0.46735685648974662 0 -0.40093272222703252 -0.45142790024540502 0 -0.38265619596279349 -0.45813348326120767 0 -0.40986575551511062 -0.46735685648974662 0 -0.38265619596279349 -0.45813348326120767 0 -0.38272382101637098 -0.47243968377412587 0 -0.39389470715733632 -0.47355095168427308 0 -0.38272382101637098 -0.47243968377412587 0 -0.38859428369766791 -0.48614630665141417 0 -0.36652141413456929 -0.48474993749143802 0 -0.38272382101637098 -0.47243968377412587 0 -0.38859428369766791 -0.48614630665141417 0 -0.39389470715733632 -0.47355095168427308 0 -0.37500484199342449 -0.5 0 -0.38859428369766791 -0.48614630665141417 0 -0.40140120367436599 -0.49999999999999611 0 -0.37500484199342449 -0.5 0 -0.38859428369766791 -0.48614630665141417 0 -0.36652141413456929 -0.48474993749143802 0 -0.38859428369766791 -0.48614630665141417 0 -0.40140120367436599 -0.49999999999999611 0 -0.40563347959473789 -0.48367842824487117 0 -0.40140120367436599 -0.49999999999999611 0 -0.40563347959473789 -0.48367842824487117 0 -0.40563347959473789 -0.48367842824487117 0 -0.39389470715733632 -0.47355095168427308 0 -0.40986575551511062 -0.46735685648974662 0 -0.38859428369766791 -0.48614630665141417 0 -0.40563347959473789 -0.48367842824487117 0 -0.39389470715733632 -0.47355095168427308 0 -0.40563347959473789 -0.48367842824487117 0 -0.40986575551511062 -0.46735685648974662 0 -0.42809744812538553 -0.47353695305504512 0 -0.40986575551511062 -0.46735685648974662 0 -0.4199949121527507 -0.4855396040697898 0 -0.42809744812538553 -0.47353695305504512 0 -0.40986575551511062 -0.46735685648974662 0 -0.40563347959473789 -0.48367842824487117 0 -0.4199949121527507 -0.4855396040697898 0 -0.40986575551511062 -0.46735685648974662 0 -0.40563347959473789 -0.48367842824487117 0 -0.4199949121527507 -0.4855396040697898 0 -0.41921281873686977 -0.5 0 -0.40140120367436599 -0.49999999999999611 0 -0.40563347959473789 -0.48367842824487117 0 -0.41921281873686977 -0.5 0 -0.4199949121527507 -0.4855396040697898 0 -0.41921281873686977 -0.5 0 -0.43702443379937372 -0.49999999999999922 0 -0.4199949121527507 -0.4855396040697898 0 -0.43702443379937372 -0.49999999999999922 0 -0.42809744812538553 -0.47353695305504512 0 -0.44381084376742141 -0.47114793899167112 0 -0.43702443379937372 -0.49999999999999922 0 -0.42809744812538553 -0.47353695305504512 0 -0.42809744812538553 -0.47353695305504512 0 -0.42194140881699782 -0.45884101952858919 0 -0.43309128002320102 -0.45351235807576151 0 -0.44381084376742141 -0.47114793899167112 0 -0.42809744812538553 -0.47353695305504512 0 -0.43309128002320102 -0.45351235807576151 0 -0.4339166039271336 -0.43498117536117131 0 -0.43309128002320102 -0.45351235807576151 0 -0.41671115160429401 -0.44095791049380378 0 -0.42194140881699782 -0.45884101952858919 0 -0.43309128002320102 -0.45351235807576151 0 -0.41671115160429401 -0.44095791049380378 0 -0.42194140881699782 -0.45884101952858919 0 -0.41671115160429401 -0.44095791049380378 0 -0.40986575551511062 -0.46735685648974662 0 -0.41671115160429401 -0.44095791049380378 0 -0.40986575551511062 -0.46735685648974662 0 -0.40093272222703252 -0.45142790024540502 0 -0.41671115160429401 -0.44095791049380378 0 -0.40986575551511062 -0.46735685648974662 0 -0.42809744812538553 -0.47353695305504512 0 -0.42194140881699782 -0.45884101952858919 0 -0.40986575551511062 -0.46735685648974662 0 -0.45828666285701658 -0.26028432573271792 0 -0.43487007995442373 -0.25384069753834382 0 -0.45658005330295048 -0.2439827770756183 0 -0.43864273500925549 -0.2751587481676856 0 -0.45828666285701658 -0.26028432573271792 0 -0.43487007995442373 -0.25384069753834382 0 -0.43864273500925549 -0.2751587481676856 0 -0.45645423860141388 -0.27827293425430932 0 -0.45828666285701658 -0.26028432573271792 0 -0.43864273500925549 -0.2751587481676856 0 -0.45828666285701658 -0.26028432573271792 0 -0.45645423860141388 -0.27827293425430932 0 -0.47869064668718631 -0.2683854874950159 0 -0.47091363495918082 -0.28947603344621109 0 -0.45645423860141388 -0.27827293425430932 0 -0.45828666285701658 -0.26028432573271792 0 -0.47869064668718631 -0.2683854874950159 0 -0.45828666285701658 -0.26028432573271792 0 -0.47793059070477772 -0.24540990329775009 0 -0.45828666285701658 -0.26028432573271792 0 -0.47869064668718631 -0.2683854874950159 0 -0.47793059070477772 -0.24540990329775009 0 -0.4872249908214738 -0.25598993182963242 0 -0.47869064668718631 -0.2683854874950159 0 -0.47793059070477772 -0.24540990329775009 0 -0.4872249908214738 -0.25598993182963242 0 -0.5 -0.25006354863638108 0 -0.5 -0.27586016112259643 0 -0.4872249908214738 -0.25598993182963242 0 -0.5 -0.25006354863638108 0 -0.49068252501969761 -0.24549971615663649 0 -0.4872249908214738 -0.25598993182963242 0 -0.5 -0.27586016112259643 0 -0.47869064668718631 -0.2683854874950159 0 -0.5 -0.27586016112259643 0 -0.47869064668718631 -0.2683854874950159 0 -0.48721788021035761 -0.2882082846164955 0 -0.47869064668718631 -0.2683854874950159 0 -0.47091363495918082 -0.28947603344621109 0 -0.48721788021035761 -0.2882082846164955 0 -0.47091363495918082 -0.28947603344621109 0 -0.48721788021035761 -0.2882082846164955 0 -0.48161809245015419 -0.30465866835107641 0 -0.5 -0.27586016112259643 0 -0.48721788021035761 -0.2882082846164955 0 -0.5 -0.3016567736088116 0 -0.48721788021035761 -0.2882082846164955 0 -0.5 -0.3016567736088116 0 -0.48161809245015419 -0.30465866835107641 0 -0.5 -0.3016567736088116 0 -0.48161809245015419 -0.30465866835107641 0 -0.5 -0.32745338609502678 0 -0.47091363495918082 -0.28947603344621109 0 -0.48161809245015419 -0.30465866835107641 0 -0.45879166701778518 -0.3036258058313378 0 -0.48161809245015419 -0.30465866835107641 0 -0.45879166701778518 -0.3036258058313378 0 -0.47638885418803739 -0.32253493654140952 0 -0.45645423860141388 -0.27827293425430932 0 -0.47091363495918082 -0.28947603344621109 0 -0.45879166701778518 -0.3036258058313378 0 -0.45645423860141388 -0.27827293425430932 0 -0.45879166701778518 -0.3036258058313378 0 -0.43905227881958647 -0.29505920944709452 0 -0.43864273500925549 -0.2751587481676856 0 -0.45645423860141388 -0.27827293425430932 0 -0.43905227881958647 -0.29505920944709452 0 -0.45879166701778518 -0.3036258058313378 0 -0.43905227881958647 -0.29505920944709452 0 -0.4399695753826649 -0.31139282438396382 0 -0.4399695753826649 -0.31139282438396382 0 -0.45223868162566522 -0.32343332413938758 0 -0.42808850906329299 -0.32433171173736591 0 -0.45879166701778518 -0.3036258058313378 0 -0.4399695753826649 -0.31139282438396382 0 -0.45223868162566522 -0.32343332413938758 0 -0.45223868162566522 -0.32343332413938758 0 -0.42808850906329299 -0.32433171173736591 0 -0.45223868162566522 -0.32343332413938758 0 -0.44207286924452832 -0.33783824796895978 0 -0.46140244920768408 -0.33754740415941759 0 -0.44207286924452832 -0.33783824796895978 0 -0.46140244920768408 -0.33754740415941759 0 -0.45117994904742642 -0.3486532256997657 0 -0.45223868162566522 -0.32343332413938758 0 -0.44207286924452832 -0.33783824796895978 0 -0.42808850906329299 -0.32433171173736591 0 -0.45879166701778518 -0.3036258058313378 0 -0.45223868162566522 -0.32343332413938758 0 -0.47638885418803739 -0.32253493654140952 0 -0.45223868162566522 -0.32343332413938758 0 -0.46140244920768408 -0.33754740415941759 0 -0.47638885418803739 -0.32253493654140952 0 -0.45223868162566522 -0.32343332413938758 0 -0.47638885418803739 -0.32253493654140952 0 -0.48161809245015419 -0.30465866835107641 0 -0.47638885418803739 -0.32253493654140952 0 -0.5 -0.32745338609502678 0 -0.47638885418803739 -0.32253493654140952 0 -0.5 -0.32745338609502678 0 -0.48104103145021149 -0.34129537751375599 0 -0.5 -0.32745338609502678 0 -0.48104103145021149 -0.34129537751375599 0 -0.5 -0.35324999858124201 0 -0.46140244920768408 -0.33754740415941759 0 -0.48104103145021149 -0.34129537751375599 0 -0.46549330969023639 -0.35152931309322771 0 -0.46140244920768408 -0.33754740415941759 0 -0.47638885418803739 -0.32253493654140952 0 -0.48104103145021149 -0.34129537751375599 0 -0.48104103145021149 -0.34129537751375599 0 -0.48025743214923627 -0.35616585996071459 0 -0.46549330969023639 -0.35152931309322771 0 -0.48025743214923627 -0.35616585996071459 0 -0.46757842097458802 -0.36652008110622503 0 -0.46549330969023639 -0.35152931309322771 0 -0.48025743214923627 -0.35616585996071459 0 -0.5 -0.35324999858124201 0 -0.48717439863114548 -0.36823452950912272 0 -0.48104103145021149 -0.34129537751375599 0 -0.48025743214923627 -0.35616585996071459 0 -0.5 -0.35324999858124201 0 -0.50000000000000089 -0.37904661106745707 0 -0.5 -0.35324999858124201 0 -0.48717439863114548 -0.36823452950912272 0 -0.47195833844942919 -0.37959069520904498 0 -0.48717439863114548 -0.36823452950912272 0 -0.46757842097458802 -0.36652008110622503 0 -0.48025743214923627 -0.35616585996071459 0 -0.48717439863114548 -0.36823452950912272 0 -0.46757842097458802 -0.36652008110622503 0 -0.45132291774153199 -0.37789636588759368 0 -0.46757842097458802 -0.36652008110622503 0 -0.45216690816074923 -0.36231126303824313 0 -0.47195833844942919 -0.37959069520904498 0 -0.45132291774153199 -0.37789636588759368 0 -0.46757842097458802 -0.36652008110622503 0 -0.46757842097458802 -0.36652008110622503 0 -0.46549330969023639 -0.35152931309322771 0 -0.45216690816074923 -0.36231126303824313 0 -0.46140244920768408 -0.33754740415941759 0 -0.46549330969023639 -0.35152931309322771 0 -0.45117994904742642 -0.3486532256997657 0 -0.46549330969023639 -0.35152931309322771 0 -0.45117994904742642 -0.3486532256997657 0 -0.45216690816074923 -0.36231126303824313 0 -0.44599028472907742 -0.35554349803526408 0 -0.45117994904742642 -0.3486532256997657 0 -0.45216690816074923 -0.36231126303824313 0 -0.44599028472907742 -0.35554349803526408 0 -0.45117994904742642 -0.3486532256997657 0 -0.44228407783080631 -0.34851364977492799 0 -0.44207286924452832 -0.33783824796895978 0 -0.44228407783080631 -0.34851364977492799 0 -0.43394442261003058 -0.34546672586134508 0 -0.44228407783080631 -0.34851364977492799 0 -0.43858436747801349 -0.35660488883003821 0 -0.43394442261003058 -0.34546672586134508 0 -0.44207286924452832 -0.33783824796895978 0 -0.45117994904742642 -0.3486532256997657 0 -0.44228407783080631 -0.34851364977492799 0 -0.44599028472907742 -0.35554349803526408 0 -0.44228407783080631 -0.34851364977492799 0 -0.43858436747801349 -0.35660488883003821 0 -0.44599028472907742 -0.35554349803526408 0 -0.43858436747801349 -0.35660488883003821 0 -0.43671500038902772 -0.36381401452353412 0 -0.43858436747801349 -0.35660488883003821 0 -0.43671500038902772 -0.36381401452353412 0 -0.44599028472907742 -0.35554349803526408 0 -0.45216690816074923 -0.36231126303824313 0 -0.43671500038902772 -0.36381401452353412 0 -0.45132291774153199 -0.37789636588759368 0 -0.43671500038902772 -0.36381401452353412 0 -0.45132291774153199 -0.37789636588759368 0 -0.45216690816074923 -0.36231126303824313 0 -0.43671500038902772 -0.36381401452353412 0 -0.43040194378266172 -0.3881600185019185 0 -0.43671500038902772 -0.36381401452353412 0 -0.4079689369259607 -0.37224253963894771 0 -0.43858436747801349 -0.35660488883003821 0 -0.43671500038902772 -0.36381401452353412 0 -0.41901032175007979 -0.34674631764622038 0 -0.43671500038902772 -0.36381401452353412 0 -0.41901032175007979 -0.34674631764622038 0 -0.43858436747801349 -0.35660488883003821 0 -0.43394442261003058 -0.34546672586134508 0 -0.41901032175007979 -0.34674631764622038 0 -0.41901032175007979 -0.34674631764622038 0 -0.4079689369259607 -0.37224253963894771 0 -0.40160491304204049 -0.35527610236370899 0 -0.43671500038902772 -0.36381401452353412 0 -0.41901032175007979 -0.34674631764622038 0 -0.4079689369259607 -0.37224253963894771 0 -0.4079689369259607 -0.37224253963894771 0 -0.38553593006925752 -0.3563250607759802 0 -0.4079689369259607 -0.37224253963894771 0 -0.38553593006925752 -0.3563250607759802 0 -0.40160491304204049 -0.35527610236370899 0 -0.39195929229331972 -0.37982250283040359 0 -0.4079689369259607 -0.37224253963894771 0 -0.38553593006925752 -0.3563250607759802 0 -0.39195929229331972 -0.37982250283040359 0 -0.37549160074202448 -0.3732971907138336 0 -0.38553593006925752 -0.3563250607759802 0 -0.37549160074202448 -0.3732971907138336 0 -0.38553593006925752 -0.3563250607759802 0 -0.38553593006925752 -0.3563250607759802 0 -0.36666079927166728 -0.34293209489202431 0 -0.38553593006925752 -0.3563250607759802 0 -0.39342078659019603 -0.34300184077244372 0 -0.38006824781918919 -0.33243312042550199 0 -0.38553593006925752 -0.3563250607759802 0 -0.38006824781918919 -0.33243312042550199 0 -0.36666079927166728 -0.34293209489202431 0 -0.38553593006925752 -0.3563250607759802 0 -0.39342078659019603 -0.34300184077244372 0 -0.41901032175007979 -0.34674631764622038 0 -0.40160491304204049 -0.35527610236370899 0 -0.39342078659019603 -0.34300184077244372 0 -0.38553593006925752 -0.3563250607759802 0 -0.40160491304204049 -0.35527610236370899 0 -0.39342078659019603 -0.34300184077244372 0 -0.41901032175007979 -0.34674631764622038 0 -0.40130564311113259 -0.32967862076890581 0 -0.39342078659019603 -0.34300184077244372 0 -0.40130564311113259 -0.32967862076890581 0 -0.39064670272592411 -0.32967160323888278 0 -0.39342078659019603 -0.34300184077244372 0 -0.40130564311113259 -0.32967862076890581 0 -0.39342078659019603 -0.34300184077244372 0 -0.39064670272592411 -0.32967160323888278 0 -0.39342078659019603 -0.34300184077244372 0 -0.38006824781918919 -0.33243312042550199 0 -0.38006824781918919 -0.33243312042550199 0 -0.38935907146989862 -0.31816186479418052 0 -0.37140736883531977 -0.32183989730859341 0 -0.38935907146989862 -0.31816186479418052 0 -0.38351210912712752 -0.30253866195360818 0 -0.37140736883531977 -0.32183989730859341 0 -0.39064670272592411 -0.32967160323888278 0 -0.38006824781918919 -0.33243312042550199 0 -0.38935907146989862 -0.31816186479418052 0 -0.38935907146989862 -0.31816186479418052 0 -0.401514660155255 -0.31819685637317691 0 -0.39554973675391708 -0.30949047449279188 0 -0.40130564311113259 -0.32967862076890581 0 -0.38935907146989862 -0.31816186479418052 0 -0.40130564311113259 -0.32967862076890581 0 -0.38935907146989862 -0.31816186479418052 0 -0.39962023335203928 -0.32539073298322901 0 -0.38935907146989862 -0.31816186479418052 0 -0.39962023335203928 -0.32539073298322901 0 -0.401514660155255 -0.31819685637317691 0 -0.40130564311113259 -0.32967862076890581 0 -0.39064670272592411 -0.32967160323888278 0 -0.38935907146989862 -0.31816186479418052 0 -0.40130564311113259 -0.32967862076890581 0 -0.39962023335203928 -0.32539073298322901 0 -0.4039383365009207 -0.3252300993353433 0 -0.39962023335203928 -0.32539073298322901 0 -0.4039383365009207 -0.3252300993353433 0 -0.39962023335203928 -0.32539073298322901 0 -0.4039383365009207 -0.3252300993353433 0 -0.401514660155255 -0.31819685637317691 0 -0.40130564311113259 -0.32967862076890581 0 -0.4039383365009207 -0.3252300993353433 0 -0.401514660155255 -0.31819685637317691 0 -0.4088463285069534 -0.31693695448250642 0 -0.4053668684804122 -0.3086126184714344 0 -0.4039383365009207 -0.3252300993353433 0 -0.401514660155255 -0.31819685637317691 0 -0.4088463285069534 -0.31693695448250642 0 -0.4039383365009207 -0.3252300993353433 0 -0.42808850906329299 -0.32433171173736591 0 -0.4088463285069534 -0.31693695448250642 0 -0.42808850906329299 -0.32433171173736591 0 -0.41503252140001728 -0.31110728079830707 0 -0.4039383365009207 -0.3252300993353433 0 -0.4088463285069534 -0.31693695448250642 0 -0.42808850906329299 -0.32433171173736591 0 -0.4039383365009207 -0.3252300993353433 0 -0.41609663568284688 -0.33258428014908531 0 -0.42808850906329299 -0.32433171173736591 0 -0.4039383365009207 -0.3252300993353433 0 -0.4088463285069534 -0.31693695448250642 0 -0.40130564311113259 -0.32967862076890581 0 -0.4039383365009207 -0.3252300993353433 0 -0.41609663568284688 -0.33258428014908531 0 -0.41901032175007979 -0.34674631764622038 0 -0.40130564311113259 -0.32967862076890581 0 -0.41609663568284688 -0.33258428014908531 0 -0.41901032175007979 -0.34674631764622038 0 -0.40130564311113259 -0.32967862076890581 0 -0.41901032175007979 -0.34674631764622038 0 -0.41609663568284688 -0.33258428014908531 0 -0.42777047674672519 -0.33763052508657909 0 -0.41609663568284688 -0.33258428014908531 0 -0.42777047674672519 -0.33763052508657909 0 -0.42808850906329299 -0.32433171173736591 0 -0.43394442261003058 -0.34546672586134508 0 -0.41901032175007979 -0.34674631764622038 0 -0.42777047674672519 -0.33763052508657909 0 -0.44207286924452832 -0.33783824796895978 0 -0.43394442261003058 -0.34546672586134508 0 -0.42777047674672519 -0.33763052508657909 0 -0.44207286924452832 -0.33783824796895978 0 -0.42777047674672519 -0.33763052508657909 0 -0.42808850906329299 -0.32433171173736591 0 -0.4399695753826649 -0.31139282438396382 0 -0.42808850906329299 -0.32433171173736591 0 -0.42349591428063971 -0.31031667424466408 0 -0.42808850906329299 -0.32433171173736591 0 -0.42349591428063971 -0.31031667424466408 0 -0.41503252140001728 -0.31110728079830707 0 -0.43905227881958647 -0.29505920944709452 0 -0.42349591428063971 -0.31031667424466408 0 -0.41899880716149451 -0.29003317060265321 0 -0.43905227881958647 -0.29505920944709452 0 -0.4399695753826649 -0.31139282438396382 0 -0.42349591428063971 -0.31031667424466408 0 -0.43864273500925549 -0.2751587481676856 0 -0.43905227881958647 -0.29505920944709452 0 -0.41899880716149451 -0.29003317060265321 0 -0.43864273500925549 -0.2751587481676856 0 -0.41899880716149451 -0.29003317060265321 0 -0.41649742047364408 -0.2919272257303569 0 -0.41502826726935188 -0.28951283527362931 0 -0.41151645216318689 -0.29124877083691719 0 -0.41899880716149451 -0.29003317060265321 0 -0.41649742047364408 -0.2919272257303569 0 -0.41502826726935188 -0.28951283527362931 0 -0.41899880716149451 -0.29003317060265321 0 -0.41649742047364408 -0.2919272257303569 0 -0.41899880716149451 -0.29003317060265321 0 -0.41502826726935188 -0.28951283527362931 0 -0.41310038927908221 -0.28484217392458988 0 -0.41310038927908221 -0.28484217392458988 0 -0.40629814920556201 -0.2872410904076857 0 -0.40433064532645308 -0.27892106023783952 0 -0.41502826726935188 -0.28951283527362931 0 -0.41310038927908221 -0.28484217392458988 0 -0.41151645216318689 -0.29124877083691719 0 -0.41310038927908221 -0.28484217392458988 0 -0.40629814920556201 -0.2872410904076857 0 -0.41151645216318689 -0.29124877083691719 0 -0.41649742047364408 -0.2919272257303569 0 -0.41151645216318689 -0.29124877083691719 0 -0.41283916949633909 -0.29890888486812428 0 -0.40629814920556201 -0.2872410904076857 0 -0.41151645216318689 -0.29124877083691719 0 -0.4052488046064433 -0.29379102377099447 0 -0.41151645216318689 -0.29124877083691719 0 -0.41283916949633909 -0.29890888486812428 0 -0.4052488046064433 -0.29379102377099447 0 -0.42349591428063971 -0.31031667424466408 0 -0.41899880716149451 -0.29003317060265321 0 -0.42349591428063971 -0.31031667424466408 0 -0.41649742047364408 -0.2919272257303569 0 -0.41283916949633909 -0.29890888486812428 0 -0.42349591428063971 -0.31031667424466408 0 -0.41899880716149451 -0.29003317060265321 0 -0.41649742047364408 -0.2919272257303569 0 -0.40711072979061191 -0.30081998795009107 0 -0.41283916949633909 -0.29890888486812428 0 -0.4052488046064433 -0.29379102377099447 0 -0.40711072979061191 -0.30081998795009107 0 -0.41283916949633909 -0.29890888486812428 0 -0.41256685577174013 -0.30556786269479153 0 -0.42349591428063971 -0.31031667424466408 0 -0.41283916949633909 -0.29890888486812428 0 -0.41256685577174013 -0.30556786269479153 0 -0.42349591428063971 -0.31031667424466408 0 -0.41503252140001728 -0.31110728079830707 0 -0.41256685577174013 -0.30556786269479153 0 -0.4088463285069534 -0.31693695448250642 0 -0.41503252140001728 -0.31110728079830707 0 -0.4053668684804122 -0.3086126184714344 0 -0.41503252140001728 -0.31110728079830707 0 -0.41256685577174013 -0.30556786269479153 0 -0.4053668684804122 -0.3086126184714344 0 -0.40711072979061191 -0.30081998795009107 0 -0.41256685577174013 -0.30556786269479153 0 -0.4053668684804122 -0.3086126184714344 0 -0.401514660155255 -0.31819685637317691 0 -0.4053668684804122 -0.3086126184714344 0 -0.39554973675391708 -0.30949047449279188 0 -0.4053668684804122 -0.3086126184714344 0 -0.39799597453689262 -0.29994237087155962 0 -0.39554973675391708 -0.30949047449279188 0 -0.40711072979061191 -0.30081998795009107 0 -0.4053668684804122 -0.3086126184714344 0 -0.39799597453689262 -0.29994237087155962 0 -0.40711072979061191 -0.30081998795009107 0 -0.39799597453689262 -0.29994237087155962 0 -0.4052488046064433 -0.29379102377099447 0 -0.39799597453689262 -0.29994237087155962 0 -0.39554973675391708 -0.30949047449279188 0 -0.38351210912712752 -0.30253866195360818 0 -0.38935907146989862 -0.31816186479418052 0 -0.39554973675391708 -0.30949047449279188 0 -0.38351210912712752 -0.30253866195360818 0 -0.38351210912712752 -0.30253866195360818 0 -0.3950660262777419 -0.28803976586637831 0 -0.37433096522584453 -0.28132989654828328 0 -0.39799597453689262 -0.29994237087155962 0 -0.38351210912712752 -0.30253866195360818 0 -0.3950660262777419 -0.28803976586637831 0 -0.39799597453689262 -0.29994237087155962 0 -0.3950660262777419 -0.28803976586637831 0 -0.4052488046064433 -0.29379102377099447 0 -0.40629814920556201 -0.2872410904076857 0 -0.3950660262777419 -0.28803976586637831 0 -0.4052488046064433 -0.29379102377099447 0 -0.40629814920556201 -0.2872410904076857 0 -0.3950660262777419 -0.28803976586637831 0 -0.40433064532645308 -0.27892106023783952 0 -0.40433064532645308 -0.27892106023783952 0 -0.39374553591587069 -0.27251425727467649 0 -0.41316010660589619 -0.2636986180010682 0 -0.39374553591587069 -0.27251425727467649 0 -0.41316010660589619 -0.2636986180010682 0 -0.3950660262777419 -0.28803976586637831 0 -0.40433064532645308 -0.27892106023783952 0 -0.39374553591587069 -0.27251425727467649 0 -0.39374553591587069 -0.27251425727467649 0 -0.37433096522584453 -0.28132989654828328 0 -0.3950660262777419 -0.28803976586637831 0 -0.39374553591587069 -0.27251425727467649 0 -0.37433096522584453 -0.28132989654828328 0 -0.39374553591587069 -0.27251425727467649 0 -0.37648826808451968 -0.27741199289956509 0 -0.37433096522584453 -0.28132989654828328 0 -0.39374553591587069 -0.27251425727467649 0 -0.37598097480723441 -0.26745556380373348 0 -0.38363075469537122 -0.26088114511686322 0 -0.39374553591587069 -0.27251425727467649 0 -0.37598097480723441 -0.26745556380373348 0 -0.37648826808451968 -0.27741199289956509 0 -0.37598097480723441 -0.26745556380373348 0 -0.37648826808451968 -0.27741199289956509 0 -0.37277902062147272 -0.27405557492128901 0 -0.37648826808451968 -0.27741199289956509 0 -0.37433096522584453 -0.28132989654828328 0 -0.38363075469537122 -0.26088114511686322 0 -0.37393540655460039 -0.25504906339868932 0 -0.38258347849844832 -0.24967798674395081 0 -0.37598097480723441 -0.26745556380373348 0 -0.38363075469537122 -0.26088114511686322 0 -0.37393540655460039 -0.25504906339868932 0 -0.38363075469537122 -0.26088114511686322 0 -0.3945867816951415 -0.25828321704239809 0 -0.38258347849844832 -0.24967798674395081 0 -0.3945867816951415 -0.25828321704239809 0 -0.3933004523496676 -0.24484402304582939 0 -0.38258347849844832 -0.24967798674395081 0 -0.39374553591587069 -0.27251425727467649 0 -0.3945867816951415 -0.25828321704239809 0 -0.41316010660589619 -0.2636986180010682 0 -0.3945867816951415 -0.25828321704239809 0 -0.41316010660589619 -0.2636986180010682 0 -0.40847937369743209 -0.24258689873782929 0 -0.39374553591587069 -0.27251425727467649 0 -0.38363075469537122 -0.26088114511686322 0 -0.3945867816951415 -0.25828321704239809 0 -0.41316010660589619 -0.2636986180010682 0 -0.42931567121415071 -0.25028064732030619 0 -0.40847937369743209 -0.24258689873782929 0 -0.41316010660589619 -0.2636986180010682 0 -0.40847937369743209 -0.24258689873782929 0 -0.41899880716149451 -0.29003317060265321 0 -0.41310038927908221 -0.28484217392458988 0 -0.41316010660589619 -0.2636986180010682 0 -0.41310038927908221 -0.28484217392458988 0 -0.40433064532645308 -0.27892106023783952 0 -0.41316010660589619 -0.2636986180010682 0 -0.41899880716149451 -0.29003317060265321 0 -0.41316010660589619 -0.2636986180010682 0 -0.42551969657153998 -0.27199364899169498 0 -0.41899880716149451 -0.29003317060265321 0 -0.41316010660589619 -0.2636986180010682 0 -0.43864273500925549 -0.2751587481676856 0 -0.42551969657153998 -0.27199364899169498 0 -0.43487007995442373 -0.25384069753834382 0 -0.43864273500925549 -0.2751587481676856 0 -0.41899880716149451 -0.29003317060265321 0 -0.42551969657153998 -0.27199364899169498 0 -0.41316010660589619 -0.2636986180010682 0 -0.43487007995442373 -0.25384069753834382 0 -0.41316010660589619 -0.2636986180010682 0 -0.42551969657153998 -0.27199364899169498 0 -0.43487007995442373 -0.25384069753834382 0 -0.41316010660589619 -0.2636986180010682 0 -0.43487007995442373 -0.25384069753834382 0 -0.42931567121415071 -0.25028064732030619 0 -0.32316489217708799 -0.25890650528201359 0 -0.32888695585781391 -0.26910619260742191 0 -0.31032083431566337 -0.26180085087236171 0 -0.32316489217708799 -0.25890650528201359 0 -0.32888695585781391 -0.26910619260742191 0 -0.33131030172746923 -0.25321851497678438 0 -0.32888695585781391 -0.26910619260742191 0 -0.31032083431566337 -0.26180085087236171 0 -0.32316489217708799 -0.25890650528201359 0 -0.33131030172746923 -0.25321851497678438 0 -0.32202724095639168 -0.2495658441092535 0 -0.32316489217708799 -0.25890650528201359 0 -0.31032083431566337 -0.26180085087236171 0 -0.32202724095639168 -0.2495658441092535 0 -0.31032083431566337 -0.26180085087236171 0 -0.32202724095639168 -0.2495658441092535 0 -0.31283906540333922 -0.25031215033235238 0 -0.31032083431566337 -0.26180085087236171 0 -0.32202724095639168 -0.2495658441092535 0 -0.31480478096024378 -0.27564718726691712 0 -0.32888695585781391 -0.26910619260742191 0 -0.31032083431566337 -0.26180085087236171 0 -0.31480478096024378 -0.27564718726691712 0 -0.32888695585781391 -0.26910619260742191 0 -0.32507396769595592 -0.29410449247197662 0 -0.32888695585781391 -0.26910619260742191 0 -0.3381311227387106 -0.26238754928509761 0 -0.34453036853746388 -0.27526151563856671 0 -0.32888695585781391 -0.26910619260742191 0 -0.34453036853746388 -0.27526151563856671 0 -0.33279411355556121 -0.28213246275860349 0 -0.32888695585781391 -0.26910619260742191 0 -0.34453036853746388 -0.27526151563856671 0 -0.34453036853746388 -0.27526151563856671 0 -0.34450588037081892 -0.28462367662190302 0 -0.33279411355556121 -0.28213246275860349 0 -0.32888695585781391 -0.26910619260742191 0 -0.33131030172746923 -0.25321851497678438 0 -0.32888695585781391 -0.26910619260742191 0 -0.3381311227387106 -0.26238754928509761 0 -0.33131030172746923 -0.25321851497678438 0 -0.3381311227387106 -0.26238754928509761 0 -0.34897267059429732 -0.25990550268967838 0 -0.3420777495351906 -0.24844208584564559 0 -0.3381311227387106 -0.26238754928509761 0 -0.33131030172746923 -0.25321851497678438 0 -0.3420777495351906 -0.24844208584564559 0 -0.34897267059429732 -0.25990550268967838 0 -0.35255150303394622 -0.24812522560144931 0 -0.3420777495351906 -0.24844208584564559 0 -0.34897267059429732 -0.25990550268967838 0 -0.35751050643918753 -0.2560897164936603 0 -0.35722060467742811 -0.26762499714769428 0 -0.34897267059429732 -0.25990550268967838 0 -0.35751050643918753 -0.2560897164936603 0 -0.35255150303394622 -0.24812522560144931 0 -0.35751050643918753 -0.2560897164936603 0 -0.363557814049559 -0.2486896754833777 0 -0.35255150303394622 -0.24812522560144931 0 -0.35751050643918753 -0.2560897164936603 0 -0.36561260290989678 -0.26128521942254013 0 -0.363557814049559 -0.2486896754833777 0 -0.35751050643918753 -0.2560897164936603 0 -0.36561260290989678 -0.26128521942254013 0 -0.35722060467742811 -0.26762499714769428 0 -0.37598097480723441 -0.26745556380373348 0 -0.36561260290989678 -0.26128521942254013 0 -0.37393540655460039 -0.25504906339868932 0 -0.36561260290989678 -0.26128521942254013 0 -0.37393540655460039 -0.25504906339868932 0 -0.363557814049559 -0.2486896754833777 0 -0.37277902062147272 -0.27405557492128901 0 -0.36654922363893422 -0.27215591673696138 0 -0.37433096522584453 -0.28132989654828328 0 -0.37648826808451968 -0.27741199289956509 0 -0.37277902062147272 -0.27405557492128901 0 -0.37433096522584453 -0.28132989654828328 0 -0.37598097480723441 -0.26745556380373348 0 -0.37277902062147272 -0.27405557492128901 0 -0.36654922363893422 -0.27215591673696138 0 -0.37598097480723441 -0.26745556380373348 0 -0.36561260290989678 -0.26128521942254013 0 -0.36654922363893422 -0.27215591673696138 0 -0.36561260290989678 -0.26128521942254013 0 -0.36654922363893422 -0.27215591673696138 0 -0.35722060467742811 -0.26762499714769428 0 -0.36654922363893422 -0.27215591673696138 0 -0.35722060467742811 -0.26762499714769428 0 -0.36017378121711419 -0.28141683866971062 0 -0.36654922363893422 -0.27215591673696138 0 -0.36017378121711419 -0.28141683866971062 0 -0.37433096522584453 -0.28132989654828328 0 -0.34453036853746388 -0.27526151563856671 0 -0.36017378121711419 -0.28141683866971062 0 -0.35722060467742811 -0.26762499714769428 0 -0.34453036853746388 -0.27526151563856671 0 -0.36017378121711419 -0.28141683866971062 0 -0.34453036853746388 -0.27526151563856671 0 -0.34450588037081892 -0.28462367662190302 0 -0.36017378121711419 -0.28141683866971062 0 -0.34897267059429732 -0.25990550268967838 0 -0.35722060467742811 -0.26762499714769428 0 -0.34453036853746388 -0.27526151563856671 0 -0.3381311227387106 -0.26238754928509761 0 -0.34897267059429732 -0.25990550268967838 0 -0.34453036853746388 -0.27526151563856671 0 -0.34450588037081892 -0.28462367662190302 0 -0.34891652205724832 -0.29286991805537971 0 -0.36017378121711419 -0.28141683866971062 0 -0.37433096522584453 -0.28132989654828328 0 -0.36105831684996031 -0.30543451277817618 0 -0.34891652205724832 -0.29286991805537971 0 -0.37433096522584453 -0.28132989654828328 0 -0.34891652205724832 -0.29286991805537971 0 -0.36017378121711419 -0.28141683866971062 0 -0.37433096522584453 -0.28132989654828328 0 -0.38351210912712752 -0.30253866195360818 0 -0.37433096522584453 -0.28132989654828328 0 -0.36105831684996031 -0.30543451277817618 0 -0.34891652205724832 -0.29286991805537971 0 -0.37433096522584453 -0.28132989654828328 0 -0.36105831684996031 -0.30543451277817618 0 -0.38351210912712752 -0.30253866195360818 0 -0.36105831684996031 -0.30543451277817618 0 -0.37140736883531977 -0.32183989730859341 0 -0.36105831684996031 -0.30543451277817618 0 -0.3496688877197569 -0.30429177800002122 0 -0.34586440994984541 -0.3145735322147622 0 -0.34891652205724832 -0.29286991805537971 0 -0.36105831684996031 -0.30543451277817618 0 -0.3496688877197569 -0.30429177800002122 0 -0.34891652205724832 -0.29286991805537971 0 -0.3496688877197569 -0.30429177800002122 0 -0.33956299038192078 -0.30735077663143923 0 -0.3496688877197569 -0.30429177800002122 0 -0.33956299038192078 -0.30735077663143923 0 -0.34586440994984541 -0.3145735322147622 0 -0.34891652205724832 -0.29286991805537971 0 -0.33956299038192078 -0.30735077663143923 0 -0.32350207888865212 -0.30440993956247547 0 -0.33956299038192078 -0.30735077663143923 0 -0.3301339810941622 -0.31110503031331638 0 -0.32350207888865212 -0.30440993956247547 0 -0.34891652205724832 -0.29286991805537971 0 -0.32350207888865212 -0.30440993956247547 0 -0.33956299038192078 -0.30735077663143923 0 -0.3301339810941622 -0.31110503031331638 0 -0.33675509785737662 -0.31655799101612769 0 -0.34891652205724832 -0.29286991805537971 0 -0.33611461648670682 -0.29143764798725502 0 -0.32350207888865212 -0.30440993956247547 0 -0.32888695585781391 -0.26910619260742191 0 -0.33279411355556121 -0.28213246275860349 0 -0.32507396769595592 -0.29410449247197662 0 -0.34450588037081892 -0.28462367662190302 0 -0.34891652205724832 -0.29286991805537971 0 -0.33611461648670682 -0.29143764798725502 0 -0.34450588037081892 -0.28462367662190302 0 -0.33611461648670682 -0.29143764798725502 0 -0.33279411355556121 -0.28213246275860349 0 -0.33279411355556121 -0.28213246275860349 0 -0.33070524953878982 -0.29012978506972142 0 -0.32507396769595592 -0.29410449247197662 0 -0.33611461648670682 -0.29143764798725502 0 -0.33279411355556121 -0.28213246275860349 0 -0.33070524953878982 -0.29012978506972142 0 -0.33611461648670682 -0.29143764798725502 0 -0.32742439802278828 -0.29462709162158601 0 -0.32350207888865212 -0.30440993956247547 0 -0.33611461648670682 -0.29143764798725502 0 -0.33070524953878982 -0.29012978506972142 0 -0.32742439802278828 -0.29462709162158601 0 -0.32507396769595592 -0.29410449247197662 0 -0.30234930147786221 -0.28905184696057518 0 -0.32507396769595592 -0.29410449247197662 0 -0.32350207888865212 -0.30440993956247547 0 -0.30234930147786221 -0.28905184696057518 0 -0.31480478096024378 -0.27564718726691712 0 -0.32507396769595592 -0.29410449247197662 0 -0.30234930147786221 -0.28905184696057518 0 -0.32888695585781391 -0.26910619260742191 0 -0.32507396769595592 -0.29410449247197662 0 -0.32507396769595592 -0.29410449247197662 0 -0.32742439802278828 -0.29462709162158601 0 -0.33070524953878982 -0.29012978506972142 0 -0.32507396769595592 -0.29410449247197662 0 -0.32742439802278828 -0.29462709162158601 0 -0.32302725724223008 -0.30752291379569302 0 -0.32350207888865212 -0.30440993956247547 0 -0.2999756881373381 -0.31509264677165549 0 -0.3301339810941622 -0.31110503031331638 0 -0.32302725724223008 -0.30752291379569302 0 -0.32422013968378288 -0.31561436227230438 0 -0.32302725724223008 -0.30752291379569302 0 -0.32350207888865212 -0.30440993956247547 0 -0.3301339810941622 -0.31110503031331638 0 -0.32302725724223008 -0.30752291379569302 0 -0.32350207888865212 -0.30440993956247547 0 -0.32507396769595592 -0.29410449247197662 0 -0.32742439802278828 -0.29462709162158601 0 -0.32350207888865212 -0.30440993956247547 0 -0.32507396769595592 -0.29410449247197662 0 -0.32350207888865212 -0.30440993956247547 0 -0.32302725724223008 -0.30752291379569302 0 -0.31656029902357641 -0.31849097864348519 0 -0.2999756881373381 -0.31509264677165549 0 -0.32265466046617669 -0.32198754646013139 0 -0.33127214989488979 -0.33008610863815152 0 -0.32872450059276898 -0.31896534214889599 0 -0.32265466046617669 -0.32198754646013139 0 -0.31892782856615448 -0.32825501756413727 0 -0.33127214989488979 -0.33008610863815152 0 -0.32265466046617669 -0.32198754646013139 0 -0.32422013968378288 -0.31561436227230438 0 -0.32872450059276898 -0.31896534214889599 0 -0.32302725724223008 -0.30752291379569302 0 -0.32422013968378288 -0.31561436227230438 0 -0.31656029902357641 -0.31849097864348519 0 -0.3301339810941622 -0.31110503031331638 0 -0.32422013968378288 -0.31561436227230438 0 -0.32872450059276898 -0.31896534214889599 0 -0.32265466046617669 -0.32198754646013139 0 -0.32422013968378288 -0.31561436227230438 0 -0.31656029902357641 -0.31849097864348519 0 -0.32265466046617669 -0.32198754646013139 0 -0.31656029902357641 -0.31849097864348519 0 -0.31892782856615448 -0.32825501756413727 0 -0.31656029902357641 -0.31849097864348519 0 -0.31892782856615448 -0.32825501756413727 0 -0.30936258926988919 -0.3261434941065412 0 -0.31892782856615448 -0.32825501756413727 0 -0.31208723605418232 -0.33616024018399832 0 -0.30936258926988919 -0.3261434941065412 0 -0.31892782856615448 -0.32825501756413727 0 -0.32183099473442811 -0.33958013728355868 0 -0.31208723605418232 -0.33616024018399832 0 -0.32183099473442811 -0.33958013728355868 0 -0.31234840654553953 -0.34764506024843322 0 -0.31208723605418232 -0.33616024018399832 0 -0.31892782856615448 -0.32825501756413727 0 -0.32183099473442811 -0.33958013728355868 0 -0.33127214989488979 -0.33008610863815152 0 -0.33127214989488979 -0.33008610863815152 0 -0.34778566847407638 -0.32953912900806931 0 -0.33412452318830171 -0.35434929914508079 0 -0.32183099473442811 -0.33958013728355868 0 -0.33127214989488979 -0.33008610863815152 0 -0.33412452318830171 -0.35434929914508079 0 -0.34778566847407638 -0.32953912900806931 0 -0.33412452318830171 -0.35434929914508079 0 -0.33127214989488979 -0.33008610863815152 0 -0.34035549841598117 -0.32426700585474 0 -0.34778566847407638 -0.32953912900806931 0 -0.34035549841598117 -0.32426700585474 0 -0.33427681169025408 -0.32246911191447869 0 -0.33675509785737662 -0.31655799101612769 0 -0.33127214989488979 -0.33008610863815152 0 -0.34035549841598117 -0.32426700585474 0 -0.33427681169025408 -0.32246911191447869 0 -0.33127214989488979 -0.33008610863815152 0 -0.33427681169025408 -0.32246911191447869 0 -0.32872450059276898 -0.31896534214889599 0 -0.33427681169025408 -0.32246911191447869 0 -0.32872450059276898 -0.31896534214889599 0 -0.33675509785737662 -0.31655799101612769 0 -0.3301339810941622 -0.31110503031331638 0 -0.32872450059276898 -0.31896534214889599 0 -0.33675509785737662 -0.31655799101612769 0 -0.33956299038192078 -0.30735077663143923 0 -0.33675509785737662 -0.31655799101612769 0 -0.34586440994984541 -0.3145735322147622 0 -0.34035549841598117 -0.32426700585474 0 -0.33675509785737662 -0.31655799101612769 0 -0.34586440994984541 -0.3145735322147622 0 -0.36105831684996031 -0.30543451277817618 0 -0.34778566847407638 -0.32953912900806931 0 -0.36105831684996031 -0.30543451277817618 0 -0.34586440994984541 -0.3145735322147622 0 -0.34778566847407638 -0.32953912900806931 0 -0.34035549841598117 -0.32426700585474 0 -0.34586440994984541 -0.3145735322147622 0 -0.34778566847407638 -0.32953912900806931 0 -0.34035549841598117 -0.32426700585474 0 -0.34778566847407638 -0.32953912900806931 0 -0.36105831684996031 -0.30543451277817618 0 -0.37140736883531977 -0.32183989730859341 0 -0.34778566847407638 -0.32953912900806931 0 -0.38006824781918919 -0.33243312042550199 0 -0.37140736883531977 -0.32183989730859341 0 -0.36666079927166728 -0.34293209489202431 0 -0.37140736883531977 -0.32183989730859341 0 -0.36666079927166728 -0.34293209489202431 0 -0.34778566847407638 -0.32953912900806931 0 -0.34778566847407638 -0.32953912900806931 0 -0.35170181166344461 -0.34709871950800919 0 -0.33412452318830171 -0.35434929914508079 0 -0.36666079927166728 -0.34293209489202431 0 -0.34778566847407638 -0.32953912900806931 0 -0.36666079927166728 -0.34293209489202431 0 -0.34778566847407638 -0.32953912900806931 0 -0.35170181166344461 -0.34709871950800919 0 -0.36666079927166728 -0.34293209489202431 0 -0.35170181166344461 -0.34709871950800919 0 -0.35823625571973289 -0.36157435498686258 0 -0.35170181166344461 -0.34709871950800919 0 -0.35823625571973289 -0.36157435498686258 0 -0.33412452318830171 -0.35434929914508079 0 -0.38553593006925752 -0.3563250607759802 0 -0.36666079927166728 -0.34293209489202431 0 -0.35823625571973289 -0.36157435498686258 0 -0.37549160074202448 -0.3732971907138336 0 -0.38553593006925752 -0.3563250607759802 0 -0.35823625571973289 -0.36157435498686258 0 -0.37549160074202448 -0.3732971907138336 0 -0.35823625571973289 -0.36157435498686258 0 -0.35302350150803719 -0.38208755235937009 0 -0.35823625571973289 -0.36157435498686258 0 -0.34413293857164062 -0.37054757780120701 0 -0.35302350150803719 -0.38208755235937009 0 -0.35823625571973289 -0.36157435498686258 0 -0.34413293857164062 -0.37054757780120701 0 -0.33412452318830171 -0.35434929914508079 0 -0.34413293857164062 -0.37054757780120701 0 -0.33412452318830171 -0.35434929914508079 0 -0.33519042443293379 -0.3802220457599616 0 -0.33412452318830171 -0.35434929914508079 0 -0.33519042443293379 -0.3802220457599616 0 -0.32046337790252549 -0.37915946928209171 0 -0.32183099473442811 -0.33958013728355868 0 -0.33412452318830171 -0.35434929914508079 0 -0.31234840654553953 -0.34764506024843322 0 -0.33412452318830171 -0.35434929914508079 0 -0.316806384823896 -0.36257585725837499 0 -0.31234840654553953 -0.34764506024843322 0 -0.316806384823896 -0.36257585725837499 0 -0.3002892316592175 -0.36914960035789463 0 -0.32046337790252549 -0.37915946928209171 0 -0.33412452318830171 -0.35434929914508079 0 -0.316806384823896 -0.36257585725837499 0 -0.32046337790252549 -0.37915946928209171 0 -0.33412452318830171 -0.35434929914508079 0 -0.32046337790252549 -0.37915946928209171 0 -0.3002892316592175 -0.36914960035789463 0 -0.32046337790252549 -0.37915946928209171 0 -0.3002892316592175 -0.36914960035789463 0 -0.31234840654553953 -0.34764506024843322 0 -0.29527517448125451 -0.36666176000398298 0 -0.316806384823896 -0.36257585725837499 0 -0.3002892316592175 -0.36914960035789463 0 -0.31234840654553953 -0.34764506024843322 0 -0.3002892316592175 -0.36914960035789463 0 -0.29527517448125451 -0.36666176000398298 0 -0.3002892316592175 -0.36914960035789463 0 -0.29403121103535113 -0.38030922419454549 0 -0.31234840654553953 -0.34764506024843322 0 -0.29527517448125451 -0.36666176000398298 0 -0.2976254313092957 -0.34087720338781918 0 -0.3002892316592175 -0.36914960035789463 0 -0.31234840654553953 -0.34764506024843322 0 -0.29527517448125451 -0.36666176000398298 0 -0.26926364122666091 -0.35375553660024128 0 -0.28048823453243299 -0.34080574413418752 0 -0.29527517448125451 -0.36666176000398298 0 -0.2976254313092957 -0.34087720338781918 0 -0.29527517448125451 -0.36666176000398298 0 -0.28048823453243299 -0.34080574413418752 0 -0.2976254313092957 -0.34087720338781918 0 -0.29527517448125451 -0.36666176000398298 0 -0.26926364122666091 -0.35375553660024128 0 -0.29527517448125451 -0.36666176000398298 0 -0.27994264201103719 -0.36323993691456841 0 -0.26926364122666091 -0.35375553660024128 0 -0.29527517448125451 -0.36666176000398298 0 -0.28588261091775702 -0.37268605543787447 0 -0.29403121103535113 -0.38030922419454549 0 -0.29527517448125451 -0.36666176000398298 0 -0.29403121103535113 -0.38030922419454549 0 -0.3002892316592175 -0.36914960035789463 0 -0.29527517448125451 -0.36666176000398298 0 -0.29403121103535113 -0.38030922419454549 0 -0.29527517448125451 -0.36666176000398298 0 -0.28588261091775702 -0.37268605543787447 0 -0.27994264201103719 -0.36323993691456841 0 -0.28588261091775702 -0.37268605543787447 0 -0.27994264201103719 -0.36323993691456841 0 -0.2742629371717063 -0.37916463673385931 0 -0.27994264201103719 -0.36323993691456841 0 -0.26568404082974961 -0.36651666061706623 0 -0.2742629371717063 -0.37916463673385931 0 -0.27994264201103719 -0.36323993691456841 0 -0.26568404082974961 -0.36651666061706623 0 -0.26017799311385281 -0.35268912854855933 0 -0.26568404082974961 -0.36651666061706623 0 -0.25909124390184018 -0.37475905286733341 0 -0.2742629371717063 -0.37916463673385931 0 -0.26568404082974961 -0.36651666061706623 0 -0.25909124390184018 -0.37475905286733341 0 -0.25494538795031141 -0.36273054802101118 0 -0.26568404082974961 -0.36651666061706623 0 -0.25494538795031141 -0.36273054802101118 0 -0.26017799311385281 -0.35268912854855933 0 -0.25909124390184018 -0.37475905286733341 0 -0.25494538795031141 -0.36273054802101118 0 -0.24748772700216881 -0.3717564301773445 0 -0.26017799311385281 -0.35268912854855933 0 -0.2404133442166683 -0.34213832018255058 0 -0.26926364122666091 -0.35375553660024128 0 -0.24325210797206609 -0.34084931319650169 0 -0.26017799311385281 -0.35268912854855933 0 -0.26926364122666091 -0.35375553660024128 0 -0.24325210797206609 -0.34084931319650169 0 -0.25494538795031141 -0.36273054802101118 0 -0.26017799311385281 -0.35268912854855933 0 -0.24808760514302669 -0.3536558827211943 0 -0.27994264201103719 -0.36323993691456841 0 -0.26017799311385281 -0.35268912854855933 0 -0.27994264201103719 -0.36323993691456841 0 -0.26017799311385281 -0.35268912854855933 0 -0.26926364122666091 -0.35375553660024128 0 -0.28048823453243299 -0.34080574413418752 0 -0.2621599680271573 -0.33226375772155409 0 -0.28106782808224812 -0.3236782022466056 0 -0.26926364122666091 -0.35375553660024128 0 -0.28048823453243299 -0.34080574413418752 0 -0.2621599680271573 -0.33226375772155409 0 -0.2621599680271573 -0.33226375772155409 0 -0.24518994726652291 -0.33234415230164399 0 -0.24308922262768951 -0.32099342612622928 0 -0.2621599680271573 -0.33226375772155409 0 -0.24325210797206609 -0.34084931319650169 0 -0.24518994726652291 -0.33234415230164399 0 -0.2621599680271573 -0.33226375772155409 0 -0.24325210797206609 -0.34084931319650169 0 -0.26926364122666091 -0.35375553660024128 0 -0.2621599680271573 -0.33226375772155409 0 -0.24325210797206609 -0.34084931319650169 0 -0.2621599680271573 -0.33226375772155409 0 -0.25915672867891859 -0.31415112243359272 0 -0.24308922262768951 -0.32099342612622928 0 -0.2621599680271573 -0.33226375772155409 0 -0.28106782808224812 -0.3236782022466056 0 -0.25915672867891859 -0.31415112243359272 0 -0.28106782808224812 -0.3236782022466056 0 -0.2709678639136075 -0.30238435136382452 0 -0.2621599680271573 -0.33226375772155409 0 -0.25915672867891859 -0.31415112243359272 0 -0.28106782808224812 -0.3236782022466056 0 -0.28106782808224812 -0.3236782022466056 0 -0.2999756881373381 -0.31509264677165549 0 -0.28453315598845252 -0.30841843357299598 0 -0.28106782808224812 -0.3236782022466056 0 -0.2976254313092957 -0.34087720338781918 0 -0.2999756881373381 -0.31509264677165549 0 -0.28106782808224812 -0.3236782022466056 0 -0.2999756881373381 -0.31509264677165549 0 -0.28048823453243299 -0.34080574413418752 0 -0.28106782808224812 -0.3236782022466056 0 -0.2976254313092957 -0.34087720338781918 0 -0.31234840654553953 -0.34764506024843322 0 -0.2976254313092957 -0.34087720338781918 0 -0.31208723605418232 -0.33616024018399832 0 -0.2976254313092957 -0.34087720338781918 0 -0.31208723605418232 -0.33616024018399832 0 -0.30936258926988919 -0.3261434941065412 0 -0.2976254313092957 -0.34087720338781918 0 -0.2999756881373381 -0.31509264677165549 0 -0.2976254313092957 -0.34087720338781918 0 -0.30936258926988919 -0.3261434941065412 0 -0.2999756881373381 -0.31509264677165549 0 -0.31656029902357641 -0.31849097864348519 0 -0.30936258926988919 -0.3261434941065412 0 -0.2999756881373381 -0.31509264677165549 0 -0.32350207888865212 -0.30440993956247547 0 -0.2999756881373381 -0.31509264677165549 0 -0.30234930147786221 -0.28905184696057518 0 -0.2999756881373381 -0.31509264677165549 0 -0.30234930147786221 -0.28905184696057518 0 -0.2999756881373381 -0.31509264677165549 0 -0.30234930147786221 -0.28905184696057518 0 -0.29239547880504652 -0.30127313523009702 0 -0.32350207888865212 -0.30440993956247547 0 -0.2999756881373381 -0.31509264677165549 0 -0.30234930147786221 -0.28905184696057518 0 -0.29006270545698909 -0.29189763306700739 0 -0.29239547880504652 -0.30127313523009702 0 -0.30234930147786221 -0.28905184696057518 0 -0.29006270545698909 -0.29189763306700739 0 -0.28742262680475061 -0.28573302172180548 0 -0.30234930147786221 -0.28905184696057518 0 -0.28742262680475061 -0.28573302172180548 0 -0.29006270545698909 -0.29189763306700739 0 -0.28742262680475061 -0.28573302172180548 0 -0.28158089536532038 -0.29680102193740848 0 -0.29006270545698909 -0.29189763306700739 0 -0.28158089536532038 -0.29680102193740848 0 -0.29239547880504652 -0.30127313523009702 0 -0.28158089536532038 -0.29680102193740848 0 -0.29239547880504652 -0.30127313523009702 0 -0.28453315598845252 -0.30841843357299598 0 -0.2999756881373381 -0.31509264677165549 0 -0.29239547880504652 -0.30127313523009702 0 -0.28453315598845252 -0.30841843357299598 0 -0.28106782808224812 -0.3236782022466056 0 -0.28453315598845252 -0.30841843357299598 0 -0.2709678639136075 -0.30238435136382452 0 -0.28158089536532038 -0.29680102193740848 0 -0.28453315598845252 -0.30841843357299598 0 -0.2709678639136075 -0.30238435136382452 0 -0.25915672867891859 -0.31415112243359272 0 -0.25718459078837252 -0.29759752524363881 0 -0.24047089863443691 -0.30798947189970438 0 -0.25915672867891859 -0.31415112243359272 0 -0.2709678639136075 -0.30238435136382452 0 -0.25718459078837252 -0.29759752524363881 0 -0.25718459078837252 -0.29759752524363881 0 -0.25108388684634803 -0.28956965662021522 0 -0.26792751193251091 -0.28139844079955562 0 -0.25108388684634803 -0.28956965662021522 0 -0.26792751193251091 -0.28139844079955562 0 -0.2484323970602714 -0.27706385987730509 0 -0.2709678639136075 -0.30238435136382452 0 -0.25718459078837252 -0.29759752524363881 0 -0.26792751193251091 -0.28139844079955562 0 -0.28742262680475061 -0.28573302172180548 0 -0.26792751193251091 -0.28139844079955562 0 -0.28158089536532038 -0.29680102193740848 0 -0.2709678639136075 -0.30238435136382452 0 -0.26792751193251091 -0.28139844079955562 0 -0.28742262680475061 -0.28573302172180548 0 -0.28158089536532038 -0.29680102193740848 0 -0.26792751193251091 -0.28139844079955562 0 -0.26792751193251091 -0.28139844079955562 0 -0.27965676560653041 -0.27550351800418249 0 -0.27506057922854799 -0.26523935036500679 0 -0.28742262680475061 -0.28573302172180548 0 -0.26792751193251091 -0.28139844079955562 0 -0.27965676560653041 -0.27550351800418249 0 -0.26792751193251091 -0.28139844079955562 0 -0.26170023695288303 -0.26848976391570201 0 -0.27506057922854799 -0.26523935036500679 0 -0.27965676560653041 -0.27550351800418249 0 -0.27506057922854799 -0.26523935036500679 0 -0.28821634446031208 -0.2696432591303618 0 -0.26792751193251091 -0.28139844079955562 0 -0.2484323970602714 -0.27706385987730509 0 -0.26792751193251091 -0.28139844079955562 0 -0.26170023695288303 -0.26848976391570201 0 -0.2484323970602714 -0.27706385987730509 0 -0.26170023695288303 -0.26848976391570201 0 -0.25309751137434572 -0.26289123234143091 0 -0.2484323970602714 -0.27706385987730509 0 -0.2565674865322034 -0.25340195958415102 0 -0.26524553468775469 -0.25886506807255583 0 -0.27383001930629169 -0.24744255459442921 0 -0.2565674865322034 -0.25340195958415102 0 -0.27383001930629169 -0.24744255459442921 0 -0.2565674865322034 -0.25340195958415102 0 -0.25309751137434572 -0.26289123234143091 0 -0.24233717299785959 -0.25960849866204011 0 -0.2565674865322034 -0.25340195958415102 0 -0.25309751137434572 -0.26289123234143091 0 -0.26524553468775469 -0.25886506807255583 0 -0.26170023695288303 -0.26848976391570201 0 -0.25309751137434572 -0.26289123234143091 0 -0.26524553468775469 -0.25886506807255583 0 -0.27506057922854799 -0.26523935036500679 0 -0.28942662192718172 -0.25357945894426132 0 -0.27383001930629169 -0.24744255459442921 0 -0.26524553468775469 -0.25886506807255583 0 -0.27506057922854799 -0.26523935036500679 0 -0.27383001930629169 -0.24744255459442921 0 -0.26170023695288303 -0.26848976391570201 0 -0.26524553468775469 -0.25886506807255583 0 -0.27506057922854799 -0.26523935036500679 0 -0.28942662192718172 -0.25357945894426132 0 -0.29569431645386429 -0.26311293363000732 0 -0.28821634446031208 -0.2696432591303618 0 -0.28942662192718172 -0.25357945894426132 0 -0.27383001930629169 -0.24744255459442921 0 -0.27506057922854799 -0.26523935036500679 0 -0.28942662192718172 -0.25357945894426132 0 -0.28821634446031208 -0.2696432591303618 0 -0.28942662192718172 -0.25357945894426132 0 -0.29569431645386429 -0.26311293363000732 0 -0.30502322454807101 -0.25971636329409542 0 -0.29569431645386429 -0.26311293363000732 0 -0.28821634446031208 -0.2696432591303618 0 -0.30425539613548452 -0.26814017253042433 0 -0.28742262680475061 -0.28573302172180548 0 -0.27965676560653041 -0.27550351800418249 0 -0.28821634446031208 -0.2696432591303618 0 -0.28742262680475061 -0.28573302172180548 0 -0.28821634446031208 -0.2696432591303618 0 -0.30425539613548452 -0.26814017253042433 0 -0.28742262680475061 -0.28573302172180548 0 -0.30425539613548452 -0.26814017253042433 0 -0.31480478096024378 -0.27564718726691712 0 -0.30234930147786221 -0.28905184696057518 0 -0.30425539613548452 -0.26814017253042433 0 -0.30234930147786221 -0.28905184696057518 0 -0.30425539613548452 -0.26814017253042433 0 -0.30234930147786221 -0.28905184696057518 0 -0.28742262680475061 -0.28573302172180548 0 -0.30425539613548452 -0.26814017253042433 0 -0.31480478096024378 -0.27564718726691712 0 -0.30425539613548452 -0.26814017253042433 0 -0.31032083431566337 -0.26180085087236171 0 -0.30425539613548452 -0.26814017253042433 0 -0.31032083431566337 -0.26180085087236171 0 -0.30502322454807101 -0.25971636329409542 0 -0.28942662192718172 -0.25357945894426132 0 -0.30538593138510828 -0.25573712372202267 0 -0.29948497002523827 -0.2483657822867901 0 -0.28942662192718172 -0.25357945894426132 0 -0.30502322454807101 -0.25971636329409542 0 -0.30538593138510828 -0.25573712372202267 0 -0.30425539613548452 -0.26814017253042433 0 -0.31032083431566337 -0.26180085087236171 0 -0.31032083431566337 -0.26180085087236171 0 -0.30502322454807101 -0.25971636329409542 0 -0.31032083431566337 -0.26180085087236171 0 -0.30502322454807101 -0.25971636329409542 0 -0.30538593138510828 -0.25573712372202267 0 -0.31283906540333922 -0.25031215033235238 0 -0.31032083431566337 -0.26180085087236171 0 -0.30538593138510828 -0.25573712372202267 0 -0.31283906540333922 -0.25031215033235238 0 -0.30538593138510828 -0.25573712372202267 0 -0.30623861516307299 -0.24935013043731349 0 -0.30502322454807101 -0.25971636329409542 0 -0.30538593138510828 -0.25573712372202267 0 -0.28942662192718172 -0.25357945894426132 0 -0.30502322454807101 -0.25971636329409542 0 -0.30538593138510828 -0.25573712372202267 0 -0.29948497002523827 -0.2483657822867901 0 -0.30623861516307299 -0.24935013043731349 0 -0.30425539613548452 -0.26814017253042433 0 -0.30502322454807101 -0.25971636329409542 0 -0.29569431645386429 -0.26311293363000732 0 -0.30425539613548452 -0.26814017253042433 0 -0.30502322454807101 -0.25971636329409542 0 -0.33143192801526428 -0.45396038638140679 0 -0.33152258580119082 -0.46633970128806979 0 -0.34296165509457921 -0.45730971557378147 0 -0.34069406563311189 -0.44566521365826578 0 -0.32492704317595772 -0.44077768091168912 0 -0.33812272201467081 -0.43047089330918592 0 -0.33143192801526428 -0.45396038638140679 0 -0.34069406563311189 -0.44566521365826578 0 -0.32492704317595772 -0.44077768091168912 0 -0.33143192801526428 -0.45396038638140679 0 -0.34296165509457921 -0.45730971557378147 0 -0.34069406563311189 -0.44566521365826578 0 -0.33143192801526428 -0.45396038638140679 0 -0.32492704317595772 -0.44077768091168912 0 -0.31987457796333868 -0.4551426725204325 0 -0.32492704317595772 -0.44077768091168912 0 -0.31987457796333868 -0.4551426725204325 0 -0.31015853372433788 -0.44544301337781073 0 -0.33152258580119082 -0.46633970128806979 0 -0.30592196819360068 -0.46328971004504182 0 -0.33152258580119082 -0.46633970128806979 0 -0.31987457796333868 -0.4551426725204325 0 -0.30592196819360068 -0.46328971004504182 0 -0.33152258580119082 -0.46633970128806979 0 -0.32094261384274558 -0.46854088973335889 0 -0.30592196819360068 -0.46328971004504182 0 -0.33143192801526428 -0.45396038638140679 0 -0.33152258580119082 -0.46633970128806979 0 -0.31987457796333868 -0.4551426725204325 0 -0.33152258580119082 -0.46633970128806979 0 -0.32094261384274558 -0.46854088973335889 0 -0.32966732857214198 -0.4835879285261328 0 -0.32094261384274558 -0.46854088973335889 0 -0.32966732857214198 -0.4835879285261328 0 -0.31208929727375578 -0.48491526738579699 0 -0.32221211863154181 -0.5 0 -0.32966732857214198 -0.4835879285261328 0 -0.31208929727375578 -0.48491526738579699 0 -0.32221211863154181 -0.5 0 -0.32966732857214198 -0.4835879285261328 0 -0.34860848031248309 -0.5 0 -0.32966732857214198 -0.4835879285261328 0 -0.34707385437868848 -0.48052394199199022 0 -0.34860848031248309 -0.5 0 -0.33152258580119082 -0.46633970128806979 0 -0.32966732857214198 -0.4835879285261328 0 -0.34707385437868848 -0.48052394199199022 0 -0.33152258580119082 -0.46633970128806979 0 -0.3571232034087809 -0.46938969253109791 0 -0.34707385437868848 -0.48052394199199022 0 -0.3571232034087809 -0.46938969253109791 0 -0.34707385437868848 -0.48052394199199022 0 -0.36652141413456929 -0.48474993749143802 0 -0.34707385437868848 -0.48052394199199022 0 -0.34860848031248309 -0.5 0 -0.36652141413456929 -0.48474993749143802 0 -0.37500484199342449 -0.5 0 -0.34860848031248309 -0.5 0 -0.36652141413456929 -0.48474993749143802 0 -0.38272382101637098 -0.47243968377412587 0 -0.3571232034087809 -0.46938969253109791 0 -0.36652141413456929 -0.48474993749143802 0 -0.38272382101637098 -0.47243968377412587 0 -0.3571232034087809 -0.46938969253109791 0 -0.38265619596279349 -0.45813348326120767 0 -0.38272382101637098 -0.47243968377412587 0 -0.3571232034087809 -0.46938969253109791 0 -0.38265619596279349 -0.45813348326120767 0 -0.3571232034087809 -0.46938969253109791 0 -0.35544663641047641 -0.4489101100326689 0 -0.38265619596279349 -0.45813348326120767 0 -0.35544663641047641 -0.4489101100326689 0 -0.34296165509457921 -0.45730971557378147 0 -0.3571232034087809 -0.46938969253109791 0 -0.35544663641047641 -0.4489101100326689 0 -0.33152258580119082 -0.46633970128806979 0 -0.3571232034087809 -0.46938969253109791 0 -0.33152258580119082 -0.46633970128806979 0 -0.34296165509457921 -0.45730971557378147 0 -0.3571232034087809 -0.46938969253109791 0 -0.34069406563311189 -0.44566521365826578 0 -0.35544663641047641 -0.4489101100326689 0 -0.35372302635176472 -0.43532257313283612 0 -0.34296165509457921 -0.45730971557378147 0 -0.34069406563311189 -0.44566521365826578 0 -0.35544663641047641 -0.4489101100326689 0 -0.35544663641047641 -0.4489101100326689 0 -0.3723601590800425 -0.44005613486137668 0 -0.35372302635176472 -0.43532257313283612 0 -0.38265619596279349 -0.45813348326120767 0 -0.35544663641047641 -0.4489101100326689 0 -0.3723601590800425 -0.44005613486137668 0 -0.38028594703985957 -0.42392304976487449 0 -0.3723601590800425 -0.44005613486137668 0 -0.36423780173753523 -0.4264797532188066 0 -0.3723601590800425 -0.44005613486137668 0 -0.36423780173753523 -0.4264797532188066 0 -0.35372302635176472 -0.43532257313283612 0 -0.38028594703985957 -0.42392304976487449 0 -0.36423780173753523 -0.4264797532188066 0 -0.36590226101420908 -0.41270082520662749 0 -0.36423780173753523 -0.4264797532188066 0 -0.36590226101420908 -0.41270082520662749 0 -0.35147677323475168 -0.42035333371671318 0 -0.36590226101420908 -0.41270082520662749 0 -0.35147677323475168 -0.42035333371671318 0 -0.35184044830027089 -0.40346733636007898 0 -0.35147677323475168 -0.42035333371671318 0 -0.35184044830027089 -0.40346733636007898 0 -0.33675831632547681 -0.41105613646481343 0 -0.35147677323475168 -0.42035333371671318 0 -0.35372302635176472 -0.43532257313283612 0 -0.33812272201467081 -0.43047089330918592 0 -0.34069406563311189 -0.44566521365826578 0 -0.35372302635176472 -0.43532257313283612 0 -0.33812272201467081 -0.43047089330918592 0 -0.36423780173753523 -0.4264797532188066 0 -0.35147677323475168 -0.42035333371671318 0 -0.35372302635176472 -0.43532257313283612 0 -0.37549160074202448 -0.3732971907138336 0 -0.36544727141479139 -0.39026932065168712 0 -0.37549160074202448 -0.3732971907138336 0 -0.36544727141479139 -0.39026932065168712 0 -0.35302350150803719 -0.38208755235937009 0 -0.36590226101420908 -0.41270082520662749 0 -0.36544727141479139 -0.39026932065168712 0 -0.35184044830027089 -0.40346733636007898 0 -0.38114412328536468 -0.40833987260765031 0 -0.36590226101420908 -0.41270082520662749 0 -0.36544727141479139 -0.39026932065168712 0 -0.35184044830027089 -0.40346733636007898 0 -0.35302350150803719 -0.38208755235937009 0 -0.34082557137486691 -0.39523504024196021 0 -0.36544727141479139 -0.39026932065168712 0 -0.35184044830027089 -0.40346733636007898 0 -0.35302350150803719 -0.38208755235937009 0 -0.34413293857164062 -0.37054757780120701 0 -0.35302350150803719 -0.38208755235937009 0 -0.33519042443293379 -0.3802220457599616 0 -0.35302350150803719 -0.38208755235937009 0 -0.33519042443293379 -0.3802220457599616 0 -0.34082557137486691 -0.39523504024196021 0 -0.33519042443293379 -0.3802220457599616 0 -0.32808226850220168 -0.39240284671641351 0 -0.3247168406287716 -0.38559411673624039 0 -0.33519042443293379 -0.3802220457599616 0 -0.34082557137486691 -0.39523504024196021 0 -0.32808226850220168 -0.39240284671641351 0 -0.34082557137486691 -0.39523504024196021 0 -0.32808226850220168 -0.39240284671641351 0 -0.33675831632547681 -0.41105613646481343 0 -0.32808226850220168 -0.39240284671641351 0 -0.33675831632547681 -0.41105613646481343 0 -0.3206477944579052 -0.41019310838576051 0 -0.35184044830027089 -0.40346733636007898 0 -0.34082557137486691 -0.39523504024196021 0 -0.33675831632547681 -0.41105613646481343 0 -0.32808226850220168 -0.39240284671641351 0 -0.31437491003333667 -0.39021680895226152 0 -0.3206477944579052 -0.41019310838576051 0 -0.32808226850220168 -0.39240284671641351 0 -0.3247168406287716 -0.38559411673624039 0 -0.31437491003333667 -0.39021680895226152 0 -0.31437491003333667 -0.39021680895226152 0 -0.32046337790252549 -0.37915946928209171 0 -0.30588070030683939 -0.38181824174751872 0 -0.3247168406287716 -0.38559411673624039 0 -0.31437491003333667 -0.39021680895226152 0 -0.32046337790252549 -0.37915946928209171 0 -0.31437491003333667 -0.39021680895226152 0 -0.32046337790252549 -0.37915946928209171 0 -0.33519042443293379 -0.3802220457599616 0 -0.3247168406287716 -0.38559411673624039 0 -0.32046337790252549 -0.37915946928209171 0 -0.32492704317595772 -0.44077768091168912 0 -0.33812272201467081 -0.43047089330918592 0 -0.32670905357880831 -0.42305010768611329 0 -0.35147677323475168 -0.42035333371671318 0 -0.33812272201467081 -0.43047089330918592 0 -0.33675831632547681 -0.41105613646481343 0 -0.33812272201467081 -0.43047089330918592 0 -0.33675831632547681 -0.41105613646481343 0 -0.32670905357880831 -0.42305010768611329 0 -0.33675831632547681 -0.41105613646481343 0 -0.3206477944579052 -0.41019310838576051 0 -0.32670905357880831 -0.42305010768611329 0 -0.3206477944579052 -0.41019310838576051 0 -0.31307232924124478 -0.42559811140412351 0 -0.32670905357880831 -0.42305010768611329 0 -0.32492704317595772 -0.44077768091168912 0 -0.31307232924124478 -0.42559811140412351 0 -0.31015853372433788 -0.44544301337781073 0 -0.32492704317595772 -0.44077768091168912 0 -0.31307232924124478 -0.42559811140412351 0 -0.32670905357880831 -0.42305010768611329 0 -0.31307232924124478 -0.42559811140412351 0 -0.29907098912325059 -0.43374406761790368 0 -0.29851577765410048 -0.41098608612968202 0 -0.31307232924124478 -0.42559811140412351 0 -0.29907098912325059 -0.43374406761790368 0 -0.31015853372433788 -0.44544301337781073 0 -0.3206477944579052 -0.41019310838576051 0 -0.31307232924124478 -0.42559811140412351 0 -0.29851577765410048 -0.41098608612968202 0 -0.3206477944579052 -0.41019310838576051 0 -0.29851577765410048 -0.41098608612968202 0 -0.29851577765410048 -0.41098608612968202 0 -0.27638376085029581 -0.41177906387360241 0 -0.29851577765410048 -0.41098608612968202 0 -0.28520748594282241 -0.3960441440340734 0 -0.27638376085029581 -0.41177906387360241 0 -0.29851577765410048 -0.41098608612968202 0 -0.28540276919059199 -0.42535658303670731 0 -0.27638376085029581 -0.41177906387360241 0 -0.29907098912325059 -0.43374406761790368 0 -0.29851577765410048 -0.41098608612968202 0 -0.28540276919059199 -0.42535658303670731 0 -0.28540276919059199 -0.42535658303670731 0 -0.27848929033898201 -0.43669604725877897 0 -0.28902284908971709 -0.44016681433255572 0 -0.29907098912325059 -0.43374406761790368 0 -0.28540276919059199 -0.42535658303670731 0 -0.28902284908971709 -0.44016681433255572 0 -0.3002892316592175 -0.36914960035789463 0 -0.32046337790252549 -0.37915946928209171 0 -0.30588070030683939 -0.38181824174751872 0 -0.3002892316592175 -0.36914960035789463 0 -0.29819443980788141 -0.38001079285233907 0 -0.30588070030683939 -0.38181824174751872 0 -0.3002892316592175 -0.36914960035789463 0 -0.29819443980788141 -0.38001079285233907 0 -0.29403121103535113 -0.38030922419454549 0 -0.31437491003333667 -0.39021680895226152 0 -0.30588070030683939 -0.38181824174751872 0 -0.30232780815510779 -0.39560758766926629 0 -0.29819443980788141 -0.38001079285233907 0 -0.30588070030683939 -0.38181824174751872 0 -0.29681739610749358 -0.387616864260033 0 -0.30588070030683939 -0.38181824174751872 0 -0.30232780815510779 -0.39560758766926629 0 -0.29681739610749358 -0.387616864260033 0 -0.31437491003333667 -0.39021680895226152 0 -0.3206477944579052 -0.41019310838576051 0 -0.30232780815510779 -0.39560758766926629 0 -0.3206477944579052 -0.41019310838576051 0 -0.29851577765410048 -0.41098608612968202 0 -0.30232780815510779 -0.39560758766926629 0 -0.30232780815510779 -0.39560758766926629 0 -0.28520748594282241 -0.3960441440340734 0 -0.29681739610749358 -0.387616864260033 0 -0.29851577765410048 -0.41098608612968202 0 -0.30232780815510779 -0.39560758766926629 0 -0.28520748594282241 -0.3960441440340734 0 -0.28520748594282241 -0.3960441440340734 0 -0.28484606126690931 -0.38205101510008821 0 -0.29403121103535113 -0.38030922419454549 0 -0.28520748594282241 -0.3960441440340734 0 -0.29403121103535113 -0.38030922419454549 0 -0.28520748594282241 -0.3960441440340734 0 -0.29681739610749358 -0.387616864260033 0 -0.29403121103535113 -0.38030922419454549 0 -0.28520748594282241 -0.3960441440340734 0 -0.28484606126690931 -0.38205101510008821 0 -0.2742629371717063 -0.37916463673385931 0 -0.28588261091775702 -0.37268605543787447 0 -0.28484606126690931 -0.38205101510008821 0 -0.2742629371717063 -0.37916463673385931 0 -0.28588261091775702 -0.37268605543787447 0 -0.28484606126690931 -0.38205101510008821 0 -0.29403121103535113 -0.38030922419454549 0 -0.29819443980788141 -0.38001079285233907 0 -0.29681739610749358 -0.387616864260033 0 -0.29403121103535113 -0.38030922419454549 0 -0.28520748594282241 -0.3960441440340734 0 -0.2742629371717063 -0.37916463673385931 0 -0.26755910350718881 -0.39582792531461569 0 -0.2742629371717063 -0.37916463673385931 0 -0.26755910350718881 -0.39582792531461569 0 -0.26281209396899169 -0.38517470131063508 0 -0.28520748594282241 -0.3960441440340734 0 -0.27638376085029581 -0.41177906387360241 0 -0.28520748594282241 -0.3960441440340734 0 -0.26755910350718881 -0.39582792531461569 0 -0.27638376085029581 -0.41177906387360241 0 -0.26755910350718881 -0.39582792531461569 0 -0.25033509129523179 -0.39094719032673231 0 -0.25487024651921952 -0.41254988102096568 0 -0.26755910350718881 -0.39582792531461569 0 -0.25033509129523179 -0.39094719032673231 0 -0.26281209396899169 -0.38517470131063508 0 -0.25909124390184018 -0.37475905286733341 0 -0.25033509129523179 -0.39094719032673231 0 -0.26281209396899169 -0.38517470131063508 0 -0.25909124390184018 -0.37475905286733341 0 -0.25033509129523179 -0.39094719032673231 0 -0.24748772700216881 -0.3717564301773445 0 -0.25909124390184018 -0.37475905286733341 0 -0.2742629371717063 -0.37916463673385931 0 -0.26281209396899169 -0.38517470131063508 0 -0.26911429951178012 -0.42474234074800371 0 -0.27848929033898201 -0.43669604725877897 0 -0.26690007516498948 -0.44242471351124879 0 -0.28540276919059199 -0.42535658303670731 0 -0.26911429951178012 -0.42474234074800371 0 -0.27848929033898201 -0.43669604725877897 0 -0.27638376085029581 -0.41177906387360241 0 -0.25487024651921952 -0.41254988102096568 0 -0.28540276919059199 -0.42535658303670731 0 -0.26911429951178012 -0.42474234074800371 0 -0.27638376085029581 -0.41177906387360241 0 -0.26911429951178012 -0.42474234074800371 0 -0.27638376085029581 -0.41177906387360241 0 -0.25487024651921952 -0.41254988102096568 0 -0.26755910350718881 -0.39582792531461569 0 -0.27638376085029581 -0.41177906387360241 0 -0.25487024651921952 -0.41254988102096568 0 -0.26911429951178012 -0.42474234074800371 0 -0.27638376085029581 -0.41177906387360241 0 -0.26911429951178012 -0.42474234074800371 0 -0.25908880606166329 -0.43064529781943001 0 -0.26690007516498948 -0.44242471351124879 0 -0.25487024651921952 -0.41254988102096568 0 -0.25908880606166329 -0.43064529781943001 0 -0.2468605885266735 -0.43014712497011809 0 -0.26911429951178012 -0.42474234074800371 0 -0.25487024651921952 -0.41254988102096568 0 -0.25908880606166329 -0.43064529781943001 0 -0.25908880606166329 -0.43064529781943001 0 -0.25479397652280911 -0.44050862113911837 0 -0.2468605885266735 -0.43014712497011809 0 -0.25479397652280911 -0.44050862113911837 0 -0.2546108597688766 -0.45375703833677078 0 -0.2450571310604201 -0.44414202720417628 0 -0.25479397652280911 -0.44050862113911837 0 -0.2546108597688766 -0.45375703833677078 0 -0.26690007516498948 -0.44242471351124879 0 -0.2546108597688766 -0.45375703833677078 0 -0.26838297633475061 -0.45652413347846638 0 -0.26690007516498948 -0.44242471351124879 0 -0.25908880606166329 -0.43064529781943001 0 -0.25479397652280911 -0.44050862113911837 0 -0.26690007516498948 -0.44242471351124879 0 -0.25109629719050858 -0.46406488014867903 0 -0.2546108597688766 -0.45375703833677078 0 -0.26079873433517492 -0.46936342421069649 0 -0.2546108597688766 -0.45375703833677078 0 -0.26838297633475061 -0.45652413347846638 0 -0.26079873433517492 -0.46936342421069649 0 -0.27799569035848881 -0.46687050799545499 0 -0.26838297633475061 -0.45652413347846638 0 -0.26079873433517492 -0.46936342421069649 0 -0.27799569035848881 -0.46687050799545499 0 -0.26838297633475061 -0.45652413347846638 0 -0.28160952204622303 -0.450204983338161 0 -0.26838297633475061 -0.45652413347846638 0 -0.26690007516498948 -0.44242471351124879 0 -0.28160952204622303 -0.450204983338161 0 -0.27848929033898201 -0.43669604725877897 0 -0.26690007516498948 -0.44242471351124879 0 -0.28160952204622303 -0.450204983338161 0 -0.29907098912325059 -0.43374406761790368 0 -0.28902284908971709 -0.44016681433255572 0 -0.29708038679871529 -0.44973292283788502 0 -0.27848929033898201 -0.43669604725877897 0 -0.28902284908971709 -0.44016681433255572 0 -0.28160952204622303 -0.450204983338161 0 -0.28902284908971709 -0.44016681433255572 0 -0.28160952204622303 -0.450204983338161 0 -0.29708038679871529 -0.44973292283788502 0 -0.27799569035848881 -0.46687050799545499 0 -0.29150619976335518 -0.46129715127825488 0 -0.29492343141974797 -0.47638763217473168 0 -0.27799569035848881 -0.46687050799545499 0 -0.28160952204622303 -0.450204983338161 0 -0.29150619976335518 -0.46129715127825488 0 -0.28160952204622303 -0.450204983338161 0 -0.29150619976335518 -0.46129715127825488 0 -0.29708038679871529 -0.44973292283788502 0 -0.29150619976335518 -0.46129715127825488 0 -0.30592196819360068 -0.46328971004504182 0 -0.29708038679871529 -0.44973292283788502 0 -0.31987457796333868 -0.4551426725204325 0 -0.30592196819360068 -0.46328971004504182 0 -0.31015853372433788 -0.44544301337781073 0 -0.29150619976335518 -0.46129715127825488 0 -0.30592196819360068 -0.46328971004504182 0 -0.29492343141974797 -0.47638763217473168 0 -0.29907098912325059 -0.43374406761790368 0 -0.31015853372433788 -0.44544301337781073 0 -0.29708038679871529 -0.44973292283788502 0 -0.30592196819360068 -0.46328971004504182 0 -0.31015853372433788 -0.44544301337781073 0 -0.29708038679871529 -0.44973292283788502 0 -0.31208929727375578 -0.48491526738579699 0 -0.29492343141974797 -0.47638763217473168 0 -0.29581575695060047 -0.5 0 -0.32221211863154181 -0.5 0 -0.31208929727375578 -0.48491526738579699 0 -0.29581575695060047 -0.5 0 -0.32094261384274558 -0.46854088973335889 0 -0.30592196819360068 -0.46328971004504182 0 -0.29492343141974797 -0.47638763217473168 0 -0.32094261384274558 -0.46854088973335889 0 -0.29492343141974797 -0.47638763217473168 0 -0.32094261384274558 -0.46854088973335889 0 -0.31208929727375578 -0.48491526738579699 0 -0.29492343141974797 -0.47638763217473168 0 -0.29492343141974797 -0.47638763217473168 0 -0.26890424899675031 -0.48423437461610452 0 -0.29492343141974797 -0.47638763217473168 0 -0.28441593737837417 -0.48860776134254891 0 -0.26890424899675031 -0.48423437461610452 0 -0.29492343141974797 -0.47638763217473168 0 -0.28441593737837417 -0.48860776134254891 0 -0.29581575695060047 -0.5 0 -0.28441593737837417 -0.48860776134254891 0 -0.29581575695060047 -0.5 0 -0.26941939526965919 -0.5 0 -0.28441593737837417 -0.48860776134254891 0 -0.26941939526965919 -0.5 0 -0.26890424899675031 -0.48423437461610452 0 -0.27799569035848881 -0.46687050799545499 0 -0.29492343141974797 -0.47638763217473168 0 -0.26890424899675031 -0.48423437461610452 0 -0.27799569035848881 -0.46687050799545499 0 -0.26890424899675031 -0.48423437461610452 0 -0.26079873433517492 -0.46936342421069649 0 -0.26890424899675031 -0.48423437461610452 0 -0.26079873433517492 -0.46936342421069649 0 -0.25379328426056558 -0.48205965705463422 0 -0.26079873433517492 -0.46936342421069649 0 -0.25379328426056558 -0.48205965705463422 0 -0.250874604213362 -0.47391739130808008 0 -0.25109629719050858 -0.46406488014867903 0 -0.26079873433517492 -0.46936342421069649 0 -0.250874604213362 -0.47391739130808008 0 -0.26941939526965919 -0.5 0 -0.26890424899675031 -0.48423437461610452 0 -0.2544134183364497 -0.49413622749019132 0 -0.26941939526965919 -0.5 0 -0.2544134183364497 -0.49413622749019132 0 -0.2430230335887178 -0.5 0 -0.26890424899675031 -0.48423437461610452 0 -0.2544134183364497 -0.49413622749019132 0 -0.24288506657375261 -0.49208111705747781 0 -0.26890424899675031 -0.48423437461610452 0 -0.25379328426056558 -0.48205965705463422 0 -0.24288506657375261 -0.49208111705747781 0 -0.26890424899675031 -0.48423437461610452 0 -0.24288506657375261 -0.49208111705747781 0 -0.2544134183364497 -0.49413622749019132 0 -0.2430230335887178 -0.5 0 -0.24783534725336881 -0.49436564577737419 0 -0.2544134183364497 -0.49413622749019132 0 -0.24783534725336881 -0.49436564577737419 0 -0.24288506657375261 -0.49208111705747781 0 -0.2430230335887178 -0.5 0 -0.24783534725336881 -0.49436564577737419 0 -0.24288506657375261 -0.49208111705747781 0 -0.24783534725336881 -0.49436564577737419 0 -0.24288506657375261 -0.49208111705747781 0 -0.24288506657375261 -0.49208111705747781 0 -0.24429345028001889 -0.4821559175287794 0 -0.23457410743521059 -0.47899140825596259 0 -0.25379328426056558 -0.48205965705463422 0 -0.24288506657375261 -0.49208111705747781 0 -0.24429345028001889 -0.4821559175287794 0 -0.25379328426056558 -0.48205965705463422 0 -0.250874604213362 -0.47391739130808008 0 -0.24429345028001889 -0.4821559175287794 0 -0.24429345028001889 -0.4821559175287794 0 -0.2443912550005416 -0.47194307759761112 0 -0.2395637252682277 -0.47605318874815389 0 -0.25109629719050858 -0.46406488014867903 0 -0.250874604213362 -0.47391739130808008 0 -0.2443912550005416 -0.47194307759761112 0 -0.250874604213362 -0.47391739130808008 0 -0.24429345028001889 -0.4821559175287794 0 -0.2443912550005416 -0.47194307759761112 0 -0.2443912550005416 -0.47194307759761112 0 -0.2395637252682277 -0.47605318874815389 0 -0.23499608835713959 -0.47112235161026261 0 -0.2395637252682277 -0.47605318874815389 0 -0.23499608835713959 -0.47112235161026261 0 -0.23457410743521059 -0.47899140825596259 0 -0.24429345028001889 -0.4821559175287794 0 -0.2395637252682277 -0.47605318874815389 0 -0.23457410743521059 -0.47899140825596259 0 -0.23457410743521059 -0.47899140825596259 0 -0.2250369990674011 -0.47003999804886298 0 -0.2204246459600448 -0.48171575006642248 0 -0.24288506657375261 -0.49208111705747781 0 -0.23457410743521059 -0.47899140825596259 0 -0.2204246459600448 -0.48171575006642248 0 -0.23499608835713959 -0.47112235161026261 0 -0.23457410743521059 -0.47899140825596259 0 -0.2250369990674011 -0.47003999804886298 0 -0.2430230335887178 -0.5 0 -0.24288506657375261 -0.49208111705747781 0 -0.21662667190777651 -0.49999999999999939 0 -0.24288506657375261 -0.49208111705747781 0 -0.21662667190777651 -0.49999999999999939 0 -0.24288506657375261 -0.49208111705747781 0 -0.2204246459600448 -0.48171575006642248 0 -0.24288506657375261 -0.49208111705747781 0 -0.2204246459600448 -0.48171575006642248 0 -0.21662667190777651 -0.49999999999999939 0 -0.2450571310604201 -0.44414202720417628 0 -0.23716380350122879 -0.45645441389937441 0 -0.23280677558438309 -0.43386548686292281 0 -0.2546108597688766 -0.45375703833677078 0 -0.2450571310604201 -0.44414202720417628 0 -0.23716380350122879 -0.45645441389937441 0 -0.25479397652280911 -0.44050862113911837 0 -0.2450571310604201 -0.44414202720417628 0 -0.2468605885266735 -0.43014712497011809 0 -0.25109629719050858 -0.46406488014867903 0 -0.2546108597688766 -0.45375703833677078 0 -0.23716380350122879 -0.45645441389937441 0 -0.25109629719050858 -0.46406488014867903 0 -0.2443912550005416 -0.47194307759761112 0 -0.23716380350122879 -0.45645441389937441 0 -0.2443912550005416 -0.47194307759761112 0 -0.23499608835713959 -0.47112235161026261 0 -0.23716380350122879 -0.45645441389937441 0 -0.2250369990674011 -0.47003999804886298 0 -0.21844010846223411 -0.44206575668227449 0 -0.2250369990674011 -0.47003999804886298 0 -0.23716380350122879 -0.45645441389937441 0 -0.21844010846223411 -0.44206575668227449 0 -0.23499608835713959 -0.47112235161026261 0 -0.2250369990674011 -0.47003999804886298 0 -0.23716380350122879 -0.45645441389937441 0 -0.23716380350122879 -0.45645441389937441 0 -0.21844010846223411 -0.44206575668227449 0 -0.23280677558438309 -0.43386548686292281 0 -0.21844010846223411 -0.44206575668227449 0 -0.21054881561508179 -0.46151962797655111 0 -0.19087809923939161 -0.44242625200982799 0 -0.2250369990674011 -0.47003999804886298 0 -0.21844010846223411 -0.44206575668227449 0 -0.21054881561508179 -0.46151962797655111 0 -0.21054881561508179 -0.46151962797655111 0 -0.19087809923939161 -0.44242625200982799 0 -0.1979642253463372 -0.47135038307536692 0 -0.19087809923939161 -0.44242625200982799 0 -0.1979642253463372 -0.47135038307536692 0 -0.17550380473262961 -0.46098501608431119 0 -0.2039060436575347 -0.48788306012054039 0 -0.21662667190777651 -0.49999999999999939 0 -0.191185415407293 -0.5 0 -0.2204246459600448 -0.48171575006642248 0 -0.2039060436575347 -0.48788306012054039 0 -0.21662667190777651 -0.49999999999999939 0 -0.2250369990674011 -0.47003999804886298 0 -0.2204246459600448 -0.48171575006642248 0 -0.21054881561508179 -0.46151962797655111 0 -0.2204246459600448 -0.48171575006642248 0 -0.2039060436575347 -0.48788306012054039 0 -0.1979642253463372 -0.47135038307536692 0 -0.2204246459600448 -0.48171575006642248 0 -0.1979642253463372 -0.47135038307536692 0 -0.2204246459600448 -0.48171575006642248 0 -0.21054881561508179 -0.46151962797655111 0 -0.1979642253463372 -0.47135038307536692 0 -0.2039060436575347 -0.48788306012054039 0 -0.1979642253463372 -0.47135038307536692 0 -0.18170511770794731 -0.48283447360099019 0 -0.2039060436575347 -0.48788306012054039 0 -0.191185415407293 -0.5 0 -0.18170511770794731 -0.48283447360099019 0 -0.191185415407293 -0.5 0 -0.16574415890680941 -0.5 0 -0.18170511770794731 -0.48283447360099019 0 -0.16574415890680941 -0.5 0 -0.18170511770794731 -0.48283447360099019 0 -0.1559270581970803 -0.47678838232572268 0 -0.18170511770794731 -0.48283447360099019 0 -0.17550380473262961 -0.46098501608431119 0 -0.1559270581970803 -0.47678838232572268 0 -0.1979642253463372 -0.47135038307536692 0 -0.18170511770794731 -0.48283447360099019 0 -0.17550380473262961 -0.46098501608431119 0 -0.1979642253463372 -0.47135038307536692 0 -0.17550380473262961 -0.46098501608431119 0 -0.19087809923939161 -0.44242625200982799 0 -0.17550380473262961 -0.46098501608431119 0 -0.16487953686040341 -0.43668708651363358 0 -0.17550380473262961 -0.46098501608431119 0 -0.15866236735209521 -0.45377864165300308 0 -0.16487953686040341 -0.43668708651363358 0 -0.17550380473262961 -0.46098501608431119 0 -0.15866236735209521 -0.45377864165300308 0 -0.1559270581970803 -0.47678838232572268 0 -0.15866236735209521 -0.45377864165300308 0 -0.14280129841846509 -0.46103953978105727 0 -0.1559270581970803 -0.47678838232572268 0 -0.15866236735209521 -0.45377864165300308 0 -0.14280129841846509 -0.46103953978105727 0 -0.1438484805828521 -0.43705968193712769 0 -0.15866236735209521 -0.45377864165300308 0 -0.1438484805828521 -0.43705968193712769 0 -0.16487953686040341 -0.43668708651363358 0 -0.14280129841846509 -0.46103953978105727 0 -0.13093011984253891 -0.44972195681556543 0 -0.1438484805828521 -0.43705968193712769 0 -0.13093011984253891 -0.44972195681556543 0 -0.1438484805828521 -0.43705968193712769 0 -0.123519809913229 -0.43733662075251151 0 -0.14280129841846509 -0.46103953978105727 0 -0.13093011984253891 -0.44972195681556543 0 -0.12704973474613379 -0.46277216333596533 0 -0.14280129841846509 -0.46103953978105727 0 -0.12704973474613379 -0.46277216333596533 0 -0.13010403334985379 -0.48000251283874379 0 -0.13010403334985379 -0.48000251283874379 0 -0.1403029024063259 -0.5 0 -0.1148616459058424 -0.5 0 -0.16574415890680941 -0.5 0 -0.1403029024063259 -0.5 0 -0.1559270581970803 -0.47678838232572268 0 -0.13010403334985379 -0.48000251283874379 0 -0.1403029024063259 -0.5 0 -0.1559270581970803 -0.47678838232572268 0 -0.14280129841846509 -0.46103953978105727 0 -0.13010403334985379 -0.48000251283874379 0 -0.1559270581970803 -0.47678838232572268 0 -0.13724659116883831 -0.38156720383825199 0 -0.13696324729183901 -0.40051159333262831 0 -0.1562511533772393 -0.40085091578326698 0 -0.13696324729183901 -0.40051159333262831 0 -0.14428023194946249 -0.41611080081516499 0 -0.1562511533772393 -0.40085091578326698 0 -0.13724659116883831 -0.38156720383825199 0 -0.1562511533772393 -0.40085091578326698 0 -0.1663441030446621 -0.37717300760659073 0 -0.13724659116883831 -0.38156720383825199 0 -0.11827115974421661 -0.40327967795429231 0 -0.13724659116883831 -0.38156720383825199 0 -0.13696324729183901 -0.40051159333262831 0 -0.11827115974421661 -0.40327967795429231 0 -0.13696324729183901 -0.40051159333262831 0 -0.12597911368703019 -0.41952469120143437 0 -0.14428023194946249 -0.41611080081516499 0 -0.13696324729183901 -0.40051159333262831 0 -0.12597911368703019 -0.41952469120143437 0 -0.11827115974421661 -0.40327967795429231 0 -0.12597911368703019 -0.41952469120143437 0 -0.1438484805828521 -0.43705968193712769 0 -0.123519809913229 -0.43733662075251151 0 -0.12597911368703019 -0.41952469120143437 0 -0.1438484805828521 -0.43705968193712769 0 -0.14428023194946249 -0.41611080081516499 0 -0.1438484805828521 -0.43705968193712769 0 -0.16487953686040341 -0.43668708651363358 0 -0.1579375607246061 -0.42228606781690858 0 -0.1438484805828521 -0.43705968193712769 0 -0.14428023194946249 -0.41611080081516499 0 -0.1579375607246061 -0.42228606781690858 0 -0.14428023194946249 -0.41611080081516499 0 -0.1579375607246061 -0.42228606781690858 0 -0.1562511533772393 -0.40085091578326698 0 -0.1717517290487513 -0.41486076781395709 0 -0.1579375607246061 -0.42228606781690858 0 -0.1562511533772393 -0.40085091578326698 0 -0.1717517290487513 -0.41486076781395709 0 -0.16487953686040341 -0.43668708651363358 0 -0.1579375607246061 -0.42228606781690858 0 -0.1717517290487513 -0.41486076781395709 0 -0.16487953686040341 -0.43668708651363358 0 -0.19087809923939161 -0.44242625200982799 0 -0.16487953686040341 -0.43668708651363358 0 -0.18049207608238291 -0.42812424827546058 0 -0.1717517290487513 -0.41486076781395709 0 -0.16487953686040341 -0.43668708651363358 0 -0.18049207608238291 -0.42812424827546058 0 -0.1717517290487513 -0.41486076781395709 0 -0.18680736564207029 -0.41498853585306777 0 -0.17862392123709919 -0.39303444911428059 0 -0.1717517290487513 -0.41486076781395709 0 -0.18049207608238291 -0.42812424827546058 0 -0.18680736564207029 -0.41498853585306777 0 -0.18680736564207029 -0.41498853585306777 0 -0.17862392123709919 -0.39303444911428059 0 -0.19656737959219739 -0.40219111980173922 0 -0.1717517290487513 -0.41486076781395709 0 -0.17862392123709919 -0.39303444911428059 0 -0.1717517290487513 -0.41486076781395709 0 -0.17862392123709919 -0.39303444911428059 0 -0.1562511533772393 -0.40085091578326698 0 -0.17862392123709919 -0.39303444911428059 0 -0.1562511533772393 -0.40085091578326698 0 -0.1663441030446621 -0.37717300760659073 0 -0.17862392123709919 -0.39303444911428059 0 -0.1663441030446621 -0.37717300760659073 0 -0.1854961134254472 -0.37120813041460421 0 -0.17862392123709919 -0.39303444911428059 0 -0.1854961134254472 -0.37120813041460421 0 -0.17862392123709919 -0.39303444911428059 0 -0.20527564977482679 -0.38624161667098289 0 -0.1854961134254472 -0.37120813041460421 0 -0.17862392123709919 -0.39303444911428059 0 -0.19656737959219739 -0.40219111980173922 0 -0.20527564977482679 -0.38624161667098289 0 -0.20527564977482679 -0.38624161667098289 0 -0.2118432178570665 -0.41409151531568628 0 -0.2281799985799623 -0.39436158075255778 0 -0.19656737959219739 -0.40219111980173922 0 -0.20527564977482679 -0.38624161667098289 0 -0.2118432178570665 -0.41409151531568628 0 -0.20527564977482679 -0.38624161667098289 0 -0.2118432178570665 -0.41409151531568628 0 -0.20527564977482679 -0.38624161667098289 0 -0.22195794658956111 -0.37463091785279867 0 -0.21168543115216709 -0.36681117402183649 0 -0.20527564977482679 -0.38624161667098289 0 -0.2281799985799623 -0.39436158075255778 0 -0.22195794658956111 -0.37463091785279867 0 -0.18049207608238291 -0.42812424827546058 0 -0.18680736564207029 -0.41498853585306777 0 -0.19899408631087909 -0.4269358685541359 0 -0.19087809923939161 -0.44242625200982799 0 -0.18049207608238291 -0.42812424827546058 0 -0.19899408631087909 -0.4269358685541359 0 -0.21844010846223411 -0.44206575668227449 0 -0.19087809923939161 -0.44242625200982799 0 -0.19899408631087909 -0.4269358685541359 0 -0.18680736564207029 -0.41498853585306777 0 -0.19656737959219739 -0.40219111980173922 0 -0.2118432178570665 -0.41409151531568628 0 -0.18680736564207029 -0.41498853585306777 0 -0.19899408631087909 -0.4269358685541359 0 -0.2118432178570665 -0.41409151531568628 0 -0.18680736564207029 -0.41498853585306777 0 -0.2118432178570665 -0.41409151531568628 0 -0.21844010846223411 -0.44206575668227449 0 -0.19899408631087909 -0.4269358685541359 0 -0.2118432178570665 -0.41409151531568628 0 -0.21844010846223411 -0.44206575668227449 0 -0.2118432178570665 -0.41409151531568628 0 -0.21844010846223411 -0.44206575668227449 0 -0.2118432178570665 -0.41409151531568628 0 -0.23280677558438309 -0.43386548686292281 0 -0.2118432178570665 -0.41409151531568628 0 -0.23335673218814301 -0.41332069816832789 0 -0.2281799985799623 -0.39436158075255778 0 -0.2118432178570665 -0.41409151531568628 0 -0.23335673218814301 -0.41332069816832789 0 -0.2118432178570665 -0.41409151531568628 0 -0.23280677558438309 -0.43386548686292281 0 -0.23335673218814301 -0.41332069816832789 0 -0.25487024651921952 -0.41254988102096568 0 -0.23335673218814301 -0.41332069816832789 0 -0.25487024651921952 -0.41254988102096568 0 -0.23335673218814301 -0.41332069816832789 0 -0.24168551714563921 -0.4027948375671459 0 -0.25487024651921952 -0.41254988102096568 0 -0.23335673218814301 -0.41332069816832789 0 -0.2468605885266735 -0.43014712497011809 0 -0.23280677558438309 -0.43386548686292281 0 -0.23335673218814301 -0.41332069816832789 0 -0.2468605885266735 -0.43014712497011809 0 -0.2450571310604201 -0.44414202720417628 0 -0.23280677558438309 -0.43386548686292281 0 -0.2468605885266735 -0.43014712497011809 0 -0.2281799985799623 -0.39436158075255778 0 -0.2359431282162788 -0.37698905115118858 0 -0.22195794658956111 -0.37463091785279867 0 -0.25033509129523179 -0.39094719032673231 0 -0.2281799985799623 -0.39436158075255778 0 -0.24168551714563921 -0.4027948375671459 0 -0.25033509129523179 -0.39094719032673231 0 -0.25487024651921952 -0.41254988102096568 0 -0.24168551714563921 -0.4027948375671459 0 -0.23335673218814301 -0.41332069816832789 0 -0.2281799985799623 -0.39436158075255778 0 -0.24168551714563921 -0.4027948375671459 0 -0.25033509129523179 -0.39094719032673231 0 -0.2359431282162788 -0.37698905115118858 0 -0.24748772700216881 -0.3717564301773445 0 -0.25033509129523179 -0.39094719032673231 0 -0.2281799985799623 -0.39436158075255778 0 -0.2359431282162788 -0.37698905115118858 0 -0.25494538795031141 -0.36273054802101118 0 -0.24748772700216881 -0.3717564301773445 0 -0.24521251836493849 -0.35951647641646678 0 -0.24748772700216881 -0.3717564301773445 0 -0.24521251836493849 -0.35951647641646678 0 -0.23939899228441261 -0.3655962622813349 0 -0.23939899228441261 -0.3655962622813349 0 -0.23024759562621139 -0.36380396142485888 0 -0.23761117654761921 -0.35850429625613017 0 -0.24521251836493849 -0.35951647641646678 0 -0.23939899228441261 -0.3655962622813349 0 -0.23761117654761921 -0.35850429625613017 0 -0.2359431282162788 -0.37698905115118858 0 -0.23939899228441261 -0.3655962622813349 0 -0.23024759562621139 -0.36380396142485888 0 -0.2359431282162788 -0.37698905115118858 0 -0.24748772700216881 -0.3717564301773445 0 -0.23939899228441261 -0.3655962622813349 0 -0.2359431282162788 -0.37698905115118858 0 -0.23024759562621139 -0.36380396142485888 0 -0.22195794658956111 -0.37463091785279867 0 -0.23024759562621139 -0.36380396142485888 0 -0.22135664398937441 -0.36020929429952131 0 -0.2310785660723691 -0.35440187846705151 0 -0.23024759562621139 -0.36380396142485888 0 -0.22135664398937441 -0.36020929429952131 0 -0.22195794658956111 -0.37463091785279867 0 -0.22135664398937441 -0.36020929429952131 0 -0.22331676928072861 -0.34527245129667988 0 -0.2310785660723691 -0.35440187846705151 0 -0.23024759562621139 -0.36380396142485888 0 -0.2310785660723691 -0.35440187846705151 0 -0.23761117654761921 -0.35850429625613017 0 -0.22331676928072861 -0.34527245129667988 0 -0.2337118992122327 -0.34903918396608452 0 -0.23708401688859529 -0.34365007901650441 0 -0.22331676928072861 -0.34527245129667988 0 -0.2310785660723691 -0.35440187846705151 0 -0.2337118992122327 -0.34903918396608452 0 -0.26017799311385281 -0.35268912854855933 0 -0.24808760514302669 -0.3536558827211943 0 -0.2404133442166683 -0.34213832018255058 0 -0.2310785660723691 -0.35440187846705151 0 -0.2337118992122327 -0.34903918396608452 0 -0.2396887820693627 -0.35120494043738398 0 -0.26017799311385281 -0.35268912854855933 0 -0.24325210797206609 -0.34084931319650169 0 -0.2404133442166683 -0.34213832018255058 0 -0.2396887820693627 -0.35120494043738398 0 -0.23708401688859529 -0.34365007901650441 0 -0.2404133442166683 -0.34213832018255058 0 -0.2337118992122327 -0.34903918396608452 0 -0.2396887820693627 -0.35120494043738398 0 -0.23708401688859529 -0.34365007901650441 0 -0.2310785660723691 -0.35440187846705151 0 -0.2396887820693627 -0.35120494043738398 0 -0.23761117654761921 -0.35850429625613017 0 -0.24521251836493849 -0.35951647641646678 0 -0.2396887820693627 -0.35120494043738398 0 -0.23761117654761921 -0.35850429625613017 0 -0.24521251836493849 -0.35951647641646678 0 -0.2396887820693627 -0.35120494043738398 0 -0.24808760514302669 -0.3536558827211943 0 -0.25494538795031141 -0.36273054802101118 0 -0.24521251836493849 -0.35951647641646678 0 -0.24808760514302669 -0.3536558827211943 0 -0.2396887820693627 -0.35120494043738398 0 -0.24808760514302669 -0.3536558827211943 0 -0.2404133442166683 -0.34213832018255058 0 -0.24325210797206609 -0.34084931319650169 0 -0.24518994726652291 -0.33234415230164399 0 -0.23958942898634211 -0.33903199036576709 0 -0.24518994726652291 -0.33234415230164399 0 -0.23560348244150561 -0.32909319502054812 0 -0.23958942898634211 -0.33903199036576709 0 -0.23708401688859529 -0.34365007901650441 0 -0.2404133442166683 -0.34213832018255058 0 -0.24325210797206609 -0.34084931319650169 0 -0.2404133442166683 -0.34213832018255058 0 -0.23958942898634211 -0.33903199036576709 0 -0.24325210797206609 -0.34084931319650169 0 -0.2404133442166683 -0.34213832018255058 0 -0.24325210797206609 -0.34084931319650169 0 -0.23958942898634211 -0.33903199036576709 0 -0.25915672867891859 -0.31415112243359272 0 -0.24308922262768951 -0.32099342612622928 0 -0.24047089863443691 -0.30798947189970438 0 -0.24518994726652291 -0.33234415230164399 0 -0.23560348244150561 -0.32909319502054812 0 -0.24308922262768951 -0.32099342612622928 0 -0.23560348244150561 -0.32909319502054812 0 -0.24308922262768951 -0.32099342612622928 0 -0.22938765682563561 -0.32144886021699343 0 -0.24308922262768951 -0.32099342612622928 0 -0.22938765682563561 -0.32144886021699343 0 -0.23158309368585001 -0.31181085789310747 0 -0.24308922262768951 -0.32099342612622928 0 -0.24047089863443691 -0.30798947189970438 0 -0.23158309368585001 -0.31181085789310747 0 -0.22938765682563561 -0.32144886021699343 0 -0.23158309368585001 -0.31181085789310747 0 -0.22249387381410951 -0.31123320620709588 0 -0.23560348244150561 -0.32909319502054812 0 -0.22938765682563561 -0.32144886021699343 0 -0.22076115650133771 -0.33164754609210678 0 -0.22938765682563561 -0.32144886021699343 0 -0.22076115650133771 -0.33164754609210678 0 -0.2180259411870723 -0.31620608063285149 0 -0.22938765682563561 -0.32144886021699343 0 -0.2180259411870723 -0.31620608063285149 0 -0.22249387381410951 -0.31123320620709588 0 -0.22331676928072861 -0.34527245129667988 0 -0.23708401688859529 -0.34365007901650441 0 -0.22076115650133771 -0.33164754609210678 0 -0.23560348244150561 -0.32909319502054812 0 -0.23958942898634211 -0.33903199036576709 0 -0.22076115650133771 -0.33164754609210678 0 -0.2404133442166683 -0.34213832018255058 0 -0.22076115650133771 -0.33164754609210678 0 -0.2404133442166683 -0.34213832018255058 0 -0.23958942898634211 -0.33903199036576709 0 -0.22076115650133771 -0.33164754609210678 0 -0.23708401688859529 -0.34365007901650441 0 -0.2404133442166683 -0.34213832018255058 0 -0.22076115650133771 -0.33164754609210678 0 -0.22331676928072861 -0.34527245129667988 0 -0.22076115650133771 -0.33164754609210678 0 -0.20784983644103361 -0.34097302903627591 0 -0.22076115650133771 -0.33164754609210678 0 -0.20348412114368319 -0.33156666209817831 0 -0.20784983644103361 -0.34097302903627591 0 -0.2180259411870723 -0.31620608063285149 0 -0.19974136112887431 -0.31343603927203523 0 -0.20110896878600679 -0.32115677200166343 0 -0.22076115650133771 -0.33164754609210678 0 -0.2180259411870723 -0.31620608063285149 0 -0.20110896878600679 -0.32115677200166343 0 -0.22076115650133771 -0.33164754609210678 0 -0.20348412114368319 -0.33156666209817831 0 -0.20110896878600679 -0.32115677200166343 0 -0.22076115650133771 -0.33164754609210678 0 -0.20110896878600679 -0.32115677200166343 0 -0.2180259411870723 -0.31620608063285149 0 -0.19974136112887431 -0.31343603927203523 0 -0.20904493575850211 -0.30938578927939081 0 -0.2180259411870723 -0.31620608063285149 0 -0.19974136112887431 -0.31343603927203523 0 -0.19974136112887431 -0.31343603927203523 0 -0.20110896878600679 -0.32115677200166343 0 -0.1814567810706762 -0.3106659979112194 0 -0.20110896878600679 -0.32115677200166343 0 -0.1814567810706762 -0.3106659979112194 0 -0.20110896878600679 -0.32115677200166343 0 -0.19214051361034601 -0.33054181938157612 0 -0.1814567810706762 -0.3106659979112194 0 -0.20348412114368319 -0.33156666209817831 0 -0.20110896878600679 -0.32115677200166343 0 -0.19214051361034601 -0.33054181938157612 0 -0.20348412114368319 -0.33156666209817831 0 -0.20784983644103361 -0.34097302903627591 0 -0.19214051361034601 -0.33054181938157612 0 -0.20784983644103361 -0.34097302903627591 0 -0.19214051361034601 -0.33054181938157612 0 -0.20232946575910341 -0.34593351830387509 0 -0.19214051361034601 -0.33054181938157612 0 -0.19236830561379509 -0.34938181171492771 0 -0.18622265824693729 -0.34003474470360739 0 -0.19214051361034601 -0.33054181938157612 0 -0.19236830561379509 -0.34938181171492771 0 -0.19870808169258641 -0.35839171802627962 0 -0.19214051361034601 -0.33054181938157612 0 -0.19870808169258641 -0.35839171802627962 0 -0.19214051361034601 -0.33054181938157612 0 -0.20232946575910341 -0.34593351830387509 0 -0.19870808169258641 -0.35839171802627962 0 -0.19236830561379509 -0.34938181171492771 0 -0.1854961134254472 -0.37120813041460421 0 -0.20527564977482679 -0.38624161667098289 0 -0.19870808169258641 -0.35839171802627962 0 -0.20527564977482679 -0.38624161667098289 0 -0.19870808169258641 -0.35839171802627962 0 -0.1854961134254472 -0.37120813041460421 0 -0.19236830561379509 -0.34938181171492771 0 -0.19870808169258641 -0.35839171802627962 0 -0.1854961134254472 -0.37120813041460421 0 -0.20527564977482679 -0.38624161667098289 0 -0.19870808169258641 -0.35839171802627962 0 -0.21168543115216709 -0.36681117402183649 0 -0.19870808169258641 -0.35839171802627962 0 -0.21168543115216709 -0.36681117402183649 0 -0.21061943129244759 -0.3538275067713687 0 -0.22135664398937441 -0.36020929429952131 0 -0.22195794658956111 -0.37463091785279867 0 -0.21168543115216709 -0.36681117402183649 0 -0.22135664398937441 -0.36020929429952131 0 -0.21168543115216709 -0.36681117402183649 0 -0.21061943129244759 -0.3538275067713687 0 -0.22135664398937441 -0.36020929429952131 0 -0.22331676928072861 -0.34527245129667988 0 -0.21061943129244759 -0.3538275067713687 0 -0.22331676928072861 -0.34527245129667988 0 -0.20784983644103361 -0.34097302903627591 0 -0.21061943129244759 -0.3538275067713687 0 -0.20784983644103361 -0.34097302903627591 0 -0.20232946575910341 -0.34593351830387509 0 -0.21061943129244759 -0.3538275067713687 0 -0.20232946575910341 -0.34593351830387509 0 -0.19870808169258641 -0.35839171802627962 0 -0.21061943129244759 -0.3538275067713687 0 -0.22866545068461799 -0.25948943059043711 0 -0.21759888839251429 -0.26212753750200368 0 -0.22025275826160279 -0.2471257797298928 0 -0.22866545068461799 -0.25948943059043711 0 -0.22398633244919169 -0.27132847136955079 0 -0.21759888839251429 -0.26212753750200368 0 -0.22866545068461799 -0.25948943059043711 0 -0.23442911476228809 -0.24683612341654529 0 -0.22025275826160279 -0.2471257797298928 0 -0.22866545068461799 -0.25948943059043711 0 -0.24233717299785959 -0.25960849866204011 0 -0.23442911476228809 -0.24683612341654529 0 -0.2565674865322034 -0.25340195958415102 0 -0.24233717299785959 -0.25960849866204011 0 -0.25018128361314113 -0.24746468840205441 0 -0.22866545068461799 -0.25948943059043711 0 -0.24233717299785959 -0.25960849866204011 0 -0.2333815926018066 -0.27110706845475141 0 -0.24233717299785959 -0.25960849866204011 0 -0.2333815926018066 -0.27110706845475141 0 -0.24140403581614819 -0.28379898528087227 0 -0.24233717299785959 -0.25960849866204011 0 -0.24140403581614819 -0.28379898528087227 0 -0.24233717299785959 -0.25960849866204011 0 -0.2484323970602714 -0.27706385987730509 0 -0.24140403581614819 -0.28379898528087227 0 -0.25309751137434572 -0.26289123234143091 0 -0.24233717299785959 -0.25960849866204011 0 -0.2484323970602714 -0.27706385987730509 0 -0.2333815926018066 -0.27110706845475141 0 -0.2300547693907766 -0.28178467995593781 0 -0.24140403581614819 -0.28379898528087227 0 -0.2333815926018066 -0.27110706845475141 0 -0.22398633244919169 -0.27132847136955079 0 -0.2300547693907766 -0.28178467995593781 0 -0.22866545068461799 -0.25948943059043711 0 -0.2333815926018066 -0.27110706845475141 0 -0.22398633244919169 -0.27132847136955079 0 -0.22398633244919169 -0.27132847136955079 0 -0.21947311754018139 -0.28174823216008099 0 -0.2300547693907766 -0.28178467995593781 0 -0.21947311754018139 -0.28174823216008099 0 -0.22569627159534009 -0.29064390563822362 0 -0.2300547693907766 -0.28178467995593781 0 -0.21947311754018139 -0.28174823216008099 0 -0.22569627159534009 -0.29064390563822362 0 -0.21595054291829549 -0.29285447433738648 0 -0.22569627159534009 -0.29064390563822362 0 -0.22453607640027501 -0.29842387346705762 0 -0.21595054291829549 -0.29285447433738648 0 -0.22569627159534009 -0.29064390563822362 0 -0.2341156104824163 -0.28973116501788848 0 -0.23104294706112549 -0.29817392722980551 0 -0.22569627159534009 -0.29064390563822362 0 -0.23104294706112549 -0.29817392722980551 0 -0.22453607640027501 -0.29842387346705762 0 -0.22569627159534009 -0.29064390563822362 0 -0.2341156104824163 -0.28973116501788848 0 -0.2300547693907766 -0.28178467995593781 0 -0.25108388684634803 -0.28956965662021522 0 -0.24140403581614819 -0.28379898528087227 0 -0.24047089863443691 -0.30798947189970438 0 -0.2341156104824163 -0.28973116501788848 0 -0.24140403581614819 -0.28379898528087227 0 -0.24047089863443691 -0.30798947189970438 0 -0.24140403581614819 -0.28379898528087227 0 -0.24047089863443691 -0.30798947189970438 0 -0.2341156104824163 -0.28973116501788848 0 -0.2300547693907766 -0.28178467995593781 0 -0.24140403581614819 -0.28379898528087227 0 -0.25108388684634803 -0.28956965662021522 0 -0.2484323970602714 -0.27706385987730509 0 -0.24140403581614819 -0.28379898528087227 0 -0.25718459078837252 -0.29759752524363881 0 -0.25108388684634803 -0.28956965662021522 0 -0.24047089863443691 -0.30798947189970438 0 -0.2341156104824163 -0.28973116501788848 0 -0.24047089863443691 -0.30798947189970438 0 -0.23104294706112549 -0.29817392722980551 0 -0.24047089863443691 -0.30798947189970438 0 -0.23158309368585001 -0.31181085789310747 0 -0.2303958781931594 -0.30408122012615352 0 -0.23158309368585001 -0.31181085789310747 0 -0.2303958781931594 -0.30408122012615352 0 -0.2249978911063876 -0.30539226771637512 0 -0.24047089863443691 -0.30798947189970438 0 -0.23104294706112549 -0.29817392722980551 0 -0.2303958781931594 -0.30408122012615352 0 -0.23104294706112549 -0.29817392722980551 0 -0.2303958781931594 -0.30408122012615352 0 -0.22453607640027501 -0.29842387346705762 0 -0.2303958781931594 -0.30408122012615352 0 -0.22453607640027501 -0.29842387346705762 0 -0.2249978911063876 -0.30539226771637512 0 -0.22453607640027501 -0.29842387346705762 0 -0.2249978911063876 -0.30539226771637512 0 -0.21872282414136721 -0.30136563651957121 0 -0.22453607640027501 -0.29842387346705762 0 -0.21872282414136721 -0.30136563651957121 0 -0.21595054291829549 -0.29285447433738648 0 -0.22249387381410951 -0.31123320620709588 0 -0.2249978911063876 -0.30539226771637512 0 -0.21872282414136721 -0.30136563651957121 0 -0.23158309368585001 -0.31181085789310747 0 -0.22249387381410951 -0.31123320620709588 0 -0.2249978911063876 -0.30539226771637512 0 -0.22249387381410951 -0.31123320620709588 0 -0.20819654573008861 -0.30010144335043992 0 -0.2180259411870723 -0.31620608063285149 0 -0.2144403241224431 -0.30923162986744451 0 -0.20904493575850211 -0.30938578927939081 0 -0.22249387381410951 -0.31123320620709588 0 -0.2144403241224431 -0.30923162986744451 0 -0.20819654573008861 -0.30010144335043992 0 -0.2180259411870723 -0.31620608063285149 0 -0.22249387381410951 -0.31123320620709588 0 -0.2144403241224431 -0.30923162986744451 0 -0.21872282414136721 -0.30136563651957121 0 -0.20819654573008861 -0.30010144335043992 0 -0.21595054291829549 -0.29285447433738648 0 -0.22249387381410951 -0.31123320620709588 0 -0.21872282414136721 -0.30136563651957121 0 -0.20819654573008861 -0.30010144335043992 0 -0.20819654573008861 -0.30010144335043992 0 -0.20288915614788011 -0.30684576889979082 0 -0.200327377448308 -0.30070497350852549 0 -0.19974136112887431 -0.31343603927203523 0 -0.20904493575850211 -0.30938578927939081 0 -0.20288915614788011 -0.30684576889979082 0 -0.2144403241224431 -0.30923162986744451 0 -0.20819654573008861 -0.30010144335043992 0 -0.20904493575850211 -0.30938578927939081 0 -0.20819654573008861 -0.30010144335043992 0 -0.20904493575850211 -0.30938578927939081 0 -0.20288915614788011 -0.30684576889979082 0 -0.19974136112887431 -0.31343603927203523 0 -0.1814567810706762 -0.3106659979112194 0 -0.19974136112887431 -0.31343603927203523 0 -0.20288915614788011 -0.30684576889979082 0 -0.19308950921137841 -0.30535425612401718 0 -0.19974136112887431 -0.31343603927203523 0 -0.19308950921137841 -0.30535425612401718 0 -0.1814567810706762 -0.3106659979112194 0 -0.19308950921137841 -0.30535425612401718 0 -0.1899902243989981 -0.29832565749187118 0 -0.1817779539512053 -0.30255714357571323 0 -0.19308950921137841 -0.30535425612401718 0 -0.1899902243989981 -0.29832565749187118 0 -0.200327377448308 -0.30070497350852549 0 -0.20288915614788011 -0.30684576889979082 0 -0.19308950921137841 -0.30535425612401718 0 -0.200327377448308 -0.30070497350852549 0 -0.20819654573008861 -0.30010144335043992 0 -0.19389921764606771 -0.28896968049378402 0 -0.200327377448308 -0.30070497350852549 0 -0.19389921764606771 -0.28896968049378402 0 -0.20819654573008861 -0.30010144335043992 0 -0.200327377448308 -0.30070497350852549 0 -0.19389921764606771 -0.28896968049378402 0 -0.20819654573008861 -0.30010144335043992 0 -0.19389921764606771 -0.28896968049378402 0 -0.2049502680629153 -0.28953974020436019 0 -0.1899902243989981 -0.29832565749187118 0 -0.19389921764606771 -0.28896968049378402 0 -0.18066470514172869 -0.29420676669921531 0 -0.1899902243989981 -0.29832565749187118 0 -0.200327377448308 -0.30070497350852549 0 -0.19389921764606771 -0.28896968049378402 0 -0.19389921764606771 -0.28896968049378402 0 -0.18643891475010321 -0.2753500999052107 0 -0.19389921764606771 -0.28896968049378402 0 -0.1815972113741586 -0.27939145610981342 0 -0.19389921764606771 -0.28896968049378402 0 -0.2049502680629153 -0.28953974020436019 0 -0.20163083764207049 -0.27816255368004889 0 -0.2099333729274668 -0.28317129254800538 0 -0.2049502680629153 -0.28953974020436019 0 -0.20163083764207049 -0.27816255368004889 0 -0.2099333729274668 -0.28317129254800538 0 -0.2049502680629153 -0.28953974020436019 0 -0.21595054291829549 -0.29285447433738648 0 -0.20819654573008861 -0.30010144335043992 0 -0.2049502680629153 -0.28953974020436019 0 -0.21595054291829549 -0.29285447433738648 0 -0.21947311754018139 -0.28174823216008099 0 -0.2099333729274668 -0.28317129254800538 0 -0.21595054291829549 -0.29285447433738648 0 -0.2117440640613063 -0.2714560660025862 0 -0.20163083764207049 -0.27816255368004889 0 -0.20334583650585281 -0.26123793981755161 0 -0.22398633244919169 -0.27132847136955079 0 -0.21947311754018139 -0.28174823216008099 0 -0.2117440640613063 -0.2714560660025862 0 -0.21947311754018139 -0.28174823216008099 0 -0.2099333729274668 -0.28317129254800538 0 -0.2117440640613063 -0.2714560660025862 0 -0.22398633244919169 -0.27132847136955079 0 -0.2117440640613063 -0.2714560660025862 0 -0.21759888839251429 -0.26212753750200368 0 -0.2099333729274668 -0.28317129254800538 0 -0.2117440640613063 -0.2714560660025862 0 -0.20163083764207049 -0.27816255368004889 0 -0.20163083764207049 -0.27816255368004889 0 -0.20334583650585281 -0.26123793981755161 0 -0.18643891475010321 -0.2753500999052107 0 -0.20334583650585281 -0.26123793981755161 0 -0.18643891475010321 -0.2753500999052107 0 -0.1892261620383611 -0.26071341320317981 0 -0.20334583650585281 -0.26123793981755161 0 -0.18643891475010321 -0.2753500999052107 0 -0.19389921764606771 -0.28896968049378402 0 -0.20163083764207049 -0.27816255368004889 0 -0.18643891475010321 -0.2753500999052107 0 -0.1892261620383611 -0.26071341320317981 0 -0.20334583650585281 -0.26123793981755161 0 -0.1971211098569064 -0.2485562144643311 0 -0.20334583650585281 -0.26123793981755161 0 -0.21759888839251429 -0.26212753750200368 0 -0.22025275826160279 -0.2471257797298928 0 -0.20334583650585281 -0.26123793981755161 0 -0.22025275826160279 -0.2471257797298928 0 -0.20334583650585281 -0.26123793981755161 0 -0.1971211098569064 -0.2485562144643311 0 -0.22025275826160279 -0.2471257797298928 0 -0.2117440640613063 -0.2714560660025862 0 -0.20334583650585281 -0.26123793981755161 0 -0.21759888839251429 -0.26212753750200368 0 -0.15821309250511281 -0.26118480488572993 0 -0.17536452169406261 -0.25513261131262932 0 -0.1815972113741586 -0.27939145610981342 0 -0.15821309250511281 -0.26118480488572993 0 -0.17536452169406261 -0.25513261131262932 0 -0.15566934165753701 -0.24482136105764621 0 -0.1892261620383611 -0.26071341320317981 0 -0.17536452169406261 -0.25513261131262932 0 -0.1971211098569064 -0.2485562144643311 0 -0.1892261620383611 -0.26071341320317981 0 -0.17536452169406261 -0.25513261131262932 0 -0.18643891475010321 -0.2753500999052107 0 -0.17536452169406261 -0.25513261131262932 0 -0.18643891475010321 -0.2753500999052107 0 -0.17536452169406261 -0.25513261131262932 0 -0.18643891475010321 -0.2753500999052107 0 -0.1815972113741586 -0.27939145610981342 0 -0.19389921764606771 -0.28896968049378402 0 -0.18643891475010321 -0.2753500999052107 0 -0.1815972113741586 -0.27939145610981342 0 -0.18643891475010321 -0.2753500999052107 0 -0.1815972113741586 -0.27939145610981342 0 -0.15821309250511281 -0.26118480488572993 0 -0.1815972113741586 -0.27939145610981342 0 -0.1605334253196628 -0.27705414769848019 0 -0.15821309250511281 -0.26118480488572993 0 -0.1815972113741586 -0.27939145610981342 0 -0.1605334253196628 -0.27705414769848019 0 -0.16662117086531369 -0.29189191504570172 0 -0.1460397447830028 -0.28392096720827609 0 -0.1815972113741586 -0.27939145610981342 0 -0.1605334253196628 -0.27705414769848019 0 -0.16662117086531369 -0.29189191504570172 0 -0.16662117086531369 -0.29189191504570172 0 -0.18066470514172869 -0.29420676669921531 0 -0.16807172941449361 -0.30108874618849107 0 -0.1815972113741586 -0.27939145610981342 0 -0.16662117086531369 -0.29189191504570172 0 -0.1815972113741586 -0.27939145610981342 0 -0.16662117086531369 -0.29189191504570172 0 -0.18066470514172869 -0.29420676669921531 0 -0.19389921764606771 -0.28896968049378402 0 -0.1815972113741586 -0.27939145610981342 0 -0.18066470514172869 -0.29420676669921531 0 -0.18066470514172869 -0.29420676669921531 0 -0.1817779539512053 -0.30255714357571323 0 -0.16807172941449361 -0.30108874618849107 0 -0.1817779539512053 -0.30255714357571323 0 -0.17538193411824851 -0.30742310974349601 0 -0.16807172941449361 -0.30108874618849107 0 -0.1899902243989981 -0.29832565749187118 0 -0.18066470514172869 -0.29420676669921531 0 -0.1817779539512053 -0.30255714357571323 0 -0.19308950921137841 -0.30535425612401718 0 -0.1817779539512053 -0.30255714357571323 0 -0.1814567810706762 -0.3106659979112194 0 -0.1817779539512053 -0.30255714357571323 0 -0.1814567810706762 -0.3106659979112194 0 -0.17538193411824851 -0.30742310974349601 0 -0.1814567810706762 -0.3106659979112194 0 -0.17538193411824851 -0.30742310974349601 0 -0.1814567810706762 -0.3106659979112194 0 -0.17538193411824851 -0.30742310974349601 0 -0.1521471234576928 -0.30622570102712859 0 -0.16662117086531369 -0.29189191504570172 0 -0.16807172941449361 -0.30108874618849107 0 -0.15164513035647001 -0.30439237398159158 0 -0.17538193411824851 -0.30742310974349601 0 -0.16807172941449361 -0.30108874618849107 0 -0.1521471234576928 -0.30622570102712859 0 -0.16807172941449361 -0.30108874618849107 0 -0.1521471234576928 -0.30622570102712859 0 -0.15164513035647001 -0.30439237398159158 0 -0.1814567810706762 -0.3106659979112194 0 -0.1521471234576928 -0.30622570102712859 0 -0.16662117086531369 -0.29189191504570172 0 -0.15164513035647001 -0.30439237398159158 0 -0.14986325126998301 -0.30587970344869631 0 -0.1472482395654931 -0.30806244637126978 0 -0.13137693926794269 -0.30307910049847142 0 -0.14986325126998301 -0.30587970344869631 0 -0.13137693926794269 -0.30307910049847142 0 -0.14191197011226919 -0.29595195204747682 0 -0.1521471234576928 -0.30622570102712859 0 -0.15536928910057479 -0.31799335959440589 0 -0.1521471234576928 -0.30622570102712859 0 -0.1472482395654931 -0.30806244637126978 0 -0.1481744133336001 -0.31559103279323952 0 -0.1521471234576928 -0.30622570102712859 0 -0.14986325126998301 -0.30587970344869631 0 -0.1472482395654931 -0.30806244637126978 0 -0.1521471234576928 -0.30622570102712859 0 -0.14986325126998301 -0.30587970344869631 0 -0.15164513035647001 -0.30439237398159158 0 -0.1521471234576928 -0.30622570102712859 0 -0.14986325126998301 -0.30587970344869631 0 -0.1521471234576928 -0.30622570102712859 0 -0.15164513035647001 -0.30439237398159158 0 -0.14986325126998301 -0.30587970344869631 0 -0.15164513035647001 -0.30439237398159158 0 -0.14986325126998301 -0.30587970344869631 0 -0.1472482395654931 -0.30806244637126978 0 -0.14986325126998301 -0.30587970344869631 0 -0.15164513035647001 -0.30439237398159158 0 -0.14191197011226919 -0.29595195204747682 0 -0.1472482395654931 -0.30806244637126978 0 -0.13676428411235661 -0.311985534419285 0 -0.1481744133336001 -0.31559103279323952 0 -0.14986325126998301 -0.30587970344869631 0 -0.13137693926794269 -0.30307910049847142 0 -0.1472482395654931 -0.30806244637126978 0 -0.13676428411235661 -0.311985534419285 0 -0.13137693926794269 -0.30307910049847142 0 -0.13137693926794269 -0.30307910049847142 0 -0.14191197011226919 -0.29595195204747682 0 -0.12354370332633501 -0.29237215235494779 0 -0.13676428411235661 -0.311985534419285 0 -0.13137693926794269 -0.30307910049847142 0 -0.12202825811921469 -0.30947938976295097 0 -0.1460397447830028 -0.28392096720827609 0 -0.14191197011226919 -0.29595195204747682 0 -0.13317406737037779 -0.2802173890703723 0 -0.14191197011226919 -0.29595195204747682 0 -0.13317406737037779 -0.2802173890703723 0 -0.12354370332633501 -0.29237215235494779 0 -0.13317406737037779 -0.2802173890703723 0 -0.121176560474238 -0.27855216134530347 0 -0.12354370332633501 -0.29237215235494779 0 -0.16662117086531369 -0.29189191504570172 0 -0.15164513035647001 -0.30439237398159158 0 -0.1460397447830028 -0.28392096720827609 0 -0.15164513035647001 -0.30439237398159158 0 -0.1460397447830028 -0.28392096720827609 0 -0.14191197011226919 -0.29595195204747682 0 -0.15164513035647001 -0.30439237398159158 0 -0.1460397447830028 -0.28392096720827609 0 -0.1460397447830028 -0.28392096720827609 0 -0.14043435920953651 -0.26344956043496021 0 -0.1605334253196628 -0.27705414769848019 0 -0.1460397447830028 -0.28392096720827609 0 -0.14043435920953651 -0.26344956043496021 0 -0.15821309250511281 -0.26118480488572993 0 -0.1605334253196628 -0.27705414769848019 0 -0.14043435920953651 -0.26344956043496021 0 -0.13317406737037779 -0.2802173890703723 0 -0.1259380663168852 -0.26705754103126977 0 -0.14043435920953651 -0.26344956043496021 0 -0.1460397447830028 -0.28392096720827609 0 -0.13317406737037779 -0.2802173890703723 0 -0.14043435920953651 -0.26344956043496021 0 -0.13317406737037779 -0.2802173890703723 0 -0.1259380663168852 -0.26705754103126977 0 -0.121176560474238 -0.27855216134530347 0 -0.14043435920953651 -0.26344956043496021 0 -0.1283361407779757 -0.25159171728621699 0 -0.13482897363606841 -0.24297815366164491 0 -0.14043435920953651 -0.26344956043496021 0 -0.13482897363606841 -0.24297815366164491 0 -0.1259380663168852 -0.26705754103126977 0 -0.14043435920953651 -0.26344956043496021 0 -0.1283361407779757 -0.25159171728621699 0 -0.15821309250511281 -0.26118480488572993 0 -0.13482897363606841 -0.24297815366164491 0 -0.15821309250511281 -0.26118480488572993 0 -0.14043435920953651 -0.26344956043496021 0 -0.13482897363606841 -0.24297815366164491 0 -0.17697510949039719 -0.35596577996135209 0 -0.17519745401808179 -0.33814225560617162 0 -0.1562220225934601 -0.35985472972221177 0 -0.17519745401808179 -0.33814225560617162 0 -0.1532624182972378 -0.33871633494107939 0 -0.1562220225934601 -0.35985472972221177 0 -0.17519745401808179 -0.33814225560617162 0 -0.1562220225934601 -0.35985472972221177 0 -0.1663441030446621 -0.37717300760659073 0 -0.17697510949039719 -0.35596577996135209 0 -0.1562220225934601 -0.35985472972221177 0 -0.1663441030446621 -0.37717300760659073 0 -0.1854961134254472 -0.37120813041460421 0 -0.17697510949039719 -0.35596577996135209 0 -0.19236830561379509 -0.34938181171492771 0 -0.1854961134254472 -0.37120813041460421 0 -0.17697510949039719 -0.35596577996135209 0 -0.17697510949039719 -0.35596577996135209 0 -0.17519745401808179 -0.33814225560617162 0 -0.18622265824693729 -0.34003474470360739 0 -0.19236830561379509 -0.34938181171492771 0 -0.17697510949039719 -0.35596577996135209 0 -0.18622265824693729 -0.34003474470360739 0 -0.19214051361034601 -0.33054181938157612 0 -0.17519745401808179 -0.33814225560617162 0 -0.18622265824693729 -0.34003474470360739 0 -0.19214051361034601 -0.33054181938157612 0 -0.17519745401808179 -0.33814225560617162 0 -0.17075841890319021 -0.32267991232295651 0 -0.19214051361034601 -0.33054181938157612 0 -0.1814567810706762 -0.3106659979112194 0 -0.17075841890319021 -0.32267991232295651 0 -0.1814567810706762 -0.3106659979112194 0 -0.1521471234576928 -0.30622570102712859 0 -0.17075841890319021 -0.32267991232295651 0 -0.1521471234576928 -0.30622570102712859 0 -0.17075841890319021 -0.32267991232295651 0 -0.15536928910057479 -0.31799335959440589 0 -0.17075841890319021 -0.32267991232295651 0 -0.15536928910057479 -0.31799335959440589 0 -0.15041885550205389 -0.32708722206771829 0 -0.17519745401808179 -0.33814225560617162 0 -0.17075841890319021 -0.32267991232295651 0 -0.1532624182972378 -0.33871633494107939 0 -0.17075841890319021 -0.32267991232295651 0 -0.1532624182972378 -0.33871633494107939 0 -0.15041885550205389 -0.32708722206771829 0 -0.1532624182972378 -0.33871633494107939 0 -0.15041885550205389 -0.32708722206771829 0 -0.13403844172661231 -0.33095488736429202 0 -0.15041885550205389 -0.32708722206771829 0 -0.14028103823900179 -0.32077908792264309 0 -0.13403844172661231 -0.33095488736429202 0 -0.15536928910057479 -0.31799335959440589 0 -0.15041885550205389 -0.32708722206771829 0 -0.1481744133336001 -0.31559103279323952 0 -0.1521471234576928 -0.30622570102712859 0 -0.15536928910057479 -0.31799335959440589 0 -0.1481744133336001 -0.31559103279323952 0 -0.15041885550205389 -0.32708722206771829 0 -0.1481744133336001 -0.31559103279323952 0 -0.14028103823900179 -0.32077908792264309 0 -0.13676428411235661 -0.311985534419285 0 -0.1481744133336001 -0.31559103279323952 0 -0.14028103823900179 -0.32077908792264309 0 -0.13676428411235661 -0.311985534419285 0 -0.14028103823900179 -0.32077908792264309 0 -0.12839564496088529 -0.32005881249807028 0 -0.14028103823900179 -0.32077908792264309 0 -0.12839564496088529 -0.32005881249807028 0 -0.13403844172661231 -0.33095488736429202 0 -0.12839564496088529 -0.32005881249807028 0 -0.13403844172661231 -0.33095488736429202 0 -0.1231279148664025 -0.32697127933959502 0 -0.13676428411235661 -0.311985534419285 0 -0.12839564496088529 -0.32005881249807028 0 -0.12202825811921469 -0.30947938976295097 0 -0.13403844172661231 -0.33095488736429202 0 -0.13290241802702499 -0.35265178330474523 0 -0.1166361947753133 -0.33638206822001748 0 -0.1532624182972378 -0.33871633494107939 0 -0.13403844172661231 -0.33095488736429202 0 -0.13290241802702499 -0.35265178330474523 0 -0.1532624182972378 -0.33871633494107939 0 -0.13290241802702499 -0.35265178330474523 0 -0.1562220225934601 -0.35985472972221177 0 -0.13724659116883831 -0.38156720383825199 0 -0.13290241802702499 -0.35265178330474523 0 -0.1562220225934601 -0.35985472972221177 0 -0.13724659116883831 -0.38156720383825199 0 -0.1663441030446621 -0.37717300760659073 0 -0.1562220225934601 -0.35985472972221177 0 -0.13724659116883831 -0.38156720383825199 0 -0.1562220225934601 -0.35985472972221177 0 -0.13724659116883831 -0.38156720383825199 0 -0.13290241802702499 -0.35265178330474523 0 -0.1192781490478088 -0.36668410834504778 0 -0.1192781490478088 -0.36668410834504778 0 -0.1016352808315869 -0.36700177770792092 0 -0.11220573075163159 -0.38220411347121069 0 -0.1192781490478088 -0.36668410834504778 0 -0.1016352808315869 -0.36700177770792092 0 -0.1099844304083452 -0.35257743562026572 0 -0.1016352808315869 -0.36700177770792092 0 -0.091783481537845241 -0.36974840743822202 0 -0.093334558199797538 -0.36412034719781128 0 -0.1016352808315869 -0.36700177770792092 0 -0.094364811557621053 -0.35389299716276579 0 -0.093334558199797538 -0.36412034719781128 0 -0.1016352808315869 -0.36700177770792092 0 -0.091783481537845241 -0.36974840743822202 0 -0.093814789784828018 -0.38091150164421111 0 -0.094364811557621053 -0.35389299716276579 0 -0.1099844304083452 -0.35257743562026572 0 -0.096042697554356071 -0.3397062417384924 0 -0.1016352808315869 -0.36700177770792092 0 -0.094364811557621053 -0.35389299716276579 0 -0.1099844304083452 -0.35257743562026572 0 -0.13290241802702499 -0.35265178330474523 0 -0.1099844304083452 -0.35257743562026572 0 -0.1166361947753133 -0.33638206822001748 0 -0.13290241802702499 -0.35265178330474523 0 -0.1192781490478088 -0.36668410834504778 0 -0.1099844304083452 -0.35257743562026572 0 -0.13403844172661231 -0.33095488736429202 0 -0.1166361947753133 -0.33638206822001748 0 -0.1231279148664025 -0.32697127933959502 0 -0.1166361947753133 -0.33638206822001748 0 -0.1152881905332649 -0.31967160768574748 0 -0.098893476597157901 -0.32632392269665411 0 -0.1166361947753133 -0.33638206822001748 0 -0.1231279148664025 -0.32697127933959502 0 -0.1152881905332649 -0.31967160768574748 0 -0.12839564496088529 -0.32005881249807028 0 -0.1152881905332649 -0.31967160768574748 0 -0.12202825811921469 -0.30947938976295097 0 -0.12839564496088529 -0.32005881249807028 0 -0.1231279148664025 -0.32697127933959502 0 -0.1152881905332649 -0.31967160768574748 0 -0.1152881905332649 -0.31967160768574748 0 -0.11397155121489801 -0.30848478901155318 0 -0.10823649018657309 -0.3106210867482716 0 -0.1152881905332649 -0.31967160768574748 0 -0.12202825811921469 -0.30947938976295097 0 -0.11397155121489801 -0.30848478901155318 0 -0.1152881905332649 -0.31967160768574748 0 -0.098893476597157901 -0.32632392269665411 0 -0.10823649018657309 -0.3106210867482716 0 -0.1166361947753133 -0.33638206822001748 0 -0.098893476597157901 -0.32632392269665411 0 -0.096042697554356071 -0.3397062417384924 0 -0.1099844304083452 -0.35257743562026572 0 -0.1166361947753133 -0.33638206822001748 0 -0.096042697554356071 -0.3397062417384924 0 -0.081273045807338212 -0.32012122354728773 0 -0.072383893537199012 -0.33396092306611819 0 -0.082523744249277803 -0.34494336359321798 0 -0.081273045807338212 -0.32012122354728773 0 -0.082523744249277803 -0.34494336359321798 0 -0.096042697554356071 -0.3397062417384924 0 -0.081273045807338212 -0.32012122354728773 0 -0.082523744249277803 -0.34494336359321798 0 -0.098893476597157901 -0.32632392269665411 0 -0.096042697554356071 -0.3397062417384924 0 -0.081273045807338212 -0.32012122354728773 0 -0.098893476597157901 -0.32632392269665411 0 -0.081273045807338212 -0.32012122354728773 0 -0.088490963390462057 -0.3073149594937738 0 -0.081273045807338212 -0.32012122354728773 0 -0.06349485352407537 -0.31994243130957151 0 -0.072383893537199012 -0.33396092306611819 0 -0.081273045807338212 -0.32012122354728773 0 -0.06349485352407537 -0.31994243130957151 0 -0.071882199735688629 -0.30989172464331072 0 -0.06349485352407537 -0.31994243130957151 0 -0.072383893537199012 -0.33396092306611819 0 -0.062587044379988993 -0.33886333000968721 0 -0.072383893537199012 -0.33396092306611819 0 -0.072040779725314613 -0.34593426687082662 0 -0.082523744249277803 -0.34494336359321798 0 -0.072383893537199012 -0.33396092306611819 0 -0.062587044379988993 -0.33886333000968721 0 -0.072040779725314613 -0.34593426687082662 0 -0.062587044379988993 -0.33886333000968721 0 -0.072040779725314613 -0.34593426687082662 0 -0.05778126825204781 -0.35817517109810632 0 -0.081484465201393491 -0.35485127927681481 0 -0.05778126825204781 -0.35817517109810632 0 -0.072289445743601369 -0.36429171085611578 0 -0.081484465201393491 -0.35485127927681481 0 -0.05778126825204781 -0.35817517109810632 0 -0.072040779725314613 -0.34593426687082662 0 -0.081484465201393491 -0.35485127927681481 0 -0.05778126825204781 -0.35817517109810632 0 -0.066117606829746781 -0.37437488941039382 0 -0.072289445743601369 -0.36429171085611578 0 -0.05778126825204781 -0.35817517109810632 0 -0.066117606829746781 -0.37437488941039382 0 -0.072289445743601369 -0.36429171085611578 0 -0.083774442691217046 -0.36976550363914829 0 -0.072289445743601369 -0.36429171085611578 0 -0.083774442691217046 -0.36976550363914829 0 -0.081484465201393491 -0.35485127927681481 0 -0.085554658872136979 -0.36583820648233678 0 -0.083774442691217046 -0.36976550363914829 0 -0.082523744249277803 -0.34494336359321798 0 -0.085554658872136979 -0.36583820648233678 0 -0.083774442691217046 -0.36976550363914829 0 -0.083774442691217046 -0.36976550363914829 0 -0.091783481537845241 -0.36974840743822202 0 -0.093814789784828018 -0.38091150164421111 0 -0.085554658872136979 -0.36583820648233678 0 -0.083774442691217046 -0.36976550363914829 0 -0.091783481537845241 -0.36974840743822202 0 -0.094364811557621053 -0.35389299716276579 0 -0.085554658872136979 -0.36583820648233678 0 -0.093334558199797538 -0.36412034719781128 0 -0.085554658872136979 -0.36583820648233678 0 -0.091783481537845241 -0.36974840743822202 0 -0.093334558199797538 -0.36412034719781128 0 -0.094364811557621053 -0.35389299716276579 0 -0.085554658872136979 -0.36583820648233678 0 -0.082523744249277803 -0.34494336359321798 0 -0.083774442691217046 -0.36976550363914829 0 -0.082523744249277803 -0.34494336359321798 0 -0.083774442691217046 -0.36976550363914829 0 -0.082523744249277803 -0.34494336359321798 0 -0.081484465201393491 -0.35485127927681481 0 -0.094364811557621053 -0.35389299716276579 0 -0.096042697554356071 -0.3397062417384924 0 -0.082523744249277803 -0.34494336359321798 0 -0.072040779725314613 -0.34593426687082662 0 -0.082523744249277803 -0.34494336359321798 0 -0.081484465201393491 -0.35485127927681481 0 -0.101475907254733 -0.26829823342826459 0 -0.093680051977193257 -0.25300014610948141 0 -0.1025516661405015 -0.24412656761791199 0 -0.1097432552782682 -0.2572086698476283 0 -0.101475907254733 -0.26829823342826459 0 -0.1025516661405015 -0.24412656761791199 0 -0.101475907254733 -0.26829823342826459 0 -0.1025516661405015 -0.24412656761791199 0 -0.101475907254733 -0.26829823342826459 0 -0.092490388530258719 -0.26367462890309928 0 -0.093680051977193257 -0.25300014610948141 0 -0.1097432552782682 -0.2572086698476283 0 -0.11415052326640381 -0.26847741843797612 0 -0.101475907254733 -0.26829823342826459 0 -0.1097432552782682 -0.2572086698476283 0 -0.1183855941197941 -0.25651062511641259 0 -0.1121525856099083 -0.24863050463757599 0 -0.1283361407779757 -0.25159171728621699 0 -0.1183855941197941 -0.25651062511641259 0 -0.11992695639240671 -0.24305274461581289 0 -0.1259380663168852 -0.26705754103126977 0 -0.1183855941197941 -0.25651062511641259 0 -0.11415052326640381 -0.26847741843797612 0 -0.1259380663168852 -0.26705754103126977 0 -0.1283361407779757 -0.25159171728621699 0 -0.1183855941197941 -0.25651062511641259 0 -0.1097432552782682 -0.2572086698476283 0 -0.1183855941197941 -0.25651062511641259 0 -0.11415052326640381 -0.26847741843797612 0 -0.1259380663168852 -0.26705754103126977 0 -0.11415052326640381 -0.26847741843797612 0 -0.121176560474238 -0.27855216134530347 0 -0.11415052326640381 -0.26847741843797612 0 -0.121176560474238 -0.27855216134530347 0 -0.112272911659429 -0.28340806039222649 0 -0.101475907254733 -0.26829823342826459 0 -0.1004001483689636 -0.29246989923861699 0 -0.089806853404465051 -0.2713401455271785 0 -0.101475907254733 -0.26829823342826459 0 -0.1004001483689636 -0.29246989923861699 0 -0.11415052326640381 -0.26847741843797612 0 -0.101475907254733 -0.26829823342826459 0 -0.112272911659429 -0.28340806039222649 0 -0.101475907254733 -0.26829823342826459 0 -0.089806853404465051 -0.2713401455271785 0 -0.092490388530258719 -0.26367462890309928 0 -0.1004001483689636 -0.29246989923861699 0 -0.112272911659429 -0.28340806039222649 0 -0.11289062726590229 -0.30027849754824781 0 -0.101475907254733 -0.26829823342826459 0 -0.1004001483689636 -0.29246989923861699 0 -0.112272911659429 -0.28340806039222649 0 -0.1004001483689636 -0.29246989923861699 0 -0.10013860532164209 -0.29834661679915908 0 -0.1004001483689636 -0.29246989923861699 0 -0.11289062726590229 -0.30027849754824781 0 -0.112272911659429 -0.28340806039222649 0 -0.12354370332633501 -0.29237215235494779 0 -0.11289062726590229 -0.30027849754824781 0 -0.121176560474238 -0.27855216134530347 0 -0.112272911659429 -0.28340806039222649 0 -0.12354370332633501 -0.29237215235494779 0 -0.13137693926794269 -0.30307910049847142 0 -0.11289062726590229 -0.30027849754824781 0 -0.13137693926794269 -0.30307910049847142 0 -0.11289062726590229 -0.30027849754824781 0 -0.12202825811921469 -0.30947938976295097 0 -0.13137693926794269 -0.30307910049847142 0 -0.12354370332633501 -0.29237215235494779 0 -0.11289062726590229 -0.30027849754824781 0 -0.11289062726590229 -0.30027849754824781 0 -0.11397155121489801 -0.30848478901155318 0 -0.10823649018657309 -0.3106210867482716 0 -0.11289062726590229 -0.30027849754824781 0 -0.12202825811921469 -0.30947938976295097 0 -0.11397155121489801 -0.30848478901155318 0 -0.098893476597157901 -0.32632392269665411 0 -0.10013860532164209 -0.29834661679915908 0 -0.098893476597157901 -0.32632392269665411 0 -0.10013860532164209 -0.29834661679915908 0 -0.088490963390462057 -0.3073149594937738 0 -0.098893476597157901 -0.32632392269665411 0 -0.10823649018657309 -0.3106210867482716 0 -0.10013860532164209 -0.29834661679915908 0 -0.11289062726590229 -0.30027849754824781 0 -0.10013860532164209 -0.29834661679915908 0 -0.1004001483689636 -0.29246989923861699 0 -0.11289062726590229 -0.30027849754824781 0 -0.10013860532164209 -0.29834661679915908 0 -0.11289062726590229 -0.30027849754824781 0 -0.10823649018657309 -0.3106210867482716 0 -0.10013860532164209 -0.29834661679915908 0 -0.081273045807338212 -0.32012122354728773 0 -0.075730545320634307 -0.30237183499028841 0 -0.080022347365398816 -0.29529908350135742 0 -0.081273045807338212 -0.32012122354728773 0 -0.088490963390462057 -0.3073149594937738 0 -0.080022347365398816 -0.29529908350135742 0 -0.10013860532164209 -0.29834661679915908 0 -0.088490963390462057 -0.3073149594937738 0 -0.080022347365398816 -0.29529908350135742 0 -0.081273045807338212 -0.32012122354728773 0 -0.080022347365398816 -0.29529908350135742 0 -0.06349485352407537 -0.31994243130957151 0 -0.067929239438661637 -0.29744245220773302 0 -0.06349485352407537 -0.31994243130957151 0 -0.067929239438661637 -0.29744245220773302 0 -0.05709164511789562 -0.30596989755068921 0 -0.081273045807338212 -0.32012122354728773 0 -0.071882199735688629 -0.30989172464331072 0 -0.075730545320634307 -0.30237183499028841 0 -0.06349485352407537 -0.31994243130957151 0 -0.071882199735688629 -0.30989172464331072 0 -0.067929239438661637 -0.29744245220773302 0 -0.067929239438661637 -0.29744245220773302 0 -0.075730545320634307 -0.30237183499028841 0 -0.074800211398343183 -0.29676828128919502 0 -0.071882199735688629 -0.30989172464331072 0 -0.067929239438661637 -0.29744245220773302 0 -0.075730545320634307 -0.30237183499028841 0 -0.075730545320634307 -0.30237183499028841 0 -0.074800211398343183 -0.29676828128919502 0 -0.080022347365398816 -0.29529908350135742 0 -0.067929239438661637 -0.29744245220773302 0 -0.072363625353247057 -0.27494247310589431 0 -0.074800211398343183 -0.29676828128919502 0 -0.075988861669628593 -0.29203098004520328 0 -0.080022347365398816 -0.29529908350135742 0 -0.067929239438661637 -0.29744245220773302 0 -0.063481929201992804 -0.28659419931659808 0 -0.072363625353247057 -0.27494247310589431 0 -0.067929239438661637 -0.29744245220773302 0 -0.075162920182542767 -0.28731555611229459 0 -0.072363625353247057 -0.27494247310589431 0 -0.075988861669628593 -0.29203098004520328 0 -0.075162920182542767 -0.28731555611229459 0 -0.080022347365398816 -0.29529908350135742 0 -0.067929239438661637 -0.29744245220773302 0 -0.075988861669628593 -0.29203098004520328 0 -0.075162920182542767 -0.28731555611229459 0 -0.067929239438661637 -0.29744245220773302 0 -0.074800211398343183 -0.29676828128919502 0 -0.075988861669628593 -0.29203098004520328 0 -0.067929239438661637 -0.29744245220773302 0 -0.063481929201992804 -0.28659419931659808 0 -0.057157199652218327 -0.29433345841048941 0 -0.1004001483689636 -0.29246989923861699 0 -0.079212385277153408 -0.27922407156230239 0 -0.10013860532164209 -0.29834661679915908 0 -0.080022347365398816 -0.29529908350135742 0 -0.075162920182542767 -0.28731555611229459 0 -0.080022347365398816 -0.29529908350135742 0 -0.079212385277153408 -0.27922407156230239 0 -0.1004001483689636 -0.29246989923861699 0 -0.080022347365398816 -0.29529908350135742 0 -0.079212385277153408 -0.27922407156230239 0 -0.1004001483689636 -0.29246989923861699 0 -0.10013860532164209 -0.29834661679915908 0 -0.080022347365398816 -0.29529908350135742 0 -0.080022347365398816 -0.29529908350135742 0 -0.079212385277153408 -0.27922407156230239 0 -0.1004001483689636 -0.29246989923861699 0 -0.089806853404465051 -0.2713401455271785 0 -0.079212385277153408 -0.27922407156230239 0 -0.089806853404465051 -0.2713401455271785 0 -0.084998741484643592 -0.26205999054747281 0 -0.092490388530258719 -0.26367462890309928 0 -0.089806853404465051 -0.2713401455271785 0 -0.078429256909339093 -0.26368161834739218 0 -0.084998741484643592 -0.26205999054747281 0 -0.079212385277153408 -0.27922407156230239 0 -0.078429256909339093 -0.26368161834739218 0 -0.089806853404465051 -0.2713401455271785 0 -0.079212385277153408 -0.27922407156230239 0 -0.078429256909339093 -0.26368161834739218 0 -0.075162920182542767 -0.28731555611229459 0 -0.079212385277153408 -0.27922407156230239 0 -0.072363625353247057 -0.27494247310589431 0 -0.072363625353247057 -0.27494247310589431 0 -0.052651973256824323 -0.26261945695013877 0 -0.072363625353247057 -0.27494247310589431 0 -0.065594040539757301 -0.27326720108960889 0 -0.052651973256824323 -0.26261945695013877 0 -0.079212385277153408 -0.27922407156230239 0 -0.072363625353247057 -0.27494247310589431 0 -0.072363625353247057 -0.27494247310589431 0 -0.065594040539757301 -0.27326720108960889 0 -0.061663959528748452 -0.27997783588547598 0 -0.063481929201992804 -0.28659419931659808 0 -0.072363625353247057 -0.27494247310589431 0 -0.061663959528748452 -0.27997783588547598 0 -0.079212385277153408 -0.27922407156230239 0 -0.072363625353247057 -0.27494247310589431 0 -0.078429256909339093 -0.26368161834739218 0 -0.072363625353247057 -0.27494247310589431 0 -0.077646128541525 -0.24813916513248199 0 -0.072363625353247057 -0.27494247310589431 0 -0.078429256909339093 -0.26368161834739218 0 -0.077646128541525 -0.24813916513248199 0 -0.072363625353247057 -0.27494247310589431 0 -0.052651973256824323 -0.26261945695013877 0 -0.077646128541525 -0.24813916513248199 0 -0.078429256909339093 -0.26368161834739218 0 -0.077646128541525 -0.24813916513248199 0 -0.084998741484643592 -0.26205999054747281 0 -0.088104632666654803 -0.24175912157342011 0 -0.084998741484643592 -0.26205999054747281 0 -0.093680051977193257 -0.25300014610948141 0 -0.088104632666654803 -0.24175912157342011 0 -0.084998741484643592 -0.26205999054747281 0 -0.088104632666654803 -0.24175912157342011 0 -0.077646128541525 -0.24813916513248199 0 -0.078429256909339093 -0.26368161834739218 0 -0.084998741484643592 -0.26205999054747281 0 -0.077646128541525 -0.24813916513248199 0 -0.084998741484643592 -0.26205999054747281 0 -0.092490388530258719 -0.26367462890309928 0 -0.093680051977193257 -0.25300014610948141 0 -0.032940321160402269 -0.25029644079438251 0 -0.052651973256824323 -0.26261945695013877 0 -0.050902643065861071 -0.24349095896983161 0 -0.032940321160402269 -0.25029644079438251 0 -0.052651973256824323 -0.26261945695013877 0 -0.030801127425925001 -0.25680016795848581 0 -0.032940321160402269 -0.25029644079438251 0 -0.052651973256824323 -0.26261945695013877 0 -0.052651973256824323 -0.26261945695013877 0 -0.048838748996681343 -0.27669498093657302 0 -0.030801127425925001 -0.25680016795848581 0 -0.032940321160402269 -0.25029644079438251 0 -0.030801127425925001 -0.25680016795848581 0 -0.052651973256824323 -0.26261945695013877 0 -0.050902643065861071 -0.24349095896983161 0 -0.077646128541525 -0.24813916513248199 0 -0.065594040539757301 -0.27326720108960889 0 -0.048838748996681343 -0.27669498093657302 0 -0.065594040539757301 -0.27326720108960889 0 -0.052651973256824323 -0.26261945695013877 0 -0.048838748996681343 -0.27669498093657302 0 -0.065594040539757301 -0.27326720108960889 0 -0.061663959528748452 -0.27997783588547598 0 -0.048838748996681343 -0.27669498093657302 0 -0.061663959528748452 -0.27997783588547598 0 -0.048838748996681343 -0.27669498093657302 0 -0.054451087829631463 -0.28288517796522222 0 -0.048838748996681343 -0.27669498093657302 0 -0.054451087829631463 -0.28288517796522222 0 -0.048838748996681343 -0.27669498093657302 0 -0.030801127425925001 -0.25680016795848581 0 -0.048838748996681343 -0.27669498093657302 0 -0.02248395618448398 -0.28208661661419232 0 -0.030801127425925001 -0.25680016795848581 0 -0.048838748996681343 -0.27669498093657302 0 -0.02248395618448398 -0.28208661661419232 0 -0.048838748996681343 -0.27669498093657302 0 -0.041077846387481028 -0.28937070966441081 0 -0.02248395618448398 -0.28208661661419232 0 -0.041077846387481028 -0.28937070966441081 0 -0.037109865356421391 -0.29952186761000271 0 -0.029468436869721851 -0.29252598106650862 0 -0.041077846387481028 -0.28937070966441081 0 -0.04975385330497957 -0.2890306135367654 0 -0.047244383658885593 -0.30186874070713182 0 -0.048838748996681343 -0.27669498093657302 0 -0.041077846387481028 -0.28937070966441081 0 -0.04975385330497957 -0.2890306135367654 0 -0.048838748996681343 -0.27669498093657302 0 -0.04975385330497957 -0.2890306135367654 0 -0.054451087829631463 -0.28288517796522222 0 -0.04975385330497957 -0.2890306135367654 0 -0.054451087829631463 -0.28288517796522222 0 -0.057157199652218327 -0.29433345841048941 0 -0.063481929201992804 -0.28659419931659808 0 -0.054451087829631463 -0.28288517796522222 0 -0.057157199652218327 -0.29433345841048941 0 -0.063481929201992804 -0.28659419931659808 0 -0.061663959528748452 -0.27997783588547598 0 -0.054451087829631463 -0.28288517796522222 0 -0.04975385330497957 -0.2890306135367654 0 -0.057157199652218327 -0.29433345841048941 0 -0.047244383658885593 -0.30186874070713182 0 -0.057157199652218327 -0.29433345841048941 0 -0.047244383658885593 -0.30186874070713182 0 -0.05709164511789562 -0.30596989755068921 0 -0.067929239438661637 -0.29744245220773302 0 -0.057157199652218327 -0.29433345841048941 0 -0.05709164511789562 -0.30596989755068921 0 -0.047244383658885593 -0.30186874070713182 0 -0.05709164511789562 -0.30596989755068921 0 -0.049632549315637188 -0.31626240511852 0 -0.047244383658885593 -0.30186874070713182 0 -0.049632549315637188 -0.31626240511852 0 -0.036505516356473318 -0.31400569198040618 0 -0.047244383658885593 -0.30186874070713182 0 -0.037109865356421391 -0.29952186761000271 0 -0.036505516356473318 -0.31400569198040618 0 -0.041077846387481028 -0.28937070966441081 0 -0.047244383658885593 -0.30186874070713182 0 -0.037109865356421391 -0.29952186761000271 0 -0.037109865356421391 -0.29952186761000271 0 -0.02678144107749017 -0.30078470409936309 0 -0.036505516356473318 -0.31400569198040618 0 -0.02678144107749017 -0.30078470409936309 0 -0.021312585502779081 -0.32213078764647213 0 -0.02678144107749017 -0.30078470409936309 0 -0.036505516356473318 -0.31400569198040618 0 -0.021312585502779081 -0.32213078764647213 0 -0.02678144107749017 -0.30078470409936309 0 -0.01630762940426286 -0.3038502133106713 0 -0.021312585502779081 -0.32213078764647213 0 -0.037109865356421391 -0.29952186761000271 0 -0.02678144107749017 -0.30078470409936309 0 -0.029468436869721851 -0.29252598106650862 0 -0.02678144107749017 -0.30078470409936309 0 -0.01630762940426286 -0.3038502133106713 0 -0.01957434403417008 -0.29093262400193609 0 -0.0063780240591087903 -0.31078717533589839 0 -0.0074917523477661804 -0.29461577546968681 0 0.013051880611257029 -0.30817184754300292 0 -0.01630762940426286 -0.3038502133106713 0 -0.0063780240591087903 -0.31078717533589839 0 -0.021312585502779081 -0.32213078764647213 0 -0.01630762940426286 -0.3038502133106713 0 -0.0063780240591087903 -0.31078717533589839 0 -0.0074917523477661804 -0.29461577546968681 0 -0.02248395618448398 -0.28208661661419232 0 0.0027723556212477219 -0.28725352620772771 0 -0.01075429771457371 -0.28163518560512563 0 -0.02248395618448398 -0.28208661661419232 0 0.0027723556212477219 -0.28725352620772771 0 -0.0074917523477661804 -0.29461577546968681 0 -0.02248395618448398 -0.28208661661419232 0 0.0027723556212477219 -0.28725352620772771 0 -0.01630762940426286 -0.3038502133106713 0 -0.0074917523477661804 -0.29461577546968681 0 -0.01957434403417008 -0.29093262400193609 0 -0.01075429771457371 -0.28163518560512563 0 -0.0017476628817073611 -0.27805551369469472 0 0.0027723556212477219 -0.28725352620772771 0 -0.041077846387481028 -0.28937070966441081 0 -0.02248395618448398 -0.28208661661419232 0 -0.029468436869721851 -0.29252598106650862 0 -0.02248395618448398 -0.28208661661419232 0 -0.01957434403417008 -0.29093262400193609 0 -0.0074917523477661804 -0.29461577546968681 0 -0.02248395618448398 -0.28208661661419232 0 -0.01957434403417008 -0.29093262400193609 0 -0.02678144107749017 -0.30078470409936309 0 -0.01957434403417008 -0.29093262400193609 0 -0.029468436869721851 -0.29252598106650862 0 -0.02248395618448398 -0.28208661661419232 0 -0.01957434403417008 -0.29093262400193609 0 -0.029468436869721851 -0.29252598106650862 0 -0.02248395618448398 -0.28208661661419232 0 -0.030801127425925001 -0.25680016795848581 0 -0.02248395618448398 -0.28208661661419232 0 -0.01520552987642871 -0.27187005660595642 0 -0.030801127425925001 -0.25680016795848581 0 -0.01075429771457371 -0.28163518560512563 0 -0.02248395618448398 -0.28208661661419232 0 -0.01520552987642871 -0.27187005660595642 0 -0.0017476628817073611 -0.27805551369469472 0 -0.01024060517545407 -0.26077279915728391 0 0.0057386521092319797 -0.26220041049146298 0 -0.0017476628817073611 -0.27805551369469472 0 -0.01520552987642871 -0.27187005660595642 0 -0.01024060517545407 -0.26077279915728391 0 -0.0017476628817073611 -0.27805551369469472 0 -0.01024060517545407 -0.26077279915728391 0 -0.01075429771457371 -0.28163518560512563 0 -0.0017476628817073611 -0.27805551369469472 0 -0.01520552987642871 -0.27187005660595642 0 -0.01075429771457371 -0.28163518560512563 0 -0.0017476628817073611 -0.27805551369469472 0 -0.01024060517545407 -0.26077279915728391 0 0.0057386521092319797 -0.26220041049146298 0 0.0025328853753160741 -0.24958102673793139 0 -0.01024060517545407 -0.26077279915728391 0 -0.018733547469201091 -0.24349008461987329 0 -0.01024060517545407 -0.26077279915728391 0 -0.018733547469201091 -0.24349008461987329 0 0.0025328853753160741 -0.24958102673793139 0 -0.01024060517545407 -0.26077279915728391 0 -0.030801127425925001 -0.25680016795848581 0 -0.018733547469201091 -0.24349008461987329 0 -0.01520552987642871 -0.27187005660595642 0 -0.01024060517545407 -0.26077279915728391 0 -0.030801127425925001 -0.25680016795848581 0 -0.032940321160402269 -0.25029644079438251 0 -0.030801127425925001 -0.25680016795848581 0 -0.026871719323301121 -0.24650256912316601 0 -0.030801127425925001 -0.25680016795848581 0 -0.018733547469201091 -0.24349008461987329 0 -0.034078071302702163 -0.36149906291939787 0 -0.05778126825204781 -0.35817517109810632 0 -0.044598414929564491 -0.33459332569111688 0 -0.034078071302702163 -0.36149906291939787 0 -0.044598414929564491 -0.33459332569111688 0 -0.02963630761074966 -0.34409655343526241 0 -0.034078071302702163 -0.36149906291939787 0 -0.05778126825204781 -0.35817517109810632 0 -0.034078071302702163 -0.36149906291939787 0 -0.031733352269984409 -0.37630872523495079 0 -0.04671422923235316 -0.37926911911211442 0 -0.034078071302702163 -0.36149906291939787 0 -0.05778126825204781 -0.35817517109810632 0 -0.04671422923235316 -0.37926911911211442 0 -0.066117606829746781 -0.37437488941039382 0 -0.05778126825204781 -0.35817517109810632 0 -0.04671422923235316 -0.37926911911211442 0 -0.062587044379988993 -0.33886333000968721 0 -0.05778126825204781 -0.35817517109810632 0 -0.044598414929564491 -0.33459332569111688 0 -0.06349485352407537 -0.31994243130957151 0 -0.062587044379988993 -0.33886333000968721 0 -0.044598414929564491 -0.33459332569111688 0 -0.06349485352407537 -0.31994243130957151 0 -0.049632549315637188 -0.31626240511852 0 -0.044598414929564491 -0.33459332569111688 0 -0.06349485352407537 -0.31994243130957151 0 -0.05709164511789562 -0.30596989755068921 0 -0.049632549315637188 -0.31626240511852 0 -0.049632549315637188 -0.31626240511852 0 -0.036505516356473318 -0.31400569198040618 0 -0.044598414929564491 -0.33459332569111688 0 -0.036505516356473318 -0.31400569198040618 0 -0.044598414929564491 -0.33459332569111688 0 -0.021312585502779081 -0.32213078764647213 0 -0.044598414929564491 -0.33459332569111688 0 -0.021312585502779081 -0.32213078764647213 0 -0.02963630761074966 -0.34409655343526241 0 -0.015843729928067991 -0.34347687119358122 0 -0.021312585502779081 -0.32213078764647213 0 -0.02963630761074966 -0.34409655343526241 0 -0.015843729928067991 -0.34347687119358122 0 -0.021312585502779081 -0.32213078764647213 0 -0.0063780240591087903 -0.31078717533589839 0 -0.021312585502779081 -0.32213078764647213 0 3.5896068887442723e-05 -0.32803491845883598 0 -0.015843729928067991 -0.34347687119358122 0 -0.00014080085946228561 -0.35082738964002957 0 3.5896068887442723e-05 -0.32803491845883598 0 -0.015843729928067991 -0.34347687119358122 0 -0.021312585502779081 -0.32213078764647213 0 3.5896068887442723e-05 -0.32803491845883598 0 -0.015843729928067991 -0.34347687119358122 0 -0.00014080085946228561 -0.35082738964002957 0 -0.01037487435335663 -0.3648229547406901 0 -0.015843729928067991 -0.34347687119358122 0 -0.01037487435335663 -0.3648229547406901 0 -0.015843729928067991 -0.34347687119358122 0 -0.02275820373048933 -0.35362182208710219 0 -0.02963630761074966 -0.34409655343526241 0 -0.015843729928067991 -0.34347687119358122 0 -0.02275820373048933 -0.35362182208710219 0 -0.01037487435335663 -0.3648229547406901 0 -0.034078071302702163 -0.36149906291939787 0 -0.02275820373048933 -0.35362182208710219 0 -0.02963630761074966 -0.34409655343526241 0 -0.034078071302702163 -0.36149906291939787 0 -0.02215424893162643 -0.37111505202744122 0 -0.01037487435335663 -0.3648229547406901 0 -0.034078071302702163 -0.36149906291939787 0 -0.01037487435335663 -0.3648229547406901 0 -0.034078071302702163 -0.36149906291939787 0 -0.02275820373048933 -0.35362182208710219 0 -0.01037487435335663 -0.3648229547406901 0 -0.034078071302702163 -0.36149906291939787 0 -0.02215424893162643 -0.37111505202744122 0 -0.031733352269984409 -0.37630872523495079 0 -0.02215424893162643 -0.37111505202744122 0 -0.016772253886492949 -0.37410089839641808 0 -0.01404568160319189 -0.3712617873641948 0 -0.01404568160319189 -0.3712617873641948 0 -0.0094265442937821464 -0.37378457166277412 0 -0.01319259440905524 -0.37623554315916408 0 -0.0078283346885702904 -0.37476262999778609 0 -0.0094265442937821464 -0.37378457166277412 0 -0.01037487435335663 -0.3648229547406901 0 -0.02215424893162643 -0.37111505202744122 0 -0.01404568160319189 -0.3712617873641948 0 -0.01037487435335663 -0.3648229547406901 0 -0.01037487435335663 -0.3648229547406901 0 0.0058490520874761691 -0.36709803082098191 0 -0.016772253886492949 -0.37410089839641808 0 -0.01404568160319189 -0.3712617873641948 0 -0.01319259440905524 -0.37623554315916408 0 -0.00014080085946228561 -0.35082738964002957 0 -0.01037487435335663 -0.3648229547406901 0 0.0058490520874761691 -0.36709803082098191 0 -0.0078283346885702904 -0.37476262999778609 0 -0.01037487435335663 -0.3648229547406901 0 0.0058490520874761691 -0.36709803082098191 0 -0.0078283346885702904 -0.37476262999778609 0 -0.01037487435335663 -0.3648229547406901 0 -0.01404568160319189 -0.3712617873641948 0 -0.0094265442937821464 -0.37378457166277412 0 -0.01037487435335663 -0.3648229547406901 0 -0.0078283346885702904 -0.37476262999778609 0 -0.0094265442937821464 -0.37378457166277412 0 -0.0078283346885702904 -0.37476262999778609 0 -0.0023576536845698339 -0.39611583857600319 0 -0.0078283346885702904 -0.37476262999778609 0 -0.011142097151610131 -0.38172381805447092 0 -0.0023576536845698339 -0.39611583857600319 0 -0.011142097151610131 -0.38172381805447092 0 -0.0023576536845698339 -0.39611583857600319 0 -0.01587325479487519 -0.38723674351337972 0 -0.011142097151610131 -0.38172381805447092 0 -0.01610234460482865 -0.37998891207167063 0 -0.01587325479487519 -0.38723674351337972 0 -0.01319259440905524 -0.37623554315916408 0 -0.011142097151610131 -0.38172381805447092 0 -0.01610234460482865 -0.37998891207167063 0 -0.016772253886492949 -0.37410089839641808 0 -0.01319259440905524 -0.37623554315916408 0 -0.01610234460482865 -0.37998891207167063 0 -0.01319259440905524 -0.37623554315916408 0 -0.010397392635754449 -0.37662664071854879 0 -0.011142097151610131 -0.38172381805447092 0 -0.0078283346885702904 -0.37476262999778609 0 -0.010397392635754449 -0.37662664071854879 0 -0.011142097151610131 -0.38172381805447092 0 -0.0094265442937821464 -0.37378457166277412 0 -0.01319259440905524 -0.37623554315916408 0 -0.010397392635754449 -0.37662664071854879 0 -0.0078283346885702904 -0.37476262999778609 0 -0.0094265442937821464 -0.37378457166277412 0 -0.010397392635754449 -0.37662664071854879 0 -0.0023576536845698339 -0.39611583857600319 0 -0.016854849126784088 -0.39742738565483049 0 -0.01587325479487519 -0.38723674351337972 0 -0.0023576536845698339 -0.39611583857600319 0 -0.016854849126784088 -0.39742738565483049 0 -0.0081630895937607941 -0.41129335178386173 0 -0.016854849126784088 -0.39742738565483049 0 -0.023392714889338931 -0.39064901327928331 0 -0.029305467632274609 -0.40049385546170407 0 -0.016854849126784088 -0.39742738565483049 0 -0.023392714889338931 -0.39064901327928331 0 -0.01587325479487519 -0.38723674351337972 0 -0.023392714889338931 -0.39064901327928331 0 -0.029305467632274609 -0.40049385546170407 0 -0.032188689101130562 -0.38901283488088068 0 -0.02215424893162643 -0.37111505202744122 0 -0.016772253886492949 -0.37410089839641808 0 -0.02353152278210973 -0.38064755723492022 0 -0.016772253886492949 -0.37410089839641808 0 -0.01610234460482865 -0.37998891207167063 0 -0.02353152278210973 -0.38064755723492022 0 -0.01610234460482865 -0.37998891207167063 0 -0.01587325479487519 -0.38723674351337972 0 -0.02353152278210973 -0.38064755723492022 0 -0.023392714889338931 -0.39064901327928331 0 -0.01587325479487519 -0.38723674351337972 0 -0.02353152278210973 -0.38064755723492022 0 -0.023392714889338931 -0.39064901327928331 0 -0.02353152278210973 -0.38064755723492022 0 -0.032188689101130562 -0.38901283488088068 0 -0.02353152278210973 -0.38064755723492022 0 -0.031733352269984409 -0.37630872523495079 0 -0.032188689101130562 -0.38901283488088068 0 -0.02215424893162643 -0.37111505202744122 0 -0.02353152278210973 -0.38064755723492022 0 -0.031733352269984409 -0.37630872523495079 0 -0.031733352269984409 -0.37630872523495079 0 -0.04671422923235316 -0.37926911911211442 0 -0.032188689101130562 -0.38901283488088068 0 -0.04671422923235316 -0.37926911911211442 0 -0.032188689101130562 -0.38901283488088068 0 -0.044289202763444772 -0.39135289085216762 0 -0.032188689101130562 -0.38901283488088068 0 -0.041257957344308177 -0.40487627914437913 0 -0.044289202763444772 -0.39135289085216762 0 -0.029305467632274609 -0.40049385546170407 0 -0.032188689101130562 -0.38901283488088068 0 -0.041257957344308177 -0.40487627914437913 0 -0.056230819367541693 -0.39440183914975269 0 -0.051493530029743613 -0.41277891791385168 0 -0.065747409502729032 -0.40953455918739179 0 -0.041257957344308177 -0.40487627914437913 0 -0.056230819367541693 -0.39440183914975269 0 -0.051493530029743613 -0.41277891791385168 0 -0.041257957344308177 -0.40487627914437913 0 -0.044289202763444772 -0.39135289085216762 0 -0.056230819367541693 -0.39440183914975269 0 -0.056230819367541693 -0.39440183914975269 0 -0.065747409502729032 -0.40953455918739179 0 -0.066117606829746781 -0.37437488941039382 0 -0.04671422923235316 -0.37926911911211442 0 -0.056230819367541693 -0.39440183914975269 0 -0.04671422923235316 -0.37926911911211442 0 -0.044289202763444772 -0.39135289085216762 0 -0.056230819367541693 -0.39440183914975269 0 -0.04671422923235316 -0.37926911911211442 0 -0.056230819367541693 -0.39440183914975269 0 -0.057674512383022389 -0.42734400629007657 0 -0.049601615263317987 -0.44515345339276252 0 -0.057674512383022389 -0.42734400629007657 0 -0.051493530029743613 -0.41277891791385168 0 -0.065747409502729032 -0.40953455918739179 0 -0.057674512383022389 -0.42734400629007657 0 -0.065747409502729032 -0.40953455918739179 0 -0.057674512383022389 -0.42734400629007657 0 -0.051493530029743613 -0.41277891791385168 0 -0.03322823219505102 -0.42129041952379648 0 -0.029305467632274609 -0.40049385546170407 0 -0.041257957344308177 -0.40487627914437913 0 -0.03322823219505102 -0.42129041952379648 0 -0.041257957344308177 -0.40487627914437913 0 -0.051493530029743613 -0.41277891791385168 0 -0.03322823219505102 -0.42129041952379648 0 -0.03322823219505102 -0.42129041952379648 0 -0.02439234541253921 -0.43490569650885758 0 -0.049601615263317987 -0.44515345339276252 0 -0.03322823219505102 -0.42129041952379648 0 -0.049601615263317987 -0.44515345339276252 0 -0.057674512383022389 -0.42734400629007657 0 -0.03322823219505102 -0.42129041952379648 0 -0.049601615263317987 -0.44515345339276252 0 -0.03322823219505102 -0.42129041952379648 0 -0.02439234541253921 -0.43490569650885758 0 -0.010818991714530671 -0.42579448288144173 0 -0.016854849126784088 -0.39742738565483049 0 -0.03322823219505102 -0.42129041952379648 0 -0.03322823219505102 -0.42129041952379648 0 -0.0081630895937607941 -0.41129335178386173 0 -0.010818991714530671 -0.42579448288144173 0 -0.016854849126784088 -0.39742738565483049 0 -0.029305467632274609 -0.40049385546170407 0 -0.03322823219505102 -0.42129041952379648 0 -0.016854849126784088 -0.39742738565483049 0 -0.03322823219505102 -0.42129041952379648 0 -0.0081630895937607941 -0.41129335178386173 0 -0.0081630895937607941 -0.41129335178386173 0 -0.010818991714530671 -0.42579448288144173 0 0.0026957591361241309 -0.41958824334712869 0 -0.02439234541253921 -0.43490569650885758 0 -0.010818991714530671 -0.42579448288144173 0 -0.01027783979290609 -0.4450418277695869 0 -0.010818991714530671 -0.42579448288144173 0 -0.01027783979290609 -0.4450418277695869 0 0.003851027954898749 -0.43172418954792041 0 -0.010818991714530671 -0.42579448288144173 0 0.0026957591361241309 -0.41958824334712869 0 0.003851027954898749 -0.43172418954792041 0 -0.01027783979290609 -0.4450418277695869 0 -0.011038280792740629 -0.46258843223684681 0 0.0031349746952128348 -0.45732154608844711 0 -0.01027783979290609 -0.4450418277695869 0 -0.011038280792740629 -0.46258843223684681 0 -0.02289260566061898 -0.45897742689034388 0 -0.011038280792740629 -0.46258843223684681 0 -0.00094907817261298132 -0.47112804672216879 0 0.0031349746952128348 -0.45732154608844711 0 -0.02289260566061898 -0.45897742689034388 0 -0.029356635895327849 -0.44930438287917762 0 -0.040413005672661102 -0.46542425011239508 0 -0.02289260566061898 -0.45897742689034388 0 -0.023377266149459251 -0.47252824145371342 0 -0.040413005672661102 -0.46542425011239508 0 -0.011038280792740629 -0.46258843223684681 0 -0.02289260566061898 -0.45897742689034388 0 -0.023377266149459251 -0.47252824145371342 0 -0.02439234541253921 -0.43490569650885758 0 -0.01027783979290609 -0.4450418277695869 0 -0.029356635895327849 -0.44930438287917762 0 -0.01027783979290609 -0.4450418277695869 0 -0.02289260566061898 -0.45897742689034388 0 -0.029356635895327849 -0.44930438287917762 0 -0.0023310323066341181 -0.5 0 -0.0043793089323552817 -0.49170101865338262 0 -0.02815109917196898 -0.49861636840837392 0 -0.0043793089323552817 -0.49170101865338262 0 -0.0043176495648967151 -0.48070428616945038 0 0.0053352152350804568 -0.4807791696356124 0 -0.0043793089323552817 -0.49170101865338262 0 -0.0106231170010091 -0.48419136288379427 0 -0.0043176495648967151 -0.48070428616945038 0 -0.0043793089323552817 -0.49170101865338262 0 -0.0106231170010091 -0.48419136288379427 0 -0.017950876149337221 -0.4893641285520216 0 -0.0106231170010091 -0.48419136288379427 0 -0.01097195895358667 -0.47572183295229409 0 -0.019957514846631629 -0.48311391022826639 0 -0.0106231170010091 -0.48419136288379427 0 -0.0043176495648967151 -0.48070428616945038 0 -0.01097195895358667 -0.47572183295229409 0 -0.011038280792740629 -0.46258843223684681 0 -0.00094907817261298132 -0.47112804672216879 0 -0.01097195895358667 -0.47572183295229409 0 -0.0043176495648967151 -0.48070428616945038 0 -0.00094907817261298132 -0.47112804672216879 0 -0.01097195895358667 -0.47572183295229409 0 -0.011038280792740629 -0.46258843223684681 0 -0.01097195895358667 -0.47572183295229409 0 -0.023377266149459251 -0.47252824145371342 0 -0.023377266149459251 -0.47252824145371342 0 -0.019957514846631629 -0.48311391022826639 0 -0.031224396082004221 -0.48569504683202769 0 -0.01097195895358667 -0.47572183295229409 0 -0.023377266149459251 -0.47252824145371342 0 -0.019957514846631629 -0.48311391022826639 0 -0.0023310323066341181 -0.5 0 -0.02815109917196898 -0.49861636840837392 0 -0.031360818006208928 -0.5 0 -0.0043793089323552817 -0.49170101865338262 0 -0.017950876149337221 -0.4893641285520216 0 -0.02815109917196898 -0.49861636840837392 0 -0.0043793089323552817 -0.49170101865338262 0 -0.02815109917196898 -0.49861636840837392 0 -0.0106231170010091 -0.48419136288379427 0 -0.019957514846631629 -0.48311391022826639 0 -0.017950876149337221 -0.4893641285520216 0 -0.019957514846631629 -0.48311391022826639 0 -0.017950876149337221 -0.4893641285520216 0 -0.025597474744393309 -0.49118284869574791 0 -0.019957514846631629 -0.48311391022826639 0 -0.031224396082004221 -0.48569504683202769 0 -0.025597474744393309 -0.49118284869574791 0 -0.025597474744393309 -0.49118284869574791 0 -0.02815109917196898 -0.49861636840837392 0 -0.031360818006208928 -0.5 0 -0.031224396082004221 -0.48569504683202769 0 -0.025597474744393309 -0.49118284869574791 0 -0.031360818006208928 -0.5 0 -0.017950876149337221 -0.4893641285520216 0 -0.025597474744393309 -0.49118284869574791 0 -0.02815109917196898 -0.49861636840837392 0 -0.031360818006208928 -0.5 0 -0.048343055904351132 -0.4819359294639956 0 -0.060390603705783863 -0.5 0 -0.031224396082004221 -0.48569504683202769 0 -0.031360818006208928 -0.5 0 -0.048343055904351132 -0.4819359294639956 0 -0.031224396082004221 -0.48569504683202769 0 -0.040413005672661102 -0.46542425011239508 0 -0.031224396082004221 -0.48569504683202769 0 -0.048343055904351132 -0.4819359294639956 0 -0.040413005672661102 -0.46542425011239508 0 -0.023377266149459251 -0.47252824145371342 0 -0.031224396082004221 -0.48569504683202769 0 -0.040413005672661102 -0.46542425011239508 0 -0.048343055904351132 -0.4819359294639956 0 -0.040413005672661102 -0.46542425011239508 0 -0.061868527913120197 -0.46303160055449383 0 -0.048343055904351132 -0.4819359294639956 0 -0.061868527913120197 -0.46303160055449383 0 -0.067715258758524743 -0.48343239441089819 0 -0.048343055904351132 -0.4819359294639956 0 -0.060390603705783863 -0.5 0 -0.067715258758524743 -0.48343239441089819 0 -0.02439234541253921 -0.43490569650885758 0 -0.029356635895327849 -0.44930438287917762 0 -0.049601615263317987 -0.44515345339276252 0 -0.029356635895327849 -0.44930438287917762 0 -0.040413005672661102 -0.46542425011239508 0 -0.049601615263317987 -0.44515345339276252 0 -0.040413005672661102 -0.46542425011239508 0 -0.049601615263317987 -0.44515345339276252 0 -0.040413005672661102 -0.46542425011239508 0 -0.061868527913120197 -0.46303160055449383 0 -0.049601615263317987 -0.44515345339276252 0 -0.061868527913120197 -0.46303160055449383 0 -0.049601615263317987 -0.44515345339276252 0 -0.057674512383022389 -0.42734400629007657 0 -0.049601615263317987 -0.44515345339276252 0 -0.067687044322660692 -0.44438888407200389 0 -0.061868527913120197 -0.46303160055449383 0 -0.049601615263317987 -0.44515345339276252 0 -0.067687044322660692 -0.44438888407200389 0 -0.067687044322660692 -0.44438888407200389 0 -0.087522951364224152 -0.44416074083195012 0 -0.076635180433477057 -0.42684765000967062 0 -0.067687044322660692 -0.44438888407200389 0 -0.078553716864009776 -0.47219444203600192 0 -0.067687044322660692 -0.44438888407200389 0 -0.080483752515153384 -0.45444307226959779 0 -0.078553716864009776 -0.47219444203600192 0 -0.061868527913120197 -0.46303160055449383 0 -0.067687044322660692 -0.44438888407200389 0 -0.078553716864009776 -0.47219444203600192 0 -0.088171297509719124 -0.45702822213843508 0 -0.078553716864009776 -0.47219444203600192 0 -0.094850460920166413 -0.46755552228499719 0 -0.080483752515153384 -0.45444307226959779 0 -0.088171297509719124 -0.45702822213843508 0 -0.078553716864009776 -0.47219444203600192 0 -0.088171297509719124 -0.45702822213843508 0 -0.092026296169145899 -0.451321693988255 0 -0.09646742034415963 -0.45806785732742278 0 -0.088171297509719124 -0.45702822213843508 0 -0.09646742034415963 -0.45806785732742278 0 -0.094850460920166413 -0.46755552228499719 0 -0.067687044322660692 -0.44438888407200389 0 -0.080483752515153384 -0.45444307226959779 0 -0.087522951364224152 -0.44416074083195012 0 -0.088171297509719124 -0.45702822213843508 0 -0.087522951364224152 -0.44416074083195012 0 -0.088171297509719124 -0.45702822213843508 0 -0.092026296169145899 -0.451321693988255 0 -0.087522951364224152 -0.44416074083195012 0 -0.092026296169145899 -0.451321693988255 0 -0.087522951364224152 -0.44416074083195012 0 -0.080483752515153384 -0.45444307226959779 0 -0.088171297509719124 -0.45702822213843508 0 -0.087522951364224152 -0.44416074083195012 0 -0.060390603705783863 -0.5 0 -0.067715258758524743 -0.48343239441089819 0 -0.089420389405358791 -0.49999999999999978 0 -0.061868527913120197 -0.46303160055449383 0 -0.067715258758524743 -0.48343239441089819 0 -0.078553716864009776 -0.47219444203600192 0 -0.078553716864009776 -0.47219444203600192 0 -0.098208235557426499 -0.48290520710575457 0 -0.094850460920166413 -0.46755552228499719 0 -0.067715258758524743 -0.48343239441089819 0 -0.078553716864009776 -0.47219444203600192 0 -0.089420389405358791 -0.49999999999999978 0 -0.078553716864009776 -0.47219444203600192 0 -0.089420389405358791 -0.49999999999999978 0 -0.078553716864009776 -0.47219444203600192 0 -0.089420389405358791 -0.49999999999999978 0 -0.098208235557426499 -0.48290520710575457 0 -0.098208235557426499 -0.48290520710575457 0 -0.1125398430852395 -0.48112820013538338 0 -0.1148616459058424 -0.5 0 -0.089420389405358791 -0.49999999999999978 0 -0.098208235557426499 -0.48290520710575457 0 -0.1148616459058424 -0.5 0 -0.098208235557426499 -0.48290520710575457 0 -0.1051850434628086 -0.47275710198064308 0 -0.1125398430852395 -0.48112820013538338 0 -0.098208235557426499 -0.48290520710575457 0 -0.1051850434628086 -0.47275710198064308 0 -0.094850460920166413 -0.46755552228499719 0 -0.12704973474613379 -0.46277216333596533 0 -0.13010403334985379 -0.48000251283874379 0 -0.1157083509407465 -0.46985326695645979 0 -0.13010403334985379 -0.48000251283874379 0 -0.1157083509407465 -0.46985326695645979 0 -0.1125398430852395 -0.48112820013538338 0 -0.1051850434628086 -0.47275710198064308 0 -0.1157083509407465 -0.46985326695645979 0 -0.1125398430852395 -0.48112820013538338 0 -0.13010403334985379 -0.48000251283874379 0 -0.1125398430852395 -0.48112820013538338 0 -0.1148616459058424 -0.5 0 -0.10267072031130239 -0.4520905348048061 0 -0.102335674083258 -0.43919792399196639 0 -0.11570487117906469 -0.45324354028800051 0 -0.092026296169145899 -0.451321693988255 0 -0.087522951364224152 -0.44416074083195012 0 -0.102335674083258 -0.43919792399196639 0 -0.092026296169145899 -0.451321693988255 0 -0.10267072031130239 -0.4520905348048061 0 -0.102335674083258 -0.43919792399196639 0 -0.10267072031130239 -0.4520905348048061 0 -0.09646742034415963 -0.45806785732742278 0 -0.1046183268104643 -0.46234331342062063 0 -0.092026296169145899 -0.451321693988255 0 -0.10267072031130239 -0.4520905348048061 0 -0.09646742034415963 -0.45806785732742278 0 -0.1051850434628086 -0.47275710198064308 0 -0.094850460920166413 -0.46755552228499719 0 -0.1046183268104643 -0.46234331342062063 0 -0.09646742034415963 -0.45806785732742278 0 -0.094850460920166413 -0.46755552228499719 0 -0.1046183268104643 -0.46234331342062063 0 -0.1051850434628086 -0.47275710198064308 0 -0.1157083509407465 -0.46985326695645979 0 -0.1046183268104643 -0.46234331342062063 0 -0.10267072031130239 -0.4520905348048061 0 -0.1046183268104643 -0.46234331342062063 0 -0.11570487117906469 -0.45324354028800051 0 -0.12704973474613379 -0.46277216333596533 0 -0.1157083509407465 -0.46985326695645979 0 -0.11570487117906469 -0.45324354028800051 0 -0.1157083509407465 -0.46985326695645979 0 -0.1046183268104643 -0.46234331342062063 0 -0.11570487117906469 -0.45324354028800051 0 -0.13093011984253891 -0.44972195681556543 0 -0.12704973474613379 -0.46277216333596533 0 -0.11570487117906469 -0.45324354028800051 0 -0.13093011984253891 -0.44972195681556543 0 -0.11570487117906469 -0.45324354028800051 0 -0.123519809913229 -0.43733662075251151 0 -0.102335674083258 -0.43919792399196639 0 -0.11570487117906469 -0.45324354028800051 0 -0.123519809913229 -0.43733662075251151 0 -0.102335674083258 -0.43919792399196639 0 -0.123519809913229 -0.43733662075251151 0 -0.1073839645685936 -0.41867419567875119 0 -0.12597911368703019 -0.41952469120143437 0 -0.123519809913229 -0.43733662075251151 0 -0.1073839645685936 -0.41867419567875119 0 -0.102335674083258 -0.43919792399196639 0 -0.1073839645685936 -0.41867419567875119 0 -0.086273448473222103 -0.4193623284343494 0 -0.1073839645685936 -0.41867419567875119 0 -0.1004955064841186 -0.39983262220326049 0 -0.086273448473222103 -0.4193623284343494 0 -0.1073839645685936 -0.41867419567875119 0 -0.11827115974421661 -0.40327967795429231 0 -0.1004955064841186 -0.39983262220326049 0 -0.12597911368703019 -0.41952469120143437 0 -0.1073839645685936 -0.41867419567875119 0 -0.11827115974421661 -0.40327967795429231 0 -0.11827115974421661 -0.40327967795429231 0 -0.11220573075163159 -0.38220411347121069 0 -0.1004955064841186 -0.39983262220326049 0 -0.13724659116883831 -0.38156720383825199 0 -0.1192781490478088 -0.36668410834504778 0 -0.11220573075163159 -0.38220411347121069 0 -0.13724659116883831 -0.38156720383825199 0 -0.11827115974421661 -0.40327967795429231 0 -0.11220573075163159 -0.38220411347121069 0 -0.11220573075163159 -0.38220411347121069 0 -0.093814789784828018 -0.38091150164421111 0 -0.1004955064841186 -0.39983262220326049 0 -0.1016352808315869 -0.36700177770792092 0 -0.11220573075163159 -0.38220411347121069 0 -0.093814789784828018 -0.38091150164421111 0 -0.093814789784828018 -0.38091150164421111 0 -0.1004955064841186 -0.39983262220326049 0 -0.085023945582219762 -0.39456391603674879 0 -0.085023945582219762 -0.39456391603674879 0 -0.074760926096971728 -0.38965003141326948 0 -0.077688182017724178 -0.40799169701628579 0 -0.1004955064841186 -0.39983262220326049 0 -0.085023945582219762 -0.39456391603674879 0 -0.086273448473222103 -0.4193623284343494 0 -0.083774442691217046 -0.36976550363914829 0 -0.093814789784828018 -0.38091150164421111 0 -0.085023945582219762 -0.39456391603674879 0 -0.083774442691217046 -0.36976550363914829 0 -0.085023945582219762 -0.39456391603674879 0 -0.074760926096971728 -0.38965003141326948 0 -0.083774442691217046 -0.36976550363914829 0 -0.085023945582219762 -0.39456391603674879 0 -0.083774442691217046 -0.36976550363914829 0 -0.074760926096971728 -0.38965003141326948 0 -0.066117606829746781 -0.37437488941039382 0 -0.083774442691217046 -0.36976550363914829 0 -0.074760926096971728 -0.38965003141326948 0 -0.066117606829746781 -0.37437488941039382 0 -0.056230819367541693 -0.39440183914975269 0 -0.074760926096971728 -0.38965003141326948 0 -0.074760926096971728 -0.38965003141326948 0 -0.065747409502729032 -0.40953455918739179 0 -0.056230819367541693 -0.39440183914975269 0 -0.074760926096971728 -0.38965003141326948 0 -0.065747409502729032 -0.40953455918739179 0 -0.074760926096971728 -0.38965003141326948 0 -0.077688182017724178 -0.40799169701628579 0 -0.065747409502729032 -0.40953455918739179 0 -0.057674512383022389 -0.42734400629007657 0 -0.065747409502729032 -0.40953455918739179 0 -0.076635180433477057 -0.42684765000967062 0 -0.065747409502729032 -0.40953455918739179 0 -0.076635180433477057 -0.42684765000967062 0 -0.077688182017724178 -0.40799169701628579 0 -0.065747409502729032 -0.40953455918739179 0 -0.076635180433477057 -0.42684765000967062 0 -0.057674512383022389 -0.42734400629007657 0 -0.067687044322660692 -0.44438888407200389 0 -0.076635180433477057 -0.42684765000967062 0 -0.087522951364224152 -0.44416074083195012 0 -0.102335674083258 -0.43919792399196639 0 -0.086273448473222103 -0.4193623284343494 0 -0.087522951364224152 -0.44416074083195012 0 -0.076635180433477057 -0.42684765000967062 0 -0.087522951364224152 -0.44416074083195012 0 -0.086273448473222103 -0.4193623284343494 0 -0.087522951364224152 -0.44416074083195012 0 -0.076635180433477057 -0.42684765000967062 0 -0.086273448473222103 -0.4193623284343494 0 -0.077688182017724178 -0.40799169701628579 0 -0.076635180433477057 -0.42684765000967062 0 -0.086273448473222103 -0.4193623284343494 0 -0.085023945582219762 -0.39456391603674879 0 -0.086273448473222103 -0.4193623284343494 0 -0.085023945582219762 -0.39456391603674879 0 -0.077688182017724178 -0.40799169701628579 0 -0.086273448473222103 -0.4193623284343494 0 -0.088492877882569029 -0.082108210476901852 0 -0.076927128592812144 -0.088910799915979499 0 -0.09750588448509391 -0.094492999713411269 0 -0.088492877882569029 -0.082108210476901852 0 -0.079577064860946206 -0.073577453582062496 0 -0.076927128592812144 -0.088910799915979499 0 -0.079577064860946206 -0.073577453582062496 0 -0.0985919344824224 -0.072778756797164931 0 -0.087769009107716192 -0.046193724725750278 0 -0.088492877882569029 -0.082108210476901852 0 -0.079577064860946206 -0.073577453582062496 0 -0.0985919344824224 -0.072778756797164931 0 -0.079577064860946206 -0.073577453582062496 0 -0.068797467898171552 -0.064113028811232264 0 -0.064240921843242857 -0.078969573753286809 0 -0.068797467898171552 -0.064113028811232264 0 -0.064240921843242857 -0.078969573753286809 0 -0.05461803829180413 -0.069755112608578862 0 -0.064240921843242857 -0.078969573753286809 0 -0.065719917437320752 -0.085301382988547655 0 -0.071622236241637716 -0.082994103557465768 0 -0.079577064860946206 -0.073577453582062496 0 -0.064240921843242857 -0.078969573753286809 0 -0.071622236241637716 -0.082994103557465768 0 -0.079577064860946206 -0.073577453582062496 0 -0.071622236241637716 -0.082994103557465768 0 -0.076927128592812144 -0.088910799915979499 0 -0.076927128592812144 -0.088910799915979499 0 -0.070013937980536456 -0.090181036700446429 0 -0.073360588416105155 -0.101926594449817 0 -0.071622236241637716 -0.082994103557465768 0 -0.076927128592812144 -0.088910799915979499 0 -0.070013937980536456 -0.090181036700446429 0 -0.065719917437320752 -0.085301382988547655 0 -0.070013937980536456 -0.090181036700446429 0 -0.057002573683865979 -0.089060817942991616 0 -0.065719917437320752 -0.085301382988547655 0 -0.071622236241637716 -0.082994103557465768 0 -0.070013937980536456 -0.090181036700446429 0 -0.073360588416105155 -0.101926594449817 0 -0.064648045787775776 -0.1114736180136202 0 -0.083029262804162729 -0.11173362360677321 0 -0.076927128592812144 -0.088910799915979499 0 -0.073360588416105155 -0.101926594449817 0 -0.083029262804162729 -0.11173362360677321 0 -0.070013937980536456 -0.090181036700446429 0 -0.064167586873575405 -0.098824988458513688 0 -0.073360588416105155 -0.101926594449817 0 -0.064167586873575405 -0.098824988458513688 0 -0.073360588416105155 -0.101926594449817 0 -0.064648045787775776 -0.1114736180136202 0 -0.064648045787775776 -0.1114736180136202 0 -0.083029262804162729 -0.11173362360677321 0 -0.072915517223638954 -0.12670463451369329 0 -0.064648045787775776 -0.1114736180136202 0 -0.060928146748241367 -0.123537549367131 0 -0.072915517223638954 -0.12670463451369329 0 -0.083029262804162729 -0.11173362360677321 0 -0.089131397015513494 -0.13455644729756691 0 -0.072915517223638954 -0.12670463451369329 0 -0.083029262804162729 -0.11173362360677321 0 -0.089131397015513494 -0.13455644729756691 0 -0.083029262804162729 -0.11173362360677321 0 -0.099989791654964619 -0.11261170107408 0 -0.089131397015513494 -0.13455644729756691 0 -0.076927128592812144 -0.088910799915979499 0 -0.083029262804162729 -0.11173362360677321 0 -0.076927128592812144 -0.088910799915979499 0 -0.083029262804162729 -0.11173362360677321 0 -0.09750588448509391 -0.094492999713411269 0 -0.083029262804162729 -0.11173362360677321 0 -0.09750588448509391 -0.094492999713411269 0 -0.099989791654964619 -0.11261170107408 0 -0.09750588448509391 -0.094492999713411269 0 -0.099989791654964619 -0.11261170107408 0 -0.11605893441195141 -0.10185107539240761 0 -0.099989791654964619 -0.11261170107408 0 -0.11422347955810171 -0.1204243593602408 0 -0.089131397015513494 -0.13455644729756691 0 -0.11422347955810171 -0.1204243593602408 0 -0.11605893441195141 -0.10185107539240761 0 -0.13931556210068971 -0.10629227142291391 0 -0.099989791654964619 -0.11261170107408 0 -0.11422347955810171 -0.1204243593602408 0 -0.11605893441195141 -0.10185107539240761 0 -0.09750588448509391 -0.094492999713411269 0 -0.11605893441195141 -0.10185107539240761 0 -0.121811479392537 -0.084095963505499416 0 -0.09750588448509391 -0.094492999713411269 0 -0.121811479392537 -0.084095963505499416 0 -0.0985919344824224 -0.072778756797164931 0 -0.088492877882569029 -0.082108210476901852 0 -0.09750588448509391 -0.094492999713411269 0 -0.0985919344824224 -0.072778756797164931 0 -0.121811479392537 -0.084095963505499416 0 -0.0985919344824224 -0.072778756797164931 0 -0.12197003300458489 -0.067133964797042034 0 -0.0985919344824224 -0.072778756797164931 0 -0.12197003300458489 -0.067133964797042034 0 -0.11173313641422659 -0.051099137712197359 0 -0.12197003300458489 -0.067133964797042034 0 -0.11173313641422659 -0.051099137712197359 0 -0.13241258759658719 -0.044529255409706578 0 -0.11719553878173181 -0.037741673539740471 0 -0.12411398995058071 -0.026208981462584841 0 -0.13241258759658719 -0.044529255409706578 0 -0.11173313641422659 -0.051099137712197359 0 -0.11719553878173181 -0.037741673539740471 0 -0.13241258759658719 -0.044529255409706578 0 -0.11719553878173181 -0.037741673539740471 0 -0.1033935341420949 -0.036608907929656417 0 -0.1118019010511415 -0.027957019938586129 0 -0.11173313641422659 -0.051099137712197359 0 -0.11719553878173181 -0.037741673539740471 0 -0.1033935341420949 -0.036608907929656417 0 -0.11173313641422659 -0.051099137712197359 0 -0.1033935341420949 -0.036608907929656417 0 -0.087769009107716192 -0.046193724725750278 0 -0.1033935341420949 -0.036608907929656417 0 -0.091700817231413184 -0.028161456197506499 0 -0.087769009107716192 -0.046193724725750278 0 -0.0985919344824224 -0.072778756797164931 0 -0.11173313641422659 -0.051099137712197359 0 -0.087769009107716192 -0.046193724725750278 0 -0.1152652699767374 -0.0044733142422073097 0 -0.1278640484455188 -0.012334690821253821 0 -0.1273771369441013 0.0023450629401116992 0 -0.1152652699767374 -0.0044733142422073097 0 -0.11303603589243651 -0.016818202060669259 0 -0.1278640484455188 -0.012334690821253821 0 -0.1152652699767374 -0.0044733142422073097 0 -0.11303603589243651 -0.016818202060669259 0 -0.1012139958851531 -0.0082010901258140791 0 -0.11303603589243651 -0.016818202060669259 0 -0.12411398995058071 -0.026208981462584841 0 -0.1278640484455188 -0.012334690821253821 0 -0.11719553878173181 -0.037741673539740471 0 -0.12411398995058071 -0.026208981462584841 0 -0.1118019010511415 -0.027957019938586129 0 -0.11303603589243651 -0.016818202060669259 0 -0.12411398995058071 -0.026208981462584841 0 -0.1118019010511415 -0.027957019938586129 0 -0.1033935341420949 -0.036608907929656417 0 -0.1118019010511415 -0.027957019938586129 0 -0.10074487633177411 -0.021927112774035699 0 -0.1033935341420949 -0.036608907929656417 0 -0.10074487633177411 -0.021927112774035699 0 -0.091700817231413184 -0.028161456197506499 0 -0.10074487633177411 -0.021927112774035699 0 -0.089359217900845153 -0.01537750648633354 0 -0.091700817231413184 -0.028161456197506499 0 -0.11303603589243651 -0.016818202060669259 0 -0.10074487633177411 -0.021927112774035699 0 -0.1012139958851531 -0.0082010901258140791 0 -0.11303603589243651 -0.016818202060669259 0 -0.1118019010511415 -0.027957019938586129 0 -0.10074487633177411 -0.021927112774035699 0 -0.10074487633177411 -0.021927112774035699 0 -0.1012139958851531 -0.0082010901258140791 0 -0.089359217900845153 -0.01537750648633354 0 -0.1012139958851531 -0.0082010901258140791 0 -0.089124004628701792 -0.0040277377021705899 0 -0.097507665945787692 0.0040820149966005574 0 -0.1012139958851531 -0.0082010901258140791 0 -0.097507665945787692 0.0040820149966005574 0 -0.1058521268010089 0.00073384547527136773 0 -0.1152652699767374 -0.0044733142422073097 0 -0.1012139958851531 -0.0082010901258140791 0 -0.1058521268010089 0.00073384547527136773 0 -0.079764572027605563 -0.001208843295517239 0 -0.089124004628701792 -0.0040277377021705899 0 -0.080379206648835008 -0.009775819102595687 0 -0.089124004628701792 -0.0040277377021705899 0 -0.089359217900845153 -0.01537750648633354 0 -0.080379206648835008 -0.009775819102595687 0 -0.1012139958851531 -0.0082010901258140791 0 -0.089124004628701792 -0.0040277377021705899 0 -0.089359217900845153 -0.01537750648633354 0 -0.089359217900845153 -0.01537750648633354 0 -0.080379206648835008 -0.009775819102595687 0 -0.076946083733010012 -0.019608692654335649 0 -0.089359217900845153 -0.01537750648633354 0 -0.091700817231413184 -0.028161456197506499 0 -0.076946083733010012 -0.019608692654335649 0 -0.066439508831189667 -0.02875513821822643 0 -0.076946083733010012 -0.019608692654335649 0 -0.073396792324475907 -0.036549185213838799 0 -0.066439508831189667 -0.02875513821822643 0 -0.068530762808199294 -0.019938962024248611 0 -0.056338296441182101 -0.027044179732367449 0 -0.066439508831189667 -0.02875513821822643 0 -0.068530762808199294 -0.019938962024248611 0 -0.076946083733010012 -0.019608692654335649 0 -0.080379206648835008 -0.009775819102595687 0 -0.076946083733010012 -0.019608692654335649 0 -0.066123158358303874 0.0069763394170788487 0 -0.079764572027605563 -0.001208843295517239 0 -0.080379206648835008 -0.009775819102595687 0 -0.066123158358303874 0.0069763394170788487 0 -0.076946083733010012 -0.019608692654335649 0 -0.059664616745900671 -0.0040500510012267867 0 -0.066123158358303874 0.0069763394170788487 0 -0.068530762808199294 -0.019938962024248611 0 -0.059664616745900671 -0.0040500510012267867 0 -0.068530762808199294 -0.019938962024248611 0 -0.076946083733010012 -0.019608692654335649 0 -0.059664616745900671 -0.0040500510012267867 0 -0.076946083733010012 -0.019608692654335649 0 -0.066123158358303874 0.0069763394170788487 0 -0.079577064860946206 -0.073577453582062496 0 -0.068797467898171552 -0.064113028811232264 0 -0.087769009107716192 -0.046193724725750278 0 -0.0985919344824224 -0.072778756797164931 0 -0.087769009107716192 -0.046193724725750278 0 -0.076946083733010012 -0.019608692654335649 0 -0.087769009107716192 -0.046193724725750278 0 -0.073396792324475907 -0.036549185213838799 0 -0.091700817231413184 -0.028161456197506499 0 -0.076946083733010012 -0.019608692654335649 0 -0.087769009107716192 -0.046193724725750278 0 -0.076946083733010012 -0.019608692654335649 0 -0.087769009107716192 -0.046193724725750278 0 -0.073396792324475907 -0.036549185213838799 0 -0.062271996897588083 -0.052791321925605532 0 -0.056985608849081007 -0.04063467146634165 0 -0.087769009107716192 -0.046193724725750278 0 -0.073396792324475907 -0.036549185213838799 0 -0.062271996897588083 -0.052791321925605532 0 -0.066439508831189667 -0.02875513821822643 0 -0.073396792324475907 -0.036549185213838799 0 -0.056985608849081007 -0.04063467146634165 0 -0.068797467898171552 -0.064113028811232264 0 -0.087769009107716192 -0.046193724725750278 0 -0.062271996897588083 -0.052791321925605532 0 -0.050876123791686781 -0.0557005837010279 0 -0.062271996897588083 -0.052791321925605532 0 -0.05461803829180413 -0.069755112608578862 0 -0.068797467898171552 -0.064113028811232264 0 -0.062271996897588083 -0.052791321925605532 0 -0.05461803829180413 -0.069755112608578862 0 -0.050876123791686781 -0.0557005837010279 0 -0.04125611079489349 -0.061033813963863537 0 -0.05461803829180413 -0.069755112608578862 0 -0.050876123791686781 -0.0557005837010279 0 -0.056985608849081007 -0.04063467146634165 0 -0.043217803893324663 -0.046983348469378128 0 -0.050876123791686781 -0.0557005837010279 0 -0.062271996897588083 -0.052791321925605532 0 -0.056985608849081007 -0.04063467146634165 0 -0.066439508831189667 -0.02875513821822643 0 -0.056985608849081007 -0.04063467146634165 0 -0.056338296441182101 -0.027044179732367449 0 -0.056985608849081007 -0.04063467146634165 0 -0.048013312662868769 -0.034084565957593307 0 -0.056338296441182101 -0.027044179732367449 0 -0.056985608849081007 -0.04063467146634165 0 -0.048013312662868769 -0.034084565957593307 0 -0.043217803893324663 -0.046983348469378128 0 -0.034747022969916552 -0.036023397885302497 0 -0.03178279228815796 -0.053256275703554248 0 -0.043217803893324663 -0.046983348469378128 0 -0.048013312662868769 -0.034084565957593307 0 -0.034747022969916552 -0.036023397885302497 0 -0.043217803893324663 -0.046983348469378128 0 -0.03178279228815796 -0.053256275703554248 0 -0.04125611079489349 -0.061033813963863537 0 -0.027189616291661511 -0.068956488044421491 0 -0.03178279228815796 -0.053256275703554248 0 -0.04125611079489349 -0.061033813963863537 0 -0.043217803893324663 -0.046983348469378128 0 -0.050876123791686781 -0.0557005837010279 0 -0.04125611079489349 -0.061033813963863537 0 -0.043217803893324663 -0.046983348469378128 0 -0.068530762808199294 -0.019938962024248611 0 -0.059664616745900671 -0.0040500510012267867 0 -0.057625718948113309 -0.01560592069947127 0 -0.047617207273071643 -0.0035118018543059538 0 -0.059664616745900671 -0.0040500510012267867 0 -0.057625718948113309 -0.01560592069947127 0 -0.047617207273071643 -0.0035118018543059538 0 -0.057625718948113309 -0.01560592069947127 0 -0.044435943862541481 -0.018862463730406901 0 -0.057625718948113309 -0.01560592069947127 0 -0.056338296441182101 -0.027044179732367449 0 -0.044435943862541481 -0.018862463730406901 0 -0.068530762808199294 -0.019938962024248611 0 -0.057625718948113309 -0.01560592069947127 0 -0.056338296441182101 -0.027044179732367449 0 -0.048013312662868769 -0.034084565957593307 0 -0.056338296441182101 -0.027044179732367449 0 -0.044435943862541481 -0.018862463730406901 0 -0.048013312662868769 -0.034084565957593307 0 -0.034747022969916552 -0.036023397885302497 0 -0.044435943862541481 -0.018862463730406901 0 -0.034747022969916552 -0.036023397885302497 0 -0.044435943862541481 -0.018862463730406901 0 -0.029096019340949839 -0.020089153358083849 0 -0.044435943862541481 -0.018862463730406901 0 -0.037331614038931003 -0.0090830911405071785 0 -0.029096019340949839 -0.020089153358083849 0 -0.047617207273071643 -0.0035118018543059538 0 -0.044435943862541481 -0.018862463730406901 0 -0.037331614038931003 -0.0090830911405071785 0 -0.047617207273071643 -0.0035118018543059538 0 -0.044435943862541481 -0.018862463730406901 0 -0.037331614038931003 -0.0090830911405071785 0 -0.025670282478897081 -0.0054027298625421993 0 -0.03671052455766443 0.0037031618858211421 0 -0.047617207273071643 -0.0035118018543059538 0 -0.037331614038931003 -0.0090830911405071785 0 -0.03671052455766443 0.0037031618858211421 0 -0.025670282478897081 -0.0054027298625421993 0 -0.029096019340949839 -0.020089153358083849 0 -0.01201491237982177 -0.012697106039732861 0 -0.025670282478897081 -0.0054027298625421993 0 -0.01201491237982177 -0.012697106039732861 0 -0.010105069976996849 0.0023765649732562961 0 -0.037331614038931003 -0.0090830911405071785 0 -0.025670282478897081 -0.0054027298625421993 0 -0.029096019340949839 -0.020089153358083849 0 -0.034747022969916552 -0.036023397885302497 0 -0.029096019340949839 -0.020089153358083849 0 -0.01621539074153976 -0.030149579770640821 0 -0.029096019340949839 -0.020089153358083849 0 -0.01621539074153976 -0.030149579770640821 0 -0.01201491237982177 -0.012697106039732861 0 -0.01621539074153976 -0.030149579770640821 0 0.0026421611525163911 -0.019923693291100199 0 0.001114662024295677 -0.034644724797188199 0 -0.01621539074153976 -0.030149579770640821 0 -0.01201491237982177 -0.012697106039732861 0 0.0026421611525163911 -0.019923693291100199 0 -0.01201491237982177 -0.012697106039732861 0 0.0047038114401232534 -0.001040937293712483 0 0.0026421611525163911 -0.019923693291100199 0 -0.01201491237982177 -0.012697106039732861 0 -0.010105069976996849 0.0023765649732562961 0 0.0047038114401232534 -0.001040937293712483 0 -0.03178279228815796 -0.053256275703554248 0 -0.015718878272565229 -0.058792224196781109 0 -0.02130541942185268 -0.044498810144407437 0 -0.03178279228815796 -0.053256275703554248 0 -0.015718878272565229 -0.058792224196781109 0 -0.027189616291661511 -0.068956488044421491 0 -0.034747022969916552 -0.036023397885302497 0 -0.01621539074153976 -0.030149579770640821 0 -0.02130541942185268 -0.044498810144407437 0 -0.034747022969916552 -0.036023397885302497 0 -0.03178279228815796 -0.053256275703554248 0 -0.02130541942185268 -0.044498810144407437 0 -0.01621539074153976 -0.030149579770640821 0 -0.0092606153764647689 -0.044492254616565037 0 0.001114662024295677 -0.034644724797188199 0 -0.0092606153764647689 -0.044492254616565037 0 0.001114662024295677 -0.034644724797188199 0 0.003426744450576454 -0.054815297075420773 0 -0.01621539074153976 -0.030149579770640821 0 -0.02130541942185268 -0.044498810144407437 0 -0.0092606153764647689 -0.044492254616565037 0 -0.015718878272565229 -0.058792224196781109 0 -0.0092606153764647689 -0.044492254616565037 0 0.003426744450576454 -0.054815297075420773 0 -0.015718878272565229 -0.058792224196781109 0 -0.0072319765520409062 -0.068818796064575097 0 0.003426744450576454 -0.054815297075420773 0 -0.015718878272565229 -0.058792224196781109 0 -0.02130541942185268 -0.044498810144407437 0 -0.0092606153764647689 -0.044492254616565037 0 -0.0072319765520409062 -0.068818796064575097 0 -0.0056293594721457006 -0.082036805430144924 0 0.0054575408194632406 -0.073720759659108445 0 -0.0072319765520409062 -0.068818796064575097 0 -0.016531268938654212 -0.068489504758274394 0 -0.015984604638349179 -0.077390510727319894 0 -0.0072319765520409062 -0.068818796064575097 0 -0.0056293594721457006 -0.082036805430144924 0 -0.015984604638349179 -0.077390510727319894 0 -0.015718878272565229 -0.058792224196781109 0 -0.0072319765520409062 -0.068818796064575097 0 -0.016531268938654212 -0.068489504758274394 0 -0.0075898384642912086 -0.092772169897659226 0 -0.0056293594721457006 -0.082036805430144924 0 0.0072012692200917657 -0.09144049599341271 0 -0.0056293594721457006 -0.082036805430144924 0 -0.01562854721774792 -0.088078100238794171 0 -0.015984604638349179 -0.077390510727319894 0 -0.0075898384642912086 -0.092772169897659226 0 -0.0056293594721457006 -0.082036805430144924 0 -0.01562854721774792 -0.088078100238794171 0 -0.0075898384642912086 -0.092772169897659226 0 -0.01562854721774792 -0.088078100238794171 0 -0.015839401072447711 -0.097831294581907868 0 -0.01562854721774792 -0.088078100238794171 0 -0.02305577581672685 -0.083163458542690943 0 -0.024670005891415589 -0.092262667611894875 0 -0.01562854721774792 -0.088078100238794171 0 -0.024670005891415589 -0.092262667611894875 0 -0.015839401072447711 -0.097831294581907868 0 -0.01562854721774792 -0.088078100238794171 0 -0.02305577581672685 -0.083163458542690943 0 -0.015984604638349179 -0.077390510727319894 0 -0.02305577581672685 -0.083163458542690943 0 -0.024670005891415589 -0.092262667611894875 0 -0.031754510724464793 -0.081253108138323094 0 -0.024670005891415589 -0.092262667611894875 0 -0.031754510724464793 -0.081253108138323094 0 -0.03344051123233422 -0.092098432850847969 0 -0.015718878272565229 -0.058792224196781109 0 -0.016531268938654212 -0.068489504758274394 0 -0.027189616291661511 -0.068956488044421491 0 -0.016531268938654212 -0.068489504758274394 0 -0.015984604638349179 -0.077390510727319894 0 -0.027189616291661511 -0.068956488044421491 0 -0.02305577581672685 -0.083163458542690943 0 -0.015984604638349179 -0.077390510727319894 0 -0.027189616291661511 -0.068956488044421491 0 -0.02305577581672685 -0.083163458542690943 0 -0.027189616291661511 -0.068956488044421491 0 -0.031754510724464793 -0.081253108138323094 0 -0.04125611079489349 -0.061033813963863537 0 -0.027189616291661511 -0.068956488044421491 0 -0.04053175759116228 -0.071452392996033218 0 -0.04125611079489349 -0.061033813963863537 0 -0.04053175759116228 -0.071452392996033218 0 -0.05461803829180413 -0.069755112608578862 0 -0.04053175759116228 -0.071452392996033218 0 -0.04331800788480706 -0.080321541169751709 0 -0.05461803829180413 -0.069755112608578862 0 -0.027189616291661511 -0.068956488044421491 0 -0.04053175759116228 -0.071452392996033218 0 -0.031754510724464793 -0.081253108138323094 0 -0.04053175759116228 -0.071452392996033218 0 -0.031754510724464793 -0.081253108138323094 0 -0.04331800788480706 -0.080321541169751709 0 -0.031754510724464793 -0.081253108138323094 0 -0.037920360895102763 -0.086728863392239786 0 -0.04331800788480706 -0.080321541169751709 0 -0.031754510724464793 -0.081253108138323094 0 -0.03344051123233422 -0.092098432850847969 0 -0.037920360895102763 -0.086728863392239786 0 -0.03344051123233422 -0.092098432850847969 0 -0.037920360895102763 -0.086728863392239786 0 -0.039477100495342581 -0.093081883261144749 0 -0.043535591074226332 -0.088659540190963698 0 -0.052607434978589038 -0.084605160310905272 0 -0.044151246104392423 -0.095288874830203096 0 -0.039477100495342581 -0.093081883261144749 0 -0.043535591074226332 -0.088659540190963698 0 -0.044151246104392423 -0.095288874830203096 0 -0.037920360895102763 -0.086728863392239786 0 -0.039477100495342581 -0.093081883261144749 0 -0.043535591074226332 -0.088659540190963698 0 -0.043535591074226332 -0.088659540190963698 0 -0.044151246104392423 -0.095288874830203096 0 -0.037920360895102763 -0.086728863392239786 0 -0.043535591074226332 -0.088659540190963698 0 -0.04331800788480706 -0.080321541169751709 0 -0.043535591074226332 -0.088659540190963698 0 -0.04331800788480706 -0.080321541169751709 0 -0.052607434978589038 -0.084605160310905272 0 -0.04331800788480706 -0.080321541169751709 0 -0.052607434978589038 -0.084605160310905272 0 -0.05461803829180413 -0.069755112608578862 0 -0.070013937980536456 -0.090181036700446429 0 -0.057002573683865979 -0.089060817942991616 0 -0.04460455598339258 -0.10017008709341529 0 -0.052607434978589038 -0.084605160310905272 0 -0.044151246104392423 -0.095288874830203096 0 -0.052607434978589038 -0.084605160310905272 0 -0.057002573683865979 -0.089060817942991616 0 -0.044151246104392423 -0.095288874830203096 0 -0.064240921843242857 -0.078969573753286809 0 -0.065719917437320752 -0.085301382988547655 0 -0.057002573683865979 -0.089060817942991616 0 -0.064240921843242857 -0.078969573753286809 0 -0.052607434978589038 -0.084605160310905272 0 -0.057002573683865979 -0.089060817942991616 0 -0.064240921843242857 -0.078969573753286809 0 -0.052607434978589038 -0.084605160310905272 0 -0.05461803829180413 -0.069755112608578862 0 -0.064648045787775776 -0.1114736180136202 0 -0.054889055151619223 -0.1064960745062641 0 -0.046573596299020338 -0.1213725893565638 0 -0.064648045787775776 -0.1114736180136202 0 -0.060928146748241367 -0.123537549367131 0 -0.046573596299020338 -0.1213725893565638 0 -0.064167586873575405 -0.098824988458513688 0 -0.054889055151619223 -0.1064960745062641 0 -0.04460455598339258 -0.10017008709341529 0 -0.054889055151619223 -0.1064960745062641 0 -0.04460455598339258 -0.10017008709341529 0 -0.046573596299020338 -0.1213725893565638 0 -0.070013937980536456 -0.090181036700446429 0 -0.04460455598339258 -0.10017008709341529 0 -0.070013937980536456 -0.090181036700446429 0 -0.064167586873575405 -0.098824988458513688 0 -0.04460455598339258 -0.10017008709341529 0 -0.064167586873575405 -0.098824988458513688 0 -0.064648045787775776 -0.1114736180136202 0 -0.054889055151619223 -0.1064960745062641 0 -0.057002573683865979 -0.089060817942991616 0 -0.044151246104392423 -0.095288874830203096 0 -0.04460455598339258 -0.10017008709341529 0 -0.04460455598339258 -0.10017008709341529 0 -0.038337793170655582 -0.1026337050414691 0 -0.046573596299020338 -0.1213725893565638 0 -0.039477100495342581 -0.093081883261144749 0 -0.044151246104392423 -0.095288874830203096 0 -0.038337793170655582 -0.1026337050414691 0 -0.044151246104392423 -0.095288874830203096 0 -0.04460455598339258 -0.10017008709341529 0 -0.044151246104392423 -0.095288874830203096 0 -0.038337793170655582 -0.1026337050414691 0 -0.04460455598339258 -0.10017008709341529 0 -0.038337793170655582 -0.1026337050414691 0 -0.044151246104392423 -0.095288874830203096 0 -0.04460455598339258 -0.10017008709341529 0 -0.038337793170655582 -0.1026337050414691 0 -0.03344051123233422 -0.092098432850847969 0 -0.039477100495342581 -0.093081883261144749 0 -0.038337793170655582 -0.1026337050414691 0 -0.03344051123233422 -0.092098432850847969 0 -0.038337793170655582 -0.1026337050414691 0 -0.030143021990877521 -0.097413384547063803 0 -0.038337793170655582 -0.1026337050414691 0 -0.046573596299020338 -0.1213725893565638 0 -0.032898799107638058 -0.1301455039054305 0 -0.04460455598339258 -0.10017008709341529 0 -0.046573596299020338 -0.1213725893565638 0 -0.038337793170655582 -0.1026337050414691 0 -0.02075820173733281 -0.1248441049076035 0 -0.038337793170655582 -0.1026337050414691 0 -0.02075820173733281 -0.1248441049076035 0 -0.032898799107638058 -0.1301455039054305 0 -0.038337793170655582 -0.1026337050414691 0 -0.02075820173733281 -0.1248441049076035 0 -0.013304609286582791 -0.1124748627422944 0 -0.038337793170655582 -0.1026337050414691 0 -0.013304609286582791 -0.1124748627422944 0 -0.038337793170655582 -0.1026337050414691 0 -0.024123777669104458 -0.10265873268404301 0 -0.013304609286582791 -0.1124748627422944 0 -0.038337793170655582 -0.1026337050414691 0 -0.030143021990877521 -0.097413384547063803 0 -0.024123777669104458 -0.10265873268404301 0 -0.024670005891415589 -0.092262667611894875 0 -0.030143021990877521 -0.097413384547063803 0 -0.024123777669104458 -0.10265873268404301 0 -0.024670005891415589 -0.092262667611894875 0 -0.03344051123233422 -0.092098432850847969 0 -0.030143021990877521 -0.097413384547063803 0 -0.024123777669104458 -0.10265873268404301 0 -0.015994782990863529 -0.1079378035875192 0 -0.013304609286582791 -0.1124748627422944 0 -0.024123777669104458 -0.10265873268404301 0 -0.015994782990863529 -0.1079378035875192 0 -0.015839401072447711 -0.097831294581907868 0 -0.024670005891415589 -0.092262667611894875 0 -0.024123777669104458 -0.10265873268404301 0 -0.015839401072447711 -0.097831294581907868 0 -0.0070294542012635762 -0.10327829347153671 0 -0.013304609286582791 -0.1124748627422944 0 0.0046245275045138064 -0.1076828264142336 0 -0.0075898384642912086 -0.092772169897659226 0 -0.015839401072447711 -0.097831294581907868 0 -0.0070294542012635762 -0.10327829347153671 0 -0.015994782990863529 -0.1079378035875192 0 -0.015839401072447711 -0.097831294581907868 0 -0.0070294542012635762 -0.10327829347153671 0 -0.015994782990863529 -0.1079378035875192 0 -0.0070294542012635762 -0.10327829347153671 0 -0.013304609286582791 -0.1124748627422944 0 -0.0075898384642912086 -0.092772169897659226 0 -0.0070294542012635762 -0.10327829347153671 0 0.0072012692200917657 -0.09144049599341271 0 -0.02075820173733281 -0.1248441049076035 0 -0.013304609286582791 -0.1124748627422944 0 -0.00221818493688669 -0.13117245205018849 0 -0.013304609286582791 -0.1124748627422944 0 -0.00221818493688669 -0.13117245205018849 0 0.014197789575412951 -0.12328672932727321 0 -0.013304609286582791 -0.1124748627422944 0 -0.00221818493688669 -0.13117245205018849 0 -0.015994782990863529 -0.1079378035875192 0 -0.013304609286582791 -0.1124748627422944 0 -0.02075820173733281 -0.1248441049076035 0 -0.0137133242766358 -0.14598078836242959 0 -0.0031786103040098569 -0.14705450477373769 0 -0.02075820173733281 -0.1248441049076035 0 -0.0031786103040098569 -0.14705450477373769 0 -0.02075820173733281 -0.1248441049076035 0 -0.00221818493688669 -0.13117245205018849 0 -0.0031786103040098569 -0.14705450477373769 0 -0.02075820173733281 -0.1248441049076035 0 -0.02657462786173766 -0.13400490724319661 0 -0.021326083532184278 -0.14069250208886769 0 -0.02075820173733281 -0.1248441049076035 0 -0.021326083532184278 -0.14069250208886769 0 -0.0137133242766358 -0.14598078836242959 0 -0.02657462786173766 -0.13400490724319661 0 -0.032898799107638058 -0.1301455039054305 0 -0.031315427069795509 -0.14033751807088471 0 -0.02657462786173766 -0.13400490724319661 0 -0.021326083532184278 -0.14069250208886769 0 -0.031315427069795509 -0.14033751807088471 0 -0.02075820173733281 -0.1248441049076035 0 -0.02657462786173766 -0.13400490724319661 0 -0.032898799107638058 -0.1301455039054305 0 -0.026655807174363451 -0.14845120392719069 0 -0.02210874630731275 -0.1561964137015745 0 -0.031495029160766817 -0.15509855920566379 0 -0.026655807174363451 -0.14845120392719069 0 -0.03449156258747036 -0.148917707105098 0 -0.031495029160766817 -0.15509855920566379 0 -0.026655807174363451 -0.14845120392719069 0 -0.021326083532184278 -0.14069250208886769 0 -0.031315427069795509 -0.14033751807088471 0 -0.026655807174363451 -0.14845120392719069 0 -0.031315427069795509 -0.14033751807088471 0 -0.03449156258747036 -0.148917707105098 0 -0.021326083532184278 -0.14069250208886769 0 -0.019449426413567759 -0.15004718796545319 0 -0.0137133242766358 -0.14598078836242959 0 -0.026655807174363451 -0.14845120392719069 0 -0.021326083532184278 -0.14069250208886769 0 -0.019449426413567759 -0.15004718796545319 0 -0.019449426413567759 -0.15004718796545319 0 -0.01542317820397726 -0.15505006264073101 0 -0.0137133242766358 -0.14598078836242959 0 -0.026655807174363451 -0.14845120392719069 0 -0.019449426413567759 -0.15004718796545319 0 -0.02210874630731275 -0.1561964137015745 0 -0.019449426413567759 -0.15004718796545319 0 -0.02210874630731275 -0.1561964137015745 0 -0.01542317820397726 -0.15505006264073101 0 -0.0137133242766358 -0.14598078836242959 0 -0.0031786103040098569 -0.14705450477373769 0 -0.0072073677341612146 -0.1544888065361133 0 -0.01542317820397726 -0.15505006264073101 0 -0.0137133242766358 -0.14598078836242959 0 -0.0072073677341612146 -0.1544888065361133 0 -0.0031786103040098569 -0.14705450477373769 0 -0.0072073677341612146 -0.1544888065361133 0 -0.0025999653858941639 -0.16131422913783491 0 -0.01542317820397726 -0.15505006264073101 0 -0.0084927016390539001 -0.17431231470194719 0 -0.01542317820397726 -0.15505006264073101 0 -0.0025999653858941639 -0.16131422913783491 0 -0.0084927016390539001 -0.17431231470194719 0 -0.01542317820397726 -0.15505006264073101 0 -0.0084927016390539001 -0.17431231470194719 0 -0.018600123305710169 -0.16452936741983731 0 -0.0025999653858941639 -0.16131422913783491 0 -0.0084927016390539001 -0.17431231470194719 0 0.0067086063528142403 -0.16809244781376179 0 -0.0084927016390539001 -0.17431231470194719 0 -0.019446339186483811 -0.17229591455881449 0 -0.018600123305710169 -0.16452936741983731 0 -0.01542317820397726 -0.15505006264073101 0 -0.0072073677341612146 -0.1544888065361133 0 -0.0025999653858941639 -0.16131422913783491 0 -0.0084927016390539001 -0.17431231470194719 0 -0.0015622250741301779 -0.1935745667631632 0 -0.01452589755716127 -0.18854972137590889 0 -0.0084927016390539001 -0.17431231470194719 0 -0.0015622250741301779 -0.1935745667631632 0 -0.0084927016390539001 -0.17431231470194719 0 -0.0015622250741301779 -0.1935745667631632 0 0.0091962193441852118 -0.18107109871456811 0 -0.0084927016390539001 -0.17431231470194719 0 -0.019789997202817391 -0.17944929683230451 0 -0.01452589755716127 -0.18854972137590889 0 -0.019789997202817391 -0.17944929683230451 0 -0.01452589755716127 -0.18854972137590889 0 -0.02459459850908961 -0.18853055632871979 0 -0.0084927016390539001 -0.17431231470194719 0 -0.019789997202817391 -0.17944929683230451 0 -0.019446339186483811 -0.17229591455881449 0 -0.019789997202817391 -0.17944929683230451 0 -0.019446339186483811 -0.17229591455881449 0 -0.025875972540285681 -0.17494695229964419 0 -0.019789997202817391 -0.17944929683230451 0 -0.025875972540285681 -0.17494695229964419 0 -0.028761852805915141 -0.18157091371807699 0 -0.025875972540285681 -0.17494695229964419 0 -0.032240004386850082 -0.17024588421870079 0 -0.032480769472988377 -0.1765838753595764 0 -0.025875972540285681 -0.17494695229964419 0 -0.028761852805915141 -0.18157091371807699 0 -0.032480769472988377 -0.1765838753595764 0 -0.028761852805915141 -0.18157091371807699 0 -0.032920373861235572 -0.18696580359983689 0 -0.02459459850908961 -0.18853055632871979 0 -0.019789997202817391 -0.17944929683230451 0 -0.028761852805915141 -0.18157091371807699 0 -0.02459459850908961 -0.18853055632871979 0 -0.02210874630731275 -0.1561964137015745 0 -0.02334206205745518 -0.16321350683772101 0 -0.018600123305710169 -0.16452936741983731 0 -0.02210874630731275 -0.1561964137015745 0 -0.01542317820397726 -0.15505006264073101 0 -0.018600123305710169 -0.16452936741983731 0 -0.019446339186483811 -0.17229591455881449 0 -0.018600123305710169 -0.16452936741983731 0 -0.024472901244551901 -0.1682416415403396 0 -0.019446339186483811 -0.17229591455881449 0 -0.025875972540285681 -0.17494695229964419 0 -0.024472901244551901 -0.1682416415403396 0 -0.02334206205745518 -0.16321350683772101 0 -0.018600123305710169 -0.16452936741983731 0 -0.024472901244551901 -0.1682416415403396 0 -0.02334206205745518 -0.16321350683772101 0 -0.024472901244551901 -0.1682416415403396 0 -0.028186477372245909 -0.16388660468913291 0 -0.025875972540285681 -0.17494695229964419 0 -0.024472901244551901 -0.1682416415403396 0 -0.032240004386850082 -0.17024588421870079 0 -0.024472901244551901 -0.1682416415403396 0 -0.028186477372245909 -0.16388660468913291 0 -0.032240004386850082 -0.17024588421870079 0 -0.02210874630731275 -0.1561964137015745 0 -0.036601677587355427 -0.1631254910080501 0 -0.02210874630731275 -0.1561964137015745 0 -0.028186477372245909 -0.16388660468913291 0 -0.036601677587355427 -0.1631254910080501 0 -0.02210874630731275 -0.1561964137015745 0 -0.036601677587355427 -0.1631254910080501 0 -0.031495029160766817 -0.15509855920566379 0 -0.02210874630731275 -0.1561964137015745 0 -0.02334206205745518 -0.16321350683772101 0 -0.028186477372245909 -0.16388660468913291 0 -0.036601677587355427 -0.1631254910080501 0 -0.031495029160766817 -0.15509855920566379 0 -0.03757233301838208 -0.1561293615731485 0 -0.036601677587355427 -0.1631254910080501 0 -0.042683024331232992 -0.16071659108817879 0 -0.03757233301838208 -0.1561293615731485 0 -0.036601677587355427 -0.1631254910080501 0 -0.032240004386850082 -0.17024588421870079 0 -0.040990311010288182 -0.1707810542940659 0 -0.028186477372245909 -0.16388660468913291 0 -0.036601677587355427 -0.1631254910080501 0 -0.032240004386850082 -0.17024588421870079 0 -0.036601677587355427 -0.1631254910080501 0 -0.040990311010288182 -0.1707810542940659 0 -0.051094608867397598 -0.17005456831452659 0 -0.036601677587355427 -0.1631254910080501 0 -0.042683024331232992 -0.16071659108817879 0 -0.051094608867397598 -0.17005456831452659 0 -0.036601677587355427 -0.1631254910080501 0 -0.051094608867397598 -0.17005456831452659 0 -0.042683024331232992 -0.16071659108817879 0 -0.03757233301838208 -0.1561293615731485 0 -0.042590371425084809 -0.152788459458752 0 -0.042683024331232992 -0.16071659108817879 0 -0.049852416986034973 -0.1566787242717059 0 -0.042590371425084809 -0.152788459458752 0 -0.042683024331232992 -0.16071659108817879 0 -0.049852416986034973 -0.1566787242717059 0 -0.032920373861235572 -0.18696580359983689 0 -0.035662893679222471 -0.1808176818492459 0 -0.039648887306358682 -0.18457447877016059 0 -0.028761852805915141 -0.18157091371807699 0 -0.032920373861235572 -0.18696580359983689 0 -0.035662893679222471 -0.1808176818492459 0 -0.032240004386850082 -0.17024588421870079 0 -0.040990311010288182 -0.1707810542940659 0 -0.038331319031698619 -0.1753090981098179 0 -0.035662893679222471 -0.1808176818492459 0 -0.038331319031698619 -0.1753090981098179 0 -0.042134054383572032 -0.1794085226548284 0 -0.035662893679222471 -0.1808176818492459 0 -0.032480769472988377 -0.1765838753595764 0 -0.038331319031698619 -0.1753090981098179 0 -0.028761852805915141 -0.18157091371807699 0 -0.035662893679222471 -0.1808176818492459 0 -0.032480769472988377 -0.1765838753595764 0 -0.032240004386850082 -0.17024588421870079 0 -0.032480769472988377 -0.1765838753595764 0 -0.038331319031698619 -0.1753090981098179 0 -0.040990311010288182 -0.1707810542940659 0 -0.045496547127059937 -0.17528527585558801 0 -0.051094608867397598 -0.17005456831452659 0 -0.040990311010288182 -0.1707810542940659 0 -0.038331319031698619 -0.1753090981098179 0 -0.045496547127059937 -0.17528527585558801 0 -0.045496547127059937 -0.17528527585558801 0 -0.042134054383572032 -0.1794085226548284 0 -0.049232931697160941 -0.18142535687920061 0 -0.038331319031698619 -0.1753090981098179 0 -0.045496547127059937 -0.17528527585558801 0 -0.042134054383572032 -0.1794085226548284 0 -0.042134054383572032 -0.1794085226548284 0 -0.039648887306358682 -0.18457447877016059 0 -0.049232931697160941 -0.18142535687920061 0 -0.039648887306358682 -0.18457447877016059 0 -0.049232931697160941 -0.18142535687920061 0 -0.037513132105194948 -0.19164621715467339 0 -0.035662893679222471 -0.1808176818492459 0 -0.042134054383572032 -0.1794085226548284 0 -0.039648887306358682 -0.18457447877016059 0 -0.052530262953744307 -0.18551360121156771 0 -0.064566778430722005 -0.1899668467895553 0 -0.070259181001566293 -0.17921715932508539 0 -0.052530262953744307 -0.18551360121156771 0 -0.051094608867397598 -0.17005456831452659 0 -0.070259181001566293 -0.17921715932508539 0 -0.051094608867397598 -0.17005456831452659 0 -0.070259181001566293 -0.17921715932508539 0 -0.052530262953744307 -0.18551360121156771 0 -0.049232931697160941 -0.18142535687920061 0 -0.051094608867397598 -0.17005456831452659 0 -0.052530262953744307 -0.18551360121156771 0 -0.051094608867397598 -0.17005456831452659 0 -0.045496547127059937 -0.17528527585558801 0 -0.049232931697160941 -0.18142535687920061 0 -0.051094608867397598 -0.17005456831452659 0 -0.051094608867397598 -0.17005456831452659 0 -0.061817946007188637 -0.1647032604190713 0 -0.070259181001566293 -0.17921715932508539 0 -0.049852416986034973 -0.1566787242717059 0 -0.051094608867397598 -0.17005456831452659 0 -0.061817946007188637 -0.1647032604190713 0 -0.042683024331232992 -0.16071659108817879 0 -0.049852416986034973 -0.1566787242717059 0 -0.051094608867397598 -0.17005456831452659 0 -0.049852416986034973 -0.1566787242717059 0 -0.051094608867397598 -0.17005456831452659 0 -0.049852416986034973 -0.1566787242717059 0 -0.061817946007188637 -0.1647032604190713 0 -0.059473492795946999 -0.1512600473178678 0 -0.049852416986034973 -0.1566787242717059 0 -0.059473492795946999 -0.1512600473178678 0 -0.049852416986034973 -0.1566787242717059 0 -0.048542636614648908 -0.14257509161971199 0 -0.042590371425084809 -0.152788459458752 0 -0.049852416986034973 -0.1566787242717059 0 -0.059473492795946999 -0.1512600473178678 0 -0.048542636614648908 -0.14257509161971199 0 -0.049852416986034973 -0.1566787242717059 0 -0.048542636614648908 -0.14257509161971199 0 -0.059473492795946999 -0.1512600473178678 0 -0.048542636614648908 -0.14257509161971199 0 -0.059473492795946999 -0.1512600473178678 0 -0.048542636614648908 -0.14257509161971199 0 -0.061100100412547438 -0.13647315015658409 0 -0.046573596299020338 -0.1213725893565638 0 -0.048542636614648908 -0.14257509161971199 0 -0.061100100412547438 -0.13647315015658409 0 -0.046573596299020338 -0.1213725893565638 0 -0.048542636614648908 -0.14257509161971199 0 -0.060928146748241367 -0.123537549367131 0 -0.046573596299020338 -0.1213725893565638 0 -0.061100100412547438 -0.13647315015658409 0 -0.046573596299020338 -0.1213725893565638 0 -0.048542636614648908 -0.14257509161971199 0 -0.032898799107638058 -0.1301455039054305 0 -0.048542636614648908 -0.14257509161971199 0 -0.032898799107638058 -0.1301455039054305 0 -0.031315427069795509 -0.14033751807088471 0 -0.048542636614648908 -0.14257509161971199 0 -0.032898799107638058 -0.1301455039054305 0 -0.048542636614648908 -0.14257509161971199 0 -0.031315427069795509 -0.14033751807088471 0 -0.03449156258747036 -0.148917707105098 0 -0.03449156258747036 -0.148917707105098 0 -0.03757233301838208 -0.1561293615731485 0 -0.042590371425084809 -0.152788459458752 0 -0.03449156258747036 -0.148917707105098 0 -0.031495029160766817 -0.15509855920566379 0 -0.03757233301838208 -0.1561293615731485 0 -0.048542636614648908 -0.14257509161971199 0 -0.03449156258747036 -0.148917707105098 0 -0.042590371425084809 -0.152788459458752 0 -0.030801127425925001 -0.25680016795848581 0 -0.026871719323301121 -0.24650256912316601 0 -0.018733547469201091 -0.24349008461987329 0 -0.032940321160402269 -0.25029644079438251 0 -0.026871719323301121 -0.24650256912316601 0 -0.030857658388656541 -0.2362056796655021 0 -0.032940321160402269 -0.25029644079438251 0 -0.026871719323301121 -0.24650256912316601 0 -0.026871719323301121 -0.24650256912316601 0 -0.030857658388656541 -0.2362056796655021 0 -0.018733547469201091 -0.24349008461987329 0 -0.018733547469201091 -0.24349008461987329 0 0.0010854142569982001 -0.23807309260292489 0 0.0025328853753160741 -0.24958102673793139 0 -0.018733547469201091 -0.24349008461987329 0 -0.0061584899570064598 -0.22962027277065361 0 0.0010854142569982001 -0.23807309260292489 0 -0.018733547469201091 -0.24349008461987329 0 -0.0061584899570064598 -0.22962027277065361 0 -0.018733547469201091 -0.24349008461987329 0 -0.0061584899570064598 -0.22962027277065361 0 -0.014959502272226489 -0.22084886391346231 0 -0.0061584899570064598 -0.22962027277065361 0 -0.0054289760133702037 -0.21457987404047249 0 0.0064165675551885711 -0.21575046092143421 0 -0.0061584899570064598 -0.22962027277065361 0 -0.014959502272226489 -0.22084886391346231 0 -0.0054289760133702037 -0.21457987404047249 0 -0.018733547469201091 -0.24349008461987329 0 -0.02919644603132129 -0.2221986071991269 0 -0.02714058579554627 -0.22330174697438809 0 -0.018733547469201091 -0.24349008461987329 0 -0.02919644603132129 -0.2221986071991269 0 -0.018733547469201091 -0.24349008461987329 0 -0.014959502272226489 -0.22084886391346231 0 -0.02714058579554627 -0.22330174697438809 0 -0.030857658388656541 -0.2362056796655021 0 -0.018733547469201091 -0.24349008461987329 0 -0.02919644603132129 -0.2221986071991269 0 -0.02919644603132129 -0.2221986071991269 0 -0.02714058579554627 -0.22330174697438809 0 -0.023298310508535151 -0.21367384618425 0 -0.02883797433537726 -0.20835292232393379 0 -0.020914866328615171 -0.2008213059726579 0 -0.039659344593441261 -0.20090712977838049 0 -0.02919644603132129 -0.2221986071991269 0 -0.02883797433537726 -0.20835292232393379 0 -0.023298310508535151 -0.21367384618425 0 -0.02883797433537726 -0.20835292232393379 0 -0.023298310508535151 -0.21367384618425 0 -0.020914866328615171 -0.2008213059726579 0 -0.023298310508535151 -0.21367384618425 0 -0.014351405434837939 -0.2084381568687759 0 -0.020914866328615171 -0.2008213059726579 0 -0.02714058579554627 -0.22330174697438809 0 -0.014351405434837939 -0.2084381568687759 0 -0.014959502272226489 -0.22084886391346231 0 -0.02714058579554627 -0.22330174697438809 0 -0.014351405434837939 -0.2084381568687759 0 -0.02714058579554627 -0.22330174697438809 0 -0.023298310508535151 -0.21367384618425 0 -0.014351405434837939 -0.2084381568687759 0 -0.014959502272226489 -0.22084886391346231 0 -0.0054289760133702037 -0.21457987404047249 0 -0.014351405434837939 -0.2084381568687759 0 -0.0054289760133702037 -0.21457987404047249 0 -0.014351405434837939 -0.2084381568687759 0 -0.0015622250741301779 -0.1935745667631632 0 -0.0054289760133702037 -0.21457987404047249 0 -0.0015622250741301779 -0.1935745667631632 0 0.0064165675551885711 -0.21575046092143421 0 -0.014351405434837939 -0.2084381568687759 0 -0.0015622250741301779 -0.1935745667631632 0 -0.014351405434837939 -0.2084381568687759 0 -0.01223217889679739 -0.19705511845509929 0 -0.0015622250741301779 -0.1935745667631632 0 -0.01223217889679739 -0.19705511845509929 0 -0.0015622250741301779 -0.1935745667631632 0 -0.01452589755716127 -0.18854972137590889 0 -0.020914866328615171 -0.2008213059726579 0 -0.039659344593441261 -0.20090712977838049 0 -0.01452589755716127 -0.18854972137590889 0 -0.020914866328615171 -0.2008213059726579 0 -0.02459459850908961 -0.18853055632871979 0 -0.020914866328615171 -0.2008213059726579 0 -0.030654603298793132 -0.19382629647353339 0 -0.039659344593441261 -0.20090712977838049 0 -0.014351405434837939 -0.2084381568687759 0 -0.01223217889679739 -0.19705511845509929 0 -0.020914866328615171 -0.2008213059726579 0 -0.01223217889679739 -0.19705511845509929 0 -0.01452589755716127 -0.18854972137590889 0 -0.020914866328615171 -0.2008213059726579 0 -0.020914866328615171 -0.2008213059726579 0 -0.030654603298793132 -0.19382629647353339 0 -0.02459459850908961 -0.18853055632871979 0 -0.032920373861235572 -0.18696580359983689 0 -0.030654603298793132 -0.19382629647353339 0 -0.02459459850908961 -0.18853055632871979 0 -0.049232931697160941 -0.18142535687920061 0 -0.037513132105194948 -0.19164621715467339 0 -0.039659344593441261 -0.20090712977838049 0 -0.049232931697160941 -0.18142535687920061 0 -0.039659344593441261 -0.20090712977838049 0 -0.032920373861235572 -0.18696580359983689 0 -0.039648887306358682 -0.18457447877016059 0 -0.037513132105194948 -0.19164621715467339 0 -0.032920373861235572 -0.18696580359983689 0 -0.030654603298793132 -0.19382629647353339 0 -0.037513132105194948 -0.19164621715467339 0 -0.030654603298793132 -0.19382629647353339 0 -0.037513132105194948 -0.19164621715467339 0 -0.039659344593441261 -0.20090712977838049 0 -0.039659344593441261 -0.20090712977838049 0 -0.049171036143441697 -0.20095068018059209 0 -0.052530262953744307 -0.18551360121156771 0 -0.053965917040092279 -0.20097263410860849 0 -0.052530262953744307 -0.18551360121156771 0 -0.049232931697160941 -0.18142535687920061 0 -0.039659344593441261 -0.20090712977838049 0 -0.052530262953744307 -0.18551360121156771 0 -0.053965917040092279 -0.20097263410860849 0 -0.064566778430722005 -0.1899668467895553 0 -0.052530262953744307 -0.18551360121156771 0 -0.039659344593441261 -0.20090712977838049 0 -0.049171036143441697 -0.20095068018059209 0 -0.053965917040092279 -0.20097263410860849 0 -0.049171036143441697 -0.20095068018059209 0 -0.052530262953744307 -0.18551360121156771 0 -0.053965917040092279 -0.20097263410860849 0 -0.049171036143441697 -0.20095068018059209 0 -0.049171036143441697 -0.20095068018059209 0 -0.054685660498906767 -0.208722786400212 0 -0.041055678651922348 -0.2256235604874875 0 -0.053965917040092279 -0.20097263410860849 0 -0.054685660498906767 -0.208722786400212 0 -0.075274492420391248 -0.20107019793555661 0 -0.054685660498906767 -0.208722786400212 0 -0.058782723788501128 -0.22597342721149569 0 -0.066300796797188796 -0.21509277327032089 0 -0.053965917040092279 -0.20097263410860849 0 -0.049171036143441697 -0.20095068018059209 0 -0.054685660498906767 -0.208722786400212 0 -0.053965917040092279 -0.20097263410860849 0 -0.054685660498906767 -0.208722786400212 0 -0.049171036143441697 -0.20095068018059209 0 -0.041055678651922348 -0.2256235604874875 0 -0.02919644603132129 -0.2221986071991269 0 -0.039659344593441261 -0.20090712977838049 0 -0.02919644603132129 -0.2221986071991269 0 -0.02883797433537726 -0.20835292232393379 0 -0.039659344593441261 -0.20090712977838049 0 -0.039659344593441261 -0.20090712977838049 0 -0.049171036143441697 -0.20095068018059209 0 -0.041055678651922348 -0.2256235604874875 0 -0.02919644603132129 -0.2221986071991269 0 -0.039659344593441261 -0.20090712977838049 0 -0.041055678651922348 -0.2256235604874875 0 -0.030857658388656541 -0.2362056796655021 0 -0.02919644603132129 -0.2221986071991269 0 -0.041055678651922348 -0.2256235604874875 0 -0.041055678651922348 -0.2256235604874875 0 -0.058782723788501128 -0.22597342721149569 0 -0.050902643065861071 -0.24349095896983161 0 -0.054685660498906767 -0.208722786400212 0 -0.041055678651922348 -0.2256235604874875 0 -0.058782723788501128 -0.22597342721149569 0 -0.058782723788501128 -0.22597342721149569 0 -0.050902643065861071 -0.24349095896983161 0 -0.077646128541525 -0.24813916513248199 0 -0.032940321160402269 -0.25029644079438251 0 -0.041055678651922348 -0.2256235604874875 0 -0.050902643065861071 -0.24349095896983161 0 -0.032940321160402269 -0.25029644079438251 0 -0.030857658388656541 -0.2362056796655021 0 -0.041055678651922348 -0.2256235604874875 0 -0.032940321160402269 -0.25029644079438251 0 -0.041055678651922348 -0.2256235604874875 0 -0.077646128541525 -0.24813916513248199 0 -0.082279147983734507 -0.22463132376819159 0 -0.088104632666654803 -0.24175912157342011 0 -0.077646128541525 -0.24813916513248199 0 -0.082279147983734507 -0.22463132376819159 0 -0.077646128541525 -0.24813916513248199 0 -0.076460310480956056 -0.22460468153401941 0 -0.058782723788501128 -0.22597342721149569 0 -0.077646128541525 -0.24813916513248199 0 -0.076460310480956056 -0.22460468153401941 0 -0.058782723788501128 -0.22597342721149569 0 -0.076460310480956056 -0.22460468153401941 0 -0.066300796797188796 -0.21509277327032089 0 -0.077646128541525 -0.24813916513248199 0 -0.076460310480956056 -0.22460468153401941 0 -0.082279147983734507 -0.22463132376819159 0 -0.088104632666654803 -0.24175912157342011 0 -0.091210523848666042 -0.22145825259936749 0 -0.096373561920523113 -0.2318247108995648 0 -0.088104632666654803 -0.24175912157342011 0 -0.082279147983734507 -0.22463132376819159 0 -0.091210523848666042 -0.22145825259936749 0 -0.088104632666654803 -0.24175912157342011 0 -0.091210523848666042 -0.22145825259936749 0 -0.082279147983734507 -0.22463132376819159 0 -0.075274492420391248 -0.20107019793555661 0 -0.086912167425944153 -0.20112348240390099 0 -0.082279147983734507 -0.22463132376819159 0 -0.091210523848666042 -0.22145825259936749 0 -0.086912167425944153 -0.20112348240390099 0 -0.091210523848666042 -0.22145825259936749 0 -0.094316415030678002 -0.20115738362531499 0 -0.091210523848666042 -0.22145825259936749 0 -0.086912167425944153 -0.20112348240390099 0 -0.094316415030678002 -0.20115738362531499 0 -0.082279147983734507 -0.22463132376819159 0 -0.086912167425944153 -0.20112348240390099 0 -0.076460310480956056 -0.22460468153401941 0 -0.066300796797188796 -0.21509277327032089 0 -0.075274492420391248 -0.20107019793555661 0 -0.054685660498906767 -0.208722786400212 0 -0.066300796797188796 -0.21509277327032089 0 -0.075274492420391248 -0.20107019793555661 0 -0.076460310480956056 -0.22460468153401941 0 -0.082279147983734507 -0.22463132376819159 0 -0.075274492420391248 -0.20107019793555661 0 -0.076460310480956056 -0.22460468153401941 0 -0.075274492420391248 -0.20107019793555661 0 -0.053965917040092279 -0.20097263410860849 0 -0.075274492420391248 -0.20107019793555661 0 -0.070100108945259781 -0.19629415080948229 0 -0.053965917040092279 -0.20097263410860849 0 -0.070100108945259781 -0.19629415080948229 0 -0.064566778430722005 -0.1899668467895553 0 -0.053965917040092279 -0.20097263410860849 0 -0.075274492420391248 -0.20107019793555661 0 -0.075274492420391248 -0.20107019793555661 0 -0.075113373652805612 -0.19571605274700751 0 -0.079733979793737045 -0.19605477611637959 0 -0.075274492420391248 -0.20107019793555661 0 -0.075113373652805612 -0.19571605274700751 0 -0.070100108945259781 -0.19629415080948229 0 -0.070100108945259781 -0.19629415080948229 0 -0.064566778430722005 -0.1899668467895553 0 -0.075377056328755521 -0.19008301367616509 0 -0.075113373652805612 -0.19571605274700751 0 -0.070100108945259781 -0.19629415080948229 0 -0.075377056328755521 -0.19008301367616509 0 -0.075113373652805612 -0.19571605274700751 0 -0.075377056328755521 -0.19008301367616509 0 -0.079733979793737045 -0.19605477611637959 0 -0.075377056328755521 -0.19008301367616509 0 -0.079733979793737045 -0.19605477611637959 0 -0.089423753135733974 -0.18837975033564619 0 -0.079733979793737045 -0.19605477611637959 0 -0.086912167425944153 -0.20112348240390099 0 -0.089423753135733974 -0.18837975033564619 0 -0.075274492420391248 -0.20107019793555661 0 -0.086912167425944153 -0.20112348240390099 0 -0.075274492420391248 -0.20107019793555661 0 -0.079733979793737045 -0.19605477611637959 0 -0.086912167425944153 -0.20112348240390099 0 -0.086912167425944153 -0.20112348240390099 0 -0.095804572093432044 -0.1914304229002349 0 -0.094316415030678002 -0.20115738362531499 0 -0.086912167425944153 -0.20112348240390099 0 -0.094316415030678002 -0.20115738362531499 0 -0.086912167425944153 -0.20112348240390099 0 -0.089423753135733974 -0.18837975033564619 0 -0.086912167425944153 -0.20112348240390099 0 -0.089423753135733974 -0.18837975033564619 0 -0.095804572093432044 -0.1914304229002349 0 -0.089423753135733974 -0.18837975033564619 0 -0.095804572093432044 -0.1914304229002349 0 -0.090500110278716836 -0.18291833725845449 0 -0.089423753135733974 -0.18837975033564619 0 -0.095804572093432044 -0.1914304229002349 0 -0.095804572093432044 -0.1914304229002349 0 -0.1055884512206339 -0.19610810014299959 0 -0.099028938128851704 -0.1826882615985625 0 -0.095804572093432044 -0.1914304229002349 0 -0.1055884512206339 -0.19610810014299959 0 -0.095804572093432044 -0.1914304229002349 0 -0.099726318276372988 -0.19712665769699661 0 -0.1055884512206339 -0.19610810014299959 0 -0.094316415030678002 -0.20115738362531499 0 -0.099726318276372988 -0.19712665769699661 0 -0.1069539478940484 -0.20121524606085259 0 -0.095804572093432044 -0.1914304229002349 0 -0.094316415030678002 -0.20115738362531499 0 -0.095804572093432044 -0.1914304229002349 0 -0.094316415030678002 -0.20115738362531499 0 -0.099726318276372988 -0.19712665769699661 0 -0.094316415030678002 -0.20115738362531499 0 -0.1069539478940484 -0.20121524606085259 0 -0.1006154135170836 -0.20550376286944089 0 -0.094316415030678002 -0.20115738362531499 0 -0.1069539478940484 -0.20121524606085259 0 -0.099726318276372988 -0.19712665769699661 0 -0.1069539478940484 -0.20121524606085259 0 -0.1055884512206339 -0.19610810014299959 0 -0.1069539478940484 -0.20121524606085259 0 -0.1055884512206339 -0.19610810014299959 0 -0.1143022105317214 -0.19176920984990589 0 -0.1234142843990034 -0.20129061165398179 0 -0.118443644943155 -0.18313735869921541 0 -0.1234142843990034 -0.20129061165398179 0 -0.118443644943155 -0.18313735869921541 0 -0.12836978379805469 -0.19505845874684749 0 -0.1055884512206339 -0.19610810014299959 0 -0.1143022105317214 -0.19176920984990589 0 -0.1095912747331507 -0.1796343382558257 0 -0.1234142843990034 -0.20129061165398179 0 -0.118443644943155 -0.18313735869921541 0 -0.1234142843990034 -0.20129061165398179 0 -0.11636069704563699 -0.20125831597190941 0 -0.12446659453658469 -0.2051337493999616 0 -0.1143022105317214 -0.19176920984990589 0 -0.1234142843990034 -0.20129061165398179 0 -0.11636069704563699 -0.20125831597190941 0 -0.1234142843990034 -0.20129061165398179 0 -0.11636069704563699 -0.20125831597190941 0 -0.1055884512206339 -0.19610810014299959 0 -0.1143022105317214 -0.19176920984990589 0 -0.11636069704563699 -0.20125831597190941 0 -0.1055884512206339 -0.19610810014299959 0 -0.11636069704563699 -0.20125831597190941 0 -0.1069539478940484 -0.20121524606085259 0 -0.11636069704563699 -0.20125831597190941 0 -0.116503442890511 -0.20615462214379501 0 -0.1069539478940484 -0.20121524606085259 0 -0.1055884512206339 -0.19610810014299959 0 -0.11636069704563699 -0.20125831597190941 0 -0.1069539478940484 -0.20121524606085259 0 -0.11636069704563699 -0.20125831597190941 0 -0.1069539478940484 -0.20121524606085259 0 -0.1182325320857732 -0.21701117714245771 0 -0.1146322195844853 -0.229933041338924 0 -0.1069539478940484 -0.20121524606085259 0 -0.1146322195844853 -0.229933041338924 0 -0.12446659453658469 -0.2051337493999616 0 -0.1182325320857732 -0.21701117714245771 0 -0.12964778408632779 -0.2240559515308029 0 -0.1069539478940484 -0.20121524606085259 0 -0.116503442890511 -0.20615462214379501 0 -0.1182325320857732 -0.21701117714245771 0 -0.116503442890511 -0.20615462214379501 0 -0.12446659453658469 -0.2051337493999616 0 -0.1182325320857732 -0.21701117714245771 0 -0.11636069704563699 -0.20125831597190941 0 -0.116503442890511 -0.20615462214379501 0 -0.12446659453658469 -0.2051337493999616 0 -0.11636069704563699 -0.20125831597190941 0 -0.12446659453658469 -0.2051337493999616 0 -0.1234142843990034 -0.20129061165398179 0 -0.12446659453658469 -0.2051337493999616 0 -0.1069539478940484 -0.20121524606085259 0 -0.1039432587622498 -0.21234961129803451 0 -0.1146322195844853 -0.229933041338924 0 -0.091210523848666042 -0.22145825259936749 0 -0.094316415030678002 -0.20115738362531499 0 -0.098742607236989521 -0.21208478243994361 0 -0.1039432587622498 -0.21234961129803451 0 -0.098742607236989521 -0.21208478243994361 0 -0.10362742502627011 -0.2199549018075595 0 -0.1069539478940484 -0.20121524606085259 0 -0.1039432587622498 -0.21234961129803451 0 -0.1006154135170836 -0.20550376286944089 0 -0.1039432587622498 -0.21234961129803451 0 -0.1006154135170836 -0.20550376286944089 0 -0.098742607236989521 -0.21208478243994361 0 -0.094316415030678002 -0.20115738362531499 0 -0.1006154135170836 -0.20550376286944089 0 -0.098742607236989521 -0.21208478243994361 0 -0.091210523848666042 -0.22145825259936749 0 -0.098742607236989521 -0.21208478243994361 0 -0.10362742502627011 -0.2199549018075595 0 -0.096373561920523113 -0.2318247108995648 0 -0.10362742502627011 -0.2199549018075595 0 -0.1025516661405015 -0.24412656761791199 0 -0.1039432587622498 -0.21234961129803451 0 -0.10362742502627011 -0.2199549018075595 0 -0.1146322195844853 -0.229933041338924 0 -0.10362742502627011 -0.2199549018075595 0 -0.1025516661405015 -0.24412656761791199 0 -0.10362742502627011 -0.2199549018075595 0 -0.11057817055071439 -0.23713955200355691 0 -0.1025516661405015 -0.24412656761791199 0 -0.091210523848666042 -0.22145825259936749 0 -0.096373561920523113 -0.2318247108995648 0 -0.10362742502627011 -0.2199549018075595 0 -0.10362742502627011 -0.2199549018075595 0 -0.1146322195844853 -0.229933041338924 0 -0.11057817055071439 -0.23713955200355691 0 -0.1182325320857732 -0.21701117714245771 0 -0.1146322195844853 -0.229933041338924 0 -0.12964778408632779 -0.2240559515308029 0 -0.1146322195844853 -0.229933041338924 0 -0.12594535918601221 -0.23537450645762351 0 -0.12964778408632779 -0.2240559515308029 0 -0.1146322195844853 -0.229933041338924 0 -0.11057817055071439 -0.23713955200355691 0 -0.11992695639240671 -0.24305274461581289 0 -0.1146322195844853 -0.229933041338924 0 -0.11992695639240671 -0.24305274461581289 0 -0.12594535918601221 -0.23537450645762351 0 -0.11992695639240671 -0.24305274461581289 0 -0.12594535918601221 -0.23537450645762351 0 -0.1270777831465402 -0.24161244513161839 0 -0.11057817055071439 -0.23713955200355691 0 -0.11992695639240671 -0.24305274461581289 0 -0.1121525856099083 -0.24863050463757599 0 -0.1183855941197941 -0.25651062511641259 0 -0.11992695639240671 -0.24305274461581289 0 -0.1121525856099083 -0.24863050463757599 0 -0.1097432552782682 -0.2572086698476283 0 -0.1121525856099083 -0.24863050463757599 0 -0.1025516661405015 -0.24412656761791199 0 -0.11057817055071439 -0.23713955200355691 0 -0.1121525856099083 -0.24863050463757599 0 -0.1025516661405015 -0.24412656761791199 0 -0.088104632666654803 -0.24175912157342011 0 -0.096373561920523113 -0.2318247108995648 0 -0.1025516661405015 -0.24412656761791199 0 -0.093680051977193257 -0.25300014610948141 0 -0.088104632666654803 -0.24175912157342011 0 -0.1025516661405015 -0.24412656761791199 0 -0.091208904987890735 -0.14232661368977559 0 -0.087323419063827665 -0.1566704494577609 0 -0.098398678104261977 -0.16921735691638781 0 -0.081276062778159672 -0.14883202435870879 0 -0.08710950077230438 -0.14178266396580899 0 -0.074302444905730333 -0.14290824730771751 0 -0.081276062778159672 -0.14883202435870879 0 -0.091208904987890735 -0.14232661368977559 0 -0.087323419063827665 -0.1566704494577609 0 -0.081276062778159672 -0.14883202435870879 0 -0.08710950077230438 -0.14178266396580899 0 -0.091208904987890735 -0.14232661368977559 0 -0.08710950077230438 -0.14178266396580899 0 -0.091208904987890735 -0.14232661368977559 0 -0.091208904987890735 -0.14232661368977559 0 -0.089131397015513494 -0.13455644729756691 0 -0.089131397015513494 -0.13455644729756691 0 -0.072915517223638954 -0.12670463451369329 0 -0.074302444905730333 -0.14290824730771751 0 -0.08710950077230438 -0.14178266396580899 0 -0.091208904987890735 -0.14232661368977559 0 -0.089131397015513494 -0.13455644729756691 0 -0.08710950077230438 -0.14178266396580899 0 -0.089131397015513494 -0.13455644729756691 0 -0.074302444905730333 -0.14290824730771751 0 -0.089131397015513494 -0.13455644729756691 0 -0.074302444905730333 -0.14290824730771751 0 -0.061100100412547438 -0.13647315015658409 0 -0.072915517223638954 -0.12670463451369329 0 -0.074302444905730333 -0.14290824730771751 0 -0.060928146748241367 -0.123537549367131 0 -0.061100100412547438 -0.13647315015658409 0 -0.072915517223638954 -0.12670463451369329 0 -0.059473492795946999 -0.1512600473178678 0 -0.081276062778159672 -0.14883202435870879 0 -0.074302444905730333 -0.14290824730771751 0 -0.059473492795946999 -0.1512600473178678 0 -0.081276062778159672 -0.14883202435870879 0 -0.078410030384998497 -0.16630580286617139 0 -0.059473492795946999 -0.1512600473178678 0 -0.074302444905730333 -0.14290824730771751 0 -0.059473492795946999 -0.1512600473178678 0 -0.061100100412547438 -0.13647315015658409 0 -0.074302444905730333 -0.14290824730771751 0 -0.061817946007188637 -0.1647032604190713 0 -0.070259181001566293 -0.17921715932508539 0 -0.078410030384998497 -0.16630580286617139 0 -0.059473492795946999 -0.1512600473178678 0 -0.078410030384998497 -0.16630580286617139 0 -0.061817946007188637 -0.1647032604190713 0 -0.059473492795946999 -0.1512600473178678 0 -0.078410030384998497 -0.16630580286617139 0 -0.064566778430722005 -0.1899668467895553 0 -0.075377056328755521 -0.19008301367616509 0 -0.070259181001566293 -0.17921715932508539 0 -0.070259181001566293 -0.17921715932508539 0 -0.08402443889557612 -0.1788939005998389 0 -0.078410030384998497 -0.16630580286617139 0 -0.089423753135733974 -0.18837975033564619 0 -0.070259181001566293 -0.17921715932508539 0 -0.075377056328755521 -0.19008301367616509 0 -0.089423753135733974 -0.18837975033564619 0 -0.070259181001566293 -0.17921715932508539 0 -0.078410030384998497 -0.16630580286617139 0 -0.098398678104261977 -0.16921735691638781 0 -0.097346567974052028 -0.18135155841447259 0 -0.078410030384998497 -0.16630580286617139 0 -0.097346567974052028 -0.18135155841447259 0 -0.08402443889557612 -0.1788939005998389 0 -0.078410030384998497 -0.16630580286617139 0 -0.097346567974052028 -0.18135155841447259 0 -0.089423753135733974 -0.18837975033564619 0 -0.070259181001566293 -0.17921715932508539 0 -0.08402443889557612 -0.1788939005998389 0 -0.089423753135733974 -0.18837975033564619 0 -0.08402443889557612 -0.1788939005998389 0 -0.090500110278716836 -0.18291833725845449 0 -0.08402443889557612 -0.1788939005998389 0 -0.090500110278716836 -0.18291833725845449 0 -0.097346567974052028 -0.18135155841447259 0 -0.089423753135733974 -0.18837975033564619 0 -0.090500110278716836 -0.18291833725845449 0 -0.081276062778159672 -0.14883202435870879 0 -0.078410030384998497 -0.16630580286617139 0 -0.087323419063827665 -0.1566704494577609 0 -0.078410030384998497 -0.16630580286617139 0 -0.087323419063827665 -0.1566704494577609 0 -0.098398678104261977 -0.16921735691638781 0 -0.098398678104261977 -0.16921735691638781 0 -0.1095912747331507 -0.1796343382558257 0 -0.1134730054873082 -0.16498410574444861 0 -0.098398678104261977 -0.16921735691638781 0 -0.1134730054873082 -0.16498410574444861 0 -0.1057127461594554 -0.15566112818699529 0 -0.1055884512206339 -0.19610810014299959 0 -0.098398678104261977 -0.16921735691638781 0 -0.099028938128851704 -0.1826882615985625 0 -0.1055884512206339 -0.19610810014299959 0 -0.098398678104261977 -0.16921735691638781 0 -0.1055884512206339 -0.19610810014299959 0 -0.098398678104261977 -0.16921735691638781 0 -0.1095912747331507 -0.1796343382558257 0 -0.095804572093432044 -0.1914304229002349 0 -0.097346567974052028 -0.18135155841447259 0 -0.099028938128851704 -0.1826882615985625 0 -0.095804572093432044 -0.1914304229002349 0 -0.090500110278716836 -0.18291833725845449 0 -0.097346567974052028 -0.18135155841447259 0 -0.095804572093432044 -0.1914304229002349 0 -0.097346567974052028 -0.18135155841447259 0 -0.097346567974052028 -0.18135155841447259 0 -0.099028938128851704 -0.1826882615985625 0 -0.098398678104261977 -0.16921735691638781 0 -0.097346567974052028 -0.18135155841447259 0 -0.099028938128851704 -0.1826882615985625 0 -0.118443644943155 -0.18313735869921541 0 -0.1134730054873082 -0.16498410574444861 0 -0.1288769000074067 -0.1787922372229141 0 -0.118443644943155 -0.18313735869921541 0 -0.1134730054873082 -0.16498410574444861 0 -0.1095912747331507 -0.1796343382558257 0 -0.118443644943155 -0.18313735869921541 0 -0.1134730054873082 -0.16498410574444861 0 -0.1143022105317214 -0.19176920984990589 0 -0.1095912747331507 -0.1796343382558257 0 -0.118443644943155 -0.18313735869921541 0 -0.1134730054873082 -0.16498410574444861 0 -0.1197703960583608 -0.14611643639736929 0 -0.1290470673658046 -0.1573335562640088 0 -0.1134730054873082 -0.16498410574444861 0 -0.1197703960583608 -0.14611643639736929 0 -0.1057127461594554 -0.15566112818699529 0 -0.091208904987890735 -0.14232661368977559 0 -0.1197703960583608 -0.14611643639736929 0 -0.1055319536065798 -0.13433424813048789 0 -0.091208904987890735 -0.14232661368977559 0 -0.1197703960583608 -0.14611643639736929 0 -0.091208904987890735 -0.14232661368977559 0 -0.098398678104261977 -0.16921735691638781 0 -0.091208904987890735 -0.14232661368977559 0 -0.1197703960583608 -0.14611643639736929 0 -0.1057127461594554 -0.15566112818699529 0 -0.091208904987890735 -0.14232661368977559 0 -0.098398678104261977 -0.16921735691638781 0 -0.1057127461594554 -0.15566112818699529 0 -0.11422347955810171 -0.1204243593602408 0 -0.089131397015513494 -0.13455644729756691 0 -0.1055319536065798 -0.13433424813048789 0 -0.091208904987890735 -0.14232661368977559 0 -0.089131397015513494 -0.13455644729756691 0 -0.1055319536065798 -0.13433424813048789 0 -0.11422347955810171 -0.1204243593602408 0 -0.089131397015513494 -0.13455644729756691 0 -0.11422347955810171 -0.1204243593602408 0 -0.1197703960583608 -0.14611643639736929 0 -0.13445671698849809 -0.1291024538471422 0 -0.11422347955810171 -0.1204243593602408 0 -0.1197703960583608 -0.14611643639736929 0 -0.1055319536065798 -0.13433424813048789 0 -0.1483318871288308 -0.14990625910496369 0 -0.16449988742022109 -0.13664022397910389 0 -0.1531014227808439 -0.1221458571451004 0 -0.13445671698849809 -0.1291024538471422 0 -0.1483318871288308 -0.14990625910496369 0 -0.1531014227808439 -0.1221458571451004 0 -0.1197703960583608 -0.14611643639736929 0 -0.1483318871288308 -0.14990625910496369 0 -0.1197703960583608 -0.14611643639736929 0 -0.13445671698849809 -0.1291024538471422 0 -0.1483318871288308 -0.14990625910496369 0 -0.1197703960583608 -0.14611643639736929 0 -0.1483318871288308 -0.14990625910496369 0 -0.1290470673658046 -0.1573335562640088 0 -0.1134730054873082 -0.16498410574444861 0 -0.13461298078871861 -0.16832742380925381 0 -0.1288769000074067 -0.1787922372229141 0 -0.1134730054873082 -0.16498410574444861 0 -0.1290470673658046 -0.1573335562640088 0 -0.13461298078871861 -0.16832742380925381 0 -0.1483318871288308 -0.14990625910496369 0 -0.1290470673658046 -0.1573335562640088 0 -0.13461298078871861 -0.16832742380925381 0 -0.1288769000074067 -0.1787922372229141 0 -0.13667151748925299 -0.18732448341615179 0 -0.12964513627792831 -0.18854704193980709 0 -0.118443644943155 -0.18313735869921541 0 -0.1288769000074067 -0.1787922372229141 0 -0.12964513627792831 -0.18854704193980709 0 -0.13461298078871861 -0.16832742380925381 0 -0.1288769000074067 -0.1787922372229141 0 -0.13971937495991149 -0.1792470101286355 0 -0.13971937495991149 -0.1792470101286355 0 -0.13667151748925299 -0.18732448341615179 0 -0.14496415935730611 -0.1865433765957375 0 -0.1288769000074067 -0.1787922372229141 0 -0.13971937495991149 -0.1792470101286355 0 -0.13667151748925299 -0.18732448341615179 0 -0.13461298078871861 -0.16832742380925381 0 -0.13971937495991149 -0.1792470101286355 0 -0.15185728900885839 -0.17281716391360821 0 -0.13971937495991149 -0.1792470101286355 0 -0.14496415935730611 -0.1865433765957375 0 -0.15185728900885839 -0.17281716391360821 0 -0.14496415935730611 -0.1865433765957375 0 -0.15185728900885839 -0.17281716391360821 0 -0.15433817598466459 -0.18776234762491931 0 -0.1483318871288308 -0.14990625910496369 0 -0.13461298078871861 -0.16832742380925381 0 -0.15185728900885839 -0.17281716391360821 0 -0.1483318871288308 -0.14990625910496369 0 -0.15185728900885839 -0.17281716391360821 0 -0.1768933781993007 -0.15369608181255809 0 -0.15185728900885839 -0.17281716391360821 0 -0.16517877359736971 -0.18077311964873491 0 -0.1768933781993007 -0.15369608181255809 0 -0.16517877359736971 -0.18077311964873491 0 -0.15433817598466459 -0.18776234762491931 0 -0.16707343948115469 -0.19329854854562631 0 -0.15185728900885839 -0.17281716391360821 0 -0.16517877359736971 -0.18077311964873491 0 -0.15433817598466459 -0.18776234762491931 0 -0.16517877359736971 -0.18077311964873491 0 -0.17993745220376059 -0.17895489523397801 0 -0.16707343948115469 -0.19329854854562631 0 -0.16517877359736971 -0.18077311964873491 0 -0.17993745220376059 -0.17895489523397801 0 -0.1768933781993007 -0.15369608181255809 0 -0.17993745220376059 -0.17895489523397801 0 -0.1768933781993007 -0.15369608181255809 0 -0.19905977422349169 -0.1755558360643551 0 -0.1768933781993007 -0.15369608181255809 0 -0.17856324423929071 -0.13411692648003359 0 -0.16449988742022109 -0.13664022397910389 0 -0.1768933781993007 -0.15369608181255809 0 -0.17856324423929071 -0.13411692648003359 0 -0.1900158864605431 -0.1418606691544825 0 -0.17856324423929071 -0.13411692648003359 0 -0.1912596026832544 -0.12883579632457359 0 -0.1900158864605431 -0.1418606691544825 0 -0.17856324423929071 -0.13411692648003359 0 -0.1912596026832544 -0.12883579632457359 0 -0.18212358698306741 -0.12142770117184561 0 -0.17856324423929071 -0.13411692648003359 0 -0.18212358698306741 -0.12142770117184561 0 -0.16904936396502779 -0.1225698900008125 0 -0.16449988742022109 -0.13664022397910389 0 -0.16904936396502779 -0.1225698900008125 0 -0.1531014227808439 -0.1221458571451004 0 -0.17856324423929071 -0.13411692648003359 0 -0.16449988742022109 -0.13664022397910389 0 -0.16904936396502779 -0.1225698900008125 0 -0.1483318871288308 -0.14990625910496369 0 -0.1768933781993007 -0.15369608181255809 0 -0.1483318871288308 -0.14990625910496369 0 -0.1768933781993007 -0.15369608181255809 0 -0.16449988742022109 -0.13664022397910389 0 -0.15566934165753701 -0.24482136105764621 0 -0.13482897363606841 -0.24297815366164491 0 -0.14564999181442231 -0.22989611270817639 0 -0.15566934165753701 -0.24482136105764621 0 -0.14564999181442231 -0.22989611270817639 0 -0.16429012863802009 -0.23491512272004891 0 -0.15821309250511281 -0.26118480488572993 0 -0.15566934165753701 -0.24482136105764621 0 -0.13482897363606841 -0.24297815366164491 0 -0.1283361407779757 -0.25159171728621699 0 -0.13482897363606841 -0.24297815366164491 0 -0.1310987251445577 -0.2446583467236331 0 -0.1283361407779757 -0.25159171728621699 0 -0.1310987251445577 -0.2446583467236331 0 -0.1270777831465402 -0.24161244513161839 0 -0.1283361407779757 -0.25159171728621699 0 -0.11992695639240671 -0.24305274461581289 0 -0.1270777831465402 -0.24161244513161839 0 -0.13482897363606841 -0.24297815366164491 0 -0.1310987251445577 -0.2446583467236331 0 -0.1270777831465402 -0.24161244513161839 0 -0.13482897363606841 -0.24297815366164491 0 -0.12594535918601221 -0.23537450645762351 0 -0.1270777831465402 -0.24161244513161839 0 -0.13482897363606841 -0.24297815366164491 0 -0.12964778408632779 -0.2240559515308029 0 -0.14564999181442231 -0.22989611270817639 0 -0.13482897363606841 -0.24297815366164491 0 -0.12594535918601221 -0.23537450645762351 0 -0.12964778408632779 -0.2240559515308029 0 -0.13482897363606841 -0.24297815366164491 0 -0.12964778408632779 -0.2240559515308029 0 -0.12964778408632779 -0.2240559515308029 0 -0.14564999181442231 -0.22989611270817639 0 -0.13906082520362789 -0.21424948005767519 0 -0.14564999181442231 -0.22989611270817639 0 -0.1532157355819776 -0.21469763412746851 0 -0.16429012863802009 -0.23491512272004891 0 -0.14564999181442231 -0.22989611270817639 0 -0.1532157355819776 -0.21469763412746851 0 -0.13906082520362789 -0.21424948005767519 0 -0.1532157355819776 -0.21469763412746851 0 -0.1421413425259351 -0.1944801455348881 0 -0.14344356041104711 -0.20138231805780499 0 -0.1532157355819776 -0.21469763412746851 0 -0.1421413425259351 -0.1944801455348881 0 -0.1532157355819776 -0.21469763412746851 0 -0.13906082520362789 -0.21424948005767519 0 -0.14344356041104711 -0.20138231805780499 0 -0.12964778408632779 -0.2240559515308029 0 -0.13906082520362789 -0.21424948005767519 0 -0.12775347419704111 -0.20670520812175669 0 -0.12446659453658469 -0.2051337493999616 0 -0.12964778408632779 -0.2240559515308029 0 -0.12775347419704111 -0.20670520812175669 0 -0.12446659453658469 -0.2051337493999616 0 -0.12964778408632779 -0.2240559515308029 0 -0.1234142843990034 -0.20129061165398179 0 -0.12775347419704111 -0.20670520812175669 0 -0.1342433848347403 -0.2059710501757869 0 -0.1234142843990034 -0.20129061165398179 0 -0.12446659453658469 -0.2051337493999616 0 -0.12775347419704111 -0.20670520812175669 0 -0.12446659453658469 -0.2051337493999616 0 -0.12775347419704111 -0.20670520812175669 0 -0.13906082520362789 -0.21424948005767519 0 -0.12775347419704111 -0.20670520812175669 0 -0.1342433848347403 -0.2059710501757869 0 -0.13906082520362789 -0.21424948005767519 0 -0.1342433848347403 -0.2059710501757869 0 -0.14344356041104711 -0.20138231805780499 0 -0.13448747671815081 -0.19705371152474219 0 -0.1421413425259351 -0.1944801455348881 0 -0.14344356041104711 -0.20138231805780499 0 -0.1234142843990034 -0.20129061165398179 0 -0.1342433848347403 -0.2059710501757869 0 -0.14344356041104711 -0.20138231805780499 0 -0.1234142843990034 -0.20129061165398179 0 -0.13448747671815081 -0.19705371152474219 0 -0.14344356041104711 -0.20138231805780499 0 -0.1234142843990034 -0.20129061165398179 0 -0.14344356041104711 -0.20138231805780499 0 -0.1234142843990034 -0.20129061165398179 0 -0.13448747671815081 -0.19705371152474219 0 -0.12836978379805469 -0.19505845874684749 0 -0.118443644943155 -0.18313735869921541 0 -0.12836978379805469 -0.19505845874684749 0 -0.12964513627792831 -0.18854704193980709 0 -0.12836978379805469 -0.19505845874684749 0 -0.12964513627792831 -0.18854704193980709 0 -0.1350684124567138 -0.19305702363018909 0 -0.13448747671815081 -0.19705371152474219 0 -0.12836978379805469 -0.19505845874684749 0 -0.1350684124567138 -0.19305702363018909 0 -0.13667151748925299 -0.18732448341615179 0 -0.12964513627792831 -0.18854704193980709 0 -0.1350684124567138 -0.19305702363018909 0 -0.13448747671815081 -0.19705371152474219 0 -0.1350684124567138 -0.19305702363018909 0 -0.1421413425259351 -0.1944801455348881 0 -0.13667151748925299 -0.18732448341615179 0 -0.1350684124567138 -0.19305702363018909 0 -0.1421413425259351 -0.1944801455348881 0 -0.1532157355819776 -0.21469763412746851 0 -0.1421413425259351 -0.1944801455348881 0 -0.15666351948114629 -0.1995899832452937 0 -0.13667151748925299 -0.18732448341615179 0 -0.14496415935730611 -0.1865433765957375 0 -0.1421413425259351 -0.1944801455348881 0 -0.14496415935730611 -0.1865433765957375 0 -0.1421413425259351 -0.1944801455348881 0 -0.15433817598466459 -0.18776234762491931 0 -0.1421413425259351 -0.1944801455348881 0 -0.15433817598466459 -0.18776234762491931 0 -0.15666351948114629 -0.1995899832452937 0 -0.15433817598466459 -0.18776234762491931 0 -0.15666351948114629 -0.1995899832452937 0 -0.16707343948115469 -0.19329854854562631 0 -0.15666351948114629 -0.1995899832452937 0 -0.16707343948115469 -0.19329854854562631 0 -0.16732224548458891 -0.20842311436722119 0 -0.16707343948115469 -0.19329854854562631 0 -0.17975878066101059 -0.20042989322362739 0 -0.16732224548458891 -0.20842311436722119 0 -0.17993745220376059 -0.17895489523397801 0 -0.17975878066101059 -0.20042989322362739 0 -0.19266467917721081 -0.1936257676085566 0 -0.17993745220376059 -0.17895489523397801 0 -0.16707343948115469 -0.19329854854562631 0 -0.17975878066101059 -0.20042989322362739 0 -0.17975878066101059 -0.20042989322362739 0 -0.18070391625864071 -0.21863984915545301 0 -0.19253239785726259 -0.2093467412910768 0 -0.17975878066101059 -0.20042989322362739 0 -0.18070391625864071 -0.21863984915545301 0 -0.16732224548458891 -0.20842311436722119 0 -0.1532157355819776 -0.21469763412746851 0 -0.15666351948114629 -0.1995899832452937 0 -0.16732224548458891 -0.20842311436722119 0 -0.1532157355819776 -0.21469763412746851 0 -0.16732224548458891 -0.20842311436722119 0 -0.16429012863802009 -0.23491512272004891 0 -0.1532157355819776 -0.21469763412746851 0 -0.16429012863802009 -0.23491512272004891 0 -0.18070391625864071 -0.21863984915545301 0 -0.16732224548458891 -0.20842311436722119 0 -0.16429012863802009 -0.23491512272004891 0 -0.18070391625864071 -0.21863984915545301 0 -0.18601458812680871 -0.23629827425452701 0 -0.16429012863802009 -0.23491512272004891 0 -0.18070391625864071 -0.21863984915545301 0 -0.18601458812680871 -0.23629827425452701 0 -0.19270158591305361 -0.22296204550849591 0 -0.17536452169406261 -0.25513261131262932 0 -0.18601458812680871 -0.23629827425452701 0 -0.1971211098569064 -0.2485562144643311 0 -0.17536452169406261 -0.25513261131262932 0 -0.18601458812680871 -0.23629827425452701 0 -0.16429012863802009 -0.23491512272004891 0 -0.17536452169406261 -0.25513261131262932 0 -0.16429012863802009 -0.23491512272004891 0 -0.17536452169406261 -0.25513261131262932 0 -0.15566934165753701 -0.24482136105764621 0 -0.16429012863802009 -0.23491512272004891 0 -0.2040044810152343 -0.23377727090047351 0 -0.22181314593257209 -0.22697511150882529 0 -0.22025275826160279 -0.2471257797298928 0 -0.1971211098569064 -0.2485562144643311 0 -0.2040044810152343 -0.23377727090047351 0 -0.22025275826160279 -0.2471257797298928 0 -0.18601458812680871 -0.23629827425452701 0 -0.1971211098569064 -0.2485562144643311 0 -0.2040044810152343 -0.23377727090047351 0 -0.18601458812680871 -0.23629827425452701 0 -0.19270158591305361 -0.22296204550849591 0 -0.2040044810152343 -0.23377727090047351 0 -0.19270158591305361 -0.22296204550849591 0 -0.20646661184779291 -0.2209366033754204 0 -0.2040044810152343 -0.23377727090047351 0 -0.20646661184779291 -0.2209366033754204 0 -0.2040044810152343 -0.23377727090047351 0 -0.22181314593257209 -0.22697511150882529 0 -0.20646661184779291 -0.2209366033754204 0 -0.22181314593257209 -0.22697511150882529 0 -0.20646661184779291 -0.2209366033754204 0 -0.21966781828876961 -0.21222017746694699 0 -0.22181314593257209 -0.22697511150882529 0 -0.20646661184779291 -0.2209366033754204 0 -0.20611948272011121 -0.20304611138236681 0 -0.21966781828876961 -0.21222017746694699 0 -0.20611948272011121 -0.20304611138236681 0 -0.21897926871800019 -0.19669337567287831 0 -0.21966781828876961 -0.21222017746694699 0 -0.20646661184779291 -0.2209366033754204 0 -0.19253239785726259 -0.2093467412910768 0 -0.20611948272011121 -0.20304611138236681 0 -0.19270158591305361 -0.22296204550849591 0 -0.20646661184779291 -0.2209366033754204 0 -0.19253239785726259 -0.2093467412910768 0 -0.18070391625864071 -0.21863984915545301 0 -0.19270158591305361 -0.22296204550849591 0 -0.19253239785726259 -0.2093467412910768 0 -0.19266467917721081 -0.1936257676085566 0 -0.20611948272011121 -0.20304611138236681 0 -0.2083219237785757 -0.1873320277690235 0 -0.17975878066101059 -0.20042989322362739 0 -0.19253239785726259 -0.2093467412910768 0 -0.19266467917721081 -0.1936257676085566 0 -0.19253239785726259 -0.2093467412910768 0 -0.19266467917721081 -0.1936257676085566 0 -0.20611948272011121 -0.20304611138236681 0 -0.20611948272011121 -0.20304611138236681 0 -0.21897926871800019 -0.19669337567287831 0 -0.2083219237785757 -0.1873320277690235 0 -0.21897926871800019 -0.19669337567287831 0 -0.23230424975577199 -0.20503470769258789 0 -0.23313215691775949 -0.18450877018534409 0 -0.2448317244682672 -0.19494017856122331 0 -0.23230424975577199 -0.20503470769258789 0 -0.23313215691775949 -0.18450877018534409 0 -0.2448317244682672 -0.19494017856122331 0 -0.24405101732391901 -0.2151790953022156 0 -0.23230424975577199 -0.20503470769258789 0 -0.2448317244682672 -0.19494017856122331 0 -0.24405101732391901 -0.2151790953022156 0 -0.24405101732391901 -0.2151790953022156 0 -0.23230424975577199 -0.20503470769258789 0 -0.23232415075836929 -0.22063515516960361 0 -0.23230424975577199 -0.20503470769258789 0 -0.21966781828876961 -0.21222017746694699 0 -0.23232415075836929 -0.22063515516960361 0 -0.21897926871800019 -0.19669337567287831 0 -0.23230424975577199 -0.20503470769258789 0 -0.21966781828876961 -0.21222017746694699 0 -0.21966781828876961 -0.21222017746694699 0 -0.22181314593257209 -0.22697511150882529 0 -0.23232415075836929 -0.22063515516960361 0 -0.22181314593257209 -0.22697511150882529 0 -0.23232415075836929 -0.22063515516960361 0 -0.2371596800173508 -0.23301361964223161 0 -0.22181314593257209 -0.22697511150882529 0 -0.2371596800173508 -0.23301361964223161 0 -0.24405101732391901 -0.2151790953022156 0 -0.24327031017957049 -0.23541801204320789 0 -0.24405101732391901 -0.2151790953022156 0 -0.24327031017957049 -0.23541801204320789 0 -0.25588924886857078 -0.22577026586403889 0 -0.24405101732391901 -0.2151790953022156 0 -0.23232415075836929 -0.22063515516960361 0 -0.23916826383476761 -0.23133706037317611 0 -0.24405101732391901 -0.2151790953022156 0 -0.23916826383476761 -0.23133706037317611 0 -0.24327031017957049 -0.23541801204320789 0 -0.23916826383476761 -0.23133706037317611 0 -0.2371596800173508 -0.23301361964223161 0 -0.24327031017957049 -0.23541801204320789 0 -0.2371596800173508 -0.23301361964223161 0 -0.24327031017957049 -0.23541801204320789 0 -0.23232415075836929 -0.22063515516960361 0 -0.23916826383476761 -0.23133706037317611 0 -0.2371596800173508 -0.23301361964223161 0 -0.23916826383476761 -0.23133706037317611 0 -0.2371596800173508 -0.23301361964223161 0 -0.24233717299785959 -0.25960849866204011 0 -0.24327031017957049 -0.23541801204320789 0 -0.23442911476228809 -0.24683612341654529 0 -0.24233717299785959 -0.25960849866204011 0 -0.24327031017957049 -0.23541801204320789 0 -0.25018128361314113 -0.24746468840205441 0 -0.2371596800173508 -0.23301361964223161 0 -0.24327031017957049 -0.23541801204320789 0 -0.23442911476228809 -0.24683612341654529 0 -0.24233717299785959 -0.25960849866204011 0 -0.24327031017957049 -0.23541801204320789 0 -0.2371596800173508 -0.23301361964223161 0 -0.22025275826160279 -0.2471257797298928 0 -0.2371596800173508 -0.23301361964223161 0 -0.23442911476228809 -0.24683612341654529 0 -0.22025275826160279 -0.2471257797298928 0 -0.22181314593257209 -0.22697511150882529 0 -0.2371596800173508 -0.23301361964223161 0 -0.22025275826160279 -0.2471257797298928 0 -0.21260261997950849 -0.1372892749024191 0 -0.20545486926977061 -0.1574859045201529 0 -0.21260261997950849 -0.1372892749024191 0 -0.20545486926977061 -0.1574859045201529 0 -0.22601880180638709 -0.14497793796819641 0 -0.21260261997950849 -0.1372892749024191 0 -0.20085213665154589 -0.13643960324073179 0 -0.20545486926977061 -0.1574859045201529 0 -0.21260261997950849 -0.1372892749024191 0 -0.2197503706892443 -0.1170926452846846 0 -0.20366324778073339 -0.1226314006036201 0 -0.21260261997950849 -0.1372892749024191 0 -0.2197503706892443 -0.1170926452846846 0 -0.21260261997950849 -0.1372892749024191 0 -0.20085213665154589 -0.13643960324073179 0 -0.20366324778073339 -0.1226314006036201 0 -0.20085213665154589 -0.13643960324073179 0 -0.1912596026832544 -0.12883579632457359 0 -0.20366324778073339 -0.1226314006036201 0 -0.20085213665154589 -0.13643960324073179 0 -0.1912596026832544 -0.12883579632457359 0 -0.1900158864605431 -0.1418606691544825 0 -0.1768933781993007 -0.15369608181255809 0 -0.1900158864605431 -0.1418606691544825 0 -0.20545486926977061 -0.1574859045201529 0 -0.1768933781993007 -0.15369608181255809 0 -0.20545486926977061 -0.1574859045201529 0 -0.20085213665154589 -0.13643960324073179 0 -0.1900158864605431 -0.1418606691544825 0 -0.20545486926977061 -0.1574859045201529 0 -0.1768933781993007 -0.15369608181255809 0 -0.19905977422349169 -0.1755558360643551 0 -0.20545486926977061 -0.1574859045201529 0 -0.19905977422349169 -0.1755558360643551 0 -0.20545486926977061 -0.1574859045201529 0 -0.19266467917721081 -0.1936257676085566 0 -0.19905977422349169 -0.1755558360643551 0 -0.19266467917721081 -0.1936257676085566 0 -0.19905977422349169 -0.1755558360643551 0 -0.2083219237785757 -0.1873320277690235 0 -0.17993745220376059 -0.17895489523397801 0 -0.19266467917721081 -0.1936257676085566 0 -0.19905977422349169 -0.1755558360643551 0 -0.21897926871800019 -0.19669337567287831 0 -0.2083219237785757 -0.1873320277690235 0 -0.21860002285518379 -0.17692462022396371 0 -0.19905977422349169 -0.1755558360643551 0 -0.2083219237785757 -0.1873320277690235 0 -0.21860002285518379 -0.17692462022396371 0 -0.19905977422349169 -0.1755558360643551 0 -0.21860002285518379 -0.17692462022396371 0 -0.20545486926977061 -0.1574859045201529 0 -0.21860002285518379 -0.17692462022396371 0 -0.20545486926977061 -0.1574859045201529 0 -0.2334194436613071 -0.16119652238585741 0 -0.20545486926977061 -0.1574859045201529 0 -0.2334194436613071 -0.16119652238585741 0 -0.21860002285518379 -0.17692462022396371 0 -0.2334194436613071 -0.16119652238585741 0 -0.23313215691775949 -0.18450877018534409 0 -0.21897926871800019 -0.19669337567287831 0 -0.21860002285518379 -0.17692462022396371 0 -0.23313215691775949 -0.18450877018534409 0 -0.2448317244682672 -0.19494017856122331 0 -0.24561243161261531 -0.1747012618202311 0 -0.2448317244682672 -0.19494017856122331 0 -0.23313215691775949 -0.18450877018534409 0 -0.24561243161261531 -0.1747012618202311 0 -0.2334194436613071 -0.16119652238585741 0 -0.23313215691775949 -0.18450877018534409 0 -0.24561243161261531 -0.1747012618202311 0 -0.2334194436613071 -0.16119652238585741 0 -0.24768759332024501 -0.15288591991307249 0 -0.26138401805284373 -0.16490714025156239 0 -0.2334194436613071 -0.16119652238585741 0 -0.24561243161261531 -0.1747012618202311 0 -0.26138401805284373 -0.16490714025156239 0 -0.2334194436613071 -0.16119652238585741 0 -0.26138401805284373 -0.16490714025156239 0 -0.24768759332024501 -0.15288591991307249 0 -0.24035206963199701 -0.13773520297616959 0 -0.25066558347885931 -0.13251764995053431 0 -0.23716828236838119 -0.14842713651880179 0 -0.22601880180638709 -0.14497793796819641 0 -0.24035206963199701 -0.13773520297616959 0 -0.24768759332024501 -0.15288591991307249 0 -0.23716828236838119 -0.14842713651880179 0 -0.24035206963199701 -0.13773520297616959 0 -0.2334194436613071 -0.16119652238585741 0 -0.24768759332024501 -0.15288591991307249 0 -0.23716828236838119 -0.14842713651880179 0 -0.20545486926977061 -0.1574859045201529 0 -0.2334194436613071 -0.16119652238585741 0 -0.22601880180638709 -0.14497793796819641 0 -0.2334194436613071 -0.16119652238585741 0 -0.23716828236838119 -0.14842713651880179 0 -0.22601880180638709 -0.14497793796819641 0 -0.21260261997950849 -0.1372892749024191 0 -0.22701037204806629 -0.12800517972509859 0 -0.2197503706892443 -0.1170926452846846 0 -0.22601880180638709 -0.14497793796819641 0 -0.22701037204806629 -0.12800517972509859 0 -0.24035206963199701 -0.13773520297616959 0 -0.21260261997950849 -0.1372892749024191 0 -0.22601880180638709 -0.14497793796819641 0 -0.22701037204806629 -0.12800517972509859 0 -0.22701037204806629 -0.12800517972509859 0 -0.23833475363582929 -0.12699719077821001 0 -0.24035206963199701 -0.13773520297616959 0 -0.23833475363582929 -0.12699719077821001 0 -0.24035206963199701 -0.13773520297616959 0 -0.25066558347885931 -0.13251764995053431 0 -0.23833475363582929 -0.12699719077821001 0 -0.2466021228926524 -0.1215603100838341 0 -0.25066558347885931 -0.13251764995053431 0 -0.2466021228926524 -0.1215603100838341 0 -0.23420880670407421 -0.115344861449812 0 -0.25028307647261949 -0.1119170655065333 0 -0.23833475363582929 -0.12699719077821001 0 -0.2466021228926524 -0.1215603100838341 0 -0.23420880670407421 -0.115344861449812 0 -0.23975108867161321 -0.096745383671773488 0 -0.23420880670407421 -0.115344861449812 0 -0.25028307647261949 -0.1119170655065333 0 -0.23975108867161321 -0.096745383671773488 0 -0.25028307647261949 -0.1119170655065333 0 -0.25454071313255938 -0.097810231909066098 0 -0.23975108867161321 -0.096745383671773488 0 -0.22550089202944229 -0.1008440162637169 0 -0.23125141336964011 -0.084595387242749231 0 -0.23975108867161321 -0.096745383671773488 0 -0.22550089202944229 -0.1008440162637169 0 -0.23420880670407421 -0.115344861449812 0 -0.22550089202944229 -0.1008440162637169 0 -0.23125141336964011 -0.084595387242749231 0 -0.20770402821161371 -0.098985744105056478 0 -0.22550089202944229 -0.1008440162637169 0 -0.2197503706892443 -0.1170926452846846 0 -0.22550089202944229 -0.1008440162637169 0 -0.2197503706892443 -0.1170926452846846 0 -0.23420880670407421 -0.115344861449812 0 -0.22701037204806629 -0.12800517972509859 0 -0.2197503706892443 -0.1170926452846846 0 -0.22701037204806629 -0.12800517972509859 0 -0.2197503706892443 -0.1170926452846846 0 -0.23420880670407421 -0.115344861449812 0 -0.22701037204806629 -0.12800517972509859 0 -0.23833475363582929 -0.12699719077821001 0 -0.23420880670407421 -0.115344861449812 0 -0.24621250417125429 -0.067242688607955695 0 -0.2359213828018043 -0.071399957410672343 0 -0.2460442741291925 -0.056732515276429897 0 -0.24101683233652779 -0.07862751170581421 0 -0.252754029676304 -0.071454636367457428 0 -0.24621250417125429 -0.067242688607955695 0 -0.24101683233652779 -0.07862751170581421 0 -0.252754029676304 -0.071454636367457428 0 -0.2359213828018043 -0.071399957410672343 0 -0.24101683233652779 -0.07862751170581421 0 -0.24621250417125429 -0.067242688607955695 0 -0.2359213828018043 -0.071399957410672343 0 -0.24101683233652779 -0.07862751170581421 0 -0.24101683233652779 -0.07862751170581421 0 -0.25454071313255938 -0.097810231909066098 0 -0.23975108867161321 -0.096745383671773488 0 -0.24101683233652779 -0.07862751170581421 0 -0.25454071313255938 -0.097810231909066098 0 -0.23975108867161321 -0.096745383671773488 0 -0.24101683233652779 -0.07862751170581421 0 -0.23125141336964011 -0.084595387242749231 0 -0.24101683233652779 -0.07862751170581421 0 -0.23125141336964011 -0.084595387242749231 0 -0.2359213828018043 -0.071399957410672343 0 -0.24101683233652779 -0.07862751170581421 0 -0.23125141336964011 -0.084595387242749231 0 -0.23125141336964011 -0.084595387242749231 0 -0.2244703125416819 -0.072794076224461268 0 -0.21310247649950159 -0.079773441579648038 0 -0.23125141336964011 -0.084595387242749231 0 -0.20770402821161371 -0.098985744105056478 0 -0.22550089202944229 -0.1008440162637169 0 -0.23125141336964011 -0.084595387242749231 0 -0.2359213828018043 -0.071399957410672343 0 -0.2235514570548072 -0.053854045248439182 0 -0.2244703125416819 -0.072794076224461268 0 -0.21482267827762841 -0.069082647852091478 0 -0.2235514570548072 -0.053854045248439182 0 -0.2359213828018043 -0.071399957410672343 0 -0.2244703125416819 -0.072794076224461268 0 -0.2235514570548072 -0.053854045248439182 0 -0.2359213828018043 -0.071399957410672343 0 -0.23125141336964011 -0.084595387242749231 0 -0.2244703125416819 -0.072794076224461268 0 -0.2359213828018043 -0.071399957410672343 0 -0.23125141336964011 -0.084595387242749231 0 -0.20472732395068391 -0.070425609547595483 0 -0.21310247649950159 -0.079773441579648038 0 -0.1942101978544846 -0.078703118630565005 0 -0.21482267827762841 -0.069082647852091478 0 -0.20472732395068391 -0.070425609547595483 0 -0.20783277774853701 -0.056374475910446593 0 -0.2244703125416819 -0.072794076224461268 0 -0.21482267827762841 -0.069082647852091478 0 -0.21310247649950159 -0.079773441579648038 0 -0.21482267827762841 -0.069082647852091478 0 -0.20472732395068391 -0.070425609547595483 0 -0.21310247649950159 -0.079773441579648038 0 -0.23125141336964011 -0.084595387242749231 0 -0.21310247649950159 -0.079773441579648038 0 -0.20770402821161371 -0.098985744105056478 0 -0.21310247649950159 -0.079773441579648038 0 -0.1942101978544846 -0.078703118630565005 0 -0.20770402821161371 -0.098985744105056478 0 -0.1942101978544846 -0.078703118630565005 0 -0.20770402821161371 -0.098985744105056478 0 -0.1942101978544846 -0.078703118630565005 0 -0.20770402821161371 -0.098985744105056478 0 -0.19331927689223261 -0.094690670375105077 0 -0.1942101978544846 -0.078703118630565005 0 -0.19331927689223261 -0.094690670375105077 0 -0.1804061946459036 -0.0975656506999769 0 -0.1942101978544846 -0.078703118630565005 0 -0.1807163674973549 -0.058420493156073998 0 -0.19569491766720151 -0.061370611856350392 0 -0.20472732395068391 -0.070425609547595483 0 -0.1942101978544846 -0.078703118630565005 0 -0.19569491766720151 -0.061370611856350392 0 -0.20472732395068391 -0.070425609547595483 0 -0.19569491766720151 -0.061370611856350392 0 -0.20783277774853701 -0.056374475910446593 0 -0.2197503706892443 -0.1170926452846846 0 -0.20366324778073339 -0.1226314006036201 0 -0.20770402821161371 -0.098985744105056478 0 -0.22550089202944229 -0.1008440162637169 0 -0.2197503706892443 -0.1170926452846846 0 -0.20770402821161371 -0.098985744105056478 0 -0.2197503706892443 -0.1170926452846846 0 -0.20770402821161371 -0.098985744105056478 0 -0.20770402821161371 -0.098985744105056478 0 -0.19331927689223261 -0.094690670375105077 0 -0.18400427859456039 -0.1134692144457318 0 -0.20770402821161371 -0.098985744105056478 0 -0.18400427859456039 -0.1134692144457318 0 -0.20770402821161371 -0.098985744105056478 0 -0.19170728544238649 -0.1194909919475228 0 -0.18400427859456039 -0.1134692144457318 0 -0.20366324778073339 -0.1226314006036201 0 -0.20770402821161371 -0.098985744105056478 0 -0.19170728544238649 -0.1194909919475228 0 -0.1912596026832544 -0.12883579632457359 0 -0.20366324778073339 -0.1226314006036201 0 -0.19170728544238649 -0.1194909919475228 0 -0.1912596026832544 -0.12883579632457359 0 -0.19170728544238649 -0.1194909919475228 0 -0.18212358698306741 -0.12142770117184561 0 -0.18212358698306741 -0.12142770117184561 0 -0.18400427859456039 -0.1134692144457318 0 -0.1804061946459036 -0.0975656506999769 0 -0.18212358698306741 -0.12142770117184561 0 -0.17231042801981861 -0.11010941660198729 0 -0.1804061946459036 -0.0975656506999769 0 -0.19170728544238649 -0.1194909919475228 0 -0.18212358698306741 -0.12142770117184561 0 -0.18400427859456039 -0.1134692144457318 0 -0.18212358698306741 -0.12142770117184561 0 -0.1804061946459036 -0.0975656506999769 0 -0.18212358698306741 -0.12142770117184561 0 -0.17231042801981861 -0.11010941660198729 0 -0.16904936396502779 -0.1225698900008125 0 -0.16904936396502779 -0.1225698900008125 0 -0.16303186383997401 -0.11054530689275879 0 -0.1531014227808439 -0.1221458571451004 0 -0.16303186383997401 -0.11054530689275879 0 -0.1531014227808439 -0.1221458571451004 0 -0.15302467802266631 -0.099964594768007481 0 -0.17231042801981861 -0.11010941660198729 0 -0.16904936396502779 -0.1225698900008125 0 -0.16303186383997401 -0.11054530689275879 0 -0.16694113066512001 -0.098438534244542714 0 -0.1583311292500037 -0.086155785580523059 0 -0.15302467802266631 -0.099964594768007481 0 -0.16303186383997401 -0.11054530689275879 0 -0.16694113066512001 -0.098438534244542714 0 -0.15302467802266631 -0.099964594768007481 0 -0.17231042801981861 -0.11010941660198729 0 -0.16303186383997401 -0.11054530689275879 0 -0.16694113066512001 -0.098438534244542714 0 -0.16694113066512001 -0.098438534244542714 0 -0.1804061946459036 -0.0975656506999769 0 -0.1699979234477183 -0.086164615643162509 0 -0.19331927689223261 -0.094690670375105077 0 -0.18400427859456039 -0.1134692144457318 0 -0.1804061946459036 -0.0975656506999769 0 -0.17231042801981861 -0.11010941660198729 0 -0.16694113066512001 -0.098438534244542714 0 -0.1804061946459036 -0.0975656506999769 0 -0.1942101978544846 -0.078703118630565005 0 -0.1804061946459036 -0.0975656506999769 0 -0.17868880230873979 -0.073703600228108263 0 -0.1804061946459036 -0.0975656506999769 0 -0.17868880230873979 -0.073703600228108263 0 -0.1804061946459036 -0.0975656506999769 0 -0.17868880230873979 -0.073703600228108263 0 -0.1699979234477183 -0.086164615643162509 0 -0.1942101978544846 -0.078703118630565005 0 -0.17868880230873979 -0.073703600228108263 0 -0.1807163674973549 -0.058420493156073998 0 -0.1942101978544846 -0.078703118630565005 0 -0.1807163674973549 -0.058420493156073998 0 -0.17868880230873979 -0.073703600228108263 0 -0.16456215259537851 -0.07423447470758808 0 -0.1687761726195266 -0.062055246708151823 0 -0.16456215259537851 -0.07423447470758808 0 -0.1601060057786266 -0.063048208625582775 0 -0.1687761726195266 -0.062055246708151823 0 -0.17868880230873979 -0.073703600228108263 0 -0.16456215259537851 -0.07423447470758808 0 -0.1699979234477183 -0.086164615643162509 0 -0.16456215259537851 -0.07423447470758808 0 -0.1601060057786266 -0.063048208625582775 0 -0.15147288216765581 -0.074279391460000108 0 -0.16694113066512001 -0.098438534244542714 0 -0.1699979234477183 -0.086164615643162509 0 -0.1583311292500037 -0.086155785580523059 0 -0.16456215259537851 -0.07423447470758808 0 -0.1699979234477183 -0.086164615643162509 0 -0.1583311292500037 -0.086155785580523059 0 -0.16456215259537851 -0.07423447470758808 0 -0.1583311292500037 -0.086155785580523059 0 -0.15147288216765581 -0.074279391460000108 0 -0.1583311292500037 -0.086155785580523059 0 -0.1406917504718985 -0.083199174386461974 0 -0.15147288216765581 -0.074279391460000108 0 -0.1583311292500037 -0.086155785580523059 0 -0.1406917504718985 -0.083199174386461974 0 -0.15302467802266631 -0.099964594768007481 0 -0.1601060057786266 -0.063048208625582775 0 -0.15147288216765581 -0.074279391460000108 0 -0.14916280428309589 -0.053864076679432472 0 -0.15147288216765581 -0.074279391460000108 0 -0.13891648936515211 -0.064472249171247775 0 -0.14916280428309589 -0.053864076679432472 0 -0.1406917504718985 -0.083199174386461974 0 -0.15147288216765581 -0.074279391460000108 0 -0.13891648936515211 -0.064472249171247775 0 -0.12197003300458489 -0.067133964797042034 0 -0.1406917504718985 -0.083199174386461974 0 -0.13891648936515211 -0.064472249171247775 0 -0.121811479392537 -0.084095963505499416 0 -0.12197003300458489 -0.067133964797042034 0 -0.1406917504718985 -0.083199174386461974 0 -0.121811479392537 -0.084095963505499416 0 -0.1406917504718985 -0.083199174386461974 0 -0.13931556210068971 -0.10629227142291391 0 -0.11605893441195141 -0.10185107539240761 0 -0.121811479392537 -0.084095963505499416 0 -0.13931556210068971 -0.10629227142291391 0 -0.11422347955810171 -0.1204243593602408 0 -0.13931556210068971 -0.10629227142291391 0 -0.11422347955810171 -0.1204243593602408 0 -0.13445671698849809 -0.1291024538471422 0 -0.13931556210068971 -0.10629227142291391 0 -0.13445671698849809 -0.1291024538471422 0 -0.13931556210068971 -0.10629227142291391 0 -0.1531014227808439 -0.1221458571451004 0 -0.13931556210068971 -0.10629227142291391 0 -0.1531014227808439 -0.1221458571451004 0 -0.15302467802266631 -0.099964594768007481 0 -0.1406917504718985 -0.083199174386461974 0 -0.13931556210068971 -0.10629227142291391 0 -0.15302467802266631 -0.099964594768007481 0 -0.14079925107272581 -0.02334449083682992 0 -0.15349169287978739 -0.035208883327978051 0 -0.15939520176274349 -0.015620398581745401 0 -0.14079925107272581 -0.02334449083682992 0 -0.14275634286812811 -0.006203461430080404 0 -0.15939520176274349 -0.015620398581745401 0 -0.14275634286812811 -0.006203461430080404 0 -0.15939520176274349 -0.015620398581745401 0 -0.15796117991031841 -0.00029962151665172479 0 -0.14079925107272581 -0.02334449083682992 0 -0.14275634286812811 -0.006203461430080404 0 -0.1278640484455188 -0.012334690821253821 0 -0.14275634286812811 -0.006203461430080404 0 -0.1278640484455188 -0.012334690821253821 0 -0.1273771369441013 0.0023450629401116992 0 -0.12411398995058071 -0.026208981462584841 0 -0.14079925107272581 -0.02334449083682992 0 -0.1278640484455188 -0.012334690821253821 0 -0.12411398995058071 -0.026208981462584841 0 -0.14079925107272581 -0.02334449083682992 0 -0.13241258759658719 -0.044529255409706578 0 -0.13891648936515211 -0.064472249171247775 0 -0.13241258759658719 -0.044529255409706578 0 -0.14916280428309589 -0.053864076679432472 0 -0.12197003300458489 -0.067133964797042034 0 -0.13891648936515211 -0.064472249171247775 0 -0.13241258759658719 -0.044529255409706578 0 -0.14079925107272581 -0.02334449083682992 0 -0.13241258759658719 -0.044529255409706578 0 -0.15349169287978739 -0.035208883327978051 0 -0.14916280428309589 -0.053864076679432472 0 -0.15349169287978739 -0.035208883327978051 0 -0.16249228466986629 -0.048723367468166891 0 -0.13241258759658719 -0.044529255409706578 0 -0.14916280428309589 -0.053864076679432472 0 -0.15349169287978739 -0.035208883327978051 0 -0.15349169287978739 -0.035208883327978051 0 -0.16249228466986629 -0.048723367468166891 0 -0.17525401763441231 -0.025979499284370731 0 -0.16249228466986629 -0.048723367468166891 0 -0.17697140997157609 -0.049841549756239563 0 -0.17525401763441231 -0.025979499284370731 0 -0.1601060057786266 -0.063048208625582775 0 -0.14916280428309589 -0.053864076679432472 0 -0.16249228466986629 -0.048723367468166891 0 -0.1601060057786266 -0.063048208625582775 0 -0.16249228466986629 -0.048723367468166891 0 -0.1687761726195266 -0.062055246708151823 0 -0.16249228466986629 -0.048723367468166891 0 -0.1687761726195266 -0.062055246708151823 0 -0.17697140997157609 -0.049841549756239563 0 -0.17868880230873979 -0.073703600228108263 0 -0.17697140997157609 -0.049841549756239563 0 -0.17868880230873979 -0.073703600228108263 0 -0.17697140997157609 -0.049841549756239563 0 -0.1807163674973549 -0.058420493156073998 0 -0.17868880230873979 -0.073703600228108263 0 -0.1687761726195266 -0.062055246708151823 0 -0.17697140997157609 -0.049841549756239563 0 -0.17697140997157609 -0.049841549756239563 0 -0.187061179232277 -0.050545000195171969 0 -0.1807163674973549 -0.058420493156073998 0 -0.17697140997157609 -0.049841549756239563 0 -0.17525401763441231 -0.025979499284370731 0 -0.17697140997157609 -0.049841549756239563 0 -0.1844822702309237 -0.037308153316215523 0 -0.17525401763441231 -0.025979499284370731 0 -0.17697140997157609 -0.049841549756239563 0 -0.187061179232277 -0.050545000195171969 0 -0.1844822702309237 -0.037308153316215523 0 -0.1844822702309237 -0.037308153316215523 0 -0.17525401763441231 -0.025979499284370731 0 -0.19881160556081021 -0.01876222092397466 0 -0.17525401763441231 -0.025979499284370731 0 -0.17967452986780849 -0.0030086181600807401 0 -0.19881160556081021 -0.01876222092397466 0 -0.15349169287978739 -0.035208883327978051 0 -0.17525401763441231 -0.025979499284370731 0 -0.15939520176274349 -0.015620398581745401 0 -0.17525401763441231 -0.025979499284370731 0 -0.15939520176274349 -0.015620398581745401 0 -0.17967452986780849 -0.0030086181600807401 0 -0.15939520176274349 -0.015620398581745401 0 -0.15796117991031841 -0.00029962151665172479 0 -0.17967452986780849 -0.0030086181600807401 0 -0.17967452986780849 -0.0030086181600807401 0 -0.19881160556081021 -0.01876222092397466 0 -0.20680301002479959 -0.0020434230711429339 0 -0.1844822702309237 -0.037308153316215523 0 -0.19881160556081021 -0.01876222092397466 0 -0.19797908447346779 -0.034540675054344362 0 -0.19881160556081021 -0.01876222092397466 0 -0.19797908447346779 -0.034540675054344362 0 -0.2111815313078087 -0.036308133086206937 0 -0.19881160556081021 -0.01876222092397466 0 -0.2111815313078087 -0.036308133086206937 0 -0.19881160556081021 -0.01876222092397466 0 -0.2111815313078087 -0.036308133086206937 0 -0.21993326537292579 -0.016570742696256829 0 -0.19881160556081021 -0.01876222092397466 0 -0.20680301002479959 -0.0020434230711429339 0 -0.21993326537292579 -0.016570742696256829 0 -0.20680301002479959 -0.0020434230711429339 0 -0.21993326537292579 -0.016570742696256829 0 -0.22850437187820721 0.00061554774341724197 0 -0.187061179232277 -0.050545000195171969 0 -0.1807163674973549 -0.058420493156073998 0 -0.19569491766720151 -0.061370611856350392 0 -0.187061179232277 -0.050545000195171969 0 -0.19569491766720151 -0.061370611856350392 0 -0.1974409307943287 -0.045784192890980333 0 -0.19569491766720151 -0.061370611856350392 0 -0.1974409307943287 -0.045784192890980333 0 -0.20783277774853701 -0.056374475910446593 0 -0.187061179232277 -0.050545000195171969 0 -0.1844822702309237 -0.037308153316215523 0 -0.1974409307943287 -0.045784192890980333 0 -0.1844822702309237 -0.037308153316215523 0 -0.1974409307943287 -0.045784192890980333 0 -0.19797908447346779 -0.034540675054344362 0 -0.1974409307943287 -0.045784192890980333 0 -0.19797908447346779 -0.034540675054344362 0 -0.2111815313078087 -0.036308133086206937 0 -0.1974409307943287 -0.045784192890980333 0 -0.2111815313078087 -0.036308133086206937 0 -0.20783277774853701 -0.056374475910446593 0 -0.2111815313078087 -0.036308133086206937 0 -0.2235514570548072 -0.053854045248439182 0 -0.21482267827762841 -0.069082647852091478 0 -0.20783277774853701 -0.056374475910446593 0 -0.2235514570548072 -0.053854045248439182 0 -0.2111815313078087 -0.036308133086206937 0 -0.20783277774853701 -0.056374475910446593 0 -0.2235514570548072 -0.053854045248439182 0 -0.2359213828018043 -0.071399957410672343 0 -0.2235514570548072 -0.053854045248439182 0 -0.23385975453729951 -0.05448316257834377 0 -0.2235514570548072 -0.053854045248439182 0 -0.23385975453729951 -0.05448316257834377 0 -0.23195090370150159 -0.044148728843497582 0 -0.2111815313078087 -0.036308133086206937 0 -0.23195090370150159 -0.044148728843497582 0 -0.2330954250503823 -0.030605580137893669 0 -0.2111815313078087 -0.036308133086206937 0 -0.2235514570548072 -0.053854045248439182 0 -0.23195090370150159 -0.044148728843497582 0 -0.2440152745910836 -0.048529918810766987 0 -0.25210916638036568 -0.025659880210862549 0 -0.23195090370150159 -0.044148728843497582 0 -0.2440152745910836 -0.048529918810766987 0 -0.2330954250503823 -0.030605580137893669 0 -0.2440152745910836 -0.048529918810766987 0 -0.2330954250503823 -0.030605580137893669 0 -0.25210916638036568 -0.025659880210862549 0 -0.2359213828018043 -0.071399957410672343 0 -0.2440152745910836 -0.048529918810766987 0 -0.2460442741291925 -0.056732515276429897 0 -0.2359213828018043 -0.071399957410672343 0 -0.2440152745910836 -0.048529918810766987 0 -0.2359213828018043 -0.071399957410672343 0 -0.23385975453729951 -0.05448316257834377 0 -0.2440152745910836 -0.048529918810766987 0 -0.23385975453729951 -0.05448316257834377 0 -0.23195090370150159 -0.044148728843497582 0 -0.2440152745910836 -0.048529918810766987 0 -0.2440152745910836 -0.048529918810766987 0 -0.2460442741291925 -0.056732515276429897 0 -0.25586239660102372 -0.042106716883949957 0 -0.21993326537292579 -0.016570742696256829 0 -0.2409228609234593 -0.01213331886889705 0 -0.22850437187820721 0.00061554774341724197 0 -0.21993326537292579 -0.016570742696256829 0 -0.2330954250503823 -0.030605580137893669 0 -0.2409228609234593 -0.01213331886889705 0 -0.2111815313078087 -0.036308133086206937 0 -0.21993326537292579 -0.016570742696256829 0 -0.2330954250503823 -0.030605580137893669 0 -0.2330954250503823 -0.030605580137893669 0 -0.2409228609234593 -0.01213331886889705 0 -0.25210916638036568 -0.025659880210862549 0 -0.2409228609234593 -0.01213331886889705 0 -0.25132042997239518 0.0027134119798401068 0 -0.22850437187820721 0.00061554774341724197 0 -0.2409228609234593 -0.01213331886889705 0 -0.26431478179583978 -0.01186883573312463 0 -0.25132042997239518 0.0027134119798401068 0 -0.2409228609234593 -0.01213331886889705 0 -0.26431478179583978 -0.01186883573312463 0 -0.25210916638036568 -0.025659880210862549 0 -0.26431478179583978 -0.01186883573312463 0 -0.25210916638036568 -0.025659880210862549 0 -0.26885463380623098 -0.032431385670777198 0 -0.26431478179583978 -0.01186883573312463 0 -0.28272693982295583 -0.022072801118422261 0 -0.26885463380623098 -0.032431385670777198 0 -0.26431478179583978 -0.01186883573312463 0 -0.2820771903446922 -0.0013122005201030101 0 -0.28272693982295583 -0.022072801118422261 0 -0.26431478179583978 -0.01186883573312463 0 -0.2820771903446922 -0.0013122005201030101 0 -0.26646431581863778 0.01029557754540468 0 -0.2820771903446922 -0.0013122005201030101 0 -0.29531588189047731 -0.01459302740547606 0 -0.28272693982295583 -0.022072801118422261 0 -0.2820771903446922 -0.0013122005201030101 0 -0.29531588189047731 -0.01459302740547606 0 -0.30047775033007851 -0.00039401612408775783 0 -0.28272693982295583 -0.022072801118422261 0 -0.29548818451705972 -0.026431314805352931 0 -0.29006158744840338 -0.043009214960059237 0 -0.29531588189047731 -0.01459302740547606 0 -0.28272693982295583 -0.022072801118422261 0 -0.29548818451705972 -0.026431314805352931 0 -0.30546101391149699 -0.021623392358951481 0 -0.31536924438116293 -0.015921951660718081 0 -0.31269309410946189 -0.035953378537937578 0 -0.29531588189047731 -0.01459302740547606 0 -0.29548818451705972 -0.026431314805352931 0 -0.30546101391149699 -0.021623392358951481 0 -0.29548818451705972 -0.026431314805352931 0 -0.30546101391149699 -0.021623392358951481 0 -0.30306546886548719 -0.032455918975325043 0 -0.30546101391149699 -0.021623392358951481 0 -0.31269309410946189 -0.035953378537937578 0 -0.30546101391149699 -0.021623392358951481 0 -0.30306546886548719 -0.032455918975325043 0 -0.31269309410946189 -0.035953378537937578 0 -0.30546101391149699 -0.021623392358951481 0 -0.30702321298661528 -0.0098616365840560535 0 -0.31536924438116293 -0.015921951660718081 0 -0.30702321298661528 -0.0098616365840560535 0 -0.30047775033007851 -0.00039401612408775783 0 -0.31849217441985911 0.0032242046289520012 0 -0.29531588189047731 -0.01459302740547606 0 -0.30702321298661528 -0.0098616365840560535 0 -0.30047775033007851 -0.00039401612408775783 0 -0.29531588189047731 -0.01459302740547606 0 -0.30546101391149699 -0.021623392358951481 0 -0.30702321298661528 -0.0098616365840560535 0 -0.30785263576887473 -0.062005008750064983 0 -0.31269309410946189 -0.035953378537937578 0 -0.30785263576887473 -0.062005008750064983 0 -0.29006158744840338 -0.043009214960059237 0 -0.31269309410946189 -0.035953378537937578 0 -0.30306546886548719 -0.032455918975325043 0 -0.29006158744840338 -0.043009214960059237 0 -0.31269309410946189 -0.035953378537937578 0 -0.29006158744840338 -0.043009214960059237 0 -0.31269309410946189 -0.035953378537937578 0 -0.29548818451705972 -0.026431314805352931 0 -0.30306546886548719 -0.032455918975325043 0 -0.29006158744840338 -0.043009214960059237 0 -0.30785263576887473 -0.062005008750064983 0 -0.29006158744840338 -0.043009214960059237 0 -0.29043964680931811 -0.063340758069959313 0 -0.29006158744840338 -0.043009214960059237 0 -0.27571433008302992 -0.061323808156972907 0 -0.29043964680931811 -0.063340758069959313 0 -0.27571433008302992 -0.061323808156972907 0 -0.26805293078879788 -0.049870865118244581 0 -0.25908974683711639 -0.062912752445689821 0 -0.29006158744840338 -0.043009214960059237 0 -0.27571433008302992 -0.061323808156972907 0 -0.26805293078879788 -0.049870865118244581 0 -0.28272693982295583 -0.022072801118422261 0 -0.29006158744840338 -0.043009214960059237 0 -0.26885463380623098 -0.032431385670777198 0 -0.29006158744840338 -0.043009214960059237 0 -0.26805293078879788 -0.049870865118244581 0 -0.29006158744840338 -0.043009214960059237 0 -0.26805293078879788 -0.049870865118244581 0 -0.26885463380623098 -0.032431385670777198 0 -0.2440152745910836 -0.048529918810766987 0 -0.25210916638036568 -0.025659880210862549 0 -0.25586239660102372 -0.042106716883949957 0 -0.26805293078879788 -0.049870865118244581 0 -0.26885463380623098 -0.032431385670777198 0 -0.25586239660102372 -0.042106716883949957 0 -0.25210916638036568 -0.025659880210862549 0 -0.26885463380623098 -0.032431385670777198 0 -0.25586239660102372 -0.042106716883949957 0 -0.2460442741291925 -0.056732515276429897 0 -0.26805293078879788 -0.049870865118244581 0 -0.2460442741291925 -0.056732515276429897 0 -0.26805293078879788 -0.049870865118244581 0 -0.25908974683711639 -0.062912752445689821 0 -0.2460442741291925 -0.056732515276429897 0 -0.26805293078879788 -0.049870865118244581 0 -0.25586239660102372 -0.042106716883949957 0 -0.24621250417125429 -0.067242688607955695 0 -0.2460442741291925 -0.056732515276429897 0 -0.25908974683711639 -0.062912752445689821 0 -0.24621250417125429 -0.067242688607955695 0 -0.25908974683711639 -0.062912752445689821 0 -0.252754029676304 -0.071454636367457428 0 -0.24101683233652779 -0.07862751170581421 0 -0.252754029676304 -0.071454636367457428 0 -0.26402766811367417 -0.083484384069295273 0 -0.25908974683711639 -0.062912752445689821 0 -0.252754029676304 -0.071454636367457428 0 -0.26621243399467659 -0.070844567870559746 0 -0.252754029676304 -0.071454636367457428 0 -0.26402766811367417 -0.083484384069295273 0 -0.26621243399467659 -0.070844567870559746 0 -0.24101683233652779 -0.07862751170581421 0 -0.26402766811367417 -0.083484384069295273 0 -0.25454071313255938 -0.097810231909066098 0 -0.26402766811367417 -0.083484384069295273 0 -0.27094601368544552 -0.10060299140421709 0 -0.28369928052750421 -0.089996057638050242 0 -0.26402766811367417 -0.083484384069295273 0 -0.27947639526325851 -0.075047258313383283 0 -0.28369928052750421 -0.089996057638050242 0 -0.27571433008302992 -0.061323808156972907 0 -0.25908974683711639 -0.062912752445689821 0 -0.26621243399467659 -0.070844567870559746 0 -0.27571433008302992 -0.061323808156972907 0 -0.27947639526325851 -0.075047258313383283 0 -0.26621243399467659 -0.070844567870559746 0 -0.26402766811367417 -0.083484384069295273 0 -0.27947639526325851 -0.075047258313383283 0 -0.26621243399467659 -0.070844567870559746 0 -0.25700205454408459 -0.1228995308742117 0 -0.25028307647261949 -0.1119170655065333 0 -0.26806459392859111 -0.11699295211231781 0 -0.25700205454408459 -0.1228995308742117 0 -0.26806459392859111 -0.11699295211231781 0 -0.26633673802341562 -0.13121143084146969 0 -0.2466021228926524 -0.1215603100838341 0 -0.25700205454408459 -0.1228995308742117 0 -0.25028307647261949 -0.1119170655065333 0 -0.25454071313255938 -0.097810231909066098 0 -0.27094601368544552 -0.10060299140421709 0 -0.26806459392859111 -0.11699295211231781 0 -0.25028307647261949 -0.1119170655065333 0 -0.25454071313255938 -0.097810231909066098 0 -0.26806459392859111 -0.11699295211231781 0 -0.25454071313255938 -0.097810231909066098 0 -0.26806459392859111 -0.11699295211231781 0 -0.26402766811367417 -0.083484384069295273 0 -0.25454071313255938 -0.097810231909066098 0 -0.27094601368544552 -0.10060299140421709 0 -0.27094601368544552 -0.10060299140421709 0 -0.28498588272658609 -0.10953694176986691 0 -0.28369928052750421 -0.089996057638050242 0 -0.27094601368544552 -0.10060299140421709 0 -0.26806459392859111 -0.11699295211231781 0 -0.28498588272658609 -0.10953694176986691 0 -0.26806459392859111 -0.11699295211231781 0 -0.28498588272658609 -0.10953694176986691 0 -0.26633673802341562 -0.13121143084146969 0 -0.28498588272658609 -0.10953694176986691 0 -0.26633673802341562 -0.13121143084146969 0 -0.28390483366507108 -0.12795146285425149 0 -0.28498588272658609 -0.10953694176986691 0 -0.26633673802341562 -0.13121143084146969 0 -0.28498588272658609 -0.10953694176986691 0 -0.29939047470698632 -0.1138850881088251 0 -0.28390483366507108 -0.12795146285425149 0 -0.28498588272658609 -0.10953694176986691 0 -0.29939047470698632 -0.1138850881088251 0 -0.30363502742975002 -0.087862452698258112 0 -0.28498588272658609 -0.10953694176986691 0 -0.28369928052750421 -0.089996057638050242 0 -0.30363502742975002 -0.087862452698258112 0 -0.28498588272658609 -0.10953694176986691 0 -0.30363502742975002 -0.087862452698258112 0 -0.31112038415555038 -0.105912916312301 0 -0.30363502742975002 -0.087862452698258112 0 -0.31872509099925939 -0.09489525911115787 0 -0.29939047470698632 -0.1138850881088251 0 -0.30363502742975002 -0.087862452698258112 0 -0.31112038415555038 -0.105912916312301 0 -0.29939047470698632 -0.1138850881088251 0 -0.30363502742975002 -0.087862452698258112 0 -0.31112038415555038 -0.105912916312301 0 -0.29939047470698632 -0.1138850881088251 0 -0.3108150907057583 -0.123289039988229 0 -0.27571433008302992 -0.061323808156972907 0 -0.27947639526325851 -0.075047258313383283 0 -0.29043964680931811 -0.063340758069959313 0 -0.27947639526325851 -0.075047258313383283 0 -0.29326350469267087 -0.075637034816957854 0 -0.29043964680931811 -0.063340758069959313 0 -0.27947639526325851 -0.075047258313383283 0 -0.29326350469267087 -0.075637034816957854 0 -0.28369928052750421 -0.089996057638050242 0 -0.29326350469267087 -0.075637034816957854 0 -0.28369928052750421 -0.089996057638050242 0 -0.30363502742975002 -0.087862452698258112 0 -0.30363502742975002 -0.087862452698258112 0 -0.3147457864693044 -0.074949258596716542 0 -0.31872509099925939 -0.09489525911115787 0 -0.30363502742975002 -0.087862452698258112 0 -0.3147457864693044 -0.074949258596716542 0 -0.30785263576887473 -0.062005008750064983 0 -0.29326350469267087 -0.075637034816957854 0 -0.30363502742975002 -0.087862452698258112 0 -0.30785263576887473 -0.062005008750064983 0 -0.30363502742975002 -0.087862452698258112 0 -0.3147457864693044 -0.074949258596716542 0 -0.30785263576887473 -0.062005008750064983 0 -0.29326350469267087 -0.075637034816957854 0 -0.29043964680931811 -0.063340758069959313 0 -0.30785263576887473 -0.062005008750064983 0 -0.30363502742975002 -0.087862452698258112 0 -0.3147457864693044 -0.074949258596716542 0 -0.3258565455088529 -0.062036064495169851 0 -0.3147457864693044 -0.074949258596716542 0 -0.33306166037992252 -0.0763126202985034 0 -0.3258565455088529 -0.062036064495169851 0 -0.30785263576887473 -0.062005008750064983 0 -0.3147457864693044 -0.074949258596716542 0 -0.3258565455088529 -0.062036064495169851 0 -0.3147457864693044 -0.074949258596716542 0 -0.32890001459834822 -0.087516828956376788 0 -0.31872509099925939 -0.09489525911115787 0 -0.3147457864693044 -0.074949258596716542 0 -0.32890001459834822 -0.087516828956376788 0 -0.33306166037992252 -0.0763126202985034 0 -0.32890001459834822 -0.087516828956376788 0 -0.34026677525099192 -0.090589176101837157 0 -0.33306166037992252 -0.0763126202985034 0 -0.34026677525099192 -0.090589176101837157 0 -0.33306166037992252 -0.0763126202985034 0 -0.34026677525099192 -0.090589176101837157 0 -0.33306166037992252 -0.0763126202985034 0 -0.34512097989852569 -0.077376017677512551 0 -0.3363426704622316 -0.065040097883454634 0 -0.33306166037992252 -0.0763126202985034 0 -0.34512097989852569 -0.077376017677512551 0 -0.3363426704622316 -0.065040097883454634 0 -0.34775082305034588 -0.06364522302323769 0 -0.34512097989852569 -0.077376017677512551 0 -0.33306166037992252 -0.0763126202985034 0 -0.3258565455088529 -0.062036064495169851 0 -0.3363426704622316 -0.065040097883454634 0 -0.33306166037992252 -0.0763126202985034 0 -0.3258565455088529 -0.062036064495169851 0 -0.31112038415555038 -0.105912916312301 0 -0.3108150907057583 -0.123289039988229 0 -0.32269556115348802 -0.1134475374517785 0 -0.32269556115348802 -0.1134475374517785 0 -0.33213803149032362 -0.1206207689722909 0 -0.32288905220234743 -0.1288405143651869 0 -0.3108150907057583 -0.123289039988229 0 -0.32269556115348802 -0.1134475374517785 0 -0.32288905220234743 -0.1288405143651869 0 -0.32269556115348802 -0.1134475374517785 0 -0.31872509099925939 -0.09489525911115787 0 -0.33360553934550968 -0.1041906416325506 0 -0.31112038415555038 -0.105912916312301 0 -0.32269556115348802 -0.1134475374517785 0 -0.31872509099925939 -0.09489525911115787 0 -0.32890001459834822 -0.087516828956376788 0 -0.31872509099925939 -0.09489525911115787 0 -0.33360553934550968 -0.1041906416325506 0 -0.3434725512788051 -0.1026137903417853 0 -0.33360553934550968 -0.1041906416325506 0 -0.3466874303271234 -0.11958926053505441 0 -0.32890001459834822 -0.087516828956376788 0 -0.34026677525099192 -0.090589176101837157 0 -0.33360553934550968 -0.1041906416325506 0 -0.34026677525099192 -0.090589176101837157 0 -0.3434725512788051 -0.1026137903417853 0 -0.33360553934550968 -0.1041906416325506 0 -0.33360553934550968 -0.1041906416325506 0 -0.33213803149032362 -0.1206207689722909 0 -0.3466874303271234 -0.11958926053505441 0 -0.32269556115348802 -0.1134475374517785 0 -0.33360553934550968 -0.1041906416325506 0 -0.33213803149032362 -0.1206207689722909 0 -0.3466874303271234 -0.11958926053505441 0 -0.36980343247362518 -0.1100922289949047 0 -0.35999293180258313 -0.1258522389537349 0 -0.3466874303271234 -0.11958926053505441 0 -0.35333046019159542 -0.096086083097699004 0 -0.36980343247362518 -0.1100922289949047 0 -0.3434725512788051 -0.1026137903417853 0 -0.3466874303271234 -0.11958926053505441 0 -0.35333046019159542 -0.096086083097699004 0 -0.3466874303271234 -0.11958926053505441 0 -0.35333046019159542 -0.096086083097699004 0 -0.34026677525099192 -0.090589176101837157 0 -0.3434725512788051 -0.1026137903417853 0 -0.35333046019159542 -0.096086083097699004 0 -0.35333046019159542 -0.096086083097699004 0 -0.36980343247362518 -0.1100922289949047 0 -0.37347114863240299 -0.089088331268139143 0 -0.36980343247362518 -0.1100922289949047 0 -0.35999293180258313 -0.1258522389537349 0 -0.37152802352755399 -0.13164580699010159 0 -0.36980343247362518 -0.1100922289949047 0 -0.37152802352755399 -0.13164580699010159 0 -0.38235470820745771 -0.123978498660336 0 -0.34775082305034588 -0.06364522302323769 0 -0.35997349005606738 -0.07258290566034345 0 -0.36099236519079719 -0.058965157594587259 0 -0.34775082305034588 -0.06364522302323769 0 -0.34512097989852569 -0.077376017677512551 0 -0.35997349005606738 -0.07258290566034345 0 -0.35333046019159542 -0.096086083097699004 0 -0.35997349005606738 -0.07258290566034345 0 -0.35333046019159542 -0.096086083097699004 0 -0.34512097989852569 -0.077376017677512551 0 -0.35997349005606738 -0.07258290566034345 0 -0.34026677525099192 -0.090589176101837157 0 -0.35333046019159542 -0.096086083097699004 0 -0.34512097989852569 -0.077376017677512551 0 -0.35333046019159542 -0.096086083097699004 0 -0.37347114863240299 -0.089088331268139143 0 -0.35997349005606738 -0.07258290566034345 0 -0.37347114863240299 -0.089088331268139143 0 -0.35997349005606738 -0.07258290566034345 0 -0.37513495807632252 -0.068027960422620465 0 -0.35997349005606738 -0.07258290566034345 0 -0.36099236519079719 -0.058965157594587259 0 -0.37513495807632252 -0.068027960422620465 0 -0.37357085562444819 -0.050327950541553881 0 -0.36099236519079719 -0.058965157594587259 0 -0.37513495807632252 -0.068027960422620465 0 -0.37357085562444819 -0.050327950541553881 0 -0.36080282922430701 -0.047544586661118063 0 -0.36099236519079719 -0.058965157594587259 0 -0.34775082305034588 -0.06364522302323769 0 -0.36099236519079719 -0.058965157594587259 0 -0.34872123511329239 -0.051662319258650009 0 -0.36080282922430701 -0.047544586661118063 0 -0.36099236519079719 -0.058965157594587259 0 -0.34872123511329239 -0.051662319258650009 0 -0.34775082305034588 -0.06364522302323769 0 -0.34872123511329239 -0.051662319258650009 0 -0.33906118872719399 -0.055758100993783748 0 -0.35023980363822049 -0.040197400203048239 0 -0.3638826905141766 -0.035463803005797899 0 -0.34258176142245139 -0.029723406047678591 0 -0.35023980363822049 -0.040197400203048239 0 -0.34258176142245139 -0.029723406047678591 0 -0.35023980363822049 -0.040197400203048239 0 -0.34258176142245139 -0.029723406047678591 0 -0.33960488145915169 -0.038902248398748569 0 -0.34872123511329239 -0.051662319258650009 0 -0.35023980363822049 -0.040197400203048239 0 -0.33950963895876157 -0.046563850177851397 0 -0.36080282922430701 -0.047544586661118063 0 -0.35023980363822049 -0.040197400203048239 0 -0.3638826905141766 -0.035463803005797899 0 -0.36080282922430701 -0.047544586661118063 0 -0.34872123511329239 -0.051662319258650009 0 -0.35023980363822049 -0.040197400203048239 0 -0.37357085562444819 -0.050327950541553881 0 -0.3638826905141766 -0.035463803005797899 0 -0.38712728366555788 -0.02974425569958293 0 -0.37357085562444819 -0.050327950541553881 0 -0.36080282922430701 -0.047544586661118063 0 -0.3638826905141766 -0.035463803005797899 0 -0.3638826905141766 -0.035463803005797899 0 -0.36897360951007507 -0.015245218881805699 0 -0.38712728366555788 -0.02974425569958293 0 -0.36897360951007507 -0.015245218881805699 0 -0.38465333842141641 -0.0066435457767305304 0 -0.36979036210562988 0.0025511841975563729 0 -0.36897360951007507 -0.015245218881805699 0 -0.35319748844548088 -0.0026450940697062141 0 -0.36979036210562988 0.0025511841975563729 0 -0.36897360951007507 -0.015245218881805699 0 -0.35319748844548088 -0.0026450940697062141 0 -0.36897360951007507 -0.015245218881805699 0 -0.35319748844548088 -0.0026450940697062141 0 -0.34557514790129729 -0.01385186480739395 0 -0.35319748844548088 -0.0026450940697062141 0 -0.34557514790129729 -0.01385186480739395 0 -0.33742136738088668 0.0099550307423931228 0 -0.36897360951007507 -0.015245218881805699 0 -0.34557514790129729 -0.01385186480739395 0 -0.34258176142245139 -0.029723406047678591 0 -0.3638826905141766 -0.035463803005797899 0 -0.36897360951007507 -0.015245218881805699 0 -0.34258176142245139 -0.029723406047678591 0 -0.36897360951007507 -0.015245218881805699 0 -0.34258176142245139 -0.029723406047678591 0 -0.34258176142245139 -0.029723406047678591 0 -0.33053696792115572 -0.013249600709362951 0 -0.34557514790129729 -0.01385186480739395 0 -0.34258176142245139 -0.029723406047678591 0 -0.33053696792115572 -0.013249600709362951 0 -0.34258176142245139 -0.029723406047678591 0 -0.33123792958382192 -0.02655418191443467 0 -0.33053696792115572 -0.013249600709362951 0 -0.33123792958382192 -0.02655418191443467 0 -0.33053696792115572 -0.013249600709362951 0 -0.32518110448499649 -0.02265309324021984 0 -0.33123792958382192 -0.02655418191443467 0 -0.32494971957893121 -0.032132124138264453 0 -0.33294009451157502 -0.035012685436647553 0 -0.34258176142245139 -0.029723406047678591 0 -0.33123792958382192 -0.02655418191443467 0 -0.33294009451157502 -0.035012685436647553 0 -0.33053696792115572 -0.013249600709362951 0 -0.31849217441985911 0.0032242046289520012 0 -0.33742136738088668 0.0099550307423931228 0 -0.34557514790129729 -0.01385186480739395 0 -0.33053696792115572 -0.013249600709362951 0 -0.33742136738088668 0.0099550307423931228 0 -0.30702321298661528 -0.0098616365840560535 0 -0.31536924438116293 -0.015921951660718081 0 -0.31849217441985911 0.0032242046289520012 0 -0.31536924438116293 -0.015921951660718081 0 -0.31849217441985911 0.0032242046289520012 0 -0.33053696792115572 -0.013249600709362951 0 -0.31849217441985911 0.0032242046289520012 0 -0.33053696792115572 -0.013249600709362951 0 -0.31536924438116293 -0.015921951660718081 0 -0.31849217441985911 0.0032242046289520012 0 -0.31536924438116293 -0.015921951660718081 0 -0.31269309410946189 -0.035953378537937578 0 -0.31536924438116293 -0.015921951660718081 0 -0.3196636581113782 -0.026330909640423061 0 -0.31269309410946189 -0.035953378537937578 0 -0.33123792958382192 -0.02655418191443467 0 -0.32518110448499649 -0.02265309324021984 0 -0.32494971957893121 -0.032132124138264453 0 -0.32518110448499649 -0.02265309324021984 0 -0.3196636581113782 -0.026330909640423061 0 -0.32494971957893121 -0.032132124138264453 0 -0.33053696792115572 -0.013249600709362951 0 -0.32518110448499649 -0.02265309324021984 0 -0.31536924438116293 -0.015921951660718081 0 -0.32518110448499649 -0.02265309324021984 0 -0.31536924438116293 -0.015921951660718081 0 -0.3196636581113782 -0.026330909640423061 0 -0.31269309410946189 -0.035953378537937578 0 -0.32494971957893121 -0.032132124138264453 0 -0.3196636581113782 -0.026330909640423061 0 -0.31269309410946189 -0.035953378537937578 0 -0.32494971957893121 -0.032132124138264453 0 -0.32589239144387999 -0.038804272667940308 0 -0.32494971957893121 -0.032132124138264453 0 -0.33294009451157502 -0.035012685436647553 0 -0.31269309410946189 -0.035953378537937578 0 -0.32589239144387999 -0.038804272667940308 0 -0.32494971957893121 -0.032132124138264453 0 -0.31269309410946189 -0.035953378537937578 0 -0.32589239144387999 -0.038804272667940308 0 -0.32612594025468172 -0.0479092750983348 0 -0.31269309410946189 -0.035953378537937578 0 -0.3258565455088529 -0.062036064495169851 0 -0.32612594025468172 -0.0479092750983348 0 -0.30785263576887473 -0.062005008750064983 0 -0.31269309410946189 -0.035953378537937578 0 -0.3258565455088529 -0.062036064495169851 0 -0.31269309410946189 -0.035953378537937578 0 -0.3258565455088529 -0.062036064495169851 0 -0.3258565455088529 -0.062036064495169851 0 -0.32612594025468172 -0.0479092750983348 0 -0.32948021068586231 -0.057824552786275359 0 -0.3258565455088529 -0.062036064495169851 0 -0.32948021068586231 -0.057824552786275359 0 -0.33273312926745618 -0.050000536382928867 0 -0.32948021068586231 -0.057824552786275359 0 -0.33906118872719399 -0.055758100993783748 0 -0.32612594025468172 -0.0479092750983348 0 -0.33273312926745618 -0.050000536382928867 0 -0.32948021068586231 -0.057824552786275359 0 -0.32612594025468172 -0.0479092750983348 0 -0.33273312926745618 -0.050000536382928867 0 -0.33275310876475001 -0.043013900128517107 0 -0.3363426704622316 -0.065040097883454634 0 -0.32948021068586231 -0.057824552786275359 0 -0.33906118872719399 -0.055758100993783748 0 -0.3363426704622316 -0.065040097883454634 0 -0.3258565455088529 -0.062036064495169851 0 -0.32948021068586231 -0.057824552786275359 0 -0.3363426704622316 -0.065040097883454634 0 -0.34775082305034588 -0.06364522302323769 0 -0.33906118872719399 -0.055758100993783748 0 -0.34872123511329239 -0.051662319258650009 0 -0.33906118872719399 -0.055758100993783748 0 -0.33950963895876157 -0.046563850177851397 0 -0.33273312926745618 -0.050000536382928867 0 -0.33906118872719399 -0.055758100993783748 0 -0.33950963895876157 -0.046563850177851397 0 -0.35023980363822049 -0.040197400203048239 0 -0.33950963895876157 -0.046563850177851397 0 -0.33960488145915169 -0.038902248398748569 0 -0.33950963895876157 -0.046563850177851397 0 -0.33960488145915169 -0.038902248398748569 0 -0.33275310876475001 -0.043013900128517107 0 -0.34258176142245139 -0.029723406047678591 0 -0.33294009451157502 -0.035012685436647553 0 -0.34258176142245139 -0.029723406047678591 0 -0.33960488145915169 -0.038902248398748569 0 -0.33294009451157502 -0.035012685436647553 0 -0.32589239144387999 -0.038804272667940308 0 -0.33294009451157502 -0.035012685436647553 0 -0.33275310876475001 -0.043013900128517107 0 -0.33960488145915169 -0.038902248398748569 0 -0.33294009451157502 -0.035012685436647553 0 -0.33275310876475001 -0.043013900128517107 0 -0.32589239144387999 -0.038804272667940308 0 -0.32612594025468172 -0.0479092750983348 0 -0.33275310876475001 -0.043013900128517107 0 -0.33273312926745618 -0.050000536382928867 0 -0.33950963895876157 -0.046563850177851397 0 -0.33275310876475001 -0.043013900128517107 0 -0.3072444938386063 -0.24298546540808871 0 -0.29465074886808879 -0.2402547820199166 0 -0.31547147842988582 -0.2330670094454039 0 -0.29465074886808879 -0.2402547820199166 0 -0.31547147842988582 -0.2330670094454039 0 -0.31283906540333922 -0.25031215033235238 0 -0.3072444938386063 -0.24298546540808871 0 -0.31547147842988582 -0.2330670094454039 0 -0.29948497002523827 -0.2483657822867901 0 -0.3072444938386063 -0.24298546540808871 0 -0.29465074886808879 -0.2402547820199166 0 -0.29948497002523827 -0.2483657822867901 0 -0.3072444938386063 -0.24298546540808871 0 -0.30623861516307299 -0.24935013043731349 0 -0.31283906540333922 -0.25031215033235238 0 -0.3072444938386063 -0.24298546540808871 0 -0.30623861516307299 -0.24935013043731349 0 -0.30340245666429422 -0.2199120115188499 0 -0.29465074886808879 -0.2402547820199166 0 -0.31547147842988582 -0.2330670094454039 0 -0.30340245666429422 -0.2199120115188499 0 -0.31790591229007997 -0.21133065133653661 0 -0.31547147842988582 -0.2330670094454039 0 -0.30340245666429422 -0.2199120115188499 0 -0.29465074886808879 -0.2402547820199166 0 -0.28241226381596191 -0.21797562975109799 0 -0.29465074886808879 -0.2402547820199166 0 -0.27816771109320582 -0.2439982651616662 0 -0.28241226381596191 -0.21797562975109799 0 -0.29465074886808879 -0.2402547820199166 0 -0.27383001930629169 -0.24744255459442921 0 -0.28942662192718172 -0.25357945894426132 0 -0.29465074886808879 -0.2402547820199166 0 -0.27383001930629169 -0.24744255459442921 0 -0.29465074886808879 -0.2402547820199166 0 -0.27816771109320582 -0.2439982651616662 0 -0.27383001930629169 -0.24744255459442921 0 -0.28942662192718172 -0.25357945894426132 0 -0.29948497002523827 -0.2483657822867901 0 -0.29465074886808879 -0.2402547820199166 0 -0.27816771109320582 -0.2439982651616662 0 -0.27383001930629169 -0.24744255459442921 0 -0.26926560585898118 -0.2360615599669478 0 -0.27383001930629169 -0.24744255459442921 0 -0.26926560585898118 -0.2360615599669478 0 -0.25855016474293108 -0.24143028331881861 0 -0.27383001930629169 -0.24744255459442921 0 -0.25855016474293108 -0.24143028331881861 0 -0.2565674865322034 -0.25340195958415102 0 -0.27383001930629169 -0.24744255459442921 0 -0.25855016474293108 -0.24143028331881861 0 -0.26926560585898118 -0.2360615599669478 0 -0.25855016474293108 -0.24143028331881861 0 -0.25588924886857078 -0.22577026586403889 0 -0.24327031017957049 -0.23541801204320789 0 -0.25855016474293108 -0.24143028331881861 0 -0.24327031017957049 -0.23541801204320789 0 -0.25855016474293108 -0.24143028331881861 0 -0.25018128361314113 -0.24746468840205441 0 -0.2565674865322034 -0.25340195958415102 0 -0.25855016474293108 -0.24143028331881861 0 -0.25018128361314113 -0.24746468840205441 0 -0.24327031017957049 -0.23541801204320789 0 -0.25855016474293108 -0.24143028331881861 0 -0.25588924886857078 -0.22577026586403889 0 -0.26926560585898118 -0.2360615599669478 0 -0.25588924886857078 -0.22577026586403889 0 -0.26783798195298542 -0.22189041659364681 0 -0.27816771109320582 -0.2439982651616662 0 -0.26926560585898118 -0.2360615599669478 0 -0.28241226381596191 -0.21797562975109799 0 -0.26926560585898118 -0.2360615599669478 0 -0.26783798195298542 -0.22189041659364681 0 -0.28241226381596191 -0.21797562975109799 0 -0.27816771109320582 -0.2439982651616662 0 -0.28241226381596191 -0.21797562975109799 0 -0.26378480926842768 -0.2077542107925027 0 -0.286656816538718 -0.19195299434052959 0 -0.28241226381596191 -0.21797562975109799 0 -0.26783798195298542 -0.22189041659364681 0 -0.26378480926842768 -0.2077542107925027 0 -0.28241226381596191 -0.21797562975109799 0 -0.25588924886857078 -0.22577026586403889 0 -0.26783798195298542 -0.22189041659364681 0 -0.26378480926842768 -0.2077542107925027 0 -0.2448317244682672 -0.19494017856122331 0 -0.24405101732391901 -0.2151790953022156 0 -0.26378480926842768 -0.2077542107925027 0 -0.24405101732391901 -0.2151790953022156 0 -0.25588924886857078 -0.22577026586403889 0 -0.26378480926842768 -0.2077542107925027 0 -0.2448317244682672 -0.19494017856122331 0 -0.26378480926842768 -0.2077542107925027 0 -0.26312512204060101 -0.18530650416748581 0 -0.26378480926842768 -0.2077542107925027 0 -0.286656816538718 -0.19195299434052959 0 -0.26312512204060101 -0.18530650416748581 0 -0.286656816538718 -0.19195299434052959 0 -0.28241226381596191 -0.21797562975109799 0 -0.30591086076688379 -0.19847336016990141 0 -0.286656816538718 -0.19195299434052959 0 -0.28241226381596191 -0.21797562975109799 0 -0.30340245666429422 -0.2199120115188499 0 -0.28241226381596191 -0.21797562975109799 0 -0.30591086076688379 -0.19847336016990141 0 -0.30340245666429422 -0.2199120115188499 0 -0.30591086076688379 -0.19847336016990141 0 -0.31790591229007997 -0.21133065133653661 0 -0.286656816538718 -0.19195299434052959 0 -0.30591086076688379 -0.19847336016990141 0 -0.31180552805921091 -0.17430838359622669 0 -0.31180552805921091 -0.17430838359622669 0 -0.29090136926147409 -0.16593035892996141 0 -0.30878195228896921 -0.15303576335633209 0 -0.286656816538718 -0.19195299434052959 0 -0.29090136926147409 -0.16593035892996141 0 -0.286656816538718 -0.19195299434052959 0 -0.31180552805921091 -0.17430838359622669 0 -0.29090136926147409 -0.16593035892996141 0 -0.286656816538718 -0.19195299434052959 0 -0.29090136926147409 -0.16593035892996141 0 -0.27584707269233227 -0.1739466899300364 0 -0.27584707269233227 -0.1739466899300364 0 -0.26312512204060101 -0.18530650416748581 0 -0.26138401805284373 -0.16490714025156239 0 -0.286656816538718 -0.19195299434052959 0 -0.27584707269233227 -0.1739466899300364 0 -0.26312512204060101 -0.18530650416748581 0 -0.2448317244682672 -0.19494017856122331 0 -0.24561243161261531 -0.1747012618202311 0 -0.26312512204060101 -0.18530650416748581 0 -0.24561243161261531 -0.1747012618202311 0 -0.26312512204060101 -0.18530650416748581 0 -0.26138401805284373 -0.16490714025156239 0 -0.27584707269233227 -0.1739466899300364 0 -0.26138401805284373 -0.16490714025156239 0 -0.27641132505293098 -0.14990407015019561 0 -0.29090136926147409 -0.16593035892996141 0 -0.27584707269233227 -0.1739466899300364 0 -0.27641132505293098 -0.14990407015019561 0 -0.27641132505293098 -0.14990407015019561 0 -0.26295491861235881 -0.14972714028907499 0 -0.26633673802341562 -0.13121143084146969 0 -0.26138401805284373 -0.16490714025156239 0 -0.27641132505293098 -0.14990407015019561 0 -0.26295491861235881 -0.14972714028907499 0 -0.24768759332024501 -0.15288591991307249 0 -0.26633673802341562 -0.13121143084146969 0 -0.24768759332024501 -0.15288591991307249 0 -0.26295491861235881 -0.14972714028907499 0 -0.26633673802341562 -0.13121143084146969 0 -0.24768759332024501 -0.15288591991307249 0 -0.26138401805284373 -0.16490714025156239 0 -0.26295491861235881 -0.14972714028907499 0 -0.25700205454408459 -0.1228995308742117 0 -0.25066558347885931 -0.13251764995053431 0 -0.26633673802341562 -0.13121143084146969 0 -0.24768759332024501 -0.15288591991307249 0 -0.25066558347885931 -0.13251764995053431 0 -0.26633673802341562 -0.13121143084146969 0 -0.2466021228926524 -0.1215603100838341 0 -0.25700205454408459 -0.1228995308742117 0 -0.25066558347885931 -0.13251764995053431 0 -0.27641132505293098 -0.14990407015019561 0 -0.26633673802341562 -0.13121143084146969 0 -0.28390483366507108 -0.12795146285425149 0 -0.27641132505293098 -0.14990407015019561 0 -0.29514592198423018 -0.13990772351939329 0 -0.28390483366507108 -0.12795146285425149 0 -0.29939047470698632 -0.1138850881088251 0 -0.29514592198423018 -0.13990772351939329 0 -0.28390483366507108 -0.12795146285425149 0 -0.29090136926147409 -0.16593035892996141 0 -0.27641132505293098 -0.14990407015019561 0 -0.29514592198423018 -0.13990772351939329 0 -0.29090136926147409 -0.16593035892996141 0 -0.29514592198423018 -0.13990772351939329 0 -0.29514592198423018 -0.13990772351939329 0 -0.30878195228896921 -0.15303576335633209 0 -0.31204687939749698 -0.1371714365216575 0 -0.29090136926147409 -0.16593035892996141 0 -0.29514592198423018 -0.13990772351939329 0 -0.30878195228896921 -0.15303576335633209 0 -0.3108150907057583 -0.123289039988229 0 -0.29514592198423018 -0.13990772351939329 0 -0.31204687939749698 -0.1371714365216575 0 -0.29939047470698632 -0.1138850881088251 0 -0.3108150907057583 -0.123289039988229 0 -0.29514592198423018 -0.13990772351939329 0 -0.29939047470698632 -0.1138850881088251 0 -0.29514592198423018 -0.13990772351939329 0 -0.32288905220234743 -0.1288405143651869 0 -0.32258299715563782 -0.14068177926995709 0 -0.33321030378869931 -0.13646686722665249 0 -0.3108150907057583 -0.123289039988229 0 -0.31204687939749698 -0.1371714365216575 0 -0.32288905220234743 -0.1288405143651869 0 -0.31204687939749698 -0.1371714365216575 0 -0.32288905220234743 -0.1288405143651869 0 -0.32258299715563782 -0.14068177926995709 0 -0.30878195228896921 -0.15303576335633209 0 -0.32482557091518699 -0.15217937608711771 0 -0.32258299715563782 -0.14068177926995709 0 -0.30878195228896921 -0.15303576335633209 0 -0.31204687939749698 -0.1371714365216575 0 -0.32258299715563782 -0.14068177926995709 0 -0.32482557091518699 -0.15217937608711771 0 -0.32258299715563782 -0.14068177926995709 0 -0.33321030378869931 -0.13646686722665249 0 -0.32482557091518699 -0.15217937608711771 0 -0.34004440046265172 -0.14309243797241011 0 -0.33321030378869931 -0.13646686722665249 0 -0.34004440046265172 -0.14309243797241011 0 -0.35498504575946821 -0.15757720561970059 0 -0.3332048416520596 -0.1672909388971599 0 -0.34004440046265172 -0.14309243797241011 0 -0.3332048416520596 -0.1672909388971599 0 -0.32482557091518699 -0.15217937608711771 0 -0.34004440046265172 -0.14309243797241011 0 -0.3332048416520596 -0.1672909388971599 0 -0.3466874303271234 -0.11958926053505441 0 -0.34004440046265172 -0.14309243797241011 0 -0.33213803149032362 -0.1206207689722909 0 -0.32288905220234743 -0.1288405143651869 0 -0.33321030378869931 -0.13646686722665249 0 -0.33213803149032362 -0.1206207689722909 0 -0.3466874303271234 -0.11958926053505441 0 -0.33321030378869931 -0.13646686722665249 0 -0.3466874303271234 -0.11958926053505441 0 -0.34004440046265172 -0.14309243797241011 0 -0.33321030378869931 -0.13646686722665249 0 -0.34004440046265172 -0.14309243797241011 0 -0.33321030378869931 -0.13646686722665249 0 -0.3466874303271234 -0.11958926053505441 0 -0.35676717686891291 -0.14006723761877321 0 -0.35999293180258313 -0.1258522389537349 0 -0.3466874303271234 -0.11958926053505441 0 -0.34004440046265172 -0.14309243797241011 0 -0.35676717686891291 -0.14006723761877321 0 -0.35676717686891291 -0.14006723761877321 0 -0.37152802352755399 -0.13164580699010159 0 -0.37069541475874412 -0.1487336244607225 0 -0.35676717686891291 -0.14006723761877321 0 -0.35999293180258313 -0.1258522389537349 0 -0.37152802352755399 -0.13164580699010159 0 -0.35676717686891291 -0.14006723761877321 0 -0.37069541475874412 -0.1487336244607225 0 -0.35498504575946821 -0.15757720561970059 0 -0.37069541475874412 -0.1487336244607225 0 -0.35498504575946821 -0.15757720561970059 0 -0.37692746124962329 -0.16011968929401549 0 -0.37152802352755399 -0.13164580699010159 0 -0.37069541475874412 -0.1487336244607225 0 -0.38190833683646341 -0.1417380771930716 0 -0.34004440046265172 -0.14309243797241011 0 -0.35676717686891291 -0.14006723761877321 0 -0.35498504575946821 -0.15757720561970059 0 -0.34004440046265172 -0.14309243797241011 0 -0.35498504575946821 -0.15757720561970059 0 -0.35102499454429859 -0.17065527247529391 0 -0.35498504575946821 -0.15757720561970059 0 -0.36992569105628492 -0.1720619732669908 0 -0.35102499454429859 -0.17065527247529391 0 -0.35498504575946821 -0.15757720561970059 0 -0.3332048416520596 -0.1672909388971599 0 -0.35498504575946821 -0.15757720561970059 0 -0.36992569105628492 -0.1720619732669908 0 -0.37692746124962329 -0.16011968929401549 0 -0.35498504575946821 -0.15757720561970059 0 -0.36992569105628492 -0.1720619732669908 0 -0.36802329911298681 -0.18587483615006681 0 -0.36992569105628492 -0.1720619732669908 0 -0.38452179946839471 -0.1862127167391712 0 -0.36802329911298681 -0.18587483615006681 0 -0.36992569105628492 -0.1720619732669908 0 -0.34598439970938172 -0.18569097211732419 0 -0.35102499454429859 -0.17065527247529391 0 -0.36992569105628492 -0.1720619732669908 0 -0.34598439970938172 -0.18569097211732419 0 -0.36992569105628492 -0.1720619732669908 0 -0.34598439970938172 -0.18569097211732419 0 -0.35102499454429859 -0.17065527247529391 0 -0.34598439970938172 -0.18569097211732419 0 -0.3332048416520596 -0.1672909388971599 0 -0.34598439970938172 -0.18569097211732419 0 -0.3332048416520596 -0.1672909388971599 0 -0.32636528284146782 -0.19148943982190991 0 -0.3332048416520596 -0.1672909388971599 0 -0.32636528284146782 -0.19148943982190991 0 -0.31180552805921091 -0.17430838359622669 0 -0.32482557091518699 -0.15217937608711771 0 -0.3332048416520596 -0.1672909388971599 0 -0.31180552805921091 -0.17430838359622669 0 -0.30878195228896921 -0.15303576335633209 0 -0.32482557091518699 -0.15217937608711771 0 -0.31180552805921091 -0.17430838359622669 0 -0.3332048416520596 -0.1672909388971599 0 -0.32636528284146782 -0.19148943982190991 0 -0.30591086076688379 -0.19847336016990141 0 -0.32636528284146782 -0.19148943982190991 0 -0.31790591229007997 -0.21133065133653661 0 -0.30591086076688379 -0.19847336016990141 0 -0.31180552805921091 -0.17430838359622669 0 -0.32636528284146782 -0.19148943982190991 0 -0.32636528284146782 -0.19148943982190991 0 -0.31790591229007997 -0.21133065133653661 0 -0.33039187961118982 -0.20742389982875531 0 -0.31790591229007997 -0.21133065133653661 0 -0.33039187961118982 -0.20742389982875531 0 -0.32870803705144969 -0.21844997174213321 0 -0.33039187961118982 -0.20742389982875531 0 -0.32870803705144969 -0.21844997174213321 0 -0.33850246058748812 -0.21389845468103499 0 -0.32870803705144969 -0.21844997174213321 0 -0.33850246058748812 -0.21389845468103499 0 -0.33596699493009807 -0.21993263715474329 0 -0.33850246058748812 -0.21389845468103499 0 -0.34687159193856038 -0.2183762197826761 0 -0.3403652740897718 -0.22150288532491411 0 -0.33850246058748812 -0.21389845468103499 0 -0.3403652740897718 -0.22150288532491411 0 -0.33596699493009807 -0.21993263715474329 0 -0.33039187961118982 -0.20742389982875531 0 -0.33850246058748812 -0.21389845468103499 0 -0.34047770528546362 -0.2019509815621614 0 -0.33850246058748812 -0.21389845468103499 0 -0.34047770528546362 -0.2019509815621614 0 -0.34737571748628571 -0.2101963969508848 0 -0.34598439970938172 -0.18569097211732419 0 -0.32636528284146782 -0.19148943982190991 0 -0.34047770528546362 -0.2019509815621614 0 -0.32636528284146782 -0.19148943982190991 0 -0.33039187961118982 -0.20742389982875531 0 -0.34047770528546362 -0.2019509815621614 0 -0.34598439970938172 -0.18569097211732419 0 -0.35303310702934909 -0.20231631441727971 0 -0.36343771537771569 -0.19566750525459251 0 -0.34598439970938172 -0.18569097211732419 0 -0.34047770528546362 -0.2019509815621614 0 -0.35303310702934909 -0.20231631441727971 0 -0.36802329911298681 -0.18587483615006681 0 -0.34598439970938172 -0.18569097211732419 0 -0.36343771537771569 -0.19566750525459251 0 -0.35303310702934909 -0.20231631441727971 0 -0.36343771537771569 -0.19566750525459251 0 -0.36388592792924168 -0.20758305467352059 0 -0.36343771537771569 -0.19566750525459251 0 -0.37301156641091737 -0.20337184000283479 0 -0.36388592792924168 -0.20758305467352059 0 -0.36343771537771569 -0.19566750525459251 0 -0.37438048369549509 -0.19384422148204511 0 -0.37301156641091737 -0.20337184000283479 0 -0.36802329911298681 -0.18587483615006681 0 -0.36343771537771569 -0.19566750525459251 0 -0.37438048369549509 -0.19384422148204511 0 -0.37273312771996808 -0.21396345107145709 0 -0.37301156641091737 -0.20337184000283479 0 -0.36388592792924168 -0.20758305467352059 0 -0.37273312771996808 -0.21396345107145709 0 -0.36388592792924168 -0.20758305467352059 0 -0.36460053442081081 -0.21946742083422599 0 -0.36388592792924168 -0.20758305467352059 0 -0.35626724818121019 -0.21440977701126371 0 -0.36460053442081081 -0.21946742083422599 0 -0.35626724818121019 -0.21440977701126371 0 -0.34687159193856038 -0.2183762197826761 0 -0.35361393690670712 -0.22275298964725909 0 -0.35303310702934909 -0.20231631441727971 0 -0.36388592792924168 -0.20758305467352059 0 -0.35626724818121019 -0.21440977701126371 0 -0.35303310702934909 -0.20231631441727971 0 -0.35626724818121019 -0.21440977701126371 0 -0.34737571748628571 -0.2101963969508848 0 -0.34047770528546362 -0.2019509815621614 0 -0.35303310702934909 -0.20231631441727971 0 -0.34737571748628571 -0.2101963969508848 0 -0.33850246058748812 -0.21389845468103499 0 -0.34737571748628571 -0.2101963969508848 0 -0.34687159193856038 -0.2183762197826761 0 -0.35626724818121019 -0.21440977701126371 0 -0.34737571748628571 -0.2101963969508848 0 -0.34687159193856038 -0.2183762197826761 0 -0.34687159193856038 -0.2183762197826761 0 -0.3448729074691318 -0.22568858673477191 0 -0.3403652740897718 -0.22150288532491411 0 -0.34687159193856038 -0.2183762197826761 0 -0.3448729074691318 -0.22568858673477191 0 -0.35361393690670712 -0.22275298964725909 0 -0.3448729074691318 -0.22568858673477191 0 -0.35311939258201253 -0.23120947699362049 0 -0.35361393690670712 -0.22275298964725909 0 -0.3448729074691318 -0.22568858673477191 0 -0.35311939258201253 -0.23120947699362049 0 -0.3466300329275056 -0.23782645962689411 0 -0.35311939258201253 -0.23120947699362049 0 -0.35361393690670712 -0.22275298964725909 0 -0.36278739720748587 -0.22937453583313699 0 -0.35311939258201253 -0.23120947699362049 0 -0.36278739720748587 -0.22937453583313699 0 -0.35743223323550471 -0.2390192939344549 0 -0.35626724818121019 -0.21440977701126371 0 -0.35361393690670712 -0.22275298964725909 0 -0.36460053442081081 -0.21946742083422599 0 -0.36460053442081081 -0.21946742083422599 0 -0.36278739720748587 -0.22937453583313699 0 -0.37306962678156358 -0.22430756502184571 0 -0.35361393690670712 -0.22275298964725909 0 -0.36460053442081081 -0.21946742083422599 0 -0.36278739720748587 -0.22937453583313699 0 -0.36278739720748587 -0.22937453583313699 0 -0.37393716339703942 -0.23401667981853819 0 -0.37306962678156358 -0.22430756502184571 0 -0.36278739720748587 -0.22937453583313699 0 -0.37393716339703942 -0.23401667981853819 0 -0.36594725961251939 -0.23889039006825119 0 -0.37273312771996808 -0.21396345107145709 0 -0.36460053442081081 -0.21946742083422599 0 -0.37306962678156358 -0.22430756502184571 0 -0.37393540655460039 -0.25504906339868932 0 -0.37362469669529808 -0.24416340610428999 0 -0.363557814049559 -0.2486896754833777 0 -0.37362469669529808 -0.24416340610428999 0 -0.36594725961251939 -0.23889039006825119 0 -0.363557814049559 -0.2486896754833777 0 -0.37393716339703942 -0.23401667981853819 0 -0.37362469669529808 -0.24416340610428999 0 -0.36594725961251939 -0.23889039006825119 0 -0.36278739720748587 -0.22937453583313699 0 -0.36594725961251939 -0.23889039006825119 0 -0.35743223323550471 -0.2390192939344549 0 -0.36594725961251939 -0.23889039006825119 0 -0.363557814049559 -0.2486896754833777 0 -0.35743223323550471 -0.2390192939344549 0 -0.363557814049559 -0.2486896754833777 0 -0.35255150303394622 -0.24812522560144931 0 -0.35743223323550471 -0.2390192939344549 0 -0.35311939258201253 -0.23120947699362049 0 -0.35743223323550471 -0.2390192939344549 0 -0.3466300329275056 -0.23782645962689411 0 -0.35255150303394622 -0.24812522560144931 0 -0.35743223323550471 -0.2390192939344549 0 -0.3466300329275056 -0.23782645962689411 0 -0.35255150303394622 -0.24812522560144931 0 -0.3466300329275056 -0.23782645962689411 0 -0.3420777495351906 -0.24844208584564559 0 -0.33131030172746923 -0.25321851497678438 0 -0.33373364759712132 -0.2373308373461466 0 -0.32202724095639168 -0.2495658441092535 0 -0.33131030172746923 -0.25321851497678438 0 -0.33373364759712132 -0.2373308373461466 0 -0.33131030172746923 -0.25321851497678438 0 -0.3420777495351906 -0.24844208584564559 0 -0.33373364759712132 -0.2373308373461466 0 -0.3466300329275056 -0.23782645962689411 0 -0.3420777495351906 -0.24844208584564559 0 -0.33373364759712132 -0.2373308373461466 0 -0.3448729074691318 -0.22568858673477191 0 -0.33373364759712132 -0.2373308373461466 0 -0.33513500532203722 -0.22814340766163391 0 -0.3448729074691318 -0.22568858673477191 0 -0.33373364759712132 -0.2373308373461466 0 -0.3448729074691318 -0.22568858673477191 0 -0.3466300329275056 -0.23782645962689411 0 -0.33373364759712132 -0.2373308373461466 0 -0.3362922079916828 -0.22587923687089109 0 -0.33513500532203722 -0.22814340766163391 0 -0.31547147842988582 -0.2330670094454039 0 -0.3448729074691318 -0.22568858673477191 0 -0.3362922079916828 -0.22587923687089109 0 -0.33513500532203722 -0.22814340766163391 0 -0.3448729074691318 -0.22568858673477191 0 -0.3403652740897718 -0.22150288532491411 0 -0.3362922079916828 -0.22587923687089109 0 -0.3403652740897718 -0.22150288532491411 0 -0.3362922079916828 -0.22587923687089109 0 -0.33596699493009807 -0.21993263715474329 0 -0.32870803705144969 -0.21844997174213321 0 -0.3362922079916828 -0.22587923687089109 0 -0.33596699493009807 -0.21993263715474329 0 -0.33373364759712132 -0.2373308373461466 0 -0.33513500532203722 -0.22814340766163391 0 -0.31790591229007997 -0.21133065133653661 0 -0.32870803705144969 -0.21844997174213321 0 -0.31547147842988582 -0.2330670094454039 0 -0.3362922079916828 -0.22587923687089109 0 -0.31547147842988582 -0.2330670094454039 0 -0.32870803705144969 -0.21844997174213321 0 -0.3362922079916828 -0.22587923687089109 0 -0.31547147842988582 -0.2330670094454039 0 -0.33373364759712132 -0.2373308373461466 0 -0.33513500532203722 -0.22814340766163391 0 -0.31547147842988582 -0.2330670094454039 0 -0.33373364759712132 -0.2373308373461466 0 -0.31547147842988582 -0.2330670094454039 0 -0.32202724095639168 -0.2495658441092535 0 -0.31283906540333922 -0.25031215033235238 0 -0.31547147842988582 -0.2330670094454039 0 -0.32202724095639168 -0.2495658441092535 0 -0.33373364759712132 -0.2373308373461466 0 -0.32202724095639168 -0.2495658441092535 0 -0.42931567121415071 -0.25028064732030619 0 -0.41974440223132548 -0.2277223948390894 0 -0.42931567121415071 -0.25028064732030619 0 -0.43665732485841618 -0.24137016429136929 0 -0.41974440223132548 -0.2277223948390894 0 -0.43487007995442373 -0.25384069753834382 0 -0.42931567121415071 -0.25028064732030619 0 -0.43665732485841618 -0.24137016429136929 0 -0.43665732485841618 -0.24137016429136929 0 -0.41974440223132548 -0.2277223948390894 0 -0.44277641758923081 -0.23102430468348881 0 -0.43377720402095787 -0.21991138490827611 0 -0.41974440223132548 -0.2277223948390894 0 -0.44277641758923081 -0.23102430468348881 0 -0.43377720402095787 -0.21991138490827611 0 -0.41974440223132548 -0.2277223948390894 0 -0.42075205755079043 -0.21398522646416529 0 -0.41974440223132548 -0.2277223948390894 0 -0.40847937369743209 -0.24258689873782929 0 -0.40379864078896821 -0.22147517947459039 0 -0.42931567121415071 -0.25028064732030619 0 -0.41974440223132548 -0.2277223948390894 0 -0.40847937369743209 -0.24258689873782929 0 -0.3945867816951415 -0.25828321704239809 0 -0.40847937369743209 -0.24258689873782929 0 -0.3933004523496676 -0.24484402304582939 0 -0.40847937369743209 -0.24258689873782929 0 -0.3933004523496676 -0.24484402304582939 0 -0.39478669289115392 -0.23309544567896751 0 -0.3933004523496676 -0.24484402304582939 0 -0.38349803953804651 -0.2389949919606586 0 -0.38258347849844832 -0.24967798674395081 0 -0.3933004523496676 -0.24484402304582939 0 -0.38349803953804651 -0.2389949919606586 0 -0.39478669289115392 -0.23309544567896751 0 -0.37393716339703942 -0.23401667981853819 0 -0.37362469669529808 -0.24416340610428999 0 -0.38349803953804651 -0.2389949919606586 0 -0.37393540655460039 -0.25504906339868932 0 -0.37362469669529808 -0.24416340610428999 0 -0.38258347849844832 -0.24967798674395081 0 -0.37362469669529808 -0.24416340610428999 0 -0.38349803953804651 -0.2389949919606586 0 -0.38258347849844832 -0.24967798674395081 0 -0.37306962678156358 -0.22430756502184571 0 -0.38469596054732291 -0.22836918992304631 0 -0.38295547739377761 -0.21861943378263729 0 -0.37273312771996808 -0.21396345107145709 0 -0.37306962678156358 -0.22430756502184571 0 -0.38295547739377761 -0.21861943378263729 0 -0.37393716339703942 -0.23401667981853819 0 -0.38349803953804651 -0.2389949919606586 0 -0.38469596054732291 -0.22836918992304631 0 -0.37393716339703942 -0.23401667981853819 0 -0.37306962678156358 -0.22430756502184571 0 -0.38469596054732291 -0.22836918992304631 0 -0.38349803953804651 -0.2389949919606586 0 -0.38469596054732291 -0.22836918992304631 0 -0.39478669289115392 -0.23309544567896751 0 -0.38469596054732291 -0.22836918992304631 0 -0.39264909581396568 -0.2229573829789786 0 -0.38295547739377761 -0.21861943378263729 0 -0.39264909581396568 -0.2229573829789786 0 -0.39478669289115392 -0.23309544567896751 0 -0.40379864078896821 -0.22147517947459039 0 -0.40847937369743209 -0.24258689873782929 0 -0.39478669289115392 -0.23309544567896751 0 -0.40379864078896821 -0.22147517947459039 0 -0.40847937369743209 -0.24258689873782929 0 -0.40379864078896821 -0.22147517947459039 0 -0.39264909581396568 -0.2229573829789786 0 -0.40379864078896821 -0.22147517947459039 0 -0.39247153470499518 -0.2129117927155128 0 -0.38469596054732291 -0.22836918992304631 0 -0.39264909581396568 -0.2229573829789786 0 -0.39478669289115392 -0.23309544567896751 0 -0.40379864078896821 -0.22147517947459039 0 -0.39911790788050461 -0.2003634602113514 0 -0.40379864078896821 -0.22147517947459039 0 -0.39247153470499518 -0.2129117927155128 0 -0.39911790788050461 -0.2003634602113514 0 -0.40379864078896821 -0.22147517947459039 0 -0.40520524043689871 -0.20626505254016059 0 -0.39911790788050461 -0.2003634602113514 0 -0.40520524043689871 -0.20626505254016059 0 -0.39911790788050461 -0.2003634602113514 0 -0.41017313324850019 -0.2051641423578727 0 -0.40520524043689871 -0.20626505254016059 0 -0.39911790788050461 -0.2003634602113514 0 -0.39247153470499518 -0.2129117927155128 0 -0.38971867217429529 -0.20303686442097379 0 -0.39911790788050461 -0.2003634602113514 0 -0.39247153470499518 -0.2129117927155128 0 -0.38295547739377761 -0.21861943378263729 0 -0.38211351879485039 -0.2092072209849834 0 -0.39264909581396568 -0.2229573829789786 0 -0.39247153470499518 -0.2129117927155128 0 -0.38295547739377761 -0.21861943378263729 0 -0.38211351879485039 -0.2092072209849834 0 -0.38151862494823319 -0.19996558655041019 0 -0.38971867217429529 -0.20303686442097379 0 -0.39247153470499518 -0.2129117927155128 0 -0.38211351879485039 -0.2092072209849834 0 -0.38971867217429529 -0.20303686442097379 0 -0.37273312771996808 -0.21396345107145709 0 -0.37301156641091737 -0.20337184000283479 0 -0.38211351879485039 -0.2092072209849834 0 -0.37301156641091737 -0.20337184000283479 0 -0.38211351879485039 -0.2092072209849834 0 -0.38151862494823319 -0.19996558655041019 0 -0.37273312771996808 -0.21396345107145709 0 -0.38295547739377761 -0.21861943378263729 0 -0.38211351879485039 -0.2092072209849834 0 -0.36802329911298681 -0.18587483615006681 0 -0.37438048369549509 -0.19384422148204511 0 -0.38452179946839471 -0.1862127167391712 0 -0.38151862494823319 -0.19996558655041019 0 -0.38971867217429529 -0.20303686442097379 0 -0.38452179946839471 -0.1862127167391712 0 -0.37438048369549509 -0.19384422148204511 0 -0.38151862494823319 -0.19996558655041019 0 -0.38452179946839471 -0.1862127167391712 0 -0.37438048369549509 -0.19384422148204511 0 -0.37301156641091737 -0.20337184000283479 0 -0.38151862494823319 -0.19996558655041019 0 -0.39911790788050461 -0.2003634602113514 0 -0.39550730918059213 -0.18407841519480589 0 -0.38452179946839471 -0.1862127167391712 0 -0.39911790788050461 -0.2003634602113514 0 -0.40135005364381798 -0.19305297691017151 0 -0.39550730918059213 -0.18407841519480589 0 -0.39911790788050461 -0.2003634602113514 0 -0.39550730918059213 -0.18407841519480589 0 -0.38971867217429529 -0.20303686442097379 0 -0.39911790788050461 -0.2003634602113514 0 -0.38452179946839471 -0.1862127167391712 0 -0.41017313324850019 -0.2051641423578727 0 -0.40060186426567512 -0.18260588987665591 0 -0.40135005364381798 -0.19305297691017151 0 -0.41017313324850019 -0.2051641423578727 0 -0.40060186426567512 -0.18260588987665591 0 -0.39911790788050461 -0.2003634602113514 0 -0.38452179946839471 -0.1862127167391712 0 -0.39911790788050461 -0.2003634602113514 0 -0.40135005364381798 -0.19305297691017151 0 -0.41017313324850019 -0.2051641423578727 0 -0.40882722491020068 -0.19324634934951379 0 -0.40670914653930851 -0.1871811045826946 0 -0.40060186426567512 -0.18260588987665591 0 -0.40882722491020068 -0.19324634934951379 0 -0.41182634361573828 -0.18846823012601879 0 -0.40670914653930851 -0.1871811045826946 0 -0.40882722491020068 -0.19324634934951379 0 -0.41017313324850019 -0.2051641423578727 0 -0.40060186426567512 -0.18260588987665591 0 -0.40882722491020068 -0.19324634934951379 0 -0.41332632127240471 -0.19520135196246871 0 -0.41182634361573828 -0.18846823012601879 0 -0.41182634361573828 -0.18846823012601879 0 -0.42015528071935893 -0.19373976728588371 0 -0.42086010939994178 -0.18624419393877539 0 -0.41332632127240471 -0.19520135196246871 0 -0.41182634361573828 -0.18846823012601879 0 -0.42015528071935893 -0.19373976728588371 0 -0.42015528071935893 -0.19373976728588371 0 -0.41596892406105851 -0.2005599774501266 0 -0.4250272884910265 -0.2012921483654643 0 -0.41596892406105851 -0.2005599774501266 0 -0.41798035083784391 -0.20525037365940721 0 -0.4250272884910265 -0.2012921483654643 0 -0.41332632127240471 -0.19520135196246871 0 -0.42015528071935893 -0.19373976728588371 0 -0.41596892406105851 -0.2005599774501266 0 -0.41596892406105851 -0.2005599774501266 0 -0.41190905555667651 -0.19876129696974801 0 -0.41017313324850019 -0.2051641423578727 0 -0.40882722491020068 -0.19324634934951379 0 -0.41190905555667651 -0.19876129696974801 0 -0.41017313324850019 -0.2051641423578727 0 -0.40882722491020068 -0.19324634934951379 0 -0.41332632127240471 -0.19520135196246871 0 -0.41190905555667651 -0.19876129696974801 0 -0.41332632127240471 -0.19520135196246871 0 -0.41596892406105851 -0.2005599774501266 0 -0.41190905555667651 -0.19876129696974801 0 -0.41974440223132548 -0.2277223948390894 0 -0.40379864078896821 -0.22147517947459039 0 -0.41017313324850019 -0.2051641423578727 0 -0.41974440223132548 -0.2277223948390894 0 -0.41017313324850019 -0.2051641423578727 0 -0.42075205755079043 -0.21398522646416529 0 -0.40379864078896821 -0.22147517947459039 0 -0.40520524043689871 -0.20626505254016059 0 -0.41017313324850019 -0.2051641423578727 0 -0.41974440223132548 -0.2277223948390894 0 -0.41017313324850019 -0.2051641423578727 0 -0.41017313324850019 -0.2051641423578727 0 -0.42075205755079043 -0.21398522646416529 0 -0.41798035083784391 -0.20525037365940721 0 -0.42075205755079043 -0.21398522646416529 0 -0.41798035083784391 -0.20525037365940721 0 -0.4250272884910265 -0.2012921483654643 0 -0.41596892406105851 -0.2005599774501266 0 -0.41017313324850019 -0.2051641423578727 0 -0.41798035083784391 -0.20525037365940721 0 -0.42075205755079043 -0.21398522646416529 0 -0.43601245252430942 -0.20793643678791121 0 -0.4250272884910265 -0.2012921483654643 0 -0.43377720402095787 -0.21991138490827611 0 -0.42075205755079043 -0.21398522646416529 0 -0.43601245252430942 -0.20793643678791121 0 -0.42704416580793209 -0.1915833167308334 0 -0.4250272884910265 -0.2012921483654643 0 -0.43829012180726529 -0.19322062900912909 0 -0.43601245252430942 -0.20793643678791121 0 -0.4250272884910265 -0.2012921483654643 0 -0.43829012180726529 -0.19322062900912909 0 -0.42704416580793209 -0.1915833167308334 0 -0.43088802862206788 -0.18341984505491449 0 -0.43829012180726529 -0.19322062900912909 0 -0.42015528071935893 -0.19373976728588371 0 -0.42704416580793209 -0.1915833167308334 0 -0.42086010939994178 -0.18624419393877539 0 -0.42015528071935893 -0.19373976728588371 0 -0.42704416580793209 -0.1915833167308334 0 -0.4250272884910265 -0.2012921483654643 0 -0.4285734277027195 -0.1734756855885477 0 -0.43088802862206788 -0.18341984505491449 0 -0.41995474680429618 -0.17713819565942951 0 -0.42704416580793209 -0.1915833167308334 0 -0.43088802862206788 -0.18341984505491449 0 -0.42086010939994178 -0.18624419393877539 0 -0.43088802862206788 -0.18341984505491449 0 -0.41995474680429618 -0.17713819565942951 0 -0.42086010939994178 -0.18624419393877539 0 -0.43088802862206788 -0.18341984505491449 0 -0.44104422433457419 -0.1777922577957152 0 -0.43829012180726529 -0.19322062900912909 0 -0.4285734277027195 -0.1734756855885477 0 -0.43088802862206788 -0.18341984505491449 0 -0.44104422433457419 -0.1777922577957152 0 -0.4285734277027195 -0.1734756855885477 0 -0.4344270590450659 -0.1609053943072484 0 -0.44104422433457419 -0.1777922577957152 0 -0.4285734277027195 -0.1734756855885477 0 -0.4344270590450659 -0.1609053943072484 0 -0.4151480566294905 -0.1680004084026471 0 -0.4151480566294905 -0.1680004084026471 0 -0.40323096316088519 -0.16793215078578741 0 -0.41306883257355248 -0.1475019853524365 0 -0.4344270590450659 -0.1609053943072484 0 -0.4151480566294905 -0.1680004084026471 0 -0.41306883257355248 -0.1475019853524365 0 -0.4151480566294905 -0.1680004084026471 0 -0.40690801218449152 -0.1762036959065488 0 -0.40323096316088519 -0.16793215078578741 0 -0.4151480566294905 -0.1680004084026471 0 -0.40690801218449152 -0.1762036959065488 0 -0.4136865446123984 -0.1757543503219206 0 -0.40690801218449152 -0.1762036959065488 0 -0.4136865446123984 -0.1757543503219206 0 -0.41273536283131562 -0.1816751013190569 0 -0.4151480566294905 -0.1680004084026471 0 -0.4136865446123984 -0.1757543503219206 0 -0.41995474680429618 -0.17713819565942951 0 -0.4285734277027195 -0.1734756855885477 0 -0.4151480566294905 -0.1680004084026471 0 -0.41995474680429618 -0.17713819565942951 0 -0.4136865446123984 -0.1757543503219206 0 -0.41995474680429618 -0.17713819565942951 0 -0.41273536283131562 -0.1816751013190569 0 -0.41995474680429618 -0.17713819565942951 0 -0.42086010939994178 -0.18624419393877539 0 -0.41273536283131562 -0.1816751013190569 0 -0.41182634361573828 -0.18846823012601879 0 -0.42086010939994178 -0.18624419393877539 0 -0.41273536283131562 -0.1816751013190569 0 -0.41182634361573828 -0.18846823012601879 0 -0.41273536283131562 -0.1816751013190569 0 -0.4077561458873058 -0.18322680436219499 0 -0.40690801218449152 -0.1762036959065488 0 -0.41273536283131562 -0.1816751013190569 0 -0.4077561458873058 -0.18322680436219499 0 -0.41182634361573828 -0.18846823012601879 0 -0.4077561458873058 -0.18322680436219499 0 -0.40670914653930851 -0.1871811045826946 0 -0.39550730918059213 -0.18407841519480589 0 -0.38736231178750308 -0.177259124355894 0 -0.39189671048067998 -0.1677933701782604 0 -0.40135005364381798 -0.19305297691017151 0 -0.40060186426567512 -0.18260588987665591 0 -0.39550730918059213 -0.18407841519480589 0 -0.4077561458873058 -0.18322680436219499 0 -0.40670914653930851 -0.1871811045826946 0 -0.40060186426567512 -0.18260588987665591 0 -0.39550730918059213 -0.18407841519480589 0 -0.39189671048067998 -0.1677933701782604 0 -0.40060186426567512 -0.18260588987665591 0 -0.39550730918059213 -0.18407841519480589 0 -0.39189671048067998 -0.1677933701782604 0 -0.40690801218449152 -0.1762036959065488 0 -0.4077561458873058 -0.18322680436219499 0 -0.40060186426567512 -0.18260588987665591 0 -0.40690801218449152 -0.1762036959065488 0 -0.40060186426567512 -0.18260588987665591 0 -0.40323096316088519 -0.16793215078578741 0 -0.36992569105628492 -0.1720619732669908 0 -0.38736231178750308 -0.177259124355894 0 -0.39189671048067998 -0.1677933701782604 0 -0.36992569105628492 -0.1720619732669908 0 -0.38452179946839471 -0.1862127167391712 0 -0.38736231178750308 -0.177259124355894 0 -0.39550730918059213 -0.18407841519480589 0 -0.38452179946839471 -0.1862127167391712 0 -0.38736231178750308 -0.177259124355894 0 -0.36992569105628492 -0.1720619732669908 0 -0.38452179946839471 -0.1862127167391712 0 -0.36992569105628492 -0.1720619732669908 0 -0.37692746124962329 -0.16011968929401549 0 -0.39103059528285172 -0.16004763739543851 0 -0.36992569105628492 -0.1720619732669908 0 -0.39189671048067998 -0.1677933701782604 0 -0.39103059528285172 -0.16004763739543851 0 -0.36992569105628492 -0.1720619732669908 0 -0.39103059528285172 -0.16004763739543851 0 -0.37692746124962329 -0.16011968929401549 0 -0.39103059528285172 -0.16004763739543851 0 -0.38828980922767731 -0.15358795645443499 0 -0.39103059528285172 -0.16004763739543851 0 -0.38828980922767731 -0.15358795645443499 0 -0.40060186426567512 -0.18260588987665591 0 -0.39103059528285172 -0.16004763739543851 0 -0.40323096316088519 -0.16793215078578741 0 -0.40060186426567512 -0.18260588987665591 0 -0.39189671048067998 -0.1677933701782604 0 -0.39103059528285172 -0.16004763739543851 0 -0.40060186426567512 -0.18260588987665591 0 -0.39103059528285172 -0.16004763739543851 0 -0.39103059528285172 -0.16004763739543851 0 -0.40323096316088519 -0.16793215078578741 0 -0.41306883257355248 -0.1475019853524365 0 -0.39103059528285172 -0.16004763739543851 0 -0.39795981207507403 -0.14502431583870179 0 -0.41306883257355248 -0.1475019853524365 0 -0.39795981207507403 -0.14502431583870179 0 -0.40633267592073652 -0.13102661860532899 0 -0.41306883257355248 -0.1475019853524365 0 -0.39103059528285172 -0.16004763739543851 0 -0.41306883257355248 -0.1475019853524365 0 -0.39103059528285172 -0.16004763739543851 0 -0.39795981207507403 -0.14502431583870179 0 -0.38828980922767731 -0.15358795645443499 0 -0.39795981207507403 -0.14502431583870179 0 -0.38828980922767731 -0.15358795645443499 0 -0.38190833683646341 -0.1417380771930716 0 -0.38828980922767731 -0.15358795645443499 0 -0.38190833683646341 -0.1417380771930716 0 -0.37945525551812698 -0.15104483685056111 0 -0.37069541475874412 -0.1487336244607225 0 -0.38190833683646341 -0.1417380771930716 0 -0.37945525551812698 -0.15104483685056111 0 -0.37692746124962329 -0.16011968929401549 0 -0.38828980922767731 -0.15358795645443499 0 -0.37945525551812698 -0.15104483685056111 0 -0.37069541475874412 -0.1487336244607225 0 -0.37692746124962329 -0.16011968929401549 0 -0.37945525551812698 -0.15104483685056111 0 -0.37152802352755399 -0.13164580699010159 0 -0.38190833683646341 -0.1417380771930716 0 -0.38235470820745771 -0.123978498660336 0 -0.38190833683646341 -0.1417380771930716 0 -0.39228294530364349 -0.13316426080004001 0 -0.38235470820745771 -0.123978498660336 0 -0.39228294530364349 -0.13316426080004001 0 -0.40633267592073652 -0.13102661860532899 0 -0.39306930808202878 -0.1142539450673672 0 -0.39795981207507403 -0.14502431583870179 0 -0.38190833683646341 -0.1417380771930716 0 -0.39228294530364349 -0.13316426080004001 0 -0.39795981207507403 -0.14502431583870179 0 -0.39228294530364349 -0.13316426080004001 0 -0.40633267592073652 -0.13102661860532899 0 -0.40633267592073652 -0.13102661860532899 0 -0.42371591628165239 -0.12841039464220819 0 -0.41294233195137359 -0.116724400289887 0 -0.40633267592073652 -0.13102661860532899 0 -0.41306883257355248 -0.1475019853524365 0 -0.42371591628165239 -0.12841039464220819 0 -0.4344270590450659 -0.1609053943072484 0 -0.41306883257355248 -0.1475019853524365 0 -0.43782831476482847 -0.1415704877041897 0 -0.41306883257355248 -0.1475019853524365 0 -0.42371591628165239 -0.12841039464220819 0 -0.43782831476482847 -0.1415704877041897 0 -0.42371591628165239 -0.12841039464220819 0 -0.43782831476482847 -0.1415704877041897 0 -0.44295770465017009 -0.12292285668534771 0 -0.43782831476482847 -0.1415704877041897 0 -0.45407528277834919 -0.1346042898317954 0 -0.44295770465017009 -0.12292285668534771 0 -0.43782831476482847 -0.1415704877041897 0 -0.45305184803309972 -0.15210272433296521 0 -0.45407528277834919 -0.1346042898317954 0 -0.4344270590450659 -0.1609053943072484 0 -0.43782831476482847 -0.1415704877041897 0 -0.45305184803309972 -0.15210272433296521 0 -0.45305184803309972 -0.15210272433296521 0 -0.45407528277834919 -0.1346042898317954 0 -0.47213782278640881 -0.13623393318828281 0 -0.45305184803309972 -0.15210272433296521 0 -0.47213782278640881 -0.13623393318828281 0 -0.46702369577757719 -0.16066454859793791 0 -0.45407528277834919 -0.1346042898317954 0 -0.47213782278640881 -0.13623393318828281 0 -0.46296805171726468 -0.11640170438458371 0 -0.47213782278640881 -0.13623393318828281 0 -0.5 -0.14556247672259531 0 -0.48245330698995931 -0.121898764666846 0 -0.5 -0.14556247672259531 0 -0.48245330698995931 -0.121898764666846 0 -0.50000000000000089 -0.1198938119733675 0 -0.47213782278640881 -0.13623393318828281 0 -0.5 -0.14556247672259531 0 -0.48142521519093828 -0.15645589086587239 0 -0.47213782278640881 -0.13623393318828281 0 -0.48142521519093828 -0.15645589086587239 0 -0.47213782278640881 -0.13623393318828281 0 -0.48142521519093828 -0.15645589086587239 0 -0.46702369577757719 -0.16066454859793791 0 -0.48142521519093828 -0.15645589086587239 0 -0.47632052375980027 -0.17461649056753861 0 -0.46702369577757719 -0.16066454859793791 0 -0.48142521519093828 -0.15645589086587239 0 -0.49071260759546798 -0.17667784854346191 0 -0.47632052375980027 -0.17461649056753861 0 -0.47632052375980027 -0.17461649056753861 0 -0.46570520523623959 -0.1757931846103527 0 -0.46702369577757719 -0.16066454859793791 0 -0.48142521519093828 -0.15645589086587239 0 -0.49071260759546798 -0.17667784854346191 0 -0.5 -0.14556247672259531 0 -0.48142521519093828 -0.15645589086587239 0 -0.5 -0.17123114147182319 0 -0.48142521519093828 -0.15645589086587239 0 -0.5 -0.17123114147182319 0 -0.49071260759546798 -0.17667784854346191 0 -0.49071260759546798 -0.17667784854346191 0 -0.49999999999999861 -0.19689980622105099 0 -0.5 -0.17123114147182319 0 -0.49071260759546798 -0.17667784854346191 0 -0.49999999999999861 -0.19689980622105099 0 -0.49071260759546798 -0.17667784854346191 0 -0.47632052375980027 -0.17461649056753861 0 -0.47993034859498662 -0.18922987045237161 0 -0.47632052375980027 -0.17461649056753861 0 -0.46763136520864318 -0.18653340036078911 0 -0.46570520523623959 -0.1757931846103527 0 -0.47632052375980027 -0.17461649056753861 0 -0.46763136520864318 -0.18653340036078911 0 -0.47993034859498662 -0.18922987045237161 0 -0.46570520523623959 -0.1757931846103527 0 -0.45350155965897682 -0.1687850680226157 0 -0.45596312027128949 -0.18794868189772959 0 -0.46763136520864318 -0.18653340036078911 0 -0.46570520523623959 -0.1757931846103527 0 -0.45596312027128949 -0.18794868189772959 0 -0.45305184803309972 -0.15210272433296521 0 -0.46702369577757719 -0.16066454859793791 0 -0.45350155965897682 -0.1687850680226157 0 -0.46570520523623959 -0.1757931846103527 0 -0.46702369577757719 -0.16066454859793791 0 -0.45350155965897682 -0.1687850680226157 0 -0.4344270590450659 -0.1609053943072484 0 -0.45305184803309972 -0.15210272433296521 0 -0.45350155965897682 -0.1687850680226157 0 -0.4344270590450659 -0.1609053943072484 0 -0.45350155965897682 -0.1687850680226157 0 -0.44104422433457419 -0.1777922577957152 0 -0.45350155965897682 -0.1687850680226157 0 -0.44104422433457419 -0.1777922577957152 0 -0.45596312027128949 -0.18794868189772959 0 -0.44104422433457419 -0.1777922577957152 0 -0.43829012180726529 -0.19322062900912909 0 -0.45596312027128949 -0.18794868189772959 0 -0.45013906333809789 -0.2009404811944836 0 -0.43829012180726529 -0.19322062900912909 0 -0.45596312027128949 -0.18794868189772959 0 -0.43601245252430942 -0.20793643678791121 0 -0.45013906333809789 -0.2009404811944836 0 -0.43829012180726529 -0.19322062900912909 0 -0.43377720402095787 -0.21991138490827611 0 -0.43601245252430942 -0.20793643678791121 0 -0.45297794936819918 -0.2159919965998246 0 -0.43601245252430942 -0.20793643678791121 0 -0.45013906333809789 -0.2009404811944836 0 -0.45297794936819918 -0.2159919965998246 0 -0.45013906333809789 -0.2009404811944836 0 -0.45297794936819918 -0.2159919965998246 0 -0.46745167271942573 -0.1996046616778234 0 -0.45297794936819918 -0.2159919965998246 0 -0.46745167271942573 -0.1996046616778234 0 -0.46956062781061803 -0.21704188818370149 0 -0.45013906333809789 -0.2009404811944836 0 -0.46745167271942573 -0.1996046616778234 0 -0.45596312027128949 -0.18794868189772959 0 -0.46763136520864318 -0.18653340036078911 0 -0.46745167271942573 -0.1996046616778234 0 -0.45596312027128949 -0.18794868189772959 0 -0.46745167271942573 -0.1996046616778234 0 -0.47993034859498662 -0.18922987045237161 0 -0.48475058775642699 -0.21058337118561141 0 -0.46763136520864318 -0.18653340036078911 0 -0.46745167271942573 -0.1996046616778234 0 -0.47993034859498662 -0.18922987045237161 0 -0.47993034859498662 -0.18922987045237161 0 -0.49999999999999861 -0.19689980622105099 0 -0.48475058775642699 -0.21058337118561141 0 -0.49071260759546798 -0.17667784854346191 0 -0.47993034859498662 -0.18922987045237161 0 -0.49999999999999861 -0.19689980622105099 0 -0.49999999999999861 -0.19689980622105099 0 -0.48475058775642699 -0.21058337118561141 0 -0.50000000000000355 -0.22426693615016591 0 -0.46745167271942573 -0.1996046616778234 0 -0.48475058775642699 -0.21058337118561141 0 -0.46956062781061803 -0.21704188818370149 0 -0.46956062781061803 -0.21704188818370149 0 -0.47829002665147741 -0.2341248566128927 0 -0.46279731583591321 -0.22891002208815581 0 -0.48475058775642699 -0.21058337118561141 0 -0.46956062781061803 -0.21704188818370149 0 -0.47829002665147741 -0.2341248566128927 0 -0.47829002665147741 -0.2341248566128927 0 -0.49757451855253881 -0.23053548086278239 0 -0.50000000000000355 -0.22426693615016591 0 -0.48475058775642699 -0.21058337118561141 0 -0.47829002665147741 -0.2341248566128927 0 -0.50000000000000355 -0.22426693615016591 0 -0.47829002665147741 -0.2341248566128927 0 -0.50000000000000355 -0.22426693615016591 0 -0.47829002665147741 -0.2341248566128927 0 -0.49757451855253881 -0.23053548086278239 0 -0.47793059070477772 -0.24540990329775009 0 -0.5 -0.25006354863638108 0 -0.49757451855253881 -0.23053548086278239 0 -0.49068252501969761 -0.24549971615663649 0 -0.49757451855253881 -0.23053548086278239 0 -0.49068252501969761 -0.24549971615663649 0 -0.47793059070477772 -0.24540990329775009 0 -0.49757451855253881 -0.23053548086278239 0 -0.47793059070477772 -0.24540990329775009 0 -0.5 -0.25006354863638108 0 -0.49757451855253881 -0.23053548086278239 0 -0.50000000000000355 -0.22426693615016591 0 -0.4872249908214738 -0.25598993182963242 0 -0.49068252501969761 -0.24549971615663649 0 -0.47793059070477772 -0.24540990329775009 0 -0.47829002665147741 -0.2341248566128927 0 -0.47793059070477772 -0.24540990329775009 0 -0.45658005330295048 -0.2439827770756183 0 -0.45658005330295048 -0.2439827770756183 0 -0.46279731583591321 -0.22891002208815581 0 -0.44277641758923081 -0.23102430468348881 0 -0.47829002665147741 -0.2341248566128927 0 -0.45658005330295048 -0.2439827770756183 0 -0.45828666285701658 -0.26028432573271792 0 -0.47793059070477772 -0.24540990329775009 0 -0.45658005330295048 -0.2439827770756183 0 -0.47829002665147741 -0.2341248566128927 0 -0.45658005330295048 -0.2439827770756183 0 -0.46279731583591321 -0.22891002208815581 0 -0.45297794936819918 -0.2159919965998246 0 -0.46956062781061803 -0.21704188818370149 0 -0.46279731583591321 -0.22891002208815581 0 -0.45297794936819918 -0.2159919965998246 0 -0.46279731583591321 -0.22891002208815581 0 -0.44277641758923081 -0.23102430468348881 0 -0.43377720402095787 -0.21991138490827611 0 -0.45297794936819918 -0.2159919965998246 0 -0.44277641758923081 -0.23102430468348881 0 -0.43487007995442373 -0.25384069753834382 0 -0.45658005330295048 -0.2439827770756183 0 -0.43487007995442373 -0.25384069753834382 0 -0.43665732485841618 -0.24137016429136929 0 -0.45658005330295048 -0.2439827770756183 0 -0.43665732485841618 -0.24137016429136929 0 -0.45658005330295048 -0.2439827770756183 0 -0.44277641758923081 -0.23102430468348881 0 -0.42837915354319411 -0.040827216461995969 0 -0.4199205163048339 -0.024265820886729 0 -0.40528095782104068 -0.044243292517360297 0 -0.42343463197652342 -0.05874232933513765 0 -0.42837915354319411 -0.040827216461995969 0 -0.40528095782104068 -0.044243292517360297 0 -0.42343463197652342 -0.05874232933513765 0 -0.40528095782104068 -0.044243292517360297 0 -0.42343463197652342 -0.05874232933513765 0 -0.40528095782104068 -0.044243292517360297 0 -0.40670414160736479 -0.063195666982337848 0 -0.42343463197652342 -0.05874232933513765 0 -0.42837915354319411 -0.040827216461995969 0 -0.44094154444346079 -0.04995238034171972 0 -0.42343463197652342 -0.05874232933513765 0 -0.44158830613200611 -0.073241366152915127 0 -0.44094154444346079 -0.04995238034171972 0 -0.42837915354319411 -0.040827216461995969 0 -0.4342900889778567 -0.026770694848987801 0 -0.4453801544960031 -0.037531923181514312 0 -0.4342900889778567 -0.026770694848987801 0 -0.43033724725149269 -0.0037964727450953309 0 -0.4199205163048339 -0.024265820886729 0 -0.4342900889778567 -0.026770694848987801 0 -0.43033724725149269 -0.0037964727450953309 0 -0.44743337329375982 -0.027432040969604381 0 -0.42837915354319411 -0.040827216461995969 0 -0.4342900889778567 -0.026770694848987801 0 -0.4199205163048339 -0.024265820886729 0 -0.43033724725149269 -0.0037964727450953309 0 -0.4131572459017161 -0.004875649818797438 0 -0.4199205163048339 -0.024265820886729 0 -0.4131572459017161 -0.004875649818797438 0 -0.4199205163048339 -0.024265820886729 0 -0.40195427741026962 -0.018113178269922089 0 -0.4199205163048339 -0.024265820886729 0 -0.40195427741026962 -0.018113178269922089 0 -0.40528095782104068 -0.044243292517360297 0 -0.40195427741026962 -0.018113178269922089 0 -0.38465333842141641 -0.0066435457767305304 0 -0.38712728366555788 -0.02974425569958293 0 -0.40195427741026962 -0.018113178269922089 0 -0.38712728366555788 -0.02974425569958293 0 -0.40528095782104068 -0.044243292517360297 0 -0.40195427741026962 -0.018113178269922089 0 -0.38465333842141641 -0.0066435457767305304 0 -0.40033306733275759 0.0019581273283447299 0 -0.4131572459017161 -0.004875649818797438 0 -0.40195427741026962 -0.018113178269922089 0 -0.40033306733275759 0.0019581273283447299 0 -0.38465333842141641 -0.0066435457767305304 0 -0.40033306733275759 0.0019581273283447299 0 -0.36897360951007507 -0.015245218881805699 0 -0.38465333842141641 -0.0066435457767305304 0 -0.36897360951007507 -0.015245218881805699 0 -0.38465333842141641 -0.0066435457767305304 0 -0.38712728366555788 -0.02974425569958293 0 -0.36897360951007507 -0.015245218881805699 0 -0.38712728366555788 -0.02974425569958293 0 -0.37357085562444819 -0.050327950541553881 0 -0.38712728366555788 -0.02974425569958293 0 -0.39147992867528753 -0.058279446621744307 0 -0.38712728366555788 -0.02974425569958293 0 -0.40528095782104068 -0.044243292517360297 0 -0.38712728366555788 -0.02974425569958293 0 -0.40528095782104068 -0.044243292517360297 0 -0.39147992867528753 -0.058279446621744307 0 -0.40528095782104068 -0.044243292517360297 0 -0.39147992867528753 -0.058279446621744307 0 -0.40670414160736479 -0.063195666982337848 0 -0.37357085562444819 -0.050327950541553881 0 -0.39147992867528753 -0.058279446621744307 0 -0.37513495807632252 -0.068027960422620465 0 -0.39147992867528753 -0.058279446621744307 0 -0.37513495807632252 -0.068027960422620465 0 -0.3944429598887787 -0.078419500118194568 0 -0.37347114863240299 -0.089088331268139143 0 -0.37513495807632252 -0.068027960422620465 0 -0.3944429598887787 -0.078419500118194568 0 -0.37347114863240299 -0.089088331268139143 0 -0.3944429598887787 -0.078419500118194568 0 -0.38844874713165228 -0.097169733216879689 0 -0.3944429598887787 -0.078419500118194568 0 -0.38844874713165228 -0.097169733216879689 0 -0.40907098738890341 -0.097978282768044114 0 -0.39147992867528753 -0.058279446621744307 0 -0.3944429598887787 -0.078419500118194568 0 -0.40670414160736479 -0.063195666982337848 0 -0.3944429598887787 -0.078419500118194568 0 -0.41749625226094061 -0.077358517460495352 0 -0.40670414160736479 -0.063195666982337848 0 -0.39228294530364349 -0.13316426080004001 0 -0.38235470820745771 -0.123978498660336 0 -0.39306930808202878 -0.1142539450673672 0 -0.36980343247362518 -0.1100922289949047 0 -0.38235470820745771 -0.123978498660336 0 -0.39306930808202878 -0.1142539450673672 0 -0.36980343247362518 -0.1100922289949047 0 -0.37347114863240299 -0.089088331268139143 0 -0.38844874713165228 -0.097169733216879689 0 -0.36980343247362518 -0.1100922289949047 0 -0.38844874713165228 -0.097169733216879689 0 -0.39306930808202878 -0.1142539450673672 0 -0.38844874713165228 -0.097169733216879689 0 -0.39306930808202878 -0.1142539450673672 0 -0.40907098738890341 -0.097978282768044114 0 -0.39306930808202878 -0.1142539450673672 0 -0.41294233195137359 -0.116724400289887 0 -0.40907098738890341 -0.097978282768044114 0 -0.40633267592073652 -0.13102661860532899 0 -0.39306930808202878 -0.1142539450673672 0 -0.41294233195137359 -0.116724400289887 0 -0.41294233195137359 -0.116724400289887 0 -0.40907098738890341 -0.097978282768044114 0 -0.42916563782925382 -0.1107160192160596 0 -0.42916563782925382 -0.1107160192160596 0 -0.42904349786494111 -0.093106334976964328 0 -0.44668080241849201 -0.10304266906569499 0 -0.40907098738890341 -0.097978282768044114 0 -0.42916563782925382 -0.1107160192160596 0 -0.42904349786494111 -0.093106334976964328 0 -0.42371591628165239 -0.12841039464220819 0 -0.42916563782925382 -0.1107160192160596 0 -0.44295770465017009 -0.12292285668534771 0 -0.42371591628165239 -0.12841039464220819 0 -0.41294233195137359 -0.116724400289887 0 -0.42916563782925382 -0.1107160192160596 0 -0.42343463197652342 -0.05874232933513765 0 -0.41749625226094061 -0.077358517460495352 0 -0.40670414160736479 -0.063195666982337848 0 -0.40907098738890341 -0.097978282768044114 0 -0.41749625226094061 -0.077358517460495352 0 -0.42904349786494111 -0.093106334976964328 0 -0.3944429598887787 -0.078419500118194568 0 -0.40907098738890341 -0.097978282768044114 0 -0.41749625226094061 -0.077358517460495352 0 -0.41749625226094061 -0.077358517460495352 0 -0.42904349786494111 -0.093106334976964328 0 -0.44158830613200611 -0.073241366152915127 0 -0.42904349786494111 -0.093106334976964328 0 -0.44158830613200611 -0.073241366152915127 0 -0.42343463197652342 -0.05874232933513765 0 -0.44158830613200611 -0.073241366152915127 0 -0.42343463197652342 -0.05874232933513765 0 -0.41749625226094061 -0.077358517460495352 0 -0.44158830613200611 -0.073241366152915127 0 -0.44158830613200611 -0.073241366152915127 0 -0.46118581313569179 -0.071431252447136412 0 -0.45067286806919349 -0.058855770468984832 0 -0.44158830613200611 -0.073241366152915127 0 -0.45067286806919349 -0.058855770468984832 0 -0.44158830613200611 -0.073241366152915127 0 -0.44459286929252761 -0.089545637905493386 0 -0.46105887075467122 -0.088792181426399025 0 -0.42904349786494111 -0.093106334976964328 0 -0.44158830613200611 -0.073241366152915127 0 -0.44459286929252761 -0.089545637905493386 0 -0.44158830613200611 -0.073241366152915127 0 -0.46105887075467122 -0.088792181426399025 0 -0.46105887075467122 -0.088792181426399025 0 -0.46118581313569179 -0.071431252447136412 0 -0.48115195350555812 -0.076249636056848105 0 -0.44158830613200611 -0.073241366152915127 0 -0.46105887075467122 -0.088792181426399025 0 -0.46118581313569179 -0.071431252447136412 0 -0.44295770465017009 -0.12292285668534771 0 -0.44668080241849201 -0.10304266906569499 0 -0.46296805171726468 -0.11640170438458371 0 -0.42916563782925382 -0.1107160192160596 0 -0.44295770465017009 -0.12292285668534771 0 -0.44668080241849201 -0.10304266906569499 0 -0.44459286929252761 -0.089545637905493386 0 -0.46105887075467122 -0.088792181426399025 0 -0.44668080241849201 -0.10304266906569499 0 -0.42904349786494111 -0.093106334976964328 0 -0.44459286929252761 -0.089545637905493386 0 -0.44668080241849201 -0.10304266906569499 0 -0.46105887075467122 -0.088792181426399025 0 -0.46296805171726468 -0.11640170438458371 0 -0.48052943537733628 -0.1043429966998831 0 -0.46105887075467122 -0.088792181426399025 0 -0.44668080241849201 -0.10304266906569499 0 -0.46296805171726468 -0.11640170438458371 0 -0.45407528277834919 -0.1346042898317954 0 -0.44295770465017009 -0.12292285668534771 0 -0.46296805171726468 -0.11640170438458371 0 -0.46296805171726468 -0.11640170438458371 0 -0.48245330698995931 -0.121898764666846 0 -0.48052943537733628 -0.1043429966998831 0 -0.47213782278640881 -0.13623393318828281 0 -0.46296805171726468 -0.11640170438458371 0 -0.48245330698995931 -0.121898764666846 0 -0.46105887075467122 -0.088792181426399025 0 -0.48052943537733628 -0.1043429966998831 0 -0.48052943537733628 -0.1043429966998831 0 -0.50000000000000089 -0.1198938119733675 0 -0.5 -0.090898883536528308 0 -0.48245330698995931 -0.121898764666846 0 -0.48052943537733628 -0.1043429966998831 0 -0.50000000000000089 -0.1198938119733675 0 -0.48052943537733628 -0.1043429966998831 0 -0.50000000000000089 -0.1198938119733675 0 -0.46118581313569179 -0.071431252447136412 0 -0.48115195350555812 -0.076249636056848105 0 -0.46833584839527592 -0.05632992550213807 0 -0.48115195350555812 -0.076249636056848105 0 -0.48490864188954641 -0.055044389119401932 0 -0.46833584839527592 -0.05632992550213807 0 -0.46105887075467122 -0.088792181426399025 0 -0.48052943537733628 -0.1043429966998831 0 -0.48115195350555812 -0.076249636056848105 0 -0.48052943537733628 -0.1043429966998831 0 -0.48115195350555812 -0.076249636056848105 0 -0.5 -0.090898883536528308 0 -0.48115195350555812 -0.076249636056848105 0 -0.5 -0.090898883536528308 0 -0.5 -0.061903955099689163 0 -0.48115195350555812 -0.076249636056848105 0 -0.5 -0.061903955099689163 0 -0.48490864188954641 -0.055044389119401932 0 -0.5 -0.061903955099689163 0 -0.48490864188954641 -0.055044389119401932 0 -0.5 -0.032909026662849998 0 -0.48490864188954641 -0.055044389119401932 0 -0.5 -0.032909026662849998 0 -0.47623700986288742 -0.042296174380792313 0 -0.47623700986288742 -0.042296174380792313 0 -0.45975743000638192 -0.044470174785055258 0 -0.47133789178420182 -0.026132268992706809 0 -0.5 -0.032909026662849998 0 -0.47623700986288742 -0.042296174380792313 0 -0.47133789178420182 -0.026132268992706809 0 -0.48490864188954641 -0.055044389119401932 0 -0.47623700986288742 -0.042296174380792313 0 -0.46833584839527592 -0.05632992550213807 0 -0.46118581313569179 -0.071431252447136412 0 -0.46833584839527592 -0.05632992550213807 0 -0.45067286806919349 -0.058855770468984832 0 -0.47623700986288742 -0.042296174380792313 0 -0.46833584839527592 -0.05632992550213807 0 -0.45975743000638192 -0.044470174785055258 0 -0.46833584839527592 -0.05632992550213807 0 -0.45975743000638192 -0.044470174785055258 0 -0.45067286806919349 -0.058855770468984832 0 -0.45975743000638192 -0.044470174785055258 0 -0.45067286806919349 -0.058855770468984832 0 -0.46833584839527592 -0.05632992550213807 0 -0.45975743000638192 -0.044470174785055258 0 -0.45964620516156041 -0.031574428691672249 0 -0.45975743000638192 -0.044470174785055258 0 -0.44743337329375982 -0.027432040969604381 0 -0.45975743000638192 -0.044470174785055258 0 -0.44743337329375982 -0.027432040969604381 0 -0.45975743000638192 -0.044470174785055258 0 -0.47133789178420182 -0.026132268992706809 0 -0.45964620516156041 -0.031574428691672249 0 -0.45975743000638192 -0.044470174785055258 0 -0.47133789178420182 -0.026132268992706809 0 -0.45975743000638192 -0.044470174785055258 0 -0.4453801544960031 -0.037531923181514312 0 -0.44743337329375982 -0.027432040969604381 0 -0.45975743000638192 -0.044470174785055258 0 -0.4453801544960031 -0.037531923181514312 0 -0.44094154444346079 -0.04995238034171972 0 -0.42837915354319411 -0.040827216461995969 0 -0.4453801544960031 -0.037531923181514312 0 -0.44094154444346079 -0.04995238034171972 0 -0.4453801544960031 -0.037531923181514312 0 -0.44743337329375982 -0.027432040969604381 0 -0.44158830613200611 -0.073241366152915127 0 -0.44094154444346079 -0.04995238034171972 0 -0.45067286806919349 -0.058855770468984832 0 -0.45975743000638192 -0.044470174785055258 0 -0.44094154444346079 -0.04995238034171972 0 -0.45067286806919349 -0.058855770468984832 0 -0.43033724725149269 -0.0037964727450953309 0 -0.45268467479845531 -0.00160063580491273 0 -0.44743337329375982 -0.027432040969604381 0 -0.45268467479845531 -0.00160063580491273 0 -0.44743337329375982 -0.027432040969604381 0 -0.43033724725149269 -0.0037964727450953309 0 -0.44743337329375982 -0.027432040969604381 0 -0.4342900889778567 -0.026770694848987801 0 -0.4453801544960031 -0.037531923181514312 0 -0.44743337329375982 -0.027432040969604381 0 -0.45964620516156041 -0.031574428691672249 0 -0.44743337329375982 -0.027432040969604381 0 -0.46065164258955998 -0.015998841515816709 0 -0.45964620516156041 -0.031574428691672249 0 -0.46065164258955998 -0.015998841515816709 0 -0.47133789178420182 -0.026132268992706809 0 -0.45268467479845531 -0.00160063580491273 0 -0.46065164258955998 -0.015998841515816709 0 -0.47044579822050858 0.003730308873902122 0 -0.45268467479845531 -0.00160063580491273 0 -0.44743337329375982 -0.027432040969604381 0 -0.46065164258955998 -0.015998841515816709 0 -0.46065164258955998 -0.015998841515816709 0 -0.48291835356202167 -0.0077943632003582772 0 -0.47044579822050858 0.003730308873902122 0 -0.46065164258955998 -0.015998841515816709 0 -0.48291835356202167 -0.0077943632003582772 0 -0.47133789178420182 -0.026132268992706809 0 -0.48291835356202167 -0.0077943632003582772 0 -0.47133789178420182 -0.026132268992706809 0 -0.5 -0.032909026662849998 0 -0.48291835356202167 -0.0077943632003582772 0 -0.47133789178420182 -0.026132268992706809 0 -0.5 -0.032909026662849998 0 -0.48291835356202167 -0.0077943632003582772 0 -0.5 -0.0039140982260107426 0 -0.48291835356202167 -0.0077943632003582772 0 -0.5 -0.0039140982260107426 0 -0.48656778433615411 0.0071434676601368312 0 -0.5 -0.0039140982260107426 0 -0.48656778433615411 0.0071434676601368312 0 -0.5 0.02508083021082835 0 -0.5 0.02508083021082835 0 -0.47947476989823978 0.0186146606423227 0 -0.48053744464613157 0.038241937480116027 0 -0.48656778433615411 0.0071434676601368312 0 -0.5 0.02508083021082835 0 -0.47947476989823978 0.0186146606423227 0 -0.47947476989823978 0.0186146606423227 0 -0.48053744464613157 0.038241937480116027 0 -0.45793597630314969 0.024230769359779091 0 -0.48656778433615411 0.0071434676601368312 0 -0.47947476989823978 0.0186146606423227 0 -0.47044579822050858 0.003730308873902122 0 -0.48291835356202167 -0.0077943632003582772 0 -0.48656778433615411 0.0071434676601368312 0 -0.47044579822050858 0.003730308873902122 0 -0.47947476989823978 0.0186146606423227 0 -0.47044579822050858 0.003730308873902122 0 -0.45793597630314969 0.024230769359779091 0 -0.5 0.05407575864766756 0 -0.48053744464613157 0.038241937480116027 0 -0.48160115767747708 0.06010989829645641 0 -0.5 0.02508083021082835 0 -0.5 0.05407575864766756 0 -0.48053744464613157 0.038241937480116027 0 -0.48053744464613157 0.038241937480116027 0 -0.48160115767747708 0.06010989829645641 0 -0.4631872778078443 0.050062174524471058 0 -0.48160115767747708 0.06010989829645641 0 -0.4631872778078443 0.050062174524471058 0 -0.46843857931253879 0.07589357968916309 0 -0.4631872778078443 0.050062174524471058 0 -0.4467001814262947 0.061097152827744368 0 -0.46843857931253879 0.07589357968916309 0 -0.48053744464613157 0.038241937480116027 0 -0.4631872778078443 0.050062174524471058 0 -0.45793597630314969 0.024230769359779091 0 -0.4631872778078443 0.050062174524471058 0 -0.45793597630314969 0.024230769359779091 0 -0.4631872778078443 0.050062174524471058 0 -0.44755765064800451 0.039790068000500847 0 -0.45793597630314969 0.024230769359779091 0 -0.44755765064800451 0.039790068000500847 0 -0.43523671041618939 0.023434885238954581 0 -0.43070758581248142 0.047053180835022322 0 -0.4631872778078443 0.050062174524471058 0 -0.44755765064800451 0.039790068000500847 0 -0.4467001814262947 0.061097152827744368 0 -0.44755765064800451 0.039790068000500847 0 -0.4467001814262947 0.061097152827744368 0 -0.43070758581248142 0.047053180835022322 0 -0.45268467479845531 -0.00160063580491273 0 -0.45793597630314969 0.024230769359779091 0 -0.45268467479845531 -0.00160063580491273 0 -0.47044579822050858 0.003730308873902122 0 -0.45793597630314969 0.024230769359779091 0 -0.44755765064800451 0.039790068000500847 0 -0.45793597630314969 0.024230769359779091 0 -0.43523671041618939 0.023434885238954581 0 -0.45268467479845531 -0.00160063580491273 0 -0.45793597630314969 0.024230769359779091 0 -0.43523671041618939 0.023434885238954581 0 -0.43033724725149269 -0.0037964727450953309 0 -0.45268467479845531 -0.00160063580491273 0 -0.43523671041618939 0.023434885238954581 0 -0.43033724725149269 -0.0037964727450953309 0 -0.41324112120922679 0.019839095479414509 0 -0.43523671041618939 0.023434885238954581 0 -0.4131572459017161 -0.004875649818797438 0 -0.41324112120922679 0.019839095479414509 0 -0.40033306733275759 0.0019581273283447299 0 -0.43033724725149269 -0.0037964727450953309 0 -0.4131572459017161 -0.004875649818797438 0 -0.41324112120922679 0.019839095479414509 0 -0.43033724725149269 -0.0037964727450953309 0 -0.41324112120922679 0.019839095479414509 0 -0.41324112120922679 0.019839095479414509 0 -0.43523671041618939 0.023434885238954581 0 -0.4159879611894004 0.038538653043845933 0 -0.43523671041618939 0.023434885238954581 0 -0.43070758581248142 0.047053180835022322 0 -0.4159879611894004 0.038538653043845933 0 -0.4467001814262947 0.061097152827744368 0 -0.43070758581248142 0.047053180835022322 0 -0.43187545736445182 0.065921103617004775 0 -0.43070758581248142 0.047053180835022322 0 -0.41322656597679058 0.058941655142102069 0 -0.43187545736445182 0.065921103617004775 0 -0.43070758581248142 0.047053180835022322 0 -0.41322656597679058 0.058941655142102069 0 -0.4159879611894004 0.038538653043845933 0 -0.41322656597679058 0.058941655142102069 0 -0.4159879611894004 0.038538653043845933 0 -0.39614499516696089 0.04347466370392436 0 -0.41324112120922679 0.019839095479414509 0 -0.4159879611894004 0.038538653043845933 0 -0.39614499516696089 0.04347466370392436 0 -0.41324112120922679 0.019839095479414509 0 -0.39614499516696089 0.04347466370392436 0 -0.39614499516696089 0.04347466370392436 0 -0.37904886912469499 0.067110231928434197 0 -0.39695674231957478 0.074929810419583368 0 -0.41322656597679058 0.058941655142102069 0 -0.39614499516696089 0.04347466370392436 0 -0.39695674231957478 0.074929810419583368 0 -0.39614499516696089 0.04347466370392436 0 -0.37904886912469499 0.067110231928434197 0 -0.39614499516696089 0.04347466370392436 0 -0.37830855690199738 0.048851891747440382 0 -0.37904886912469499 0.067110231928434197 0 -0.37830855690199738 0.048851891747440382 0 -0.37904886912469499 0.067110231928434197 0 -0.37119345183321822 0.058853827639881867 0 -0.39614499516696089 0.04347466370392436 0 -0.37753126207020948 0.034899308803226177 0 -0.39262774316901877 0.02112007510405265 0 -0.39614499516696089 0.04347466370392436 0 -0.37830855690199738 0.048851891747440382 0 -0.37753126207020948 0.034899308803226177 0 -0.38389636562500351 0.0078670615218947963 0 -0.39262774316901877 0.02112007510405265 0 -0.37274578052696178 0.01868977009819147 0 -0.37753126207020948 0.034899308803226177 0 -0.39262774316901877 0.02112007510405265 0 -0.37274578052696178 0.01868977009819147 0 -0.38465333842141641 -0.0066435457767305304 0 -0.38389636562500351 0.0078670615218947963 0 -0.40033306733275759 0.0019581273283447299 0 -0.38389636562500351 0.0078670615218947963 0 -0.37274578052696178 0.01868977009819147 0 -0.36979036210562988 0.0025511841975563729 0 -0.38465333842141641 -0.0066435457767305304 0 -0.38389636562500351 0.0078670615218947963 0 -0.36979036210562988 0.0025511841975563729 0 -0.38389636562500351 0.0078670615218947963 0 -0.40033306733275759 0.0019581273283447299 0 -0.39262774316901877 0.02112007510405265 0 -0.41324112120922679 0.019839095479414509 0 -0.40033306733275759 0.0019581273283447299 0 -0.39262774316901877 0.02112007510405265 0 -0.41324112120922679 0.019839095479414509 0 -0.39614499516696089 0.04347466370392436 0 -0.39262774316901877 0.02112007510405265 0 -0.38940712396436111 0.098535478259042519 0 -0.39976920250104669 0.086913075381088473 0 -0.40655062222011962 0.096340958868671334 0 -0.39063101314785642 0.1199442217017349 0 -0.40655062222011962 0.096340958868671334 0 -0.40795026737523371 0.1101441825861223 0 -0.39063101314785642 0.1199442217017349 0 -0.38940712396436111 0.098535478259042519 0 -0.40655062222011962 0.096340958868671334 0 -0.39063101314785642 0.1199442217017349 0 -0.40655062222011962 0.096340958868671334 0 -0.39063101314785642 0.1199442217017349 0 -0.40795026737523371 0.1101441825861223 0 -0.40406865080306442 0.1250183431131778 0 -0.39063101314785642 0.1199442217017349 0 -0.37896648635229202 0.10715504183998489 0 -0.36716541190589658 0.118616890008602 0 -0.39063101314785642 0.1199442217017349 0 -0.37896648635229202 0.10715504183998489 0 -0.38940712396436111 0.098535478259042519 0 -0.37896648635229202 0.10715504183998489 0 -0.38940712396436111 0.098535478259042519 0 -0.37643332436138899 0.09558572737664002 0 -0.38119130922167832 0.078766060501995444 0 -0.3856317933390121 0.08567132342606161 0 -0.39695674231957478 0.074929810419583368 0 -0.37643332436138899 0.09558572737664002 0 -0.3856317933390121 0.08567132342606161 0 -0.37016311523106599 0.083751267223082917 0 -0.38119130922167832 0.078766060501995444 0 -0.3856317933390121 0.08567132342606161 0 -0.37016311523106599 0.083751267223082917 0 -0.38940712396436111 0.098535478259042519 0 -0.37643332436138899 0.09558572737664002 0 -0.3856317933390121 0.08567132342606161 0 -0.39695674231957478 0.074929810419583368 0 -0.37201358599706058 0.070711840939253895 0 -0.38119130922167832 0.078766060501995444 0 -0.39695674231957478 0.074929810419583368 0 -0.37201358599706058 0.070711840939253895 0 -0.37904886912469499 0.067110231928434197 0 -0.39695674231957478 0.074929810419583368 0 -0.37201358599706058 0.070711840939253895 0 -0.39695674231957478 0.074929810419583368 0 -0.39976920250104669 0.086913075381088473 0 -0.42189989864208899 0.079147779899912826 0 -0.38940712396436111 0.098535478259042519 0 -0.3856317933390121 0.08567132342606161 0 -0.39976920250104669 0.086913075381088473 0 -0.3856317933390121 0.08567132342606161 0 -0.39695674231957478 0.074929810419583368 0 -0.39976920250104669 0.086913075381088473 0 -0.42189989864208899 0.079147779899912826 0 -0.41823283762125668 0.10021421029095 0 -0.40655062222011962 0.096340958868671334 0 -0.39976920250104669 0.086913075381088473 0 -0.42189989864208899 0.079147779899912826 0 -0.40655062222011962 0.096340958868671334 0 -0.39695674231957478 0.074929810419583368 0 -0.42189989864208899 0.079147779899912826 0 -0.41322656597679058 0.058941655142102069 0 -0.39695674231957478 0.074929810419583368 0 -0.42189989864208899 0.079147779899912826 0 -0.43187545736445182 0.065921103617004775 0 -0.42189989864208899 0.079147779899912826 0 -0.44684305496460319 0.083365749380242285 0 -0.41322656597679058 0.058941655142102069 0 -0.43187545736445182 0.065921103617004775 0 -0.42189989864208899 0.079147779899912826 0 -0.42189989864208899 0.079147779899912826 0 -0.43230900050581528 0.10074033507248679 0 -0.44684305496460319 0.083365749380242285 0 -0.42189989864208899 0.079147779899912826 0 -0.43230900050581528 0.10074033507248679 0 -0.41823283762125668 0.10021421029095 0 -0.42189989864208899 0.079147779899912826 0 -0.44684305496460319 0.083365749380242285 0 -0.43230900050581528 0.10074033507248679 0 -0.41823283762125668 0.10021421029095 0 -0.42245439936302609 0.1146977950275566 0 -0.41823283762125668 0.10021421029095 0 -0.40795026737523371 0.1101441825861223 0 -0.42245439936302609 0.1146977950275566 0 -0.41823283762125668 0.10021421029095 0 -0.40655062222011962 0.096340958868671334 0 -0.40795026737523371 0.1101441825861223 0 -0.40795026737523371 0.1101441825861223 0 -0.42245439936302609 0.1146977950275566 0 -0.41854804079657681 0.1335618185962307 0 -0.40795026737523371 0.1101441825861223 0 -0.41854804079657681 0.1335618185962307 0 -0.40795026737523371 0.1101441825861223 0 -0.41854804079657681 0.1335618185962307 0 -0.40406865080306442 0.1250183431131778 0 -0.4361514068569779 0.1212930370016405 0 -0.42245439936302609 0.1146977950275566 0 -0.41854804079657681 0.1335618185962307 0 -0.43230900050581528 0.10074033507248679 0 -0.4361514068569779 0.1212930370016405 0 -0.42245439936302609 0.1146977950275566 0 -0.4361514068569779 0.1212930370016405 0 -0.45131059104818438 0.10389771754541841 0 -0.45603072582896947 0.12415654782577901 0 -0.43230900050581528 0.10074033507248679 0 -0.4361514068569779 0.1212930370016405 0 -0.45131059104818438 0.10389771754541841 0 -0.43230900050581528 0.10074033507248679 0 -0.45131059104818438 0.10389771754541841 0 -0.44684305496460319 0.083365749380242285 0 -0.45131059104818438 0.10389771754541841 0 -0.46040635620489312 0.091287960740373597 0 -0.47503319949424611 0.10199479634667059 0 -0.45131059104818438 0.10389771754541841 0 -0.45603072582896947 0.12415654782577901 0 -0.47503319949424611 0.10199479634667059 0 -0.4467001814262947 0.061097152827744368 0 -0.43187545736445182 0.065921103617004775 0 -0.44684305496460319 0.083365749380242285 0 -0.45131059104818438 0.10389771754541841 0 -0.44684305496460319 0.083365749380242285 0 -0.46040635620489312 0.091287960740373597 0 -0.46040635620489312 0.091287960740373597 0 -0.46843857931253879 0.07589357968916309 0 -0.47503319949424611 0.10199479634667059 0 -0.44684305496460319 0.083365749380242285 0 -0.46040635620489312 0.091287960740373597 0 -0.46843857931253879 0.07589357968916309 0 -0.4631872778078443 0.050062174524471058 0 -0.46843857931253879 0.07589357968916309 0 -0.4467001814262947 0.061097152827744368 0 -0.44684305496460319 0.083365749380242285 0 -0.46843857931253879 0.07589357968916309 0 -0.48160115767747708 0.06010989829645641 0 -0.46843857931253879 0.07589357968916309 0 -0.5 0.083070687084506711 0 -0.46843857931253879 0.07589357968916309 0 -0.5 0.083070687084506711 0 -0.47503319949424611 0.10199479634667059 0 -0.5 0.05407575864766756 0 -0.48160115767747708 0.06010989829645641 0 -0.5 0.083070687084506711 0 -0.45603072582896947 0.12415654782577901 0 -0.47503319949424611 0.10199479634667059 0 -0.47840746745339868 0.1318715347448986 0 -0.5 0.083070687084506711 0 -0.47503319949424611 0.10199479634667059 0 -0.5 0.11206561552134579 0 -0.47503319949424611 0.10199479634667059 0 -0.5 0.11206561552134579 0 -0.47840746745339868 0.1318715347448986 0 -0.5 0.11206561552134579 0 -0.47840746745339868 0.1318715347448986 0 -0.5 0.14106054395818479 0 -0.47840746745339868 0.1318715347448986 0 -0.4813713775429343 0.15534342778339541 0 -0.45584990199199521 0.14839652371063539 0 -0.47840746745339868 0.1318715347448986 0 -0.4813713775429343 0.15534342778339541 0 -0.5 0.14106054395818479 0 -0.4813713775429343 0.15534342778339541 0 -0.5 0.14106054395818479 0 -0.5 0.17005547239502389 0 -0.4813713775429343 0.15534342778339541 0 -0.5 0.17005547239502389 0 -0.47888983910924399 0.1833910978263659 0 -0.5 0.17005547239502389 0 -0.47888983910924399 0.1833910978263659 0 -0.49999999999999639 0.19905040083186301 0 -0.4813713775429343 0.15534342778339541 0 -0.47888983910924399 0.1833910978263659 0 -0.46013732273498392 0.17116473448995881 0 -0.4813713775429343 0.15534342778339541 0 -0.47888983910924399 0.1833910978263659 0 -0.4813713775429343 0.15534342778339541 0 -0.46013732273498392 0.17116473448995881 0 -0.45584990199199521 0.14839652371063539 0 -0.47888983910924399 0.1833910978263659 0 -0.46013732273498392 0.17116473448995881 0 -0.4553652866229031 0.19812390853730849 0 -0.46013732273498392 0.17116473448995881 0 -0.43974358763926291 0.18039709061644729 0 -0.4553652866229031 0.19812390853730849 0 -0.46013732273498392 0.17116473448995881 0 -0.45584990199199521 0.14839652371063539 0 -0.42914581421791992 0.156979454606339 0 -0.46013732273498392 0.17116473448995881 0 -0.43974358763926291 0.18039709061644729 0 -0.42914581421791992 0.156979454606339 0 -0.43890233478009338 0.1378395493323826 0 -0.45584990199199521 0.14839652371063539 0 -0.42914581421791992 0.156979454606339 0 -0.4361514068569779 0.1212930370016405 0 -0.45603072582896947 0.12415654782577901 0 -0.43890233478009338 0.1378395493323826 0 -0.45603072582896947 0.12415654782577901 0 -0.43890233478009338 0.1378395493323826 0 -0.45584990199199521 0.14839652371063539 0 -0.45603072582896947 0.12415654782577901 0 -0.47840746745339868 0.1318715347448986 0 -0.45584990199199521 0.14839652371063539 0 -0.48510068849613291 0.2464952989699998 0 -0.5 0.22952651967534751 0 -0.5 0.27058277969487637 0 -0.48510068849613291 0.2464952989699998 0 -0.47450648191078398 0.23293413722231679 0 -0.4662317729600568 0.24711617116125539 0 -0.48510068849613291 0.2464952989699998 0 -0.5 0.22952651967534751 0 -0.47450648191078398 0.23293413722231679 0 -0.5 0.22952651967534751 0 -0.47450648191078398 0.23293413722231679 0 -0.47640830067555312 0.21143876786933641 0 -0.47450648191078398 0.23293413722231679 0 -0.47640830067555312 0.21143876786933641 0 -0.47640830067555312 0.21143876786933641 0 -0.49999999999999639 0.19905040083186301 0 -0.5 0.22952651967534751 0 -0.47640830067555312 0.21143876786933641 0 -0.49999999999999639 0.19905040083186301 0 -0.47888983910924399 0.1833910978263659 0 -0.47640830067555312 0.21143876786933641 0 -0.49999999999999639 0.19905040083186301 0 -0.47888983910924399 0.1833910978263659 0 -0.47640830067555312 0.21143876786933641 0 -0.47888983910924399 0.1833910978263659 0 -0.47640830067555312 0.21143876786933641 0 -0.4553652866229031 0.19812390853730849 0 -0.43974358763926291 0.18039709061644729 0 -0.4553652866229031 0.19812390853730849 0 -0.43067986422853077 0.20940139548392031 0 -0.4553652866229031 0.19812390853730849 0 -0.45283971357182312 0.22381499832142371 0 -0.43067986422853077 0.20940139548392031 0 -0.47640830067555312 0.21143876786933641 0 -0.4553652866229031 0.19812390853730849 0 -0.45283971357182312 0.22381499832142371 0 -0.47640830067555312 0.21143876786933641 0 -0.45283971357182312 0.22381499832142371 0 -0.47450648191078398 0.23293413722231679 0 -0.45283971357182312 0.22381499832142371 0 -0.45078000859246359 0.24156244513336969 0 -0.47450648191078398 0.23293413722231679 0 -0.47640830067555312 0.21143876786933641 0 -0.45283971357182312 0.22381499832142371 0 -0.45283971357182312 0.22381499832142371 0 -0.43294786837480398 0.2404538296894207 0 -0.42927112646809362 0.23619122877351181 0 -0.45283971357182312 0.22381499832142371 0 -0.42927112646809362 0.23619122877351181 0 -0.45283971357182312 0.22381499832142371 0 -0.42927112646809362 0.23619122877351181 0 -0.43067986422853077 0.20940139548392031 0 -0.45283971357182312 0.22381499832142371 0 -0.45078000859246359 0.24156244513336969 0 -0.43294786837480398 0.2404538296894207 0 -0.43294786837480398 0.2404538296894207 0 -0.44957601688056159 0.25938839971938082 0 -0.45078000859246359 0.24156244513336969 0 -0.43294786837480398 0.2404538296894207 0 -0.44957601688056159 0.25938839971938082 0 -0.45078000859246359 0.24156244513336969 0 -0.4662317729600568 0.24711617116125539 0 -0.44957601688056159 0.25938839971938082 0 -0.47450648191078398 0.23293413722231679 0 -0.45078000859246359 0.24156244513336969 0 -0.4662317729600568 0.24711617116125539 0 -0.42927112646809362 0.23619122877351181 0 -0.40439403923729561 0.237116777479636 0 -0.40570253936436479 0.24856745922560119 0 -0.42927112646809362 0.23619122877351181 0 -0.40570253936436479 0.24856745922560119 0 -0.43294786837480398 0.2404538296894207 0 -0.42927112646809362 0.23619122877351181 0 -0.40570253936436479 0.24856745922560119 0 -0.42927112646809362 0.23619122877351181 0 -0.41099867150134572 0.22378265931279079 0 -0.43067986422853077 0.20940139548392031 0 -0.42927112646809362 0.23619122877351181 0 -0.41099867150134572 0.22378265931279079 0 -0.40439403923729561 0.237116777479636 0 -0.40693149157881192 0.20854646138297669 0 -0.43067986422853077 0.20940139548392031 0 -0.41468845130467291 0.19268004053423909 0 -0.41099867150134572 0.22378265931279079 0 -0.40693149157881192 0.20854646138297669 0 -0.43067986422853077 0.20940139548392031 0 -0.43974358763926291 0.18039709061644729 0 -0.43067986422853077 0.20940139548392031 0 -0.41468845130467291 0.19268004053423909 0 -0.40693149157881192 0.20854646138297669 0 -0.41468845130467291 0.19268004053423909 0 -0.3971577940731173 0.19827573187671929 0 -0.41468845130467291 0.19268004053423909 0 -0.3971577940731173 0.19827573187671929 0 -0.39721082993519219 0.18448993107768991 0 -0.3971577940731173 0.19827573187671929 0 -0.38589476142810619 0.19424352100093389 0 -0.39721082993519219 0.18448993107768991 0 -0.38589476142810619 0.19424352100093389 0 -0.37633455857784293 0.18261391494179069 0 -0.37360736010814782 0.20134128663860251 0 -0.38589476142810619 0.19424352100093389 0 -0.388204088430469 0.2080493245121296 0 -0.37360736010814782 0.20134128663860251 0 -0.3971577940731173 0.19827573187671929 0 -0.38589476142810619 0.19424352100093389 0 -0.388204088430469 0.2080493245121296 0 -0.388204088430469 0.2080493245121296 0 -0.37752279527241261 0.21261086987475841 0 -0.37360736010814782 0.20134128663860251 0 -0.388204088430469 0.2080493245121296 0 -0.39698893960476778 0.22105750592270679 0 -0.38334950790794681 0.2216260941536595 0 -0.388204088430469 0.2080493245121296 0 -0.37752279527241261 0.21261086987475841 0 -0.38334950790794681 0.2216260941536595 0 -0.40693149157881192 0.20854646138297669 0 -0.3971577940731173 0.19827573187671929 0 -0.388204088430469 0.2080493245121296 0 -0.40693149157881192 0.20854646138297669 0 -0.388204088430469 0.2080493245121296 0 -0.39698893960476778 0.22105750592270679 0 -0.41099867150134572 0.22378265931279079 0 -0.40693149157881192 0.20854646138297669 0 -0.39698893960476778 0.22105750592270679 0 -0.41099867150134572 0.22378265931279079 0 -0.39817935363044121 0.2307605800777236 0 -0.39698893960476778 0.22105750592270679 0 -0.41099867150134572 0.22378265931279079 0 -0.39817935363044121 0.2307605800777236 0 -0.40439403923729561 0.237116777479636 0 -0.39817935363044121 0.2307605800777236 0 -0.39698893960476778 0.22105750592270679 0 -0.38938082192181989 0.23429513208400299 0 -0.39698893960476778 0.22105750592270679 0 -0.38334950790794681 0.2216260941536595 0 -0.38938082192181989 0.23429513208400299 0 -0.37752279527241261 0.21261086987475841 0 -0.38334950790794681 0.2216260941536595 0 -0.37349668708843092 0.2226496950895116 0 -0.38334950790794681 0.2216260941536595 0 -0.37780308712422273 0.23309721308500589 0 -0.37349668708843092 0.2226496950895116 0 -0.38334950790794681 0.2216260941536595 0 -0.37780308712422273 0.23309721308500589 0 -0.38938082192181989 0.23429513208400299 0 -0.37780308712422273 0.23309721308500589 0 -0.38938082192181989 0.23429513208400299 0 -0.38455494932564349 0.24416718140159829 0 -0.38938082192181989 0.23429513208400299 0 -0.38455494932564349 0.24416718140159829 0 -0.39556747567899392 0.24292135359640349 0 -0.37780308712422273 0.23309721308500589 0 -0.37552267705158737 0.2431978490864326 0 -0.38455494932564349 0.24416718140159829 0 -0.37552267705158737 0.2431978490864326 0 -0.38455494932564349 0.24416718140159829 0 -0.37675611103540763 0.25409865512553548 0 -0.38455494932564349 0.24416718140159829 0 -0.39556747567899392 0.24292135359640349 0 -0.38900306751682168 0.25733661077056619 0 -0.39556747567899392 0.24292135359640349 0 -0.40570253936436479 0.24856745922560119 0 -0.38900306751682168 0.25733661077056619 0 -0.39817935363044121 0.2307605800777236 0 -0.38938082192181989 0.23429513208400299 0 -0.39556747567899392 0.24292135359640349 0 -0.39817935363044121 0.2307605800777236 0 -0.39556747567899392 0.24292135359640349 0 -0.40439403923729561 0.237116777479636 0 -0.39556747567899392 0.24292135359640349 0 -0.40439403923729561 0.237116777479636 0 -0.40570253936436479 0.24856745922560119 0 -0.40439403923729561 0.237116777479636 0 -0.40570253936436479 0.24856745922560119 0 -0.41854804079657681 0.1335618185962307 0 -0.42914581421791992 0.156979454606339 0 -0.40043471814444209 0.15516303321545699 0 -0.41854804079657681 0.1335618185962307 0 -0.39914528189259102 0.13642314956862331 0 -0.40406865080306442 0.1250183431131778 0 -0.4361514068569779 0.1212930370016405 0 -0.43890233478009338 0.1378395493323826 0 -0.41854804079657681 0.1335618185962307 0 -0.41854804079657681 0.1335618185962307 0 -0.42914581421791992 0.156979454606339 0 -0.43890233478009338 0.1378395493323826 0 -0.41854804079657681 0.1335618185962307 0 -0.42914581421791992 0.156979454606339 0 -0.43974358763926291 0.18039709061644729 0 -0.42914581421791992 0.156979454606339 0 -0.43974358763926291 0.18039709061644729 0 -0.42914581421791992 0.156979454606339 0 -0.41320507520050959 0.17295104721716609 0 -0.43974358763926291 0.18039709061644729 0 -0.41468845130467291 0.19268004053423909 0 -0.41320507520050959 0.17295104721716609 0 -0.41468845130467291 0.19268004053423909 0 -0.41320507520050959 0.17295104721716609 0 -0.39721082993519219 0.18448993107768991 0 -0.42914581421791992 0.156979454606339 0 -0.41320507520050959 0.17295104721716609 0 -0.40043471814444209 0.15516303321545699 0 -0.41320507520050959 0.17295104721716609 0 -0.39020731289493082 0.17075062011690681 0 -0.40043471814444209 0.15516303321545699 0 -0.41320507520050959 0.17295104721716609 0 -0.39721082993519219 0.18448993107768991 0 -0.39020731289493082 0.17075062011690681 0 -0.38589476142810619 0.19424352100093389 0 -0.39721082993519219 0.18448993107768991 0 -0.37633455857784293 0.18261391494179069 0 -0.39721082993519219 0.18448993107768991 0 -0.37633455857784293 0.18261391494179069 0 -0.39020731289493082 0.17075062011690681 0 -0.37604315808934557 0.1616159605326225 0 -0.39020731289493082 0.17075062011690681 0 -0.40043471814444209 0.15516303321545699 0 -0.37633455857784293 0.18261391494179069 0 -0.37604315808934557 0.1616159605326225 0 -0.39020731289493082 0.17075062011690681 0 -0.37604315808934557 0.1616159605326225 0 -0.40043471814444209 0.15516303321545699 0 -0.37471140407559322 0.1435474845347986 0 -0.40043471814444209 0.15516303321545699 0 -0.39914528189259102 0.13642314956862331 0 -0.37471140407559322 0.1435474845347986 0 -0.41854804079657681 0.1335618185962307 0 -0.40043471814444209 0.15516303321545699 0 -0.39914528189259102 0.13642314956862331 0 -0.39063101314785642 0.1199442217017349 0 -0.39914528189259102 0.13642314956862331 0 -0.40406865080306442 0.1250183431131778 0 -0.39063101314785642 0.1199442217017349 0 -0.37471140407559322 0.1435474845347986 0 -0.39063101314785642 0.1199442217017349 0 -0.39914528189259102 0.13642314956862331 0 -0.37471140407559322 0.1435474845347986 0 -0.39063101314785642 0.1199442217017349 0 -0.37471140407559322 0.1435474845347986 0 -0.36716541190589658 0.118616890008602 0 -0.35994195951422209 0.1344452768815545 0 -0.37471140407559322 0.1435474845347986 0 -0.36716541190589658 0.118616890008602 0 -0.35994195951422209 0.1344452768815545 0 -0.36716541190589658 0.118616890008602 0 -0.35352278934268327 0.12307152153672141 0 -0.34641309729257957 0.13731862859844601 0 -0.34013489564456101 0.1359120708212119 0 -0.34492978578452338 0.1096826786703838 0 -0.35994195951422209 0.1344452768815545 0 -0.34641309729257957 0.13731862859844601 0 -0.35352278934268327 0.12307152153672141 0 -0.35994195951422209 0.1344452768815545 0 -0.34641309729257957 0.13731862859844601 0 -0.35789709495435779 0.14967185972920441 0 -0.34641309729257957 0.13731862859844601 0 -0.34789640880063583 0.16495457852650819 0 -0.34475730797662613 0.16425129963789131 0 -0.34641309729257957 0.13731862859844601 0 -0.34789640880063583 0.16495457852650819 0 -0.34641309729257957 0.13731862859844601 0 -0.35789709495435779 0.14967185972920441 0 -0.34789640880063583 0.16495457852650819 0 -0.34641309729257957 0.13731862859844601 0 -0.34475730797662613 0.16425129963789131 0 -0.34013489564456101 0.1359120708212119 0 -0.35994195951422209 0.1344452768815545 0 -0.35789709495435779 0.14967185972920441 0 -0.37471140407559322 0.1435474845347986 0 -0.37471140407559322 0.1435474845347986 0 -0.35879179500333003 0.16715074736786231 0 -0.35789709495435779 0.14967185972920441 0 -0.37471140407559322 0.1435474845347986 0 -0.35879179500333003 0.16715074736786231 0 -0.37604315808934557 0.1616159605326225 0 -0.37471140407559322 0.1435474845347986 0 -0.35879179500333003 0.16715074736786231 0 -0.37604315808934557 0.1616159605326225 0 -0.36770080355277779 0.17295393471821821 0 -0.35879179500333003 0.16715074736786231 0 -0.37633455857784293 0.18261391494179069 0 -0.37604315808934557 0.1616159605326225 0 -0.36770080355277779 0.17295393471821821 0 -0.37633455857784293 0.18261391494179069 0 -0.36024484160731629 0.17922248672973989 0 -0.36412185028301147 0.19234279238731111 0 -0.37633455857784293 0.18261391494179069 0 -0.36770080355277779 0.17295393471821821 0 -0.36024484160731629 0.17922248672973989 0 -0.36770080355277779 0.17295393471821821 0 -0.36024484160731629 0.17922248672973989 0 -0.35879179500333003 0.16715074736786231 0 -0.34475730797662613 0.16425129963789131 0 -0.34937972030869158 0.1925905284545705 0 -0.34475730797662613 0.16425129963789131 0 -0.33955964773429331 0.17429409395644799 0 -0.34937972030869158 0.1925905284545705 0 -0.34789640880063583 0.16495457852650819 0 -0.34937972030869158 0.1925905284545705 0 -0.36024484160731629 0.17922248672973989 0 -0.34789640880063583 0.16495457852650819 0 -0.34937972030869158 0.1925905284545705 0 -0.34789640880063583 0.16495457852650819 0 -0.34475730797662613 0.16425129963789131 0 -0.34937972030869158 0.1925905284545705 0 -0.35789709495435779 0.14967185972920441 0 -0.35879179500333003 0.16715074736786231 0 -0.34789640880063583 0.16495457852650819 0 -0.36024484160731629 0.17922248672973989 0 -0.35879179500333003 0.16715074736786231 0 -0.34789640880063583 0.16495457852650819 0 -0.34475730797662613 0.16425129963789131 0 -0.33718479128260948 0.15937809544746401 0 -0.33738994680948231 0.15124435901621999 0 -0.34475730797662613 0.16425129963789131 0 -0.33718479128260948 0.15937809544746401 0 -0.33813633189250208 0.16634522180797001 0 -0.34475730797662613 0.16425129963789131 0 -0.33813633189250208 0.16634522180797001 0 -0.33955964773429331 0.17429409395644799 0 -0.33813633189250208 0.16634522180797001 0 -0.33104358057647992 0.16745739819007679 0 -0.33955964773429331 0.17429409395644799 0 -0.33718479128260948 0.15937809544746401 0 -0.33813633189250208 0.16634522180797001 0 -0.33104358057647992 0.16745739819007679 0 -0.33718479128260948 0.15937809544746401 0 -0.33104358057647992 0.16745739819007679 0 -0.33026858376101731 0.15190637449176561 0 -0.33104358057647992 0.16745739819007679 0 -0.33403331992976748 0.18227938602527921 0 -0.31962491903722229 0.18594758427241961 0 -0.33955964773429331 0.17429409395644799 0 -0.33403331992976748 0.18227938602527921 0 -0.34937972030869158 0.1925905284545705 0 -0.33104358057647992 0.16745739819007679 0 -0.33955964773429331 0.17429409395644799 0 -0.33403331992976748 0.18227938602527921 0 -0.31962491903722229 0.18594758427241961 0 -0.31796283648197832 0.1633337389314328 0 -0.30596240671843039 0.18080678990447141 0 -0.31962491903722229 0.18594758427241961 0 -0.31796283648197832 0.1633337389314328 0 -0.33104358057647992 0.16745739819007679 0 -0.31962491903722229 0.18594758427241961 0 -0.31796283648197832 0.1633337389314328 0 -0.33104358057647992 0.16745739819007679 0 -0.31796283648197832 0.1633337389314328 0 -0.33026858376101731 0.15190637449176561 0 -0.31796283648197832 0.1633337389314328 0 -0.31630075392673418 0.14071989359044609 0 -0.31796283648197832 0.1633337389314328 0 -0.31630075392673418 0.14071989359044609 0 -0.33026858376101731 0.15190637449176561 0 -0.31630075392673418 0.14071989359044609 0 -0.32855297285770901 0.13997743418302819 0 -0.33026858376101731 0.15190637449176561 0 -0.31630075392673418 0.14071989359044609 0 -0.30835875028686138 0.12836861128214669 0 -0.32196666651361477 0.12487749701900901 0 -0.31630075392673418 0.14071989359044609 0 -0.32855297285770901 0.13997743418302819 0 -0.32196666651361477 0.12487749701900901 0 -0.32855297285770901 0.13997743418302819 0 -0.33106980320980312 0.1246503866679774 0 -0.32196666651361477 0.12487749701900901 0 -0.32855297285770901 0.13997743418302819 0 -0.34013489564456101 0.1359120708212119 0 -0.3346041553825978 0.14477395468276741 0 -0.32855297285770901 0.13997743418302819 0 -0.34013489564456101 0.1359120708212119 0 -0.33106980320980312 0.1246503866679774 0 -0.34475730797662613 0.16425129963789131 0 -0.34013489564456101 0.1359120708212119 0 -0.34013489564456101 0.1359120708212119 0 -0.33738994680948231 0.15124435901621999 0 -0.3346041553825978 0.14477395468276741 0 -0.34475730797662613 0.16425129963789131 0 -0.34013489564456101 0.1359120708212119 0 -0.33738994680948231 0.15124435901621999 0 -0.33718479128260948 0.15937809544746401 0 -0.33738994680948231 0.15124435901621999 0 -0.33026858376101731 0.15190637449176561 0 -0.33738994680948231 0.15124435901621999 0 -0.33026858376101731 0.15190637449176561 0 -0.3346041553825978 0.14477395468276741 0 -0.32855297285770901 0.13997743418302819 0 -0.33026858376101731 0.15190637449176561 0 -0.3346041553825978 0.14477395468276741 0 -0.35208907389890948 0.24306917690434299 0 -0.33787454055877381 0.24529314191448051 0 -0.34142207509263922 0.25572960106260723 0 -0.35208907389890948 0.24306917690434299 0 -0.34508884738596168 0.2342440782649087 0 -0.33787454055877381 0.24529314191448051 0 -0.35689366634974828 0.23865726176967661 0 -0.35926376548055328 0.2486735779402334 0 -0.35208907389890948 0.24306917690434299 0 -0.35926376548055328 0.2486735779402334 0 -0.36665925593476811 0.2402392529692276 0 -0.36723308052532222 0.25309369692869038 0 -0.35689366634974828 0.23865726176967661 0 -0.35926376548055328 0.2486735779402334 0 -0.36665925593476811 0.2402392529692276 0 -0.37552267705158737 0.2431978490864326 0 -0.36665925593476811 0.2402392529692276 0 -0.36723308052532222 0.25309369692869038 0 -0.37780308712422273 0.23309721308500589 0 -0.37552267705158737 0.2431978490864326 0 -0.36665925593476811 0.2402392529692276 0 -0.37780308712422273 0.23309721308500589 0 -0.36665925593476811 0.2402392529692276 0 -0.36843053074319038 0.2307028505946831 0 -0.3637449320256837 0.23462317477255459 0 -0.36665925593476811 0.2402392529692276 0 -0.36843053074319038 0.2307028505946831 0 -0.35689366634974828 0.23865726176967661 0 -0.3637449320256837 0.23462317477255459 0 -0.36304404037139409 0.23042929735762199 0 -0.35689366634974828 0.23865726176967661 0 -0.3637449320256837 0.23462317477255459 0 -0.36665925593476811 0.2402392529692276 0 -0.35689366634974828 0.23865726176967661 0 -0.36304404037139409 0.23042929735762199 0 -0.36041387714694573 0.22521835140317789 0 -0.36304404037139409 0.23042929735762199 0 -0.36843053074319038 0.2307028505946831 0 -0.36573719559140289 0.222944848248018 0 -0.3637449320256837 0.23462317477255459 0 -0.36304404037139409 0.23042929735762199 0 -0.36843053074319038 0.2307028505946831 0 -0.37780308712422273 0.23309721308500589 0 -0.36843053074319038 0.2307028505946831 0 -0.37349668708843092 0.2226496950895116 0 -0.36843053074319038 0.2307028505946831 0 -0.37349668708843092 0.2226496950895116 0 -0.36573719559140289 0.222944848248018 0 -0.37349668708843092 0.2226496950895116 0 -0.36573719559140289 0.222944848248018 0 -0.36813700589141007 0.21491629458094519 0 -0.36304404037139409 0.23042929735762199 0 -0.36573719559140289 0.222944848248018 0 -0.36041387714694573 0.22521835140317789 0 -0.36573719559140289 0.222944848248018 0 -0.36041387714694573 0.22521835140317789 0 -0.36096209089537368 0.21759825830877291 0 -0.36041387714694573 0.22521835140317789 0 -0.35785158193032179 0.22427444164843771 0 -0.36096209089537368 0.21759825830877291 0 -0.35689366634974828 0.23865726176967661 0 -0.35785158193032179 0.22427444164843771 0 -0.35313669332921982 0.21562389511212349 0 -0.35785158193032179 0.22427444164843771 0 -0.35313669332921982 0.21562389511212349 0 -0.36096209089537368 0.21759825830877291 0 -0.35689366634974828 0.23865726176967661 0 -0.35313669332921982 0.21562389511212349 0 -0.35208907389890948 0.24306917690434299 0 -0.34508884738596168 0.2342440782649087 0 -0.35073439710380072 0.2178298526794567 0 -0.34508884738596168 0.2342440782649087 0 -0.35073439710380072 0.2178298526794567 0 -0.33965737798236312 0.2307841415613546 0 -0.35208907389890948 0.24306917690434299 0 -0.35073439710380072 0.2178298526794567 0 -0.35689366634974828 0.23865726176967661 0 -0.35073439710380072 0.2178298526794567 0 -0.35313669332921982 0.21562389511212349 0 -0.35689366634974828 0.23865726176967661 0 -0.35208907389890948 0.24306917690434299 0 -0.35073439710380072 0.2178298526794567 0 -0.35689366634974828 0.23865726176967661 0 -0.36041387714694573 0.22521835140317789 0 -0.35785158193032179 0.22427444164843771 0 -0.35073439710380072 0.2178298526794567 0 -0.34937972030869158 0.1925905284545705 0 -0.35313669332921982 0.21562389511212349 0 -0.36104277081305908 0.20594574517185199 0 -0.34937972030869158 0.1925905284545705 0 -0.35073439710380072 0.2178298526794567 0 -0.35313669332921982 0.21562389511212349 0 -0.34937972030869158 0.1925905284545705 0 -0.35313669332921982 0.21562389511212349 0 -0.34937972030869158 0.1925905284545705 0 -0.35073439710380072 0.2178298526794567 0 -0.34937972030869158 0.1925905284545705 0 -0.34310613959102931 0.2055031457500841 0 -0.35073439710380072 0.2178298526794567 0 -0.34310613959102931 0.2055031457500841 0 -0.34102096872395049 0.21330790674795511 0 -0.35073439710380072 0.2178298526794567 0 -0.34102096872395049 0.21330790674795511 0 -0.34050958406480097 0.2204489809667724 0 -0.35313669332921982 0.21562389511212349 0 -0.36096209089537368 0.21759825830877291 0 -0.36104277081305908 0.20594574517185199 0 -0.36573719559140289 0.222944848248018 0 -0.36096209089537368 0.21759825830877291 0 -0.36813700589141007 0.21491629458094519 0 -0.36096209089537368 0.21759825830877291 0 -0.36813700589141007 0.21491629458094519 0 -0.36104277081305908 0.20594574517185199 0 -0.37752279527241261 0.21261086987475841 0 -0.37349668708843092 0.2226496950895116 0 -0.36813700589141007 0.21491629458094519 0 -0.37752279527241261 0.21261086987475841 0 -0.36813700589141007 0.21491629458094519 0 -0.37360736010814782 0.20134128663860251 0 -0.36813700589141007 0.21491629458094519 0 -0.36104277081305908 0.20594574517185199 0 -0.37360736010814782 0.20134128663860251 0 -0.37633455857784293 0.18261391494179069 0 -0.37360736010814782 0.20134128663860251 0 -0.36412185028301147 0.19234279238731111 0 -0.36104277081305908 0.20594574517185199 0 -0.37360736010814782 0.20134128663860251 0 -0.36412185028301147 0.19234279238731111 0 -0.36024484160731629 0.17922248672973989 0 -0.36412185028301147 0.19234279238731111 0 -0.34937972030869158 0.1925905284545705 0 -0.36104277081305908 0.20594574517185199 0 -0.36412185028301147 0.19234279238731111 0 -0.34937972030869158 0.1925905284545705 0 -0.33403331992976748 0.18227938602527921 0 -0.34937972030869158 0.1925905284545705 0 -0.33132558757267788 0.19645560619981381 0 -0.34937972030869158 0.1925905284545705 0 -0.33132558757267788 0.19645560619981381 0 -0.34310613959102931 0.2055031457500841 0 -0.33132558757267788 0.19645560619981381 0 -0.33206760714527173 0.20694684499318661 0 -0.34310613959102931 0.2055031457500841 0 -0.33403331992976748 0.18227938602527921 0 -0.31962491903722229 0.18594758427241961 0 -0.33132558757267788 0.19645560619981381 0 -0.31962491903722229 0.18594758427241961 0 -0.33132558757267788 0.19645560619981381 0 -0.32128700159246643 0.2085614296134064 0 -0.31962491903722229 0.18594758427241961 0 -0.32128700159246643 0.2085614296134064 0 -0.31094130810426679 0.20146887601233149 0 -0.31962491903722229 0.18594758427241961 0 -0.32128700159246643 0.2085614296134064 0 -0.32128700159246643 0.2085614296134064 0 -0.30991457648112369 0.2265504040794763 0 -0.30833129431909739 0.21334832502430981 0 -0.32128700159246643 0.2085614296134064 0 -0.30833129431909739 0.21334832502430981 0 -0.31094130810426679 0.20146887601233149 0 -0.32128700159246643 0.2085614296134064 0 -0.334517009846864 0.21514148884522391 0 -0.33414886994078158 0.22469785659874761 0 -0.334517009846864 0.21514148884522391 0 -0.33206760714527173 0.20694684499318661 0 -0.34102096872395049 0.21330790674795511 0 -0.33132558757267788 0.19645560619981381 0 -0.32128700159246643 0.2085614296134064 0 -0.33206760714527173 0.20694684499318661 0 -0.32128700159246643 0.2085614296134064 0 -0.334517009846864 0.21514148884522391 0 -0.33206760714527173 0.20694684499318661 0 -0.33206760714527173 0.20694684499318661 0 -0.34310613959102931 0.2055031457500841 0 -0.34102096872395049 0.21330790674795511 0 -0.334517009846864 0.21514148884522391 0 -0.34102096872395049 0.21330790674795511 0 -0.34050958406480097 0.2204489809667724 0 -0.33965737798236312 0.2307841415613546 0 -0.33414886994078158 0.22469785659874761 0 -0.32294908414771051 0.231175274954393 0 -0.34050958406480097 0.2204489809667724 0 -0.33965737798236312 0.2307841415613546 0 -0.33414886994078158 0.22469785659874761 0 -0.334517009846864 0.21514148884522391 0 -0.34050958406480097 0.2204489809667724 0 -0.33414886994078158 0.22469785659874761 0 -0.35073439710380072 0.2178298526794567 0 -0.34050958406480097 0.2204489809667724 0 -0.33965737798236312 0.2307841415613546 0 -0.32128700159246643 0.2085614296134064 0 -0.33414886994078158 0.22469785659874761 0 -0.32294908414771051 0.231175274954393 0 -0.32128700159246643 0.2085614296134064 0 -0.32294908414771051 0.231175274954393 0 -0.32128700159246643 0.2085614296134064 0 -0.32294908414771051 0.231175274954393 0 -0.30991457648112369 0.2265504040794763 0 -0.32294908414771051 0.231175274954393 0 -0.30659471691689572 0.242716670786389 0 -0.30991457648112369 0.2265504040794763 0 -0.32294908414771051 0.231175274954393 0 -0.30659471691689572 0.242716670786389 0 -0.32493898666941562 0.25370598596143412 0 -0.33965737798236312 0.2307841415613546 0 -0.32294908414771051 0.231175274954393 0 -0.33787454055877381 0.24529314191448051 0 -0.32294908414771051 0.231175274954393 0 -0.33787454055877381 0.24529314191448051 0 -0.32493898666941562 0.25370598596143412 0 -0.34508884738596168 0.2342440782649087 0 -0.33965737798236312 0.2307841415613546 0 -0.33787454055877381 0.24529314191448051 0 -0.28392805579818597 0.24584677119781029 0 -0.30659471691689572 0.242716670786389 0 -0.29475597619187288 0.23283261746471121 0 -0.28392805579818597 0.24584677119781029 0 -0.29475597619187288 0.23283261746471121 0 -0.28109078806307641 0.23123665432302171 0 -0.30991457648112369 0.2265504040794763 0 -0.2995127007984647 0.22240216811521779 0 -0.29475597619187288 0.23283261746471121 0 -0.30659471691689572 0.242716670786389 0 -0.30991457648112369 0.2265504040794763 0 -0.29475597619187288 0.23283261746471121 0 -0.30991457648112369 0.2265504040794763 0 -0.2995127007984647 0.22240216811521779 0 -0.30833129431909739 0.21334832502430981 0 -0.2995127007984647 0.22240216811521779 0 -0.29475597619187288 0.23283261746471121 0 -0.28658767146556752 0.2208426317688808 0 -0.29475597619187288 0.23283261746471121 0 -0.28658767146556752 0.2208426317688808 0 -0.28109078806307641 0.23123665432302171 0 -0.28658767146556752 0.2208426317688808 0 -0.28549164962408852 0.20589081089837991 0 -0.27599235506858921 0.213338138612501 0 -0.2995127007984647 0.22240216811521779 0 -0.28658767146556752 0.2208426317688808 0 -0.29782091388006071 0.2077851852193662 0 -0.28658767146556752 0.2208426317688808 0 -0.28549164962408852 0.20589081089837991 0 -0.29782091388006071 0.2077851852193662 0 -0.2995127007984647 0.22240216811521779 0 -0.30833129431909739 0.21334832502430981 0 -0.29782091388006071 0.2077851852193662 0 -0.30833129431909739 0.21334832502430981 0 -0.29782091388006071 0.2077851852193662 0 -0.31094130810426679 0.20146887601233149 0 -0.31094130810426679 0.20146887601233149 0 -0.28918285092023371 0.18809301854234381 0 -0.30596240671843039 0.18080678990447141 0 -0.31094130810426679 0.20146887601233149 0 -0.28918285092023371 0.18809301854234381 0 -0.31962491903722229 0.18594758427241961 0 -0.31094130810426679 0.20146887601233149 0 -0.30596240671843039 0.18080678990447141 0 -0.29782091388006071 0.2077851852193662 0 -0.31094130810426679 0.20146887601233149 0 -0.28918285092023371 0.18809301854234381 0 -0.28549164962408852 0.20589081089837991 0 -0.28918285092023371 0.18809301854234381 0 -0.27469451239495962 0.19856643751398209 0 -0.28549164962408852 0.20589081089837991 0 -0.29782091388006071 0.2077851852193662 0 -0.28918285092023371 0.18809301854234381 0 -0.27469451239495962 0.19856643751398209 0 -0.25846339158769432 0.19477026040294029 0 -0.26742439373620053 0.1747171610723561 0 -0.27469451239495962 0.19856643751398209 0 -0.25846339158769432 0.19477026040294029 0 -0.26373521695980739 0.20854805576629271 0 -0.25846339158769432 0.19477026040294029 0 -0.25264776582176801 0.2054066783297176 0 -0.24512564856919611 0.1966003761625241 0 -0.25846339158769432 0.19477026040294029 0 -0.26373521695980739 0.20854805576629271 0 -0.25264776582176801 0.2054066783297176 0 -0.26373521695980739 0.20854805576629271 0 -0.25264776582176801 0.2054066783297176 0 -0.25326648915379463 0.21765104414027969 0 -0.26373521695980739 0.20854805576629271 0 -0.25326648915379463 0.21765104414027969 0 -0.26696116117740232 0.2188897629996385 0 -0.26373521695980739 0.20854805576629271 0 -0.27599235506858921 0.213338138612501 0 -0.26696116117740232 0.2188897629996385 0 -0.27469451239495962 0.19856643751398209 0 -0.26373521695980739 0.20854805576629271 0 -0.27599235506858921 0.213338138612501 0 -0.28549164962408852 0.20589081089837991 0 -0.27469451239495962 0.19856643751398209 0 -0.27599235506858921 0.213338138612501 0 -0.28658767146556752 0.2208426317688808 0 -0.27599235506858921 0.213338138612501 0 -0.27366575233363138 0.22408994750137051 0 -0.28658767146556752 0.2208426317688808 0 -0.27366575233363138 0.22408994750137051 0 -0.28109078806307641 0.23123665432302171 0 -0.27366575233363138 0.22408994750137051 0 -0.28109078806307641 0.23123665432302171 0 -0.26613842301448931 0.22948780180005629 0 -0.27366575233363138 0.22408994750137051 0 -0.26613842301448931 0.22948780180005629 0 -0.27599235506858921 0.213338138612501 0 -0.27366575233363138 0.22408994750137051 0 -0.26696116117740232 0.2188897629996385 0 -0.27366575233363138 0.22408994750137051 0 -0.26613842301448931 0.22948780180005629 0 -0.26696116117740232 0.2188897629996385 0 -0.25326648915379463 0.21765104414027969 0 -0.26613842301448931 0.22948780180005629 0 -0.25326648915379463 0.21765104414027969 0 -0.26613842301448931 0.22948780180005629 0 -0.26696116117740232 0.2188897629996385 0 -0.26613842301448931 0.22948780180005629 0 -0.25250373055295899 0.22903132158689779 0 -0.2468893326351202 0.24329134098969171 0 -0.25326648915379463 0.21765104414027969 0 -0.26613842301448931 0.22948780180005629 0 -0.25250373055295899 0.22903132158689779 0 -0.26613842301448931 0.22948780180005629 0 -0.2468893326351202 0.24329134098969171 0 -0.26613842301448931 0.22948780180005629 0 -0.26514282027817931 0.24842266601513599 0 -0.2468893326351202 0.24329134098969171 0 -0.28392805579818597 0.24584677119781029 0 -0.26613842301448931 0.22948780180005629 0 -0.26514282027817931 0.24842266601513599 0 -0.28392805579818597 0.24584677119781029 0 -0.26613842301448931 0.22948780180005629 0 -0.28392805579818597 0.24584677119781029 0 -0.28109078806307641 0.23123665432302171 0 -0.26613842301448931 0.22948780180005629 0 -0.29674228528268098 0.14167201189203629 0 -0.29210011904845101 0.16519073176382951 0 -0.2788144627000812 0.14703818685698561 0 -0.29674228528268098 0.14167201189203629 0 -0.2788144627000812 0.14703818685698561 0 -0.2804226891664876 0.12940513594623221 0 -0.29674228528268098 0.14167201189203629 0 -0.2804226891664876 0.12940513594623221 0 -0.29563289833704792 0.1211109261551389 0 -0.29674228528268098 0.14167201189203629 0 -0.30835875028686138 0.12836861128214669 0 -0.29563289833704792 0.1211109261551389 0 -0.31630075392673418 0.14071989359044609 0 -0.29674228528268098 0.14167201189203629 0 -0.30835875028686138 0.12836861128214669 0 -0.31796283648197832 0.1633337389314328 0 -0.31630075392673418 0.14071989359044609 0 -0.29674228528268098 0.14167201189203629 0 -0.31796283648197832 0.1633337389314328 0 -0.30596240671843039 0.18080678990447141 0 -0.29210011904845101 0.16519073176382951 0 -0.31796283648197832 0.1633337389314328 0 -0.29674228528268098 0.14167201189203629 0 -0.29210011904845101 0.16519073176382951 0 -0.28918285092023371 0.18809301854234381 0 -0.30596240671843039 0.18080678990447141 0 -0.29210011904845101 0.16519073176382951 0 -0.28918285092023371 0.18809301854234381 0 -0.29210011904845101 0.16519073176382951 0 -0.26742439373620053 0.1747171610723561 0 -0.29210011904845101 0.16519073176382951 0 -0.26645859331151961 0.15770478106228089 0 -0.2788144627000812 0.14703818685698561 0 -0.29210011904845101 0.16519073176382951 0 -0.26645859331151961 0.15770478106228089 0 -0.26742439373620053 0.1747171610723561 0 -0.28918285092023371 0.18809301854234381 0 -0.27469451239495962 0.19856643751398209 0 -0.26742439373620053 0.1747171610723561 0 -0.28918285092023371 0.18809301854234381 0 -0.26742439373620053 0.1747171610723561 0 -0.25846339158769432 0.19477026040294029 0 -0.26742439373620053 0.1747171610723561 0 -0.2425545525554833 0.18325607046718431 0 -0.26742439373620053 0.1747171610723561 0 -0.24566593655216731 0.1613413036023684 0 -0.2425545525554833 0.18325607046718431 0 -0.26742439373620053 0.1747171610723561 0 -0.24566593655216731 0.1613413036023684 0 -0.26645859331151961 0.15770478106228089 0 -0.26742439373620053 0.1747171610723561 0 -0.24566593655216731 0.1613413036023684 0 -0.26645859331151961 0.15770478106228089 0 -0.26077588748637798 0.14053443996503889 0 -0.24566593655216731 0.1613413036023684 0 -0.26645859331151961 0.15770478106228089 0 -0.2788144627000812 0.14703818685698561 0 -0.26077588748637798 0.14053443996503889 0 -0.2788144627000812 0.14703818685698561 0 -0.2804226891664876 0.12940513594623221 0 -0.26077588748637798 0.14053443996503889 0 -0.2804226891664876 0.12940513594623221 0 -0.26077588748637798 0.14053443996503889 0 -0.26620622488190782 0.1187168322113534 0 -0.26077588748637798 0.14053443996503889 0 -0.25033803458298193 0.12914144363467839 0 -0.2394413917758374 0.14053574488666021 0 -0.26077588748637798 0.14053443996503889 0 -0.25033803458298193 0.12914144363467839 0 -0.26620622488190782 0.1187168322113534 0 -0.25033803458298193 0.12914144363467839 0 -0.25364395357421121 0.10678394025260531 0 -0.26620622488190782 0.1187168322113534 0 -0.25364395357421121 0.10678394025260531 0 -0.26910496068450029 0.10059928658519129 0 -0.26340159681891351 0.087305486383429762 0 -0.25364395357421121 0.10678394025260531 0 -0.26910496068450029 0.10059928658519129 0 -0.26620622488190782 0.1187168322113534 0 -0.26910496068450029 0.10059928658519129 0 -0.28436437631082973 0.10735841859683989 0 -0.28176033911896858 0.090840469038767704 0 -0.26910496068450029 0.10059928658519129 0 -0.26620622488190782 0.1187168322113534 0 -0.28436437631082973 0.10735841859683989 0 -0.2804226891664876 0.12940513594623221 0 -0.26620622488190782 0.1187168322113534 0 -0.28436437631082973 0.10735841859683989 0 -0.2804226891664876 0.12940513594623221 0 -0.29563289833704792 0.1211109261551389 0 -0.28436437631082973 0.10735841859683989 0 -0.29563289833704792 0.1211109261551389 0 -0.28436437631082973 0.10735841859683989 0 -0.30333203744139958 0.1018092028156232 0 -0.28436437631082973 0.10735841859683989 0 -0.30333203744139958 0.1018092028156232 0 -0.29505738772415852 0.092466809089677027 0 -0.28436437631082973 0.10735841859683989 0 -0.29505738772415852 0.092466809089677027 0 -0.28176033911896858 0.090840469038767704 0 -0.30333203744139958 0.1018092028156232 0 -0.31115114737422961 0.1134627277541034 0 -0.31621893882499519 0.096173217231134644 0 -0.29563289833704792 0.1211109261551389 0 -0.30333203744139958 0.1018092028156232 0 -0.31115114737422961 0.1134627277541034 0 -0.30835875028686138 0.12836861128214669 0 -0.29563289833704792 0.1211109261551389 0 -0.31115114737422961 0.1134627277541034 0 -0.2988364877494265 0.069896585727329402 0 -0.3095990562077543 0.082833834969606807 0 -0.31708477734686968 0.066938799678275263 0 -0.2988364877494265 0.069896585727329402 0 -0.30266664287706341 0.054708362279179482 0 -0.31708477734686968 0.066938799678275263 0 -0.2988364877494265 0.069896585727329402 0 -0.28935545939309398 0.062964548691125152 0 -0.30266664287706341 0.054708362279179482 0 -0.30333203744139958 0.1018092028156232 0 -0.3095990562077543 0.082833834969606807 0 -0.31621893882499519 0.096173217231134644 0 -0.30333203744139958 0.1018092028156232 0 -0.3095990562077543 0.082833834969606807 0 -0.29505738772415852 0.092466809089677027 0 -0.3095990562077543 0.082833834969606807 0 -0.29687345717375091 0.081902945336330912 0 -0.29505738772415852 0.092466809089677027 0 -0.2988364877494265 0.069896585727329402 0 -0.3095990562077543 0.082833834969606807 0 -0.29687345717375091 0.081902945336330912 0 -0.29687345717375091 0.081902945336330912 0 -0.28176033911896858 0.090840469038767704 0 -0.2804463735768567 0.075556206852953223 0 -0.29687345717375091 0.081902945336330912 0 -0.29505738772415852 0.092466809089677027 0 -0.28176033911896858 0.090840469038767704 0 -0.2988364877494265 0.069896585727329402 0 -0.28935545939309398 0.062964548691125152 0 -0.2804463735768567 0.075556206852953223 0 -0.2988364877494265 0.069896585727329402 0 -0.29687345717375091 0.081902945336330912 0 -0.2804463735768567 0.075556206852953223 0 -0.28935545939309398 0.062964548691125152 0 -0.28020443427428848 0.065937434716272045 0 -0.28232948387749679 0.060243429622273227 0 -0.28935545939309398 0.062964548691125152 0 -0.28020443427428848 0.065937434716272045 0 -0.2804463735768567 0.075556206852953223 0 -0.2804463735768567 0.075556206852953223 0 -0.26340159681891351 0.087305486383429762 0 -0.26195798501385009 0.070226375813507561 0 -0.28020443427428848 0.065937434716272045 0 -0.26195798501385009 0.070226375813507561 0 -0.2800946942601637 0.055740888585776333 0 -0.28020443427428848 0.065937434716272045 0 -0.2804463735768567 0.075556206852953223 0 -0.26195798501385009 0.070226375813507561 0 -0.26195798501385009 0.070226375813507561 0 -0.2800946942601637 0.055740888585776333 0 -0.26910496068450029 0.10059928658519129 0 -0.28176033911896858 0.090840469038767704 0 -0.26340159681891351 0.087305486383429762 0 -0.28176033911896858 0.090840469038767704 0 -0.2804463735768567 0.075556206852953223 0 -0.26340159681891351 0.087305486383429762 0 -0.26340159681891351 0.087305486383429762 0 -0.26195798501385009 0.070226375813507561 0 -0.24382127576753621 0.084711863041238192 0 -0.25364395357421121 0.10678394025260531 0 -0.26340159681891351 0.087305486383429762 0 -0.24382127576753621 0.084711863041238192 0 -0.26195798501385009 0.070226375813507561 0 -0.24382127576753621 0.084711863041238192 0 -0.26195798501385009 0.070226375813507561 0 -0.26253060434091768 0.04486583530805522 0 -0.24534917185526489 0.049526218608574313 0 -0.26253060434091768 0.04486583530805522 0 -0.25642639863326749 0.02710060176493858 0 -0.24534917185526489 0.049526218608574313 0 -0.26253060434091768 0.04486583530805522 0 -0.27431483662099609 0.037465275048419483 0 -0.25642639863326749 0.02710060176493858 0 -0.26253060434091768 0.04486583530805522 0 -0.27431483662099609 0.037465275048419483 0 -0.2800946942601637 0.055740888585776333 0 -0.26195798501385009 0.070226375813507561 0 -0.26253060434091768 0.04486583530805522 0 -0.2800946942601637 0.055740888585776333 0 -0.28020443427428848 0.065937434716272045 0 -0.2800946942601637 0.055740888585776333 0 -0.28232948387749679 0.060243429622273227 0 -0.26431478179583978 -0.01186883573312463 0 -0.25132042997239518 0.0027134119798401068 0 -0.26646431581863778 0.01029557754540468 0 -0.25132042997239518 0.0027134119798401068 0 -0.25642639863326749 0.02710060176493858 0 -0.26646431581863778 0.01029557754540468 0 -0.27431483662099609 0.037465275048419483 0 -0.25642639863326749 0.02710060176493858 0 -0.27962863155723588 0.021383722316491719 0 -0.25642639863326749 0.02710060176493858 0 -0.27962863155723588 0.021383722316491719 0 -0.26646431581863778 0.01029557754540468 0 -0.2820771903446922 -0.0013122005201030101 0 -0.27962863155723588 0.021383722316491719 0 -0.26646431581863778 0.01029557754540468 0 -0.2820771903446922 -0.0013122005201030101 0 -0.30047775033007851 -0.00039401612408775783 0 -0.29196914664965867 0.01010181790504874 0 -0.2820771903446922 -0.0013122005201030101 0 -0.27962863155723588 0.021383722316491719 0 -0.29196914664965867 0.01010181790504874 0 -0.27962863155723588 0.021383722316491719 0 -0.29196914664965867 0.01010181790504874 0 -0.3056930143666281 0.020729765947894 0 -0.27962863155723588 0.021383722316491719 0 -0.3056930143666281 0.020729765947894 0 -0.2928938543133956 0.038235327266834943 0 -0.3056930143666281 0.020729765947894 0 -0.2928938543133956 0.038235327266834943 0 -0.3056930143666281 0.020729765947894 0 -0.30086997028822832 0.039148022070134687 0 -0.32164524631629432 0.022555155554494829 0 -0.30086997028822832 0.039148022070134687 0 -0.32164524631629432 0.022555155554494829 0 -0.3056930143666281 0.020729765947894 0 -0.31849217441985911 0.0032242046289520012 0 -0.30047775033007851 -0.00039401612408775783 0 -0.3056930143666281 0.020729765947894 0 -0.31849217441985911 0.0032242046289520012 0 -0.30047775033007851 -0.00039401612408775783 0 -0.29196914664965867 0.01010181790504874 0 -0.3056930143666281 0.020729765947894 0 -0.2800946942601637 0.055740888585776333 0 -0.30086997028822832 0.039148022070134687 0 -0.28935545939309398 0.062964548691125152 0 -0.2800946942601637 0.055740888585776333 0 -0.30266664287706341 0.054708362279179482 0 -0.2800946942601637 0.055740888585776333 0 -0.2928938543133956 0.038235327266834943 0 -0.2800946942601637 0.055740888585776333 0 -0.30086997028822832 0.039148022070134687 0 -0.30266664287706341 0.054708362279179482 0 -0.28935545939309398 0.062964548691125152 0 -0.2800946942601637 0.055740888585776333 0 -0.28232948387749679 0.060243429622273227 0 -0.2800946942601637 0.055740888585776333 0 -0.2928938543133956 0.038235327266834943 0 -0.30086997028822832 0.039148022070134687 0 -0.27431483662099609 0.037465275048419483 0 -0.27962863155723588 0.021383722316491719 0 -0.2928938543133956 0.038235327266834943 0 -0.27431483662099609 0.037465275048419483 0 -0.2800946942601637 0.055740888585776333 0 -0.2928938543133956 0.038235327266834943 0 -0.3056930143666281 0.020729765947894 0 -0.2928938543133956 0.038235327266834943 0 -0.30086997028822832 0.039148022070134687 0 -0.30086997028822832 0.039148022070134687 0 -0.30266664287706341 0.054708362279179482 0 -0.3262676586483656 0.050894384371173287 0 -0.30266664287706341 0.054708362279179482 0 -0.3262676586483656 0.050894384371173287 0 -0.31708477734686968 0.066938799678275263 0 -0.3262676586483656 0.050894384371173287 0 -0.32164524631629432 0.022555155554494829 0 -0.30086997028822832 0.039148022070134687 0 -0.3262676586483656 0.050894384371173287 0 -0.32164524631629432 0.022555155554494829 0 -0.3262676586483656 0.050894384371173287 0 -0.32164524631629432 0.022555155554494829 0 -0.34047985126035502 0.026774828886197279 0 -0.3419631627684111 0.054410778814259472 0 -0.34047985126035502 0.026774828886197279 0 -0.3262676586483656 0.050894384371173287 0 -0.3419631627684111 0.054410778814259472 0 -0.34047985126035502 0.026774828886197279 0 -0.3262676586483656 0.050894384371173287 0 -0.3419631627684111 0.054410778814259472 0 -0.33089007098043072 0.079233613187852742 0 -0.3056930143666281 0.020729765947894 0 -0.31849217441985911 0.0032242046289520012 0 -0.32164524631629432 0.022555155554494829 0 -0.31849217441985911 0.0032242046289520012 0 -0.32164524631629432 0.022555155554494829 0 -0.33742136738088668 0.0099550307423931228 0 -0.31849217441985911 0.0032242046289520012 0 -0.32164524631629432 0.022555155554494829 0 -0.32164524631629432 0.022555155554494829 0 -0.33742136738088668 0.0099550307423931228 0 -0.32164524631629432 0.022555155554494829 0 -0.34047985126035502 0.026774828886197279 0 -0.33742136738088668 0.0099550307423931228 0 -0.35319748844548088 -0.0026450940697062141 0 -0.33742136738088668 0.0099550307423931228 0 -0.35319748844548088 -0.0026450940697062141 0 -0.33742136738088668 0.0099550307423931228 0 -0.35568472126330458 0.01398178967161531 0 -0.34047985126035502 0.026774828886197279 0 -0.35568472126330458 0.01398178967161531 0 -0.36050468596179641 0.029201478886372499 0 -0.34047985126035502 0.026774828886197279 0 -0.33742136738088668 0.0099550307423931228 0 -0.35568472126330458 0.01398178967161531 0 -0.35568472126330458 0.01398178967161531 0 -0.36050468596179641 0.029201478886372499 0 -0.37274578052696178 0.01868977009819147 0 -0.37753126207020948 0.034899308803226177 0 -0.36050468596179641 0.029201478886372499 0 -0.37274578052696178 0.01868977009819147 0 -0.35319748844548088 -0.0026450940697062141 0 -0.35568472126330458 0.01398178967161531 0 -0.36979036210562988 0.0025511841975563729 0 -0.35568472126330458 0.01398178967161531 0 -0.37274578052696178 0.01868977009819147 0 -0.36979036210562988 0.0025511841975563729 0 -0.35367539322405089 0.052192583201526178 0 -0.35229578078182711 0.042127528613546239 0 -0.36485581069452189 0.048057973279375742 0 -0.35367539322405089 0.052192583201526178 0 -0.36174043644781612 0.059537200304905107 0 -0.34707042967454638 0.066493871458924422 0 -0.3419631627684111 0.054410778814259472 0 -0.35367539322405089 0.052192583201526178 0 -0.34707042967454638 0.066493871458924422 0 -0.3419631627684111 0.054410778814259472 0 -0.35367539322405089 0.052192583201526178 0 -0.35229578078182711 0.042127528613546239 0 -0.34047985126035502 0.026774828886197279 0 -0.36050468596179641 0.029201478886372499 0 -0.35229578078182711 0.042127528613546239 0 -0.3419631627684111 0.054410778814259472 0 -0.34047985126035502 0.026774828886197279 0 -0.35229578078182711 0.042127528613546239 0 -0.36050468596179641 0.029201478886372499 0 -0.35229578078182711 0.042127528613546239 0 -0.36485581069452189 0.048057973279375742 0 -0.37753126207020948 0.034899308803226177 0 -0.36050468596179641 0.029201478886372499 0 -0.36485581069452189 0.048057973279375742 0 -0.37830855690199738 0.048851891747440382 0 -0.37753126207020948 0.034899308803226177 0 -0.36485581069452189 0.048057973279375742 0 -0.37830855690199738 0.048851891747440382 0 -0.36485581069452189 0.048057973279375742 0 -0.37119345183321822 0.058853827639881867 0 -0.35367539322405089 0.052192583201526178 0 -0.36485581069452189 0.048057973279375742 0 -0.36174043644781612 0.059537200304905107 0 -0.36485581069452189 0.048057973279375742 0 -0.36174043644781612 0.059537200304905107 0 -0.37119345183321822 0.058853827639881867 0 -0.37201358599706058 0.070711840939253895 0 -0.36026946930678239 0.075913175113325196 0 -0.34707042967454638 0.066493871458924422 0 -0.37904886912469499 0.067110231928434197 0 -0.37119345183321822 0.058853827639881867 0 -0.37201358599706058 0.070711840939253895 0 -0.37201358599706058 0.070711840939253895 0 -0.34707042967454638 0.066493871458924422 0 -0.36174043644781612 0.059537200304905107 0 -0.37119345183321822 0.058853827639881867 0 -0.37201358599706058 0.070711840939253895 0 -0.36174043644781612 0.059537200304905107 0 -0.37201358599706058 0.070711840939253895 0 -0.34707042967454638 0.066493871458924422 0 -0.37201358599706058 0.070711840939253895 0 -0.36026946930678239 0.075913175113325196 0 -0.37016311523106599 0.083751267223082917 0 -0.38119130922167832 0.078766060501995444 0 -0.37201358599706058 0.070711840939253895 0 -0.37016311523106599 0.083751267223082917 0 -0.3419631627684111 0.054410778814259472 0 -0.34707042967454638 0.066493871458924422 0 -0.34344647427646718 0.082046728742321648 0 -0.36026946930678239 0.075913175113325196 0 -0.35274187612612162 0.077211514003190262 0 -0.34707042967454638 0.066493871458924422 0 -0.35274187612612162 0.077211514003190262 0 -0.34707042967454638 0.066493871458924422 0 -0.34344647427646718 0.082046728742321648 0 -0.35295667425925747 0.085123838591775802 0 -0.35001973748798287 0.095551702326820934 0 -0.34344647427646718 0.082046728742321648 0 -0.35274187612612162 0.077211514003190262 0 -0.35295667425925747 0.085123838591775802 0 -0.34344647427646718 0.082046728742321648 0 -0.35274187612612162 0.077211514003190262 0 -0.35295667425925747 0.085123838591775802 0 -0.35935833950511731 0.08139738194217451 0 -0.35295667425925747 0.085123838591775802 0 -0.35935833950511731 0.08139738194217451 0 -0.35921694390059838 0.089411865944371699 0 -0.36026946930678239 0.075913175113325196 0 -0.35274187612612162 0.077211514003190262 0 -0.35935833950511731 0.08139738194217451 0 -0.35295667425925747 0.085123838591775802 0 -0.35921694390059838 0.089411865944371699 0 -0.35001973748798287 0.095551702326820934 0 -0.35921694390059838 0.089411865944371699 0 -0.37016311523106599 0.083751267223082917 0 -0.36611800641667808 0.094109198156665408 0 -0.36026946930678239 0.075913175113325196 0 -0.35935833950511731 0.08139738194217451 0 -0.37016311523106599 0.083751267223082917 0 -0.35935833950511731 0.08139738194217451 0 -0.35921694390059838 0.089411865944371699 0 -0.37016311523106599 0.083751267223082917 0 -0.37643332436138899 0.09558572737664002 0 -0.37016311523106599 0.083751267223082917 0 -0.36611800641667808 0.094109198156665408 0 -0.37643332436138899 0.09558572737664002 0 -0.36831342086492491 0.1042920553550029 0 -0.36611800641667808 0.094109198156665408 0 -0.37896648635229202 0.10715504183998489 0 -0.37643332436138899 0.09558572737664002 0 -0.36831342086492491 0.1042920553550029 0 -0.36831342086492491 0.1042920553550029 0 -0.35948680904503588 0.10793893666500461 0 -0.35938862515943509 0.099383552161339872 0 -0.35921694390059838 0.089411865944371699 0 -0.35938862515943509 0.099383552161339872 0 -0.36611800641667808 0.094109198156665408 0 -0.36831342086492491 0.1042920553550029 0 -0.35938862515943509 0.099383552161339872 0 -0.36611800641667808 0.094109198156665408 0 -0.37896648635229202 0.10715504183998489 0 -0.36831342086492491 0.1042920553550029 0 -0.36716541190589658 0.118616890008602 0 -0.36831342086492491 0.1042920553550029 0 -0.35948680904503588 0.10793893666500461 0 -0.36716541190589658 0.118616890008602 0 -0.35948680904503588 0.10793893666500461 0 -0.36716541190589658 0.118616890008602 0 -0.35375916145188291 0.11350041634001019 0 -0.34641309729257957 0.13731862859844601 0 -0.34492978578452338 0.1096826786703838 0 -0.34641309729257957 0.13731862859844601 0 -0.35352278934268327 0.12307152153672141 0 -0.34492978578452338 0.1096826786703838 0 -0.36716541190589658 0.118616890008602 0 -0.35352278934268327 0.12307152153672141 0 -0.35375916145188291 0.11350041634001019 0 -0.35375916145188291 0.11350041634001019 0 -0.34492978578452338 0.1096826786703838 0 -0.35317683324139082 0.10499755452017361 0 -0.35352278934268327 0.12307152153672141 0 -0.35375916145188291 0.11350041634001019 0 -0.34492978578452338 0.1096826786703838 0 -0.34492978578452338 0.1096826786703838 0 -0.35001973748798287 0.095551702326820934 0 -0.34344647427646718 0.082046728742321648 0 -0.34492978578452338 0.1096826786703838 0 -0.34344647427646718 0.082046728742321648 0 -0.35921694390059838 0.089411865944371699 0 -0.35938862515943509 0.099383552161339872 0 -0.35001973748798287 0.095551702326820934 0 -0.35938862515943509 0.099383552161339872 0 -0.35317683324139082 0.10499755452017361 0 -0.35001973748798287 0.095551702326820934 0 -0.35948680904503588 0.10793893666500461 0 -0.35938862515943509 0.099383552161339872 0 -0.35317683324139082 0.10499755452017361 0 -0.35948680904503588 0.10793893666500461 0 -0.35375916145188291 0.11350041634001019 0 -0.35317683324139082 0.10499755452017361 0 -0.34492978578452338 0.1096826786703838 0 -0.35317683324139082 0.10499755452017361 0 -0.35001973748798287 0.095551702326820934 0 -0.33551248331249578 0.10757284200453231 0 -0.32636827877939262 0.096437598311714251 0 -0.33089007098043072 0.079233613187852742 0 -0.34492978578452338 0.1096826786703838 0 -0.33551248331249578 0.10757284200453231 0 -0.34344647427646718 0.082046728742321648 0 -0.34013489564456101 0.1359120708212119 0 -0.33551248331249578 0.10757284200453231 0 -0.33106980320980312 0.1246503866679774 0 -0.33551248331249578 0.10757284200453231 0 -0.33106980320980312 0.1246503866679774 0 -0.3276422557938925 0.11637059862038419 0 -0.34013489564456101 0.1359120708212119 0 -0.33551248331249578 0.10757284200453231 0 -0.34013489564456101 0.1359120708212119 0 -0.34492978578452338 0.1096826786703838 0 -0.33551248331249578 0.10757284200453231 0 -0.33551248331249578 0.10757284200453231 0 -0.3276422557938925 0.11637059862038419 0 -0.32202007013965611 0.108381668790018 0 -0.31115114737422961 0.1134627277541034 0 -0.32196666651361477 0.12487749701900901 0 -0.32202007013965611 0.108381668790018 0 -0.32196666651361477 0.12487749701900901 0 -0.3276422557938925 0.11637059862038419 0 -0.32202007013965611 0.108381668790018 0 -0.33106980320980312 0.1246503866679774 0 -0.32196666651361477 0.12487749701900901 0 -0.3276422557938925 0.11637059862038419 0 -0.30835875028686138 0.12836861128214669 0 -0.31115114737422961 0.1134627277541034 0 -0.32196666651361477 0.12487749701900901 0 -0.31115114737422961 0.1134627277541034 0 -0.32202007013965611 0.108381668790018 0 -0.31621893882499519 0.096173217231134644 0 -0.32636827877939262 0.096437598311714251 0 -0.32202007013965611 0.108381668790018 0 -0.31621893882499519 0.096173217231134644 0 -0.33551248331249578 0.10757284200453231 0 -0.32636827877939262 0.096437598311714251 0 -0.32202007013965611 0.108381668790018 0 -0.32636827877939262 0.096437598311714251 0 -0.3206518095107353 0.086423961441370711 0 -0.33089007098043072 0.079233613187852742 0 -0.3095990562077543 0.082833834969606807 0 -0.31621893882499519 0.096173217231134644 0 -0.3206518095107353 0.086423961441370711 0 -0.32636827877939262 0.096437598311714251 0 -0.31621893882499519 0.096173217231134644 0 -0.3206518095107353 0.086423961441370711 0 -0.3206518095107353 0.086423961441370711 0 -0.3195564285114475 0.078857552319276381 0 -0.33089007098043072 0.079233613187852742 0 -0.3095990562077543 0.082833834969606807 0 -0.3206518095107353 0.086423961441370711 0 -0.3195564285114475 0.078857552319276381 0 -0.3095990562077543 0.082833834969606807 0 -0.3195564285114475 0.078857552319276381 0 -0.31708477734686968 0.066938799678275263 0 -0.3262676586483656 0.050894384371173287 0 -0.31708477734686968 0.066938799678275263 0 -0.33089007098043072 0.079233613187852742 0 -0.3195564285114475 0.078857552319276381 0 -0.31708477734686968 0.066938799678275263 0 -0.33089007098043072 0.079233613187852742 0 -0.3262676586483656 0.050894384371173287 0 -0.33089007098043072 0.079233613187852742 0 -0.3419631627684111 0.054410778814259472 0 -0.34344647427646718 0.082046728742321648 0 -0.3419631627684111 0.054410778814259472 0 -0.34344647427646718 0.082046728742321648 0 -0.33089007098043072 0.079233613187852742 0 -0.33551248331249578 0.10757284200453231 0 -0.34344647427646718 0.082046728742321648 0 -0.33089007098043072 0.079233613187852742 0 -0.33551248331249578 0.10757284200453231 0 -0.33089007098043072 0.079233613187852742 0 -0.38413367002432852 0.48466820949397371 0 -0.39197467039505129 0.46611734068214988 0 -0.41460981883164078 0.48516798004791117 0 -0.3981750166650535 0.50000000000000056 0 -0.38413367002432852 0.48466820949397371 0 -0.41460981883164078 0.48516798004791117 0 -0.3981750166650535 0.50000000000000056 0 -0.38413367002432852 0.48466820949397371 0 -0.37107410569903487 0.5 0 -0.39197467039505129 0.46611734068214988 0 -0.36482960672615539 0.47476559140937902 0 -0.38413367002432852 0.48466820949397371 0 -0.39197467039505129 0.46611734068214988 0 -0.36580706476392733 0.47631646954851292 0 -0.38785270990024268 0.44600589254376838 0 -0.39197467039505129 0.46611734068214988 0 -0.37006527051019528 0.45259743283909409 0 -0.39197467039505129 0.46611734068214988 0 -0.37006527051019528 0.45259743283909409 0 -0.36482960672615539 0.47476559140937902 0 -0.38785270990024268 0.44600589254376838 0 -0.37388199021079188 0.43349662060099697 0 -0.37006527051019528 0.45259743283909409 0 -0.38785270990024268 0.44600589254376838 0 -0.40320620376676342 0.45007503942677379 0 -0.39595691431975 0.42995942871021692 0 -0.38785270990024268 0.44600589254376838 0 -0.40320620376676342 0.45007503942677379 0 -0.39197467039505129 0.46611734068214988 0 -0.40320620376676342 0.45007503942677379 0 -0.39197467039505129 0.46611734068214988 0 -0.41277096383307582 0.46532813801804862 0 -0.40320620376676342 0.45007503942677379 0 -0.42781315099835598 0.44205737320498029 0 -0.39595691431975 0.42995942871021692 0 -0.40320620376676342 0.45007503942677379 0 -0.41277096383307582 0.46532813801804862 0 -0.42781315099835598 0.44205737320498029 0 -0.42781315099835598 0.44205737320498029 0 -0.43466730821188831 0.46706657063262308 0 -0.44460389203804629 0.44806533343805571 0 -0.42781315099835598 0.44205737320498029 0 -0.4310446209982266 0.47033596009582029 0 -0.42781315099835598 0.44205737320498029 0 -0.43466730821188831 0.46706657063262308 0 -0.4310446209982266 0.47033596009582029 0 -0.41277096383307582 0.46532813801804862 0 -0.42781315099835598 0.44205737320498029 0 -0.4310446209982266 0.47033596009582029 0 -0.43466730821188831 0.46706657063262308 0 -0.4310446209982266 0.47033596009582029 0 -0.4310446209982266 0.47033596009582029 0 -0.43443441043131342 0.50000000000000755 0 -0.4447827686264566 0.47926022536349122 0 -0.4310446209982266 0.47033596009582029 0 -0.41460981883164078 0.48516798004791117 0 -0.4310446209982266 0.47033596009582029 0 -0.41460981883164078 0.48516798004791117 0 -0.42409839095234109 0.48887598503593521 0 -0.43466730821188831 0.46706657063262308 0 -0.4310446209982266 0.47033596009582029 0 -0.4447827686264566 0.47926022536349122 0 -0.39197467039505129 0.46611734068214988 0 -0.41277096383307582 0.46532813801804862 0 -0.41460981883164078 0.48516798004791117 0 -0.41277096383307582 0.46532813801804862 0 -0.4310446209982266 0.47033596009582029 0 -0.41460981883164078 0.48516798004791117 0 -0.3981750166650535 0.50000000000000056 0 -0.41460981883164078 0.48516798004791117 0 -0.3981750166650535 0.50000000000000056 0 -0.41460981883164078 0.48516798004791117 0 -0.41630471354818338 0.5 0 -0.41460981883164078 0.48516798004791117 0 -0.41630471354818338 0.5 0 -0.42409839095234109 0.48887598503593521 0 -0.41630471354818338 0.5 0 -0.43443441043131342 0.50000000000000755 0 -0.42409839095234109 0.48887598503593521 0 -0.4310446209982266 0.47033596009582029 0 -0.43443441043131342 0.50000000000000755 0 -0.4310446209982266 0.47033596009582029 0 -0.43443441043131342 0.50000000000000755 0 -0.42409839095234109 0.48887598503593521 0 -0.43443441043131342 0.50000000000000755 0 -0.4447827686264566 0.47926022536349122 0 -0.4595127163698095 0.50000000000000022 0 -0.5 0.5 0 -0.47335596745111108 0.44169355163120572 0 -0.5 0.40038011321019712 0 -0.43466730821188831 0.46706657063262308 0 -0.4447827686264566 0.47926022536349122 0 -0.44899911668232212 0.46303481381032341 0 -0.4447827686264566 0.47926022536349122 0 -0.46015144363500948 0.47359397987248231 0 -0.44899911668232212 0.46303481381032341 0 -0.4447827686264566 0.47926022536349122 0 -0.46015144363500948 0.47359397987248231 0 -0.4595127163698095 0.50000000000000022 0 -0.46015144363500948 0.47359397987248231 0 -0.4595127163698095 0.50000000000000022 0 -0.46015144363500948 0.47359397987248231 0 -0.4595127163698095 0.50000000000000022 0 -0.5 0.5 0 -0.46015144363500948 0.47359397987248231 0 -0.5 0.5 0 -0.47335596745111108 0.44169355163120572 0 -0.46015144363500948 0.47359397987248231 0 -0.47335596745111108 0.44169355163120572 0 -0.46079017090020952 0.44718795974496428 0 -0.46079017090020952 0.44718795974496428 0 -0.44460389203804629 0.44806533343805571 0 -0.45590269758544211 0.43346995798949911 0 -0.47335596745111108 0.44169355163120572 0 -0.46079017090020952 0.44718795974496428 0 -0.45590269758544211 0.43346995798949911 0 -0.46015144363500948 0.47359397987248231 0 -0.46079017090020952 0.44718795974496428 0 -0.44899911668232212 0.46303481381032341 0 -0.46015144363500948 0.47359397987248231 0 -0.46079017090020952 0.44718795974496428 0 -0.43466730821188831 0.46706657063262308 0 -0.44899911668232212 0.46303481381032341 0 -0.44460389203804629 0.44806533343805571 0 -0.42781315099835598 0.44205737320498029 0 -0.44460389203804629 0.44806533343805571 0 -0.44268906624812487 0.42665452579602331 0 -0.46079017090020952 0.44718795974496428 0 -0.44899911668232212 0.46303481381032341 0 -0.44460389203804629 0.44806533343805571 0 -0.44460389203804629 0.44806533343805571 0 -0.44268906624812487 0.42665452579602331 0 -0.45590269758544211 0.43346995798949911 0 -0.44268906624812487 0.42665452579602331 0 -0.45186506472241439 0.42144574071262142 0 -0.45590269758544211 0.43346995798949911 0 -0.44268906624812487 0.42665452579602331 0 -0.45186506472241439 0.42144574071262142 0 -0.44576315445017062 0.40546276927260178 0 -0.44268906624812487 0.42665452579602331 0 -0.44576315445017062 0.40546276927260178 0 -0.42458168099848842 0.41377878631413989 0 -0.46310534060592018 0.42019570979236182 0 -0.47346151536459102 0.41731684507507272 0 -0.46374026742882618 0.39151162716981691 0 -0.45186506472241439 0.42144574071262142 0 -0.46310534060592018 0.42019570979236182 0 -0.44576315445017062 0.40546276927260178 0 -0.47335596745111108 0.44169355163120572 0 -0.46310534060592018 0.42019570979236182 0 -0.45590269758544211 0.43346995798949911 0 -0.45186506472241439 0.42144574071262142 0 -0.46310534060592018 0.42019570979236182 0 -0.45590269758544211 0.43346995798949911 0 -0.47335596745111108 0.44169355163120572 0 -0.46310534060592018 0.42019570979236182 0 -0.47346151536459102 0.41731684507507272 0 -0.47335596745111108 0.44169355163120572 0 -0.47346151536459102 0.41731684507507272 0 -0.5 0.40038011321019712 0 -0.47346151536459102 0.41731684507507272 0 -0.5 0.40038011321019712 0 -0.47533567507008778 0.39330498401591851 0 -0.47346151536459102 0.41731684507507272 0 -0.47533567507008778 0.39330498401591851 0 -0.47346151536459102 0.41731684507507272 0 -0.47533567507008778 0.39330498401591851 0 -0.46374026742882618 0.39151162716981691 0 -0.5 0.40038011321019712 0 -0.47533567507008778 0.39330498401591851 0 -0.47720983477558448 0.36929312295676431 0 -0.47533567507008778 0.39330498401591851 0 -0.47720983477558448 0.36929312295676431 0 -0.47533567507008778 0.39330498401591851 0 -0.46374026742882618 0.39151162716981691 0 -0.47720983477558448 0.36929312295676431 0 -0.46374026742882618 0.39151162716981691 0 -0.45297946443592813 0.37787116286410599 0 -0.46437519425173218 0.36282754454727217 0 -0.46374026742882618 0.39151162716981691 0 -0.45297946443592813 0.37787116286410599 0 -0.44807155782876301 0.39051600802545461 0 -0.46374026742882618 0.39151162716981691 0 -0.46437519425173218 0.36282754454727217 0 -0.46310534060592018 0.42019570979236182 0 -0.46374026742882618 0.39151162716981691 0 -0.46310534060592018 0.42019570979236182 0 -0.46374026742882618 0.39151162716981691 0 -0.44576315445017062 0.40546276927260178 0 -0.46374026742882618 0.39151162716981691 0 -0.44576315445017062 0.40546276927260178 0 -0.44807155782876301 0.39051600802545461 0 -0.44576315445017062 0.40546276927260178 0 -0.44807155782876301 0.39051600802545461 0 -0.43603237714897469 0.39502180629923989 0 -0.45297946443592813 0.37787116286410599 0 -0.44807155782876301 0.39051600802545461 0 -0.44039528146883089 0.37985126846070372 0 -0.44807155782876301 0.39051600802545461 0 -0.44039528146883089 0.37985126846070372 0 -0.43603237714897469 0.39502180629923989 0 -0.44039528146883089 0.37985126846070372 0 -0.42135021099862069 0.38550019942329938 0 -0.43603237714897469 0.39502180629923989 0 -0.44039528146883089 0.37985126846070372 0 -0.42135021099862069 0.38550019942329938 0 -0.43330693618304927 0.36743111704715392 0 -0.42135021099862069 0.38550019942329938 0 -0.3928737426436214 0.38288862872844909 0 -0.41811874099875312 0.35722161253245888 0 -0.42135021099862069 0.38550019942329938 0 -0.42458168099848842 0.41377878631413989 0 -0.40302940150938782 0.40252809503019821 0 -0.44576315445017062 0.40546276927260178 0 -0.43603237714897469 0.39502180629923989 0 -0.42458168099848842 0.41377878631413989 0 -0.42135021099862069 0.38550019942329938 0 -0.42458168099848842 0.41377878631413989 0 -0.42135021099862069 0.38550019942329938 0 -0.43603237714897469 0.39502180629923989 0 -0.42458168099848842 0.41377878631413989 0 -0.42781315099835598 0.44205737320498029 0 -0.42458168099848842 0.41377878631413989 0 -0.39595691431975 0.42995942871021692 0 -0.42781315099835598 0.44205737320498029 0 -0.44268906624812487 0.42665452579602331 0 -0.42458168099848842 0.41377878631413989 0 -0.42781315099835598 0.44205737320498029 0 -0.42458168099848842 0.41377878631413989 0 -0.42458168099848842 0.41377878631413989 0 -0.39595691431975 0.42995942871021692 0 -0.40302940150938782 0.40252809503019821 0 -0.39595691431975 0.42995942871021692 0 -0.38133644129271771 0.41060795377957438 0 -0.40302940150938782 0.40252809503019821 0 -0.39595691431975 0.42995942871021692 0 -0.38133644129271771 0.41060795377957438 0 -0.37388199021079188 0.43349662060099697 0 -0.38785270990024268 0.44600589254376838 0 -0.39595691431975 0.42995942871021692 0 -0.37388199021079188 0.43349662060099697 0 -0.39595691431975 0.42995942871021692 0 -0.38133644129271771 0.41060795377957438 0 -0.38133644129271771 0.41060795377957438 0 -0.3928737426436214 0.38288862872844909 0 -0.36671596826568531 0.39125647884893172 0 -0.3928737426436214 0.38288862872844909 0 -0.37126589511329411 0.37377724987418581 0 -0.36671596826568531 0.39125647884893172 0 -0.42135021099862069 0.38550019942329938 0 -0.3928737426436214 0.38288862872844909 0 -0.40302940150938782 0.40252809503019821 0 -0.38133644129271771 0.41060795377957438 0 -0.3928737426436214 0.38288862872844909 0 -0.40302940150938782 0.40252809503019821 0 -0.39068435811404417 0.36093702398180222 0 -0.39395667907880888 0.34326368506717603 0 -0.41811874099875312 0.35722161253245888 0 -0.3928737426436214 0.38288862872844909 0 -0.39068435811404417 0.36093702398180222 0 -0.41811874099875312 0.35722161253245888 0 -0.3928737426436214 0.38288862872844909 0 -0.39068435811404417 0.36093702398180222 0 -0.37126589511329411 0.37377724987418581 0 -0.39068435811404417 0.36093702398180222 0 -0.37302608715873109 0.35758434449273291 0 -0.37126589511329411 0.37377724987418581 0 -0.39395667907880888 0.34326368506717603 0 -0.37302608715873109 0.35758434449273291 0 -0.39068435811404417 0.36093702398180222 0 -0.39395667907880888 0.34326368506717603 0 -0.37302608715873109 0.35758434449273291 0 -0.37563375498023588 0.33893957100260502 0 -0.39395667907880888 0.34326368506717603 0 -0.37302608715873109 0.35758434449273291 0 -0.37563375498023588 0.33893957100260502 0 -0.3809584867257152 0.31995934924364311 0 -0.39395667907880888 0.34326368506717603 0 -0.3809584867257152 0.31995934924364311 0 -0.40019053093036899 0.31727751782089808 0 -0.39395667907880888 0.34326368506717603 0 -0.40019053093036899 0.31727751782089808 0 -0.39395667907880888 0.34326368506717603 0 -0.414887270998886 0.32894302564161831 0 -0.39395667907880888 0.34326368506717603 0 -0.414887270998886 0.32894302564161831 0 -0.414887270998886 0.32894302564161831 0 -0.41811874099875312 0.35722161253245888 0 -0.39395667907880888 0.34326368506717603 0 -0.414887270998886 0.32894302564161831 0 -0.41811874099875312 0.35722161253245888 0 -0.414887270998886 0.32894302564161831 0 -0.4287524947490482 0.33739992334137159 0 -0.41811874099875312 0.35722161253245888 0 -0.414887270998886 0.32894302564161831 0 -0.42784370751339318 0.3200782636988328 0 -0.41182569378737999 0.30215117016961263 0 -0.414887270998886 0.32894302564161831 0 -0.41182569378737999 0.30215117016961263 0 -0.40019053093036899 0.31727751782089808 0 -0.414887270998886 0.32894302564161831 0 -0.41182569378737999 0.30215117016961263 0 -0.414887270998886 0.32894302564161831 0 -0.42784370751339318 0.3200782636988328 0 -0.42784370751339318 0.3200782636988328 0 -0.44080014402789969 0.3112135017560464 0 -0.414887270998886 0.32894302564161831 0 -0.42784370751339318 0.3200782636988328 0 -0.4287524947490482 0.33739992334137159 0 -0.42784370751339318 0.3200782636988328 0 -0.4287524947490482 0.33739992334137159 0 -0.44455732798665581 0.33082357613192309 0 -0.4287524947490482 0.33739992334137159 0 -0.43835542624755341 0.34993313870202492 0 -0.44455732798665581 0.33082357613192309 0 -0.4287524947490482 0.33739992334137159 0 -0.41811874099875312 0.35722161253245888 0 -0.43835542624755341 0.34993313870202492 0 -0.41811874099875312 0.35722161253245888 0 -0.43330693618304927 0.36743111704715392 0 -0.43835542624755341 0.34993313870202492 0 -0.42135021099862069 0.38550019942329938 0 -0.41811874099875312 0.35722161253245888 0 -0.42135021099862069 0.38550019942329938 0 -0.41811874099875312 0.35722161253245888 0 -0.43330693618304927 0.36743111704715392 0 -0.44039528146883089 0.37985126846070372 0 -0.43330693618304927 0.36743111704715392 0 -0.44831502120148831 0.36464936611728249 0 -0.5 0.40038011321019712 0 -0.47720983477558448 0.36929312295676431 0 -0.5 0.32588146503443682 0 -0.43330693618304927 0.36743111704715392 0 -0.44831502120148831 0.36464936611728249 0 -0.43835542624755341 0.34993313870202492 0 -0.45297946443592813 0.37787116286410599 0 -0.44039528146883089 0.37985126846070372 0 -0.44831502120148831 0.36464936611728249 0 -0.44831502120148831 0.36464936611728249 0 -0.45212261815241361 0.34847541748464589 0 -0.43835542624755341 0.34993313870202492 0 -0.46437519425173218 0.36282754454727217 0 -0.46501012107463818 0.3341434619247271 0 -0.45212261815241361 0.34847541748464589 0 -0.46437519425173218 0.36282754454727217 0 -0.46501012107463818 0.3341434619247271 0 -0.44831502120148831 0.36464936611728249 0 -0.45212261815241361 0.34847541748464589 0 -0.46437519425173218 0.36282754454727217 0 -0.45297946443592813 0.37787116286410599 0 -0.44831502120148831 0.36464936611728249 0 -0.46437519425173218 0.36282754454727217 0 -0.46374026742882618 0.39151162716981691 0 -0.46437519425173218 0.36282754454727217 0 -0.47720983477558448 0.36929312295676431 0 -0.47720983477558448 0.36929312295676431 0 -0.4790839944810813 0.34528126189761021 0 -0.5 0.32588146503443682 0 -0.46437519425173218 0.36282754454727217 0 -0.47720983477558448 0.36929312295676431 0 -0.4790839944810813 0.34528126189761021 0 -0.46437519425173218 0.36282754454727217 0 -0.4790839944810813 0.34528126189761021 0 -0.46501012107463818 0.3341434619247271 0 -0.47720983477558448 0.36929312295676431 0 -0.4790839944810813 0.34528126189761021 0 -0.5 0.32588146503443682 0 -0.48095815418657811 0.32126940083845601 0 -0.48438341280173691 0.2990237851864897 0 -0.4790839944810813 0.34528126189761021 0 -0.5 0.32588146503443682 0 -0.48095815418657811 0.32126940083845601 0 -0.4790839944810813 0.34528126189761021 0 -0.48095815418657811 0.32126940083845601 0 -0.4790839944810813 0.34528126189761021 0 -0.48095815418657811 0.32126940083845601 0 -0.46501012107463818 0.3341434619247271 0 -0.48095815418657811 0.32126940083845601 0 -0.46501012107463818 0.3341434619247271 0 -0.46564504789754418 0.30545937930218209 0 -0.46501012107463818 0.3341434619247271 0 -0.46564504789754418 0.30545937930218209 0 -0.45334860311094782 0.31584311053598302 0 -0.46501012107463818 0.3341434619247271 0 -0.44455732798665581 0.33082357613192309 0 -0.45334860311094782 0.31584311053598302 0 -0.46501012107463818 0.3341434619247271 0 -0.46564504789754418 0.30545937930218209 0 -0.45212261815241361 0.34847541748464589 0 -0.46501012107463818 0.3341434619247271 0 -0.44455732798665581 0.33082357613192309 0 -0.45212261815241361 0.34847541748464589 0 -0.43835542624755341 0.34993313870202492 0 -0.44455732798665581 0.33082357613192309 0 -0.45334860311094782 0.31584311053598302 0 -0.44455732798665581 0.33082357613192309 0 -0.44080014402789969 0.3112135017560464 0 -0.42784370751339318 0.3200782636988328 0 -0.44455732798665581 0.33082357613192309 0 -0.44080014402789969 0.3112135017560464 0 -0.45334860311094782 0.31584311053598302 0 -0.44080014402789969 0.3112135017560464 0 -0.45212090372732222 0.29751224224269018 0 -0.44080014402789969 0.3112135017560464 0 -0.45212090372732222 0.29751224224269018 0 -0.43098419661848369 0.29848737705662681 0 -0.45212090372732222 0.29751224224269018 0 -0.44106680473088589 0.27968718865599468 0 -0.43098419661848369 0.29848737705662681 0 -0.45212090372732222 0.29751224224269018 0 -0.46878861662768212 0.293945894508436 0 -0.46620416538631942 0.27832296974934079 0 -0.45212090372732222 0.29751224224269018 0 -0.46620416538631942 0.27832296974934079 0 -0.44106680473088589 0.27968718865599468 0 -0.45334860311094782 0.31584311053598302 0 -0.45212090372732222 0.29751224224269018 0 -0.46564504789754418 0.30545937930218209 0 -0.45212090372732222 0.29751224224269018 0 -0.46564504789754418 0.30545937930218209 0 -0.46878861662768212 0.293945894508436 0 -0.48095815418657811 0.32126940083845601 0 -0.46564504789754418 0.30545937930218209 0 -0.47422271850004488 0.30257989257828583 0 -0.48095815418657811 0.32126940083845601 0 -0.48283231389207593 0.29725753977930192 0 -0.48095815418657811 0.32126940083845601 0 -0.48283231389207593 0.29725753977930192 0 -0.48438341280173691 0.2990237851864897 0 -0.48095815418657811 0.32126940083845601 0 -0.48283231389207593 0.29725753977930192 0 -0.47422271850004488 0.30257989257828583 0 -0.5 0.32588146503443682 0 -0.48438341280173691 0.2990237851864897 0 -0.5 0.27058277969487637 0 -0.48283231389207593 0.29725753977930192 0 -0.48438341280173691 0.2990237851864897 0 -0.48283231389207593 0.29725753977930192 0 -0.47422271850004488 0.30257989257828583 0 -0.46878861662768212 0.293945894508436 0 -0.46564504789754418 0.30545937930218209 0 -0.47422271850004488 0.30257989257828583 0 -0.46878861662768212 0.293945894508436 0 -0.48283231389207593 0.29725753977930192 0 -0.46620416538631942 0.27832296974934079 0 -0.4832665619079245 0.29169392479429618 0 -0.48272378290968532 0.2745465744653578 0 -0.46620416538631942 0.27832296974934079 0 -0.48283231389207593 0.29725753977930192 0 -0.46878861662768212 0.293945894508436 0 -0.46620416538631942 0.27832296974934079 0 -0.48283231389207593 0.29725753977930192 0 -0.4832665619079245 0.29169392479429618 0 -0.46620416538631942 0.27832296974934079 0 -0.48283231389207593 0.29725753977930192 0 -0.4832665619079245 0.29169392479429618 0 -0.48438341280173691 0.2990237851864897 0 -0.48283231389207593 0.29725753977930192 0 -0.4832665619079245 0.29169392479429618 0 -0.4832665619079245 0.29169392479429618 0 -0.48438341280173691 0.2990237851864897 0 -0.5 0.27058277969487637 0 -0.48510068849613291 0.2464952989699998 0 -0.5 0.27058277969487637 0 -0.47736829551405641 0.25971614189080378 0 -0.4832665619079245 0.29169392479429618 0 -0.5 0.27058277969487637 0 -0.48272378290968532 0.2745465744653578 0 -0.5 0.27058277969487637 0 -0.48272378290968532 0.2745465744653578 0 -0.47736829551405641 0.25971614189080378 0 -0.48272378290968532 0.2745465744653578 0 -0.47736829551405641 0.25971614189080378 0 -0.46620416538631942 0.27832296974934079 0 -0.48510068849613291 0.2464952989699998 0 -0.4662317729600568 0.24711617116125539 0 -0.47736829551405641 0.25971614189080378 0 -0.4662317729600568 0.24711617116125539 0 -0.47736829551405641 0.25971614189080378 0 -0.44957601688056159 0.25938839971938082 0 -0.47736829551405641 0.25971614189080378 0 -0.46620416538631942 0.27832296974934079 0 -0.44957601688056159 0.25938839971938082 0 -0.46620416538631942 0.27832296974934079 0 -0.44957601688056159 0.25938839971938082 0 -0.46620416538631942 0.27832296974934079 0 -0.44106680473088589 0.27968718865599468 0 -0.44957601688056159 0.25938839971938082 0 -0.44106680473088589 0.27968718865599468 0 -0.44957601688056159 0.25938839971938082 0 -0.42702456861835142 0.26373592368695459 0 -0.43294786837480398 0.2404538296894207 0 -0.44957601688056159 0.25938839971938082 0 -0.42702456861835142 0.26373592368695459 0 -0.43294786837480398 0.2404538296894207 0 -0.40570253936436479 0.24856745922560119 0 -0.42702456861835142 0.26373592368695459 0 -0.40570253936436479 0.24856745922560119 0 -0.40876411657587441 0.27535931469760672 0 -0.40570253936436479 0.24856745922560119 0 -0.42702456861835142 0.26373592368695459 0 -0.40876411657587441 0.27535931469760672 0 -0.42702456861835142 0.26373592368695459 0 -0.40876411657587441 0.27535931469760672 0 -0.42393307606619501 0.28388419485335897 0 -0.44106680473088589 0.27968718865599468 0 -0.42702456861835142 0.26373592368695459 0 -0.42393307606619501 0.28388419485335897 0 -0.44106680473088589 0.27968718865599468 0 -0.42393307606619501 0.28388419485335897 0 -0.43098419661848369 0.29848737705662681 0 -0.42393307606619501 0.28388419485335897 0 -0.43098419661848369 0.29848737705662681 0 -0.41182569378737999 0.30215117016961263 0 -0.42784370751339318 0.3200782636988328 0 -0.44080014402789969 0.3112135017560464 0 -0.43098419661848369 0.29848737705662681 0 -0.42784370751339318 0.3200782636988328 0 -0.43098419661848369 0.29848737705662681 0 -0.41182569378737999 0.30215117016961263 0 -0.40876411657587441 0.27535931469760672 0 -0.42393307606619501 0.28388419485335897 0 -0.41182569378737999 0.30215117016961263 0 -0.40876411657587441 0.27535931469760672 0 -0.41182569378737999 0.30215117016961263 0 -0.40876411657587441 0.27535931469760672 0 -0.41182569378737999 0.30215117016961263 0 -0.38942632587964537 0.29641120061531351 0 -0.40876411657587441 0.27535931469760672 0 -0.38942632587964537 0.29641120061531351 0 -0.38778179087320769 0.27529621765694001 0 -0.40019053093036899 0.31727751782089808 0 -0.41182569378737999 0.30215117016961263 0 -0.38942632587964537 0.29641120061531351 0 -0.3809584867257152 0.31995934924364311 0 -0.38942632587964537 0.29641120061531351 0 -0.36990774782730562 0.30465198401604282 0 -0.3809584867257152 0.31995934924364311 0 -0.40019053093036899 0.31727751782089808 0 -0.38942632587964537 0.29641120061531351 0 -0.38942632587964537 0.29641120061531351 0 -0.38778179087320769 0.27529621765694001 0 -0.37124129201382 0.2841753332327091 0 -0.38942632587964537 0.29641120061531351 0 -0.37124129201382 0.2841753332327091 0 -0.36990774782730562 0.30465198401604282 0 -0.38778179087320769 0.27529621765694001 0 -0.37230359566927929 0.26610576231553251 0 -0.37124129201382 0.2841753332327091 0 -0.38778179087320769 0.27529621765694001 0 -0.38900306751682168 0.25733661077056619 0 -0.37230359566927929 0.26610576231553251 0 -0.38900306751682168 0.25733661077056619 0 -0.37230359566927929 0.26610576231553251 0 -0.37675611103540763 0.25409865512553548 0 -0.38900306751682168 0.25733661077056619 0 -0.37230359566927929 0.26610576231553251 0 -0.38455494932564349 0.24416718140159829 0 -0.37675611103540763 0.25409865512553548 0 -0.38900306751682168 0.25733661077056619 0 -0.40570253936436479 0.24856745922560119 0 -0.40876411657587441 0.27535931469760672 0 -0.38900306751682168 0.25733661077056619 0 -0.40570253936436479 0.24856745922560119 0 -0.38900306751682168 0.25733661077056619 0 -0.40876411657587441 0.27535931469760672 0 -0.38778179087320769 0.27529621765694001 0 -0.38900306751682168 0.25733661077056619 0 -0.35344375069401829 0.26830850112922933 0 -0.35479842748912699 0.29354782535411539 0 -0.33783775680192157 0.27023153782616838 0 -0.35344375069401829 0.26830850112922933 0 -0.35479842748912699 0.29354782535411539 0 -0.35926376548055328 0.2486735779402334 0 -0.35208907389890948 0.24306917690434299 0 -0.35344375069401829 0.26830850112922933 0 -0.35208907389890948 0.24306917690434299 0 -0.35344375069401829 0.26830850112922933 0 -0.34142207509263922 0.25572960106260723 0 -0.35208907389890948 0.24306917690434299 0 -0.35344375069401829 0.26830850112922933 0 -0.35344375069401829 0.26830850112922933 0 -0.33783775680192157 0.27023153782616838 0 -0.34142207509263922 0.25572960106260723 0 -0.35344375069401829 0.26830850112922933 0 -0.36723308052532222 0.25309369692869038 0 -0.37230359566927929 0.26610576231553251 0 -0.35926376548055328 0.2486735779402334 0 -0.35344375069401829 0.26830850112922933 0 -0.36723308052532222 0.25309369692869038 0 -0.37552267705158737 0.2431978490864326 0 -0.37675611103540763 0.25409865512553548 0 -0.36723308052532222 0.25309369692869038 0 -0.37675611103540763 0.25409865512553548 0 -0.36723308052532222 0.25309369692869038 0 -0.37230359566927929 0.26610576231553251 0 -0.35344375069401829 0.26830850112922933 0 -0.37230359566927929 0.26610576231553251 0 -0.37124129201382 0.2841753332327091 0 -0.37124129201382 0.2841753332327091 0 -0.36990774782730562 0.30465198401604282 0 -0.35479842748912699 0.29354782535411539 0 -0.35344375069401829 0.26830850112922933 0 -0.37124129201382 0.2841753332327091 0 -0.35479842748912699 0.29354782535411539 0 -0.36990774782730562 0.30465198401604282 0 -0.35479842748912699 0.29354782535411539 0 -0.35615310428423591 0.31878714957900162 0 -0.35479842748912699 0.29354782535411539 0 -0.35615310428423591 0.31878714957900162 0 -0.35479842748912699 0.29354782535411539 0 -0.33790089425573833 0.30106400074382289 0 -0.35615310428423591 0.31878714957900162 0 -0.35479842748912699 0.29354782535411539 0 -0.32994760687178648 0.28429515218691809 0 -0.33783775680192157 0.27023153782616838 0 -0.35479842748912699 0.29354782535411539 0 -0.32994760687178648 0.28429515218691809 0 -0.33790089425573833 0.30106400074382289 0 -0.33790089425573833 0.30106400074382289 0 -0.31376474629655843 0.30225304786416751 0 -0.33257481532433891 0.31836647764434117 0 -0.32994760687178648 0.28429515218691809 0 -0.33790089425573833 0.30106400074382289 0 -0.31376474629655843 0.30225304786416751 0 -0.32994760687178648 0.28429515218691809 0 -0.31376474629655843 0.30225304786416751 0 -0.30745975664346697 0.28108303278283259 0 -0.32994760687178648 0.28429515218691809 0 -0.32025265357816562 0.27050697347699348 0 -0.30745975664346697 0.28108303278283259 0 -0.32994760687178648 0.28429515218691809 0 -0.32025265357816562 0.27050697347699348 0 -0.33783775680192157 0.27023153782616838 0 -0.33783775680192157 0.27023153782616838 0 -0.34142207509263922 0.25572960106260723 0 -0.32493898666941562 0.25370598596143412 0 -0.33787454055877381 0.24529314191448051 0 -0.34142207509263922 0.25572960106260723 0 -0.32493898666941562 0.25370598596143412 0 -0.32025265357816562 0.27050697347699348 0 -0.32493898666941562 0.25370598596143412 0 -0.3017176885818823 0.26220574059556451 0 -0.32025265357816562 0.27050697347699348 0 -0.33783775680192157 0.27023153782616838 0 -0.32493898666941562 0.25370598596143412 0 -0.28392805579818597 0.24584677119781029 0 -0.30659471691689572 0.242716670786389 0 -0.3017176885818823 0.26220574059556451 0 -0.30659471691689572 0.242716670786389 0 -0.32493898666941562 0.25370598596143412 0 -0.3017176885818823 0.26220574059556451 0 -0.32025265357816562 0.27050697347699348 0 -0.3017176885818823 0.26220574059556451 0 -0.30745975664346697 0.28108303278283259 0 -0.3017176885818823 0.26220574059556451 0 -0.30745975664346697 0.28108303278283259 0 -0.28581088023419748 0.27213864639403801 0 -0.28392805579818597 0.24584677119781029 0 -0.3017176885818823 0.26220574059556451 0 -0.28392805579818597 0.24584677119781029 0 -0.3017176885818823 0.26220574059556451 0 -0.28581088023419748 0.27213864639403801 0 -0.28392805579818597 0.24584677119781029 0 -0.28581088023419748 0.27213864639403801 0 -0.26655259030946182 0.26726307071448002 0 -0.28392805579818597 0.24584677119781029 0 -0.26514282027817931 0.24842266601513599 0 -0.26655259030946182 0.26726307071448002 0 -0.28581088023419748 0.27213864639403801 0 -0.26655259030946182 0.26726307071448002 0 -0.26709784128719349 0.28662765883125513 0 -0.26655259030946182 0.26726307071448002 0 -0.26709784128719349 0.28662765883125513 0 -0.24190471242523851 0.27972751922608308 0 -0.26655259030946182 0.26726307071448002 0 -0.24943129659764751 0.26000894523212309 0 -0.24190471242523851 0.27972751922608308 0 -0.26514282027817931 0.24842266601513599 0 -0.26655259030946182 0.26726307071448002 0 -0.24943129659764751 0.26000894523212309 0 -0.26514282027817931 0.24842266601513599 0 -0.24943129659764751 0.26000894523212309 0 -0.2468893326351202 0.24329134098969171 0 -0.25616918259472732 0.30236015827283808 0 -0.26709784128719349 0.28662765883125513 0 -0.24190471242523851 0.27972751922608308 0 -0.28581088023419748 0.27213864639403801 0 -0.26709784128719349 0.28662765883125513 0 -0.29016097772449478 0.2935014559625142 0 -0.26709784128719349 0.28662765883125513 0 -0.27491611994182802 0.30516871221215541 0 -0.29016097772449478 0.2935014559625142 0 -0.25616918259472732 0.30236015827283808 0 -0.27491611994182802 0.30516871221215541 0 -0.27043365276421599 0.32499279731959319 0 -0.25616918259472732 0.30236015827283808 0 -0.26709784128719349 0.28662765883125513 0 -0.27491611994182802 0.30516871221215541 0 -0.27491611994182802 0.30516871221215541 0 -0.29016097772449478 0.2935014559625142 0 -0.29169578744288521 0.31398791816734961 0 -0.30745975664346697 0.28108303278283259 0 -0.28581088023419748 0.27213864639403801 0 -0.29016097772449478 0.2935014559625142 0 -0.31376474629655843 0.30225304786416751 0 -0.30745975664346697 0.28108303278283259 0 -0.29016097772449478 0.2935014559625142 0 -0.31376474629655843 0.30225304786416751 0 -0.29016097772449478 0.2935014559625142 0 -0.29169578744288521 0.31398791816734961 0 -0.31376474629655843 0.30225304786416751 0 -0.31074538478735791 0.32738191455196902 0 -0.29169578744288521 0.31398791816734961 0 -0.31074538478735791 0.32738191455196902 0 -0.29170910681836448 0.3316805874579164 0 -0.29169578744288521 0.31398791816734961 0 -0.31074538478735791 0.32738191455196902 0 -0.30097258616365841 0.34441487088432199 0 -0.31556783578130437 0.34561409599239279 0 -0.31074538478735791 0.32738191455196902 0 -0.29170910681836448 0.3316805874579164 0 -0.30097258616365841 0.34441487088432199 0 -0.29170910681836448 0.3316805874579164 0 -0.28469812293370489 0.34762543636634829 0 -0.30097258616365841 0.34441487088432199 0 -0.29170910681836448 0.3316805874579164 0 -0.27043365276421599 0.32499279731959319 0 -0.28469812293370489 0.34762543636634829 0 -0.29170910681836448 0.3316805874579164 0 -0.29169578744288521 0.31398791816734961 0 -0.27043365276421599 0.32499279731959319 0 -0.27491611994182802 0.30516871221215541 0 -0.29169578744288521 0.31398791816734961 0 -0.27043365276421599 0.32499279731959319 0 -0.27043365276421599 0.32499279731959319 0 -0.26243222306204511 0.35090504016953772 0 -0.28469812293370489 0.34762543636634829 0 -0.27043365276421599 0.32499279731959319 0 -0.28469812293370489 0.34762543636634829 0 -0.27043365276421599 0.32499279731959319 0 -0.25002058798003007 0.3320526588471332 0 -0.26243222306204511 0.35090504016953772 0 -0.25616918259472732 0.30236015827283808 0 -0.27043365276421599 0.32499279731959319 0 -0.25616918259472732 0.30236015827283808 0 -0.27043365276421599 0.32499279731959319 0 -0.25002058798003007 0.3320526588471332 0 -0.25717133997193298 0.37426095615225607 0 -0.26243222306204511 0.35090504016953772 0 -0.27169383631612543 0.36953364855257259 0 -0.25717133997193298 0.37426095615225607 0 -0.26243222306204511 0.35090504016953772 0 -0.24481421723968019 0.36490975255658048 0 -0.27524778858216448 0.35766291394235578 0 -0.28324842690769031 0.36508823660180101 0 -0.28469812293370489 0.34762543636634829 0 -0.26243222306204511 0.35090504016953772 0 -0.27524778858216448 0.35766291394235578 0 -0.27169383631612543 0.36953364855257259 0 -0.26243222306204511 0.35090504016953772 0 -0.27524778858216448 0.35766291394235578 0 -0.28469812293370489 0.34762543636634829 0 -0.27524778858216448 0.35766291394235578 0 -0.27169383631612543 0.36953364855257259 0 -0.28324842690769031 0.36508823660180101 0 -0.27169383631612543 0.36953364855257259 0 -0.28324842690769031 0.36508823660180101 0 -0.28209338532393202 0.38222600668133688 0 -0.28324842690769031 0.36508823660180101 0 -0.28469812293370489 0.34762543636634829 0 -0.29896259310319367 0.37025807541310352 0 -0.28324842690769031 0.36508823660180101 0 -0.29896259310319367 0.37025807541310352 0 -0.28209338532393202 0.38222600668133688 0 -0.28469812293370489 0.34762543636634829 0 -0.29896259310319367 0.37025807541310352 0 -0.28469812293370489 0.34762543636634829 0 -0.30097258616365841 0.34441487088432199 0 -0.29896259310319367 0.37025807541310352 0 -0.30097258616365841 0.34441487088432199 0 -0.30971140611047582 0.35873879640362499 0 -0.29896259310319367 0.37025807541310352 0 -0.30097258616365841 0.34441487088432199 0 -0.29896259310319367 0.37025807541310352 0 -0.30097258616365841 0.34441487088432199 0 -0.30971140611047582 0.35873879640362499 0 -0.31556783578130437 0.34561409599239279 0 -0.30971140611047582 0.35873879640362499 0 -0.29896259310319367 0.37025807541310352 0 -0.31229554397435733 0.37005867265250031 0 -0.29896259310319367 0.37025807541310352 0 -0.31229554397435733 0.37005867265250031 0 -0.30732872976294823 0.38353215772995369 0 -0.31229554397435733 0.37005867265250031 0 -0.32118050234516199 0.36201264788746418 0 -0.32091897818789411 0.37757395005697603 0 -0.30971140611047582 0.35873879640362499 0 -0.31229554397435733 0.37005867265250031 0 -0.32118050234516199 0.36201264788746418 0 -0.32118050234516199 0.36201264788746418 0 -0.33508210951592582 0.36870163953731322 0 -0.32091897818789411 0.37757395005697603 0 -0.33508210951592582 0.36870163953731322 0 -0.35209549523865291 0.37190500391828912 0 -0.33393211710626841 0.38433234248782061 0 -0.32118050234516199 0.36201264788746418 0 -0.33508210951592582 0.36870163953731322 0 -0.33321476088078839 0.35466849371962073 0 -0.33508210951592582 0.36870163953731322 0 -0.33321476088078839 0.35466849371962073 0 -0.34577529297467657 0.36353966338233001 0 -0.33321476088078839 0.35466849371962073 0 -0.34577529297467657 0.36353966338233001 0 -0.34447532111727192 0.34884924989517158 0 -0.33321476088078839 0.35466849371962073 0 -0.33003563329740881 0.33925758124412497 0 -0.34447532111727192 0.34884924989517158 0 -0.32118050234516199 0.36201264788746418 0 -0.33321476088078839 0.35466849371962073 0 -0.31556783578130437 0.34561409599239279 0 -0.30971140611047582 0.35873879640362499 0 -0.32118050234516199 0.36201264788746418 0 -0.31556783578130437 0.34561409599239279 0 -0.33321476088078839 0.35466849371962073 0 -0.31556783578130437 0.34561409599239279 0 -0.33003563329740881 0.33925758124412497 0 -0.31074538478735791 0.32738191455196902 0 -0.33257481532433891 0.31836647764434117 0 -0.33003563329740881 0.33925758124412497 0 -0.31074538478735791 0.32738191455196902 0 -0.31556783578130437 0.34561409599239279 0 -0.33003563329740881 0.33925758124412497 0 -0.31376474629655843 0.30225304786416751 0 -0.31074538478735791 0.32738191455196902 0 -0.33257481532433891 0.31836647764434117 0 -0.33790089425573833 0.30106400074382289 0 -0.33257481532433891 0.31836647764434117 0 -0.35615310428423591 0.31878714957900162 0 -0.33257481532433891 0.31836647764434117 0 -0.33003563329740881 0.33925758124412497 0 -0.34490357793898208 0.33379293979876401 0 -0.33003563329740881 0.33925758124412497 0 -0.34490357793898208 0.33379293979876401 0 -0.34447532111727192 0.34884924989517158 0 -0.34490357793898208 0.33379293979876401 0 -0.34447532111727192 0.34884924989517158 0 -0.35750778107934472 0.34402647380388779 0 -0.35615310428423591 0.31878714957900162 0 -0.35750778107934472 0.34402647380388779 0 -0.34490357793898208 0.33379293979876401 0 -0.35615310428423591 0.31878714957900162 0 -0.35750778107934472 0.34402647380388779 0 -0.33257481532433891 0.31836647764434117 0 -0.34490357793898208 0.33379293979876401 0 -0.35615310428423591 0.31878714957900162 0 -0.3809584867257152 0.31995934924364311 0 -0.36990774782730562 0.30465198401604282 0 -0.35615310428423591 0.31878714957900162 0 -0.37563375498023588 0.33893957100260502 0 -0.3809584867257152 0.31995934924364311 0 -0.35615310428423591 0.31878714957900162 0 -0.37563375498023588 0.33893957100260502 0 -0.35615310428423591 0.31878714957900162 0 -0.35750778107934472 0.34402647380388779 0 -0.37563375498023588 0.33893957100260502 0 -0.37302608715873109 0.35758434449273291 0 -0.35750778107934472 0.34402647380388779 0 -0.37302608715873109 0.35758434449273291 0 -0.35750778107934472 0.34402647380388779 0 -0.35541488053243109 0.35781034742230239 0 -0.37302608715873109 0.35758434449273291 0 -0.35209549523865291 0.37190500391828912 0 -0.35541488053243109 0.35781034742230239 0 -0.37302608715873109 0.35758434449273291 0 -0.37126589511329411 0.37377724987418581 0 -0.35209549523865291 0.37190500391828912 0 -0.37302608715873109 0.35758434449273291 0 -0.35209549523865291 0.37190500391828912 0 -0.33508210951592582 0.36870163953731322 0 -0.35209549523865291 0.37190500391828912 0 -0.34577529297467657 0.36353966338233001 0 -0.35209549523865291 0.37190500391828912 0 -0.34577529297467657 0.36353966338233001 0 -0.35209549523865291 0.37190500391828912 0 -0.34577529297467657 0.36353966338233001 0 -0.35541488053243109 0.35781034742230239 0 -0.34577529297467657 0.36353966338233001 0 -0.34447532111727192 0.34884924989517158 0 -0.35541488053243109 0.35781034742230239 0 -0.34447532111727192 0.34884924989517158 0 -0.35750778107934472 0.34402647380388779 0 -0.35541488053243109 0.35781034742230239 0 -0.35026082972236822 0.40458613969335172 0 -0.34862050747833878 0.38874946299455448 0 -0.33552343261133938 0.40009846525415782 0 -0.35026082972236822 0.40458613969335172 0 -0.34862050747833878 0.38874946299455448 0 -0.36671596826568531 0.39125647884893172 0 -0.35209549523865291 0.37190500391828912 0 -0.34862050747833878 0.38874946299455448 0 -0.33393211710626841 0.38433234248782061 0 -0.35209549523865291 0.37190500391828912 0 -0.34862050747833878 0.38874946299455448 0 -0.36671596826568531 0.39125647884893172 0 -0.35209549523865291 0.37190500391828912 0 -0.36671596826568531 0.39125647884893172 0 -0.37126589511329411 0.37377724987418581 0 -0.35209549523865291 0.37190500391828912 0 -0.36671596826568531 0.39125647884893172 0 -0.38133644129271771 0.41060795377957438 0 -0.36671596826568531 0.39125647884893172 0 -0.35026082972236822 0.40458613969335172 0 -0.36671596826568531 0.39125647884893172 0 -0.36333227490387549 0.41594406858258898 0 -0.38133644129271771 0.41060795377957438 0 -0.36671596826568531 0.39125647884893172 0 -0.36333227490387549 0.41594406858258898 0 -0.38133644129271771 0.41060795377957438 0 -0.36333227490387549 0.41594406858258898 0 -0.37388199021079188 0.43349662060099697 0 -0.36333227490387549 0.41594406858258898 0 -0.37388199021079188 0.43349662060099697 0 -0.35906691460358248 0.43302642702751659 0 -0.36333227490387549 0.41594406858258898 0 -0.35906691460358248 0.43302642702751659 0 -0.35160825139420282 0.41805423523185442 0 -0.35906691460358248 0.43302642702751659 0 -0.34586475289765162 0.42738691828786168 0 -0.34964894770477822 0.45067928662270329 0 -0.35906691460358248 0.43302642702751659 0 -0.34586475289765162 0.42738691828786168 0 -0.35160825139420282 0.41805423523185442 0 -0.35026082972236822 0.40458613969335172 0 -0.36333227490387549 0.41594406858258898 0 -0.35160825139420282 0.41805423523185442 0 -0.34586475289765162 0.42738691828786168 0 -0.35160825139420282 0.41805423523185442 0 -0.33955069738530769 0.4144169953609998 0 -0.35026082972236822 0.40458613969335172 0 -0.35160825139420282 0.41805423523185442 0 -0.33955069738530769 0.4144169953609998 0 -0.35026082972236822 0.40458613969335172 0 -0.33955069738530769 0.4144169953609998 0 -0.33552343261133938 0.40009846525415782 0 -0.33446828868340289 0.42659298183602629 0 -0.325081577553051 0.41169961094141633 0 -0.33955069738530769 0.4144169953609998 0 -0.33446828868340289 0.42659298183602629 0 -0.325081577553051 0.41169961094141633 0 -0.33955069738530769 0.4144169953609998 0 -0.325081577553051 0.41169961094141633 0 -0.33552343261133938 0.40009846525415782 0 -0.33446828868340289 0.42659298183602629 0 -0.32353211865850812 0.43458959004027897 0 -0.33054677899099522 0.44587833955602901 0 -0.34586475289765162 0.42738691828786168 0 -0.33446828868340289 0.42659298183602629 0 -0.34964894770477822 0.45067928662270329 0 -0.34586475289765162 0.42738691828786168 0 -0.33446828868340289 0.42659298183602629 0 -0.34586475289765162 0.42738691828786168 0 -0.33955069738530769 0.4144169953609998 0 -0.33446828868340289 0.42659298183602629 0 -0.33446828868340289 0.42659298183602629 0 -0.31463215430362917 0.42521109444957261 0 -0.33446828868340289 0.42659298183602629 0 -0.31463215430362917 0.42521109444957261 0 -0.32353211865850812 0.43458959004027897 0 -0.31463215430362917 0.42521109444957261 0 -0.32353211865850812 0.43458959004027897 0 -0.30632691414132052 0.4383163993433048 0 -0.325081577553051 0.41169961094141633 0 -0.31576873897388319 0.39675968105735149 0 -0.30808160252936673 0.4121977433748496 0 -0.31463215430362917 0.42521109444957261 0 -0.325081577553051 0.41169961094141633 0 -0.30808160252936673 0.4121977433748496 0 -0.33446828868340289 0.42659298183602629 0 -0.31463215430362917 0.42521109444957261 0 -0.325081577553051 0.41169961094141633 0 -0.325081577553051 0.41169961094141633 0 -0.31576873897388319 0.39675968105735149 0 -0.33552343261133938 0.40009846525415782 0 -0.325081577553051 0.41169961094141633 0 -0.31576873897388319 0.39675968105735149 0 -0.34862050747833878 0.38874946299455448 0 -0.33552343261133938 0.40009846525415782 0 -0.33393211710626841 0.38433234248782061 0 -0.31576873897388319 0.39675968105735149 0 -0.33552343261133938 0.40009846525415782 0 -0.33393211710626841 0.38433234248782061 0 -0.35209549523865291 0.37190500391828912 0 -0.33393211710626841 0.38433234248782061 0 -0.33508210951592582 0.36870163953731322 0 -0.33393211710626841 0.38433234248782061 0 -0.32091897818789411 0.37757395005697603 0 -0.31576873897388319 0.39675968105735149 0 -0.32091897818789411 0.37757395005697603 0 -0.30732872976294823 0.38353215772995369 0 -0.31576873897388319 0.39675968105735149 0 -0.33393211710626841 0.38433234248782061 0 -0.31576873897388319 0.39675968105735149 0 -0.33393211710626841 0.38433234248782061 0 -0.32091897818789411 0.37757395005697603 0 -0.31229554397435733 0.37005867265250031 0 -0.32091897818789411 0.37757395005697603 0 -0.30732872976294823 0.38353215772995369 0 -0.29896259310319367 0.37025807541310352 0 -0.30732872976294823 0.38353215772995369 0 -0.29700674132229032 0.39540516601558717 0 -0.29896259310319367 0.37025807541310352 0 -0.29700674132229032 0.39540516601558717 0 -0.31576873897388319 0.39675968105735149 0 -0.30732872976294823 0.38353215772995369 0 -0.29896259310319367 0.37025807541310352 0 -0.30732872976294823 0.38353215772995369 0 -0.29700674132229032 0.39540516601558717 0 -0.30259284054109448 0.40478096048040529 0 -0.29641605771867308 0.41403951143914192 0 -0.31576873897388319 0.39675968105735149 0 -0.29700674132229032 0.39540516601558717 0 -0.30259284054109448 0.40478096048040529 0 -0.31576873897388319 0.39675968105735149 0 -0.30732872976294823 0.38353215772995369 0 -0.29700674132229032 0.39540516601558717 0 -0.31576873897388319 0.39675968105735149 0 -0.30259284054109448 0.40478096048040529 0 -0.30808160252936673 0.4121977433748496 0 -0.29700674132229032 0.39540516601558717 0 -0.28209338532393202 0.38222600668133688 0 -0.27839968129949771 0.4031848713431353 0 -0.29896259310319367 0.37025807541310352 0 -0.29700674132229032 0.39540516601558717 0 -0.28209338532393202 0.38222600668133688 0 -0.27169383631612543 0.36953364855257259 0 -0.28209338532393202 0.38222600668133688 0 -0.26324903299479457 0.38988604216182182 0 -0.27839968129949771 0.4031848713431353 0 -0.26324903299479457 0.38988604216182182 0 -0.26044543261494202 0.40722350202507612 0 -0.28209338532393202 0.38222600668133688 0 -0.27839968129949771 0.4031848713431353 0 -0.26324903299479457 0.38988604216182182 0 -0.26324903299479457 0.38988604216182182 0 -0.26044543261494202 0.40722350202507612 0 -0.24448809762487089 0.40050868906775772 0 -0.25717133997193298 0.37426095615225607 0 -0.26324903299479457 0.38988604216182182 0 -0.24074374520667241 0.38242687998337299 0 -0.25717133997193298 0.37426095615225607 0 -0.27169383631612543 0.36953364855257259 0 -0.26324903299479457 0.38988604216182182 0 -0.25382358621835049 0.43542260228310259 0 -0.27015352040741047 0.42211248350195679 0 -0.2459368307481366 0.42042542405070832 0 -0.27015352040741047 0.42211248350195679 0 -0.2459368307481366 0.42042542405070832 0 -0.26044543261494202 0.40722350202507612 0 -0.2459368307481366 0.42042542405070832 0 -0.24448809762487089 0.40050868906775772 0 -0.26044543261494202 0.40722350202507612 0 -0.27015352040741047 0.42211248350195679 0 -0.2459368307481366 0.42042542405070832 0 -0.27839968129949771 0.4031848713431353 0 -0.26044543261494202 0.40722350202507612 0 -0.27015352040741047 0.42211248350195679 0 -0.27839968129949771 0.4031848713431353 0 -0.27015352040741047 0.42211248350195679 0 -0.2950508895413867 0.42055225661807089 0 -0.25382358621835049 0.43542260228310259 0 -0.27015352040741047 0.42211248350195679 0 -0.27451598641054692 0.44016370142941202 0 -0.27015352040741047 0.42211248350195679 0 -0.28251112199335982 0.43211478794536817 0 -0.27451598641054692 0.44016370142941202 0 -0.28251112199335982 0.43211478794536817 0 -0.29479601992385501 0.42382920706312738 0 -0.29069111349206073 0.44135124015641658 0 -0.29479601992385501 0.42382920706312738 0 -0.29069111349206073 0.44135124015641658 0 -0.27015352040741047 0.42211248350195679 0 -0.28251112199335982 0.43211478794536817 0 -0.29479601992385501 0.42382920706312738 0 -0.27015352040741047 0.42211248350195679 0 -0.29479601992385501 0.42382920706312738 0 -0.27015352040741047 0.42211248350195679 0 -0.29479601992385501 0.42382920706312738 0 -0.2950508895413867 0.42055225661807089 0 -0.29479601992385501 0.42382920706312738 0 -0.2950508895413867 0.42055225661807089 0 -0.29700674132229032 0.39540516601558717 0 -0.2950508895413867 0.42055225661807089 0 -0.29641605771867308 0.41403951143914192 0 -0.29700674132229032 0.39540516601558717 0 -0.27839968129949771 0.4031848713431353 0 -0.2950508895413867 0.42055225661807089 0 -0.29700674132229032 0.39540516601558717 0 -0.2950508895413867 0.42055225661807089 0 -0.2950508895413867 0.42055225661807089 0 -0.29641605771867308 0.41403951143914192 0 -0.31463215430362917 0.42521109444957261 0 -0.2950508895413867 0.42055225661807089 0 -0.30808160252936673 0.4121977433748496 0 -0.30259284054109448 0.40478096048040529 0 -0.29641605771867308 0.41403951143914192 0 -0.30808160252936673 0.4121977433748496 0 -0.2950508895413867 0.42055225661807089 0 -0.29641605771867308 0.41403951143914192 0 -0.30808160252936673 0.4121977433748496 0 -0.31463215430362917 0.42521109444957261 0 -0.29479601992385501 0.42382920706312738 0 -0.2950508895413867 0.42055225661807089 0 -0.31463215430362917 0.42521109444957261 0 -0.29479601992385501 0.42382920706312738 0 -0.30632691414132052 0.4383163993433048 0 -0.29479601992385501 0.42382920706312738 0 -0.30632691414132052 0.4383163993433048 0 -0.29069111349206073 0.44135124015641658 0 -0.31463215430362917 0.42521109444957261 0 -0.29479601992385501 0.42382920706312738 0 -0.30632691414132052 0.4383163993433048 0 -0.3106014077299023 0.45452137664490028 0 -0.31918078655937843 0.44538174228416588 0 -0.30632691414132052 0.4383163993433048 0 -0.29796494780926752 0.45236230629258078 0 -0.3106014077299023 0.45452137664490028 0 -0.30632691414132052 0.4383163993433048 0 -0.29796494780926752 0.45236230629258078 0 -0.29069111349206073 0.44135124015641658 0 -0.3106014077299023 0.45452137664490028 0 -0.30192672627001949 0.46374394226332799 0 -0.31684143562260331 0.46858494716702748 0 -0.30192672627001949 0.46374394226332799 0 -0.31684143562260331 0.46858494716702748 0 -0.29796494780926752 0.45236230629258078 0 -0.3106014077299023 0.45452137664490028 0 -0.30192672627001949 0.46374394226332799 0 -0.28701201691743577 0.45890293735962839 0 -0.28352738281579593 0.4755269213664215 0 -0.30192672627001949 0.46374394226332799 0 -0.28701201691743577 0.45890293735962839 0 -0.30030559437380339 0.47420586516231239 0 -0.30192672627001949 0.46374394226332799 0 -0.28701201691743577 0.45890293735962839 0 -0.29796494780926752 0.45236230629258078 0 -0.30192672627001949 0.46374394226332799 0 -0.28701201691743577 0.45890293735962839 0 -0.28701201691743577 0.45890293735962839 0 -0.29069111349206073 0.44135124015641658 0 -0.28701201691743577 0.45890293735962839 0 -0.29069111349206073 0.44135124015641658 0 -0.27451598641054692 0.44016370142941202 0 -0.29796494780926752 0.45236230629258078 0 -0.28701201691743577 0.45890293735962839 0 -0.29069111349206073 0.44135124015641658 0 -0.28251112199335982 0.43211478794536817 0 -0.29069111349206073 0.44135124015641658 0 -0.27451598641054692 0.44016370142941202 0 -0.28701201691743577 0.45890293735962839 0 -0.27451598641054692 0.44016370142941202 0 -0.2629045594346644 0.45107815732999917 0 -0.28701201691743577 0.45890293735962839 0 -0.2629045594346644 0.45107815732999917 0 -0.28701201691743577 0.45890293735962839 0 -0.27023974482395158 0.46466667776273851 0 -0.28352738281579593 0.4755269213664215 0 -0.28701201691743577 0.45890293735962839 0 -0.27023974482395158 0.46466667776273851 0 -0.2629045594346644 0.45107815732999917 0 -0.27023974482395158 0.46466667776273851 0 -0.2629045594346644 0.45107815732999917 0 -0.2489120775907421 0.45611132706247232 0 -0.27023974482395158 0.46466667776273851 0 -0.24576275637927339 0.47027392540463459 0 -0.2489120775907421 0.45611132706247232 0 -0.25382358621835049 0.43542260228310259 0 -0.2629045594346644 0.45107815732999917 0 -0.2387971019518931 0.44325337730036979 0 -0.2629045594346644 0.45107815732999917 0 -0.2387971019518931 0.44325337730036979 0 -0.2629045594346644 0.45107815732999917 0 -0.2387971019518931 0.44325337730036979 0 -0.2489120775907421 0.45611132706247232 0 -0.25382358621835049 0.43542260228310259 0 -0.27451598641054692 0.44016370142941202 0 -0.2629045594346644 0.45107815732999917 0 -0.26267046183496029 0.5 0 -0.26550391405888962 0.48189416376756322 0 -0.24740973726578031 0.48747235416832729 0 -0.26550391405888962 0.48189416376756322 0 -0.24576275637927339 0.47027392540463459 0 -0.24740973726578031 0.48747235416832729 0 -0.27023974482395158 0.46466667776273851 0 -0.26550391405888962 0.48189416376756322 0 -0.24576275637927339 0.47027392540463459 0 -0.27023974482395158 0.46466667776273851 0 -0.26550391405888962 0.48189416376756322 0 -0.28352738281579593 0.4755269213664215 0 -0.26550391405888962 0.48189416376756322 0 -0.28004274871415491 0.49215090537321432 0 -0.28352738281579593 0.4755269213664215 0 -0.26267046183496029 0.5 0 -0.26550391405888962 0.48189416376756322 0 -0.28004274871415491 0.49215090537321432 0 -0.26267046183496029 0.5 0 -0.28004274871415491 0.49215090537321432 0 -0.28977137280097909 0.5 0 -0.28004274871415491 0.49215090537321432 0 -0.29422506909847679 0.48481709335143458 0 -0.28977137280097909 0.5 0 -0.29422506909847679 0.48481709335143458 0 -0.28977137280097909 0.5 0 -0.30059562840125281 0.49523014277448563 0 -0.29422506909847679 0.48481709335143458 0 -0.28352738281579593 0.4755269213664215 0 -0.30030559437380339 0.47420586516231239 0 -0.28004274871415491 0.49215090537321432 0 -0.29422506909847679 0.48481709335143458 0 -0.28352738281579593 0.4755269213664215 0 -0.28701201691743577 0.45890293735962839 0 -0.28352738281579593 0.4755269213664215 0 -0.30030559437380339 0.47420586516231239 0 -0.28004274871415491 0.49215090537321432 0 -0.28352738281579593 0.4755269213664215 0 -0.30192672627001949 0.46374394226332799 0 -0.30030559437380339 0.47420586516231239 0 -0.31684143562260331 0.46858494716702748 0 -0.30030559437380339 0.47420586516231239 0 -0.3087338265938282 0.48140676030859753 0 -0.31684143562260331 0.46858494716702748 0 -0.29422506909847679 0.48481709335143458 0 -0.30030559437380339 0.47420586516231239 0 -0.3087338265938282 0.48140676030859753 0 -0.28977137280097909 0.5 0 -0.30059562840125281 0.49523014277448563 0 -0.31687228376699761 0.5 0 -0.3087338265938282 0.48140676030859753 0 -0.30059562840125281 0.49523014277448563 0 -0.32200695450955369 0.48840862565278359 0 -0.30059562840125281 0.49523014277448563 0 -0.32200695450955369 0.48840862565278359 0 -0.29422506909847679 0.48481709335143458 0 -0.3087338265938282 0.48140676030859753 0 -0.30059562840125281 0.49523014277448563 0 -0.30059562840125281 0.49523014277448563 0 -0.31687228376699761 0.5 0 -0.32200695450955369 0.48840862565278359 0 -0.31687228376699761 0.5 0 -0.32200695450955369 0.48840862565278359 0 -0.33307541777069588 0.49179723018598798 0 -0.32200695450955369 0.48840862565278359 0 -0.34341828061785462 0.48158710853108161 0 -0.32200695450955369 0.48840862565278359 0 -0.33307541777069588 0.49179723018598798 0 -0.34341828061785462 0.48158710853108161 0 -0.33307541777069588 0.49179723018598798 0 -0.34341828061785462 0.48158710853108161 0 -0.34397319473301619 0.5 0 -0.31687228376699761 0.5 0 -0.33307541777069588 0.49179723018598798 0 -0.34397319473301619 0.5 0 -0.32200695450955369 0.48840862565278359 0 -0.34341828061785462 0.48158710853108161 0 -0.32987443399239552 0.47516769423785971 0 -0.34341828061785462 0.48158710853108161 0 -0.32987443399239552 0.47516769423785971 0 -0.34602126269748001 0.46829680282094799 0 -0.32987443399239552 0.47516769423785971 0 -0.31870391104731738 0.47862303310617538 0 -0.31684143562260331 0.46858494716702748 0 -0.32200695450955369 0.48840862565278359 0 -0.32987443399239552 0.47516769423785971 0 -0.31870391104731738 0.47862303310617538 0 -0.3087338265938282 0.48140676030859753 0 -0.32200695450955369 0.48840862565278359 0 -0.31870391104731738 0.47862303310617538 0 -0.3087338265938282 0.48140676030859753 0 -0.31870391104731738 0.47862303310617538 0 -0.31684143562260331 0.46858494716702748 0 -0.31684143562260331 0.46858494716702748 0 -0.32297313966047753 0.4563916054492167 0 -0.33347739267942988 0.46163483110378051 0 -0.32987443399239552 0.47516769423785971 0 -0.31684143562260331 0.46858494716702748 0 -0.33347739267942988 0.46163483110378051 0 -0.3106014077299023 0.45452137664490028 0 -0.31684143562260331 0.46858494716702748 0 -0.32297313966047753 0.4563916054492167 0 -0.32353211865850812 0.43458959004027897 0 -0.30632691414132052 0.4383163993433048 0 -0.31918078655937843 0.44538174228416588 0 -0.3106014077299023 0.45452137664490028 0 -0.32297313966047753 0.4563916054492167 0 -0.31918078655937843 0.44538174228416588 0 -0.32297313966047753 0.4563916054492167 0 -0.31918078655937843 0.44538174228416588 0 -0.33054677899099522 0.44587833955602901 0 -0.32353211865850812 0.43458959004027897 0 -0.31918078655937843 0.44538174228416588 0 -0.33054677899099522 0.44587833955602901 0 -0.33054677899099522 0.44587833955602901 0 -0.33347739267942988 0.46163483110378051 0 -0.34964894770477822 0.45067928662270329 0 -0.33446828868340289 0.42659298183602629 0 -0.34964894770477822 0.45067928662270329 0 -0.33446828868340289 0.42659298183602629 0 -0.33054677899099522 0.44587833955602901 0 -0.34964894770477822 0.45067928662270329 0 -0.32297313966047753 0.4563916054492167 0 -0.33054677899099522 0.44587833955602901 0 -0.33347739267942988 0.46163483110378051 0 -0.33347739267942988 0.46163483110378051 0 -0.34602126269748001 0.46829680282094799 0 -0.34964894770477822 0.45067928662270329 0 -0.32987443399239552 0.47516769423785971 0 -0.33347739267942988 0.46163483110378051 0 -0.34602126269748001 0.46829680282094799 0 -0.34964894770477822 0.45067928662270329 0 -0.36482960672615539 0.47476559140937902 0 -0.34602126269748001 0.46829680282094799 0 -0.34964894770477822 0.45067928662270329 0 -0.36482960672615539 0.47476559140937902 0 -0.37388199021079188 0.43349662060099697 0 -0.35906691460358248 0.43302642702751659 0 -0.37006527051019528 0.45259743283909409 0 -0.35906691460358248 0.43302642702751659 0 -0.34964894770477822 0.45067928662270329 0 -0.37006527051019528 0.45259743283909409 0 -0.34964894770477822 0.45067928662270329 0 -0.37006527051019528 0.45259743283909409 0 -0.36482960672615539 0.47476559140937902 0 -0.39197467039505129 0.46611734068214988 0 -0.36580706476392733 0.47631646954851292 0 -0.36482960672615539 0.47476559140937902 0 -0.38413367002432852 0.48466820949397371 0 -0.36580706476392733 0.47631646954851292 0 -0.36922226322768142 0.48798439540463678 0 -0.36580706476392733 0.47631646954851292 0 -0.36482960672615539 0.47476559140937902 0 -0.36580706476392733 0.47631646954851292 0 -0.36011621247549508 0.48220740160321018 0 -0.36922226322768142 0.48798439540463678 0 -0.36580706476392733 0.47631646954851292 0 -0.36482960672615539 0.47476559140937902 0 -0.36011621247549508 0.48220740160321018 0 -0.38413367002432852 0.48466820949397371 0 -0.36922226322768142 0.48798439540463678 0 -0.37107410569903487 0.5 0 -0.36922226322768142 0.48798439540463678 0 -0.37107410569903487 0.5 0 -0.35730384704185653 0.49038344312244059 0 -0.36011621247549508 0.48220740160321018 0 -0.36922226322768142 0.48798439540463678 0 -0.35730384704185653 0.49038344312244059 0 -0.34341828061785462 0.48158710853108161 0 -0.36011621247549508 0.48220740160321018 0 -0.35730384704185653 0.49038344312244059 0 -0.37107410569903487 0.5 0 -0.35730384704185653 0.49038344312244059 0 -0.34397319473301619 0.5 0 -0.34341828061785462 0.48158710853108161 0 -0.35730384704185653 0.49038344312244059 0 -0.34397319473301619 0.5 0 -0.34341828061785462 0.48158710853108161 0 -0.36482960672615539 0.47476559140937902 0 -0.36011621247549508 0.48220740160321018 0 -0.34341828061785462 0.48158710853108161 0 -0.34602126269748001 0.46829680282094799 0 -0.36482960672615539 0.47476559140937902 0 -0.34341828061785462 0.48158710853108161 0 -0.36482960672615539 0.47476559140937902 0 -0.14108182703901029 0.47856052106912539 0 -0.15218575011213231 0.48928026053456308 0 -0.15838645381207381 0.47784012782054008 0 -0.14108182703901029 0.47856052106912539 0 -0.15141758041572639 0.46790752156545012 0 -0.15838645381207381 0.47784012782054008 0 -0.14108182703901029 0.47856052106912539 0 -0.15218575011213231 0.48928026053456308 0 -0.14103512141071931 0.48261116844817892 0 -0.14108182703901029 0.47856052106912539 0 -0.15218575011213231 0.48928026053456308 0 -0.14103512141071931 0.48261116844817892 0 -0.14108182703901029 0.47856052106912539 0 -0.15218575011213231 0.48928026053456308 0 -0.14247376316698551 0.5 0 -0.1632896731852537 0.50000000000000155 0 -0.15218575011213231 0.48928026053456308 0 -0.14247376316698551 0.5 0 -0.14194011071192181 0.49099964735320722 0 -0.14103512141071931 0.48261116844817892 0 -0.15218575011213231 0.48928026053456308 0 -0.14194011071192181 0.49099964735320722 0 -0.14247376316698551 0.5 0 -0.13206580815784999 0.49210716043008701 0 -0.1216578531487173 0.50000000000000155 0 -0.13206580815784999 0.49210716043008701 0 -0.1215246548466888 0.48036061179670092 0 -0.1216578531487173 0.50000000000000155 0 -0.14103512141071931 0.48261116844817892 0 -0.13206580815784999 0.49210716043008701 0 -0.1215246548466888 0.48036061179670092 0 -0.14103512141071931 0.48261116844817892 0 -0.14194011071192181 0.49099964735320722 0 -0.13206580815784999 0.49210716043008701 0 -0.14247376316698551 0.5 0 -0.14194011071192181 0.49099964735320722 0 -0.13206580815784999 0.49210716043008701 0 -0.14103512141071931 0.48261116844817892 0 -0.14108182703901029 0.47856052106912539 0 -0.1215246548466888 0.48036061179670092 0 -0.14108182703901029 0.47856052106912539 0 -0.11987972175203609 0.45809198546251739 0 -0.1215246548466888 0.48036061179670092 0 -0.14108182703901029 0.47856052106912539 0 -0.14131813266979709 0.45806640035822538 0 -0.11987972175203609 0.45809198546251739 0 -0.14108182703901029 0.47856052106912539 0 -0.11987972175203609 0.45809198546251739 0 -0.12509104342100061 0.44188941827772182 0 -0.14131813266979709 0.45806640035822538 0 -0.11987972175203609 0.45809198546251739 0 -0.12509104342100061 0.44188941827772182 0 -0.14155443830058789 0.43757227964732542 0 -0.14131813266979709 0.45806640035822538 0 -0.14155443830058789 0.43757227964732542 0 -0.1590732886589914 0.44456462379371309 0 -0.14157918638415079 0.43542594817740249 0 -0.1590732886589914 0.44456462379371309 0 -0.1665175895587078 0.4467511244817659 0 -0.14157918638415079 0.43542594817740249 0 -0.1665175895587078 0.4467511244817659 0 -0.15486041744653839 0.43233395996053492 0 -0.14157918638415079 0.43542594817740249 0 -0.14155443830058789 0.43757227964732542 0 -0.14890115189103559 0.44846787442591368 0 -0.1590732886589914 0.44456462379371309 0 -0.1665175895587078 0.4467511244817659 0 -0.14157918638415079 0.43542594817740249 0 -0.14155443830058789 0.43757227964732542 0 -0.14890115189103559 0.44846787442591368 0 -0.14131813266979709 0.45806640035822538 0 -0.14155443830058789 0.43757227964732542 0 -0.1590732886589914 0.44456462379371309 0 -0.14155443830058789 0.43757227964732542 0 -0.14131813266979709 0.45806640035822538 0 -0.14890115189103559 0.44846787442591368 0 -0.15489186999573309 0.45643812449532861 0 -0.1590732886589914 0.44456462379371309 0 -0.14108182703901029 0.47856052106912539 0 -0.14131813266979709 0.45806640035822538 0 -0.14108182703901029 0.47856052106912539 0 -0.14131813266979709 0.45806640035822538 0 -0.15141758041572639 0.46790752156545012 0 -0.14890115189103559 0.44846787442591368 0 -0.14131813266979709 0.45806640035822538 0 -0.15489186999573309 0.45643812449532861 0 -0.14131813266979709 0.45806640035822538 0 -0.15489186999573309 0.45643812449532861 0 -0.15141758041572639 0.46790752156545012 0 -0.15489186999573309 0.45643812449532861 0 -0.15141758041572639 0.46790752156545012 0 -0.1637083375647361 0.46571847743475431 0 -0.15489186999573309 0.45643812449532861 0 -0.1637083375647361 0.46571847743475431 0 -0.16576602081972819 0.45650349861697093 0 -0.1637083375647361 0.46571847743475431 0 -0.1745644688617857 0.46423929942095737 0 -0.17520348646433229 0.47613194070040032 0 -0.1637083375647361 0.46571847743475431 0 -0.16576602081972819 0.45650349861697093 0 -0.1745644688617857 0.46423929942095737 0 -0.1590732886589914 0.44456462379371309 0 -0.17659213901739471 0.45155696794010108 0 -0.1590732886589914 0.44456462379371309 0 -0.1665175895587078 0.4467511244817659 0 -0.17659213901739471 0.45155696794010108 0 -0.16576602081972819 0.45650349861697093 0 -0.1590732886589914 0.44456462379371309 0 -0.17659213901739471 0.45155696794010108 0 -0.1665175895587078 0.4467511244817659 0 -0.1659354897241099 0.43449929542802312 0 -0.15486041744653839 0.43233395996053492 0 -0.15489186999573309 0.45643812449532861 0 -0.16576602081972819 0.45650349861697093 0 -0.1590732886589914 0.44456462379371309 0 -0.1665175895587078 0.4467511244817659 0 -0.1740586998674569 0.43899754936367941 0 -0.1659354897241099 0.43449929542802312 0 -0.1740586998674569 0.43899754936367941 0 -0.17659213901739471 0.45155696794010108 0 -0.1868590329817707 0.43357197228301869 0 -0.1665175895587078 0.4467511244817659 0 -0.1740586998674569 0.43899754936367941 0 -0.17659213901739471 0.45155696794010108 0 -0.1745644688617857 0.46423929942095737 0 -0.18738907724301901 0.4651958722260251 0 -0.17520348646433229 0.47613194070040032 0 -0.17659213901739471 0.45155696794010108 0 -0.1745644688617857 0.46423929942095737 0 -0.18738907724301901 0.4651958722260251 0 -0.16576602081972819 0.45650349861697093 0 -0.17659213901739471 0.45155696794010108 0 -0.1745644688617857 0.46423929942095737 0 -0.17520348646433229 0.47613194070040032 0 -0.17737148462513211 0.4885994124146576 0 -0.1949767913905355 0.48049775525153071 0 -0.18738907724301901 0.4651958722260251 0 -0.17520348646433229 0.47613194070040032 0 -0.1949767913905355 0.48049775525153071 0 -0.17520348646433229 0.47613194070040032 0 -0.1660045063390565 0.48636736612135473 0 -0.17737148462513211 0.4885994124146576 0 -0.17520348646433229 0.47613194070040032 0 -0.15838645381207381 0.47784012782054008 0 -0.1660045063390565 0.48636736612135473 0 -0.1637083375647361 0.46571847743475431 0 -0.17520348646433229 0.47613194070040032 0 -0.15838645381207381 0.47784012782054008 0 -0.15141758041572639 0.46790752156545012 0 -0.1637083375647361 0.46571847743475431 0 -0.15838645381207381 0.47784012782054008 0 -0.15218575011213231 0.48928026053456308 0 -0.1632896731852537 0.50000000000000155 0 -0.15218575011213231 0.48928026053456308 0 -0.15838645381207381 0.47784012782054008 0 -0.1660045063390565 0.48636736612135473 0 -0.15218575011213231 0.48928026053456308 0 -0.1632896731852537 0.50000000000000155 0 -0.1660045063390565 0.48636736612135473 0 -0.1632896731852537 0.50000000000000155 0 -0.1660045063390565 0.48636736612135473 0 -0.17737148462513211 0.4885994124146576 0 -0.1632896731852537 0.50000000000000155 0 -0.18738296574648311 0.5 0 -0.17737148462513211 0.4885994124146576 0 -0.18738296574648311 0.5 0 -0.17737148462513211 0.4885994124146576 0 -0.1949767913905355 0.48049775525153071 0 -0.18738296574648311 0.5 0 -0.1949767913905355 0.48049775525153071 0 -0.21147625830771241 0.5 0 -0.1949767913905355 0.48049775525153071 0 -0.2193327115732171 0.47785732409434201 0 -0.2030958722774939 0.45571464818868052 0 -0.1949767913905355 0.48049775525153071 0 -0.21147625830771241 0.5 0 -0.2193327115732171 0.47785732409434201 0 -0.21147625830771241 0.5 0 -0.2193327115732171 0.47785732409434201 0 -0.23556955086894171 0.50000000000000278 0 -0.2193327115732171 0.47785732409434201 0 -0.24740973726578031 0.48747235416832729 0 -0.23556955086894171 0.50000000000000278 0 -0.2193327115732171 0.47785732409434201 0 -0.23556955086894171 0.50000000000000278 0 -0.2193327115732171 0.47785732409434201 0 -0.24576275637927339 0.47027392540463459 0 -0.24740973726578031 0.48747235416832729 0 -0.26267046183496029 0.5 0 -0.24740973726578031 0.48747235416832729 0 -0.23556955086894171 0.50000000000000278 0 -0.2387971019518931 0.44325337730036979 0 -0.2489120775907421 0.45611132706247232 0 -0.22784244863720851 0.45419089524536999 0 -0.24576275637927339 0.47027392540463459 0 -0.2489120775907421 0.45611132706247232 0 -0.22784244863720851 0.45419089524536999 0 -0.2193327115732171 0.47785732409434201 0 -0.24576275637927339 0.47027392540463459 0 -0.22784244863720851 0.45419089524536999 0 -0.2387971019518931 0.44325337730036979 0 -0.22784244863720851 0.45419089524536999 0 -0.22695118484456259 0.43760496865691229 0 -0.22784244863720851 0.45419089524536999 0 -0.22695118484456259 0.43760496865691229 0 -0.21077827595677989 0.43843038173964088 0 -0.2387971019518931 0.44325337730036979 0 -0.22695118484456259 0.43760496865691229 0 -0.23717077667227929 0.4322920750106754 0 -0.22784244863720851 0.45419089524536999 0 -0.21077827595677989 0.43843038173964088 0 -0.2030958722774939 0.45571464818868052 0 -0.2193327115732171 0.47785732409434201 0 -0.22784244863720851 0.45419089524536999 0 -0.2030958722774939 0.45571464818868052 0 -0.2193327115732171 0.47785732409434201 0 -0.2030958722774939 0.45571464818868052 0 -0.18738907724301901 0.4651958722260251 0 -0.1949767913905355 0.48049775525153071 0 -0.2030958722774939 0.45571464818868052 0 -0.17659213901739471 0.45155696794010108 0 -0.18738907724301901 0.4651958722260251 0 -0.2030958722774939 0.45571464818868052 0 -0.17659213901739471 0.45155696794010108 0 -0.2030958722774939 0.45571464818868052 0 -0.1868590329817707 0.43357197228301869 0 -0.21077827595677989 0.43843038173964088 0 -0.2030958722774939 0.45571464818868052 0 -0.1868590329817707 0.43357197228301869 0 -0.2030958722774939 0.45571464818868052 0 -0.1868590329817707 0.43357197228301869 0 -0.21077827595677989 0.43843038173964088 0 -0.20038953475864499 0.42285930103310698 0 -0.1868590329817707 0.43357197228301869 0 -0.20038953475864499 0.42285930103310698 0 -0.18865851951403981 0.41114723081592358 0 -0.1868590329817707 0.43357197228301869 0 -0.20038953475864499 0.42285930103310698 0 -0.18865851951403981 0.41114723081592358 0 -0.20316386533702549 0.40742415296633488 0 -0.20038953475864499 0.42285930103310698 0 -0.20316386533702549 0.40742415296633488 0 -0.22016732100465239 0.41985811398850509 0 -0.20316386533702549 0.40742415296633488 0 -0.22016732100465239 0.41985811398850509 0 -0.21769018938602511 0.40540249138439582 0 -0.20316386533702549 0.40742415296633488 0 -0.22016732100465239 0.41985811398850509 0 -0.21077827595677989 0.43843038173964088 0 -0.20038953475864499 0.42285930103310698 0 -0.22016732100465239 0.41985811398850509 0 -0.22695118484456259 0.43760496865691229 0 -0.22016732100465239 0.41985811398850509 0 -0.23717077667227929 0.4322920750106754 0 -0.22695118484456259 0.43760496865691229 0 -0.21077827595677989 0.43843038173964088 0 -0.22016732100465239 0.41985811398850509 0 -0.22016732100465239 0.41985811398850509 0 -0.23358788463652869 0.41983625247023992 0 -0.23717077667227929 0.4322920750106754 0 -0.22016732100465239 0.41985811398850509 0 -0.23717077667227929 0.4322920750106754 0 -0.22016732100465239 0.41985811398850509 0 -0.23115288141678619 0.40759276862782062 0 -0.21769018938602511 0.40540249138439582 0 -0.22016732100465239 0.41985811398850509 0 -0.23115288141678619 0.40759276862782062 0 -0.23358788463652869 0.41983625247023992 0 -0.23115288141678619 0.40759276862782062 0 -0.2459368307481366 0.42042542405070832 0 -0.24448809762487089 0.40050868906775772 0 -0.23115288141678619 0.40759276862782062 0 -0.23358788463652869 0.41983625247023992 0 -0.2459368307481366 0.42042542405070832 0 -0.25382358621835049 0.43542260228310259 0 -0.2459368307481366 0.42042542405070832 0 -0.23717077667227929 0.4322920750106754 0 -0.25382358621835049 0.43542260228310259 0 -0.2387971019518931 0.44325337730036979 0 -0.23717077667227929 0.4322920750106754 0 -0.23358788463652869 0.41983625247023992 0 -0.2459368307481366 0.42042542405070832 0 -0.23717077667227929 0.4322920750106754 0 -0.26324903299479457 0.38988604216182182 0 -0.24074374520667241 0.38242687998337299 0 -0.24448809762487089 0.40050868906775772 0 -0.24074374520667241 0.38242687998337299 0 -0.24448809762487089 0.40050868906775772 0 -0.22634736018434309 0.39356380059118778 0 -0.23115288141678619 0.40759276862782062 0 -0.24448809762487089 0.40050868906775772 0 -0.22634736018434309 0.39356380059118778 0 -0.23115288141678619 0.40759276862782062 0 -0.22634736018434309 0.39356380059118778 0 -0.21769018938602511 0.40540249138439582 0 -0.24074374520667241 0.38242687998337299 0 -0.22634736018434309 0.39356380059118778 0 -0.21798062289891881 0.38062313327343511 0 -0.24074374520667241 0.38242687998337299 0 -0.21798062289891881 0.38062313327343511 0 -0.22441740966967141 0.36662202833489849 0 -0.21798062289891881 0.38062313327343511 0 -0.2053182195646632 0.38898911660535768 0 -0.20402060209966261 0.36833430411321649 0 -0.22634736018434309 0.39356380059118778 0 -0.21798062289891881 0.38062313327343511 0 -0.2053182195646632 0.38898911660535768 0 -0.22634736018434309 0.39356380059118778 0 -0.2053182195646632 0.38898911660535768 0 -0.21769018938602511 0.40540249138439582 0 -0.20316386533702549 0.40742415296633488 0 -0.2053182195646632 0.38898911660535768 0 -0.21769018938602511 0.40540249138439582 0 -0.20316386533702549 0.40742415296633488 0 -0.2053182195646632 0.38898911660535768 0 -0.18616040966939809 0.39499019194416529 0 -0.20316386533702549 0.40742415296633488 0 -0.18616040966939809 0.39499019194416529 0 -0.18865851951403981 0.41114723081592358 0 -0.20316386533702549 0.40742415296633488 0 -0.18616040966939809 0.39499019194416529 0 -0.2053182195646632 0.38898911660535768 0 -0.1927326532436788 0.38193994064591369 0 -0.18616040966939809 0.39499019194416529 0 -0.2053182195646632 0.38898911660535768 0 -0.1927326532436788 0.38193994064591369 0 -0.20402060209966261 0.36833430411321649 0 -0.1927326532436788 0.38193994064591369 0 -0.18374665136976759 0.37937871402705908 0 -0.18616040966939809 0.39499019194416529 0 -0.1744309637910503 0.37769149803556362 0 -0.1642142843906749 0.3789418502636645 0 -0.1838985270783616 0.39091510453828221 0 -0.1642142843906749 0.3789418502636645 0 -0.18616040966939809 0.39499019194416529 0 -0.1838985270783616 0.39091510453828221 0 -0.1927326532436788 0.38193994064591369 0 -0.18374665136976759 0.37937871402705908 0 -0.18362379452965399 0.37004657989153639 0 -0.18374665136976759 0.37937871402705908 0 -0.1744309637910503 0.37769149803556362 0 -0.1838985270783616 0.39091510453828221 0 -0.1642142843906749 0.3789418502636645 0 -0.18616040966939809 0.39499019194416529 0 -0.18374665136976759 0.37937871402705908 0 -0.1744309637910503 0.37769149803556362 0 -0.18362379452965399 0.37004657989153639 0 -0.18374665136976759 0.37937871402705908 0 -0.18616040966939809 0.39499019194416529 0 -0.18374665136976759 0.37937871402705908 0 -0.1838985270783616 0.39091510453828221 0 -0.18374665136976759 0.37937871402705908 0 -0.18616040966939809 0.39499019194416529 0 -0.1838985270783616 0.39091510453828221 0 -0.1642142843906749 0.3789418502636645 0 -0.1639919076143399 0.3974747808383628 0 -0.1489802686125267 0.38257497248127392 0 -0.1642142843906749 0.3789418502636645 0 -0.1639919076143399 0.3974747808383628 0 -0.18616040966939809 0.39499019194416529 0 -0.1744309637910503 0.37769149803556362 0 -0.1642142843906749 0.3789418502636645 0 -0.15874130784498061 0.37213542046662212 0 -0.1639919076143399 0.3974747808383628 0 -0.17750104491285451 0.40432040146684922 0 -0.17119334285363949 0.41366940226894577 0 -0.18865851951403981 0.41114723081592358 0 -0.18616040966939809 0.39499019194416529 0 -0.18865851951403981 0.41114723081592358 0 -0.17750104491285451 0.40432040146684922 0 -0.18616040966939809 0.39499019194416529 0 -0.1639919076143399 0.3974747808383628 0 -0.17750104491285451 0.40432040146684922 0 -0.18616040966939809 0.39499019194416529 0 -0.18865851951403981 0.41114723081592358 0 -0.17750104491285451 0.40432040146684922 0 -0.17119334285363949 0.41366940226894577 0 -0.18865851951403981 0.41114723081592358 0 -0.17459283461559361 0.42601523789076512 0 -0.17119334285363949 0.41366940226894577 0 -0.18865851951403981 0.41114723081592358 0 -0.1868590329817707 0.43357197228301869 0 -0.17459283461559361 0.42601523789076512 0 -0.1740586998674569 0.43899754936367941 0 -0.1868590329817707 0.43357197228301869 0 -0.17459283461559361 0.42601523789076512 0 -0.1740586998674569 0.43899754936367941 0 -0.17459283461559361 0.42601523789076512 0 -0.1659354897241099 0.43449929542802312 0 -0.17459283461559361 0.42601523789076512 0 -0.1659354897241099 0.43449929542802312 0 -0.16085192275254509 0.42420597718500008 0 -0.1659354897241099 0.43449929542802312 0 -0.16085192275254509 0.42420597718500008 0 -0.15486041744653839 0.43233395996053492 0 -0.1639919076143399 0.3974747808383628 0 -0.17119334285363949 0.41366940226894577 0 -0.1558060921739825 0.41026488178479492 0 -0.17459283461559361 0.42601523789076512 0 -0.16085192275254509 0.42420597718500008 0 -0.17119334285363949 0.41366940226894577 0 -0.16085192275254509 0.42420597718500008 0 -0.17119334285363949 0.41366940226894577 0 -0.1558060921739825 0.41026488178479492 0 -0.1558060921739825 0.41026488178479492 0 -0.1418117271851779 0.41525834053060801 0 -0.14204426798620681 0.39509073288381358 0 -0.16085192275254509 0.42420597718500008 0 -0.1558060921739825 0.41026488178479492 0 -0.1418117271851779 0.41525834053060801 0 -0.1418117271851779 0.41525834053060801 0 -0.14157918638415079 0.43542594817740249 0 -0.16085192275254509 0.42420597718500008 0 -0.1418117271851779 0.41525834053060801 0 -0.15486041744653839 0.43233395996053492 0 -0.1418117271851779 0.41525834053060801 0 -0.15486041744653839 0.43233395996053492 0 -0.14157918638415079 0.43542594817740249 0 -0.14155443830058789 0.43757227964732542 0 -0.14157918638415079 0.43542594817740249 0 -0.14155443830058789 0.43757227964732542 0 -0.14157918638415079 0.43542594817740249 0 -0.12025274126089 0.42574105579372712 0 -0.14155443830058789 0.43757227964732542 0 -0.1161249595423428 0.42742254588607831 0 -0.14157918638415079 0.43542594817740249 0 -0.12025274126089 0.42574105579372712 0 -0.1418117271851779 0.41525834053060801 0 -0.14157918638415079 0.43542594817740249 0 -0.12025274126089 0.42574105579372712 0 -0.14155443830058789 0.43757227964732542 0 -0.12025274126089 0.42574105579372712 0 -0.1161249595423428 0.42742254588607831 0 -0.12509104342100061 0.44188941827772182 0 -0.14155443830058789 0.43757227964732542 0 -0.1161249595423428 0.42742254588607831 0 -0.1418117271851779 0.41525834053060801 0 -0.1277268958593005 0.40709158096490278 0 -0.12025274126089 0.42574105579372712 0 -0.1418117271851779 0.41525834053060801 0 -0.1277268958593005 0.40709158096490278 0 -0.14204426798620681 0.39509073288381358 0 -0.1277268958593005 0.40709158096490278 0 -0.14204426798620681 0.39509073288381358 0 -0.1224972888069677 0.39405447109156733 0 -0.13238272395945991 0.37847398983736519 0 -0.1224972888069677 0.39405447109156733 0 -0.13238272395945991 0.37847398983736519 0 -0.14204426798620681 0.39509073288381358 0 -0.1224972888069677 0.39405447109156733 0 -0.13238272395945991 0.37847398983736519 0 -0.1489802686125267 0.38257497248127392 0 -0.14204426798620681 0.39509073288381358 0 -0.1639919076143399 0.3974747808383628 0 -0.1558060921739825 0.41026488178479492 0 -0.14204426798620681 0.39509073288381358 0 -0.1639919076143399 0.3974747808383628 0 -0.1489802686125267 0.38257497248127392 0 -0.14204426798620681 0.39509073288381358 0 -0.1418117271851779 0.41525834053060801 0 -0.14204426798620681 0.39509073288381358 0 -0.15552397359905151 0.35856797270850038 0 -0.1422681591119519 0.36289350858316322 0 -0.15574239997404821 0.34165669361972989 0 -0.1422681591119519 0.36289350858316322 0 -0.15574239997404821 0.34165669361972989 0 -0.13774544015442541 0.3595862213862932 0 -0.1344905665345571 0.34689990383467079 0 -0.15574239997404821 0.34165669361972989 0 -0.1422681591119519 0.36289350858316322 0 -0.13774544015442541 0.3595862213862932 0 -0.15574239997404821 0.34165669361972989 0 -0.1642142843906749 0.3789418502636645 0 -0.1422681591119519 0.36289350858316322 0 -0.13238272395945991 0.37847398983736519 0 -0.1489802686125267 0.38257497248127392 0 -0.1422681591119519 0.36289350858316322 0 -0.1642142843906749 0.3789418502636645 0 -0.1422681591119519 0.36289350858316322 0 -0.15874130784498061 0.37213542046662212 0 -0.1642142843906749 0.3789418502636645 0 -0.1489802686125267 0.38257497248127392 0 -0.1422681591119519 0.36289350858316322 0 -0.15552397359905151 0.35856797270850038 0 -0.1422681591119519 0.36289350858316322 0 -0.15874130784498061 0.37213542046662212 0 -0.1422681591119519 0.36289350858316322 0 -0.13774544015442541 0.3595862213862932 0 -0.12881796099468981 0.36725667352730101 0 -0.13238272395945991 0.37847398983736519 0 -0.12881796099468981 0.36725667352730101 0 -0.114951385737499 0.37611001703161828 0 -0.1422681591119519 0.36289350858316322 0 -0.13774544015442541 0.3595862213862932 0 -0.13238272395945991 0.37847398983736519 0 -0.1422681591119519 0.36289350858316322 0 -0.13238272395945991 0.37847398983736519 0 -0.1422681591119519 0.36289350858316322 0 -0.12881796099468981 0.36725667352730101 0 -0.13774544015442541 0.3595862213862932 0 -0.12881796099468981 0.36725667352730101 0 -0.13085154266849261 0.35745626259395852 0 -0.12881796099468981 0.36725667352730101 0 -0.13085154266849261 0.35745626259395852 0 -0.1223522029902982 0.35608225162756879 0 -0.13085154266849261 0.35745626259395852 0 -0.1344905665345571 0.34689990383467079 0 -0.1223522029902982 0.35608225162756879 0 -0.1344905665345571 0.34689990383467079 0 -0.1215793900664241 0.33965542352680428 0 -0.1223522029902982 0.35608225162756879 0 -0.13774544015442541 0.3595862213862932 0 -0.13085154266849261 0.35745626259395852 0 -0.1344905665345571 0.34689990383467079 0 -0.13871584827508379 0.32805163350527011 0 -0.1213981112161233 0.32606083512094008 0 -0.1215793900664241 0.33965542352680428 0 -0.1344905665345571 0.34689990383467079 0 -0.13871584827508379 0.32805163350527011 0 -0.1215793900664241 0.33965542352680428 0 -0.13871584827508379 0.32805163350527011 0 -0.122665507124936 0.30739316482981133 0 -0.1213981112161233 0.32606083512094008 0 -0.13871584827508379 0.32805163350527011 0 -0.1433184724342442 0.30536206331891741 0 -0.122665507124936 0.30739316482981133 0 -0.13871584827508379 0.32805163350527011 0 -0.1692166408361446 0.32041987865629651 0 -0.1433184724342442 0.30536206331891741 0 -0.1344905665345571 0.34689990383467079 0 -0.13871584827508379 0.32805163350527011 0 -0.15574239997404821 0.34165669361972989 0 -0.13871584827508379 0.32805163350527011 0 -0.15574239997404821 0.34165669361972989 0 -0.1692166408361446 0.32041987865629651 0 -0.15574239997404821 0.34165669361972989 0 -0.16882657531294051 0.33343050367394028 0 -0.16727942812343491 0.34541839291957183 0 -0.16882657531294051 0.33343050367394028 0 -0.1740652221397718 0.31676208059972089 0 -0.17253785706623809 0.33742704001517521 0 -0.15574239997404821 0.34165669361972989 0 -0.1692166408361446 0.32041987865629651 0 -0.15574239997404821 0.34165669361972989 0 -0.16882657531294051 0.33343050367394028 0 -0.1692166408361446 0.32041987865629651 0 -0.17253785706623809 0.33742704001517521 0 -0.17248005025835489 0.34536210115862542 0 -0.16727942812343491 0.34541839291957183 0 -0.16882657531294051 0.33343050367394028 0 -0.17253785706623809 0.33742704001517521 0 -0.16727942812343491 0.34541839291957183 0 -0.16882657531294051 0.33343050367394028 0 -0.1692166408361446 0.32041987865629651 0 -0.1740652221397718 0.31676208059972089 0 -0.18300185264204469 0.32280423575908729 0 -0.1740652221397718 0.31676208059972089 0 -0.17819295282042311 0.34345902717413063 0 -0.18300185264204469 0.32280423575908729 0 -0.1740652221397718 0.31676208059972089 0 -0.18269088169824049 0.29918306369286279 0 -0.18300185264204469 0.32280423575908729 0 -0.17819295282042311 0.34345902717413063 0 -0.18331282358584941 0.34642540782531189 0 -0.1740652221397718 0.31676208059972089 0 -0.17819295282042311 0.34345902717413063 0 -0.1740652221397718 0.31676208059972089 0 -0.17253785706623809 0.33742704001517521 0 -0.17819295282042311 0.34345902717413063 0 -0.18300185264204469 0.32280423575908729 0 -0.18331282358584941 0.34642540782531189 0 -0.17253785706623809 0.33742704001517521 0 -0.17819295282042311 0.34345902717413063 0 -0.17248005025835489 0.34536210115862542 0 -0.17819295282042311 0.34345902717413063 0 -0.17266476351591969 0.35237730914779941 0 -0.18362379452965399 0.37004657989153639 0 -0.17819295282042311 0.34345902717413063 0 -0.18331282358584941 0.34642540782531189 0 -0.18362379452965399 0.37004657989153639 0 -0.17819295282042311 0.34345902717413063 0 -0.18362379452965399 0.37004657989153639 0 -0.18331282358584941 0.34642540782531189 0 -0.18362379452965399 0.37004657989153639 0 -0.19396205315185269 0.35773027909378607 0 -0.18331282358584941 0.34642540782531189 0 -0.18362379452965399 0.37004657989153639 0 -0.17819295282042311 0.34345902717413063 0 -0.17266476351591969 0.35237730914779941 0 -0.17248005025835489 0.34536210115862542 0 -0.17266476351591969 0.35237730914779941 0 -0.16727942812343491 0.34541839291957183 0 -0.16404697378228 0.35342911006401911 0 -0.15552397359905151 0.35856797270850038 0 -0.15574239997404821 0.34165669361972989 0 -0.16404697378228 0.35342911006401911 0 -0.17266476351591969 0.35237730914779941 0 -0.17248005025835489 0.34536210115862542 0 -0.16727942812343491 0.34541839291957183 0 -0.17266476351591969 0.35237730914779941 0 -0.1697011683865553 0.35883091161224728 0 -0.16404697378228 0.35342911006401911 0 -0.1697011683865553 0.35883091161224728 0 -0.16404697378228 0.35342911006401911 0 -0.1633701090946704 0.36372338037626623 0 -0.15552397359905151 0.35856797270850038 0 -0.16404697378228 0.35342911006401911 0 -0.1633701090946704 0.36372338037626623 0 -0.15574239997404821 0.34165669361972989 0 -0.16727942812343491 0.34541839291957183 0 -0.16404697378228 0.35342911006401911 0 -0.15874130784498061 0.37213542046662212 0 -0.18362379452965399 0.37004657989153639 0 -0.15874130784498061 0.37213542046662212 0 -0.1633701090946704 0.36372338037626623 0 -0.18362379452965399 0.37004657989153639 0 -0.15552397359905151 0.35856797270850038 0 -0.15874130784498061 0.37213542046662212 0 -0.1633701090946704 0.36372338037626623 0 -0.17266476351591969 0.35237730914779941 0 -0.1697011683865553 0.35883091161224728 0 -0.18362379452965399 0.37004657989153639 0 -0.1697011683865553 0.35883091161224728 0 -0.1633701090946704 0.36372338037626623 0 -0.18362379452965399 0.37004657989153639 0 -0.1744309637910503 0.37769149803556362 0 -0.15874130784498061 0.37213542046662212 0 -0.18362379452965399 0.37004657989153639 0 -0.18374665136976759 0.37937871402705908 0 -0.18362379452965399 0.37004657989153639 0 -0.1927326532436788 0.38193994064591369 0 -0.18362379452965399 0.37004657989153639 0 -0.20402060209966261 0.36833430411321649 0 -0.18362379452965399 0.37004657989153639 0 -0.20402060209966261 0.36833430411321649 0 -0.18362379452965399 0.37004657989153639 0 -0.19396205315185269 0.35773027909378607 0 -0.20402060209966261 0.36833430411321649 0 -0.19396205315185269 0.35773027909378607 0 -0.208999317395312 0.3446492875548014 0 -0.20402060209966261 0.36833430411321649 0 -0.18331282358584941 0.34642540782531189 0 -0.19396205315185269 0.35773027909378607 0 -0.208999317395312 0.3446492875548014 0 -0.208999317395312 0.3446492875548014 0 -0.20402060209966261 0.36833430411321649 0 -0.22441740966967141 0.36662202833489849 0 -0.20402060209966261 0.36833430411321649 0 -0.22441740966967141 0.36662202833489849 0 -0.21798062289891881 0.38062313327343511 0 -0.20402060209966261 0.36833430411321649 0 -0.22441740966967141 0.36662202833489849 0 -0.208999317395312 0.3446492875548014 0 -0.23479591562654789 0.35148704487088239 0 -0.2313273246892763 0.33558392302215828 0 -0.208999317395312 0.3446492875548014 0 -0.22441740966967141 0.36662202833489849 0 -0.23479591562654789 0.35148704487088239 0 -0.25002058798003007 0.3320526588471332 0 -0.26243222306204511 0.35090504016953772 0 -0.23479591562654789 0.35148704487088239 0 -0.26243222306204511 0.35090504016953772 0 -0.23479591562654789 0.35148704487088239 0 -0.24481421723968019 0.36490975255658048 0 -0.22441740966967141 0.36662202833489849 0 -0.24481421723968019 0.36490975255658048 0 -0.24074374520667241 0.38242687998337299 0 -0.22441740966967141 0.36662202833489849 0 -0.24481421723968019 0.36490975255658048 0 -0.22441740966967141 0.36662202833489849 0 -0.23479591562654789 0.35148704487088239 0 -0.24481421723968019 0.36490975255658048 0 -0.25717133997193298 0.37426095615225607 0 -0.24074374520667241 0.38242687998337299 0 -0.24481421723968019 0.36490975255658048 0 -0.25616918259472732 0.30236015827283808 0 -0.25002058798003007 0.3320526588471332 0 -0.23403114015321011 0.31709209002172778 0 -0.25002058798003007 0.3320526588471332 0 -0.23479591562654789 0.35148704487088239 0 -0.2313273246892763 0.33558392302215828 0 -0.25002058798003007 0.3320526588471332 0 -0.2313273246892763 0.33558392302215828 0 -0.23403114015321011 0.31709209002172778 0 -0.208999317395312 0.3446492875548014 0 -0.2313273246892763 0.33558392302215828 0 -0.21850591254547599 0.32628872173457818 0 -0.23403114015321011 0.31709209002172778 0 -0.21850591254547599 0.32628872173457818 0 -0.21603293622121081 0.30879617143541382 0 -0.2313273246892763 0.33558392302215828 0 -0.23403114015321011 0.31709209002172778 0 -0.21850591254547599 0.32628872173457818 0 -0.21850591254547599 0.32628872173457818 0 -0.20213884426837089 0.32532213663878978 0 -0.21603293622121081 0.30879617143541382 0 -0.20213884426837089 0.32532213663878978 0 -0.19725183072938909 0.30509230858372249 0 -0.21603293622121081 0.30879617143541382 0 -0.208999317395312 0.3446492875548014 0 -0.21850591254547599 0.32628872173457818 0 -0.20213884426837089 0.32532213663878978 0 -0.18331282358584941 0.34642540782531189 0 -0.208999317395312 0.3446492875548014 0 -0.20213884426837089 0.32532213663878978 0 -0.18300185264204469 0.32280423575908729 0 -0.18331282358584941 0.34642540782531189 0 -0.20213884426837089 0.32532213663878978 0 -0.18300185264204469 0.32280423575908729 0 -0.20213884426837089 0.32532213663878978 0 -0.19725183072938909 0.30509230858372249 0 -0.19725183072938909 0.30509230858372249 0 -0.1906964717749009 0.28656541518329992 0 -0.18269088169824049 0.29918306369286279 0 -0.18300185264204469 0.32280423575908729 0 -0.19725183072938909 0.30509230858372249 0 -0.18269088169824049 0.29918306369286279 0 -0.19725183072938909 0.30509230858372249 0 -0.1906964717749009 0.28656541518329992 0 -0.20894999777156681 0.28788282879288141 0 -0.1906964717749009 0.28656541518329992 0 -0.20894999777156681 0.28788282879288141 0 -0.19560748054403571 0.27391850694798181 0 -0.19725183072938909 0.30509230858372249 0 -0.20894999777156681 0.28788282879288141 0 -0.21603293622121081 0.30879617143541382 0 -0.20894999777156681 0.28788282879288141 0 -0.21603293622121081 0.30879617143541382 0 -0.23010937568771669 0.29589673977315029 0 -0.23403114015321011 0.31709209002172778 0 -0.21603293622121081 0.30879617143541382 0 -0.23010937568771669 0.29589673977315029 0 -0.20894999777156681 0.28788282879288141 0 -0.23010937568771669 0.29589673977315029 0 -0.2234747025956966 0.27824585991597089 0 -0.23010937568771669 0.29589673977315029 0 -0.24190471242523851 0.27972751922608308 0 -0.2234747025956966 0.27824585991597089 0 -0.25616918259472732 0.30236015827283808 0 -0.24190471242523851 0.27972751922608308 0 -0.25616918259472732 0.30236015827283808 0 -0.23010937568771669 0.29589673977315029 0 -0.24190471242523851 0.27972751922608308 0 -0.25616918259472732 0.30236015827283808 0 -0.23403114015321011 0.31709209002172778 0 -0.23010937568771669 0.29589673977315029 0 -0.24943129659764751 0.26000894523212309 0 -0.24190471242523851 0.27972751922608308 0 -0.22764024225575111 0.25709488017932702 0 -0.22764024225575111 0.25709488017932702 0 -0.2468893326351202 0.24329134098969171 0 -0.24943129659764751 0.26000894523212309 0 -0.22764024225575111 0.25709488017932702 0 -0.2468893326351202 0.24329134098969171 0 -0.24190471242523851 0.27972751922608308 0 -0.22764024225575111 0.25709488017932702 0 -0.24190471242523851 0.27972751922608308 0 -0.2234747025956966 0.27824585991597089 0 -0.22764024225575111 0.25709488017932702 0 -0.2234747025956966 0.27824585991597089 0 -0.22764024225575111 0.25709488017932702 0 -0.20876918483820989 0.27062733160841262 0 -0.22764024225575111 0.25709488017932702 0 -0.21239874098331929 0.25437807278244762 0 -0.20876918483820989 0.27062733160841262 0 -0.22764024225575111 0.25709488017932702 0 -0.20876918483820989 0.27062733160841262 0 -0.21239874098331929 0.25437807278244762 0 -0.20876918483820989 0.27062733160841262 0 -0.2025020270240801 0.26019521754276942 0 -0.21239874098331929 0.25437807278244762 0 -0.2025020270240801 0.26019521754276942 0 -0.2046840695697589 0.2451395929661444 0 -0.20894999777156681 0.28788282879288141 0 -0.2234747025956966 0.27824585991597089 0 -0.20876918483820989 0.27062733160841262 0 -0.20894999777156681 0.28788282879288141 0 -0.20876918483820989 0.27062733160841262 0 -0.19560748054403571 0.27391850694798181 0 -0.19560748054403571 0.27391850694798181 0 -0.18940688912330481 0.25610334311205268 0 -0.18232207730982461 0.27116889680334472 0 -0.20876918483820989 0.27062733160841262 0 -0.19560748054403571 0.27391850694798181 0 -0.2025020270240801 0.26019521754276942 0 -0.1906964717749009 0.28656541518329992 0 -0.19560748054403571 0.27391850694798181 0 -0.18232207730982461 0.27116889680334472 0 -0.19560748054403571 0.27391850694798181 0 -0.2025020270240801 0.26019521754276942 0 -0.18940688912330481 0.25610334311205268 0 -0.2025020270240801 0.26019521754276942 0 -0.18940688912330481 0.25610334311205268 0 -0.2046840695697589 0.2451395929661444 0 -0.18940688912330481 0.25610334311205268 0 -0.17508206900779469 0.25918785244088571 0 -0.18195408303730121 0.23534357450296481 0 -0.18940688912330481 0.25610334311205268 0 -0.17508206900779469 0.25918785244088571 0 -0.18232207730982461 0.27116889680334472 0 -0.16225317791305921 0.25358582624422438 0 -0.1601147340924314 0.27132493958040771 0 -0.14746997276257359 0.25293699741112718 0 -0.17508206900779469 0.25918785244088571 0 -0.16225317791305921 0.25358582624422438 0 -0.1601147340924314 0.27132493958040771 0 -0.1601147340924314 0.27132493958040771 0 -0.18232207730982461 0.27116889680334472 0 -0.1715163911286523 0.28419500503467149 0 -0.17508206900779469 0.25918785244088571 0 -0.1601147340924314 0.27132493958040771 0 -0.18232207730982461 0.27116889680334472 0 -0.1906964717749009 0.28656541518329992 0 -0.18232207730982461 0.27116889680334472 0 -0.18269088169824049 0.29918306369286279 0 -0.18232207730982461 0.27116889680334472 0 -0.18269088169824049 0.29918306369286279 0 -0.1715163911286523 0.28419500503467149 0 -0.18232207730982461 0.27116889680334472 0 -0.18269088169824049 0.29918306369286279 0 -0.1906964717749009 0.28656541518329992 0 -0.18269088169824049 0.29918306369286279 0 -0.18300185264204469 0.32280423575908729 0 -0.18269088169824049 0.29918306369286279 0 -0.1692166408361446 0.32041987865629651 0 -0.18269088169824049 0.29918306369286279 0 -0.1692166408361446 0.32041987865629651 0 -0.1740652221397718 0.31676208059972089 0 -0.18269088169824049 0.29918306369286279 0 -0.1692166408361446 0.32041987865629651 0 -0.16093787141411231 0.2951031200620709 0 -0.1433184724342442 0.30536206331891741 0 -0.1692166408361446 0.32041987865629651 0 -0.18269088169824049 0.29918306369286279 0 -0.16093787141411231 0.2951031200620709 0 -0.18269088169824049 0.29918306369286279 0 -0.1715163911286523 0.28419500503467149 0 -0.16093787141411231 0.2951031200620709 0 -0.1601147340924314 0.27132493958040771 0 -0.1715163911286523 0.28419500503467149 0 -0.16093787141411231 0.2951031200620709 0 -0.1601147340924314 0.27132493958040771 0 -0.16093787141411231 0.2951031200620709 0 -0.140940242444347 0.28770890845956881 0 -0.16093787141411231 0.2951031200620709 0 -0.140940242444347 0.28770890845956881 0 -0.16093787141411231 0.2951031200620709 0 -0.140940242444347 0.28770890845956881 0 -0.1433184724342442 0.30536206331891741 0 -0.1433184724342442 0.30536206331891741 0 -0.12743472451084159 0.29349567440048657 0 -0.122665507124936 0.30739316482981133 0 -0.140940242444347 0.28770890845956881 0 -0.1433184724342442 0.30536206331891741 0 -0.12743472451084159 0.29349567440048657 0 -0.140940242444347 0.28770890845956881 0 -0.1209426134745812 0.28031469685706822 0 -0.140940242444347 0.28770890845956881 0 -0.12743472451084159 0.29349567440048657 0 -0.1209426134745812 0.28031469685706822 0 -0.140940242444347 0.28770890845956881 0 -0.12748957136376979 0.2697364722205553 0 -0.1209426134745812 0.28031469685706822 0 -0.140940242444347 0.28770890845956881 0 -0.1385418352730507 0.26582091200169278 0 -0.12748957136376979 0.2697364722205553 0 -0.1385418352730507 0.26582091200169278 0 -0.1252623291810667 0.25912953992318971 0 -0.13357218109292621 0.2499317644564327 0 -0.1385418352730507 0.26582091200169278 0 -0.14746997276257359 0.25293699741112718 0 -0.13357218109292621 0.2499317644564327 0 -0.1385418352730507 0.26582091200169278 0 -0.12748957136376979 0.2697364722205553 0 -0.1252623291810667 0.25912953992318971 0 -0.1252623291810667 0.25912953992318971 0 -0.13357218109292621 0.2499317644564327 0 -0.1213089330464012 0.24626659804535689 0 -0.1601147340924314 0.27132493958040771 0 -0.1385418352730507 0.26582091200169278 0 -0.14746997276257359 0.25293699741112718 0 -0.1601147340924314 0.27132493958040771 0 -0.140940242444347 0.28770890845956881 0 -0.1385418352730507 0.26582091200169278 0 -0.095230237001734636 0.27080743213428882 0 -0.101831548476812 0.26048951589785008 0 -0.1165241005361865 0.26558405137515151 0 -0.095230237001734636 0.27080743213428882 0 -0.1209426134745812 0.28031469685706822 0 -0.095230237001734636 0.27080743213428882 0 -0.101831548476812 0.26048951589785008 0 -0.101831548476812 0.26048951589785008 0 -0.112097455783086 0.24444379951602521 0 -0.096974545082976191 0.25880538532589209 0 -0.101831548476812 0.26048951589785008 0 -0.112097455783086 0.24444379951602521 0 -0.095230237001734636 0.27080743213428882 0 -0.096974545082976191 0.25880538532589209 0 -0.101831548476812 0.26048951589785008 0 -0.096974545082976191 0.25880538532589209 0 -0.101831548476812 0.26048951589785008 0 -0.101831548476812 0.26048951589785008 0 -0.1165241005361865 0.26558405137515151 0 -0.101831548476812 0.26048951589785008 0 -0.11521273165378559 0.25497892835963998 0 -0.112097455783086 0.24444379951602521 0 -0.101831548476812 0.26048951589785008 0 -0.1165241005361865 0.26558405137515151 0 -0.11521273165378559 0.25497892835963998 0 -0.1252623291810667 0.25912953992318971 0 -0.11521273165378559 0.25497892835963998 0 -0.1213089330464012 0.24626659804535689 0 -0.12748957136376979 0.2697364722205553 0 -0.1252623291810667 0.25912953992318971 0 -0.1165241005361865 0.26558405137515151 0 -0.1252623291810667 0.25912953992318971 0 -0.1165241005361865 0.26558405137515151 0 -0.11521273165378559 0.25497892835963998 0 -0.12748957136376979 0.2697364722205553 0 -0.1165241005361865 0.26558405137515151 0 -0.11826192468166601 0.27279143104315778 0 -0.095230237001734636 0.27080743213428882 0 -0.1165241005361865 0.26558405137515151 0 -0.11826192468166601 0.27279143104315778 0 -0.095230237001734636 0.27080743213428882 0 -0.11826192468166601 0.27279143104315778 0 -0.1209426134745812 0.28031469685706822 0 -0.12748957136376979 0.2697364722205553 0 -0.11826192468166601 0.27279143104315778 0 -0.1209426134745812 0.28031469685706822 0 -0.1209426134745812 0.28031469685706822 0 -0.099156256926613839 0.29556062278638268 0 -0.12743472451084159 0.29349567440048657 0 -0.1209426134745812 0.28031469685706822 0 -0.099156256926613839 0.29556062278638268 0 -0.12743472451084159 0.29349567440048657 0 -0.122665507124936 0.30739316482981133 0 -0.099156256926613839 0.29556062278638268 0 -0.1041414057358224 0.31201579539373148 0 -0.099156256926613839 0.29556062278638268 0 -0.091673901452025128 0.31746800270450398 0 -0.122665507124936 0.30739316482981133 0 -0.1041414057358224 0.31201579539373148 0 -0.099156256926613839 0.29556062278638268 0 -0.095230237001734636 0.27080743213428882 0 -0.1209426134745812 0.28031469685706822 0 -0.099156256926613839 0.29556062278638268 0 -0.081993310338176556 0.29149688165626692 0 -0.071574905525993715 0.28647654560898889 0 -0.088307373389434785 0.26824767274871397 0 -0.095230237001734636 0.27080743213428882 0 -0.099156256926613839 0.29556062278638268 0 -0.081993310338176556 0.29149688165626692 0 -0.099156256926613839 0.29556062278638268 0 -0.0773699003786468 0.31080654871569757 0 -0.091673901452025128 0.31746800270450398 0 -0.099156256926613839 0.29556062278638268 0 -0.0773699003786468 0.31080654871569757 0 -0.081993310338176556 0.29149688165626692 0 -0.0773699003786468 0.31080654871569757 0 -0.099156256926613839 0.29556062278638268 0 -0.081993310338176556 0.29149688165626692 0 -0.0773699003786468 0.31080654871569757 0 -0.081993310338176556 0.29149688165626692 0 -0.0773699003786468 0.31080654871569757 0 -0.07000108740115632 0.31024084673351238 0 -0.081993310338176556 0.29149688165626692 0 -0.07000108740115632 0.31024084673351238 0 -0.07082691849754412 0.29686868922251758 0 -0.081993310338176556 0.29149688165626692 0 -0.07000108740115632 0.31024084673351238 0 -0.06406362287003417 0.30105685935529619 0 -0.07000108740115632 0.31024084673351238 0 -0.07082691849754412 0.29686868922251758 0 -0.06406362287003417 0.30105685935529619 0 -0.07000108740115632 0.31024084673351238 0 -0.05903493703298672 0.30842013861035528 0 -0.081993310338176556 0.29149688165626692 0 -0.071574905525993715 0.28647654560898889 0 -0.07082691849754412 0.29686868922251758 0 -0.071574905525993715 0.28647654560898889 0 -0.07082691849754412 0.29686868922251758 0 -0.064150197611200194 0.29028153745804169 0 -0.06406362287003417 0.30105685935529619 0 -0.07082691849754412 0.29686868922251758 0 -0.064150197611200194 0.29028153745804169 0 -0.071574905525993715 0.28647654560898889 0 -0.064150197611200194 0.29028153745804169 0 -0.066272470786091969 0.27951596978905408 0 -0.066272470786091969 0.27951596978905408 0 -0.064867048676514966 0.26815492676469338 0 -0.075116873927680253 0.27479103085629453 0 -0.066272470786091969 0.27951596978905408 0 -0.064867048676514966 0.26815492676469338 0 -0.056753075498150757 0.28085207326825551 0 -0.064867048676514966 0.26815492676469338 0 -0.075116873927680253 0.27479103085629453 0 -0.074399806026204385 0.26466482186588819 0 -0.075116873927680253 0.27479103085629453 0 -0.079975847673146208 0.26885948770409202 0 -0.074399806026204385 0.26466482186588819 0 -0.071574905525993715 0.28647654560898889 0 -0.066272470786091969 0.27951596978905408 0 -0.075116873927680253 0.27479103085629453 0 -0.095230237001734636 0.27080743213428882 0 -0.081993310338176556 0.29149688165626692 0 -0.095230237001734636 0.27080743213428882 0 -0.081993310338176556 0.29149688165626692 0 -0.088307373389434785 0.26824767274871397 0 -0.071574905525993715 0.28647654560898889 0 -0.088307373389434785 0.26824767274871397 0 -0.071574905525993715 0.28647654560898889 0 -0.075116873927680253 0.27479103085629453 0 -0.088307373389434785 0.26824767274871397 0 -0.079975847673146208 0.26885948770409202 0 -0.084329260359261832 0.26677674789216088 0 -0.074399806026204385 0.26466482186588819 0 -0.075116873927680253 0.27479103085629453 0 -0.079975847673146208 0.26885948770409202 0 -0.088307373389434785 0.26824767274871397 0 -0.079975847673146208 0.26885948770409202 0 -0.084329260359261832 0.26677674789216088 0 -0.088307373389434785 0.26824767274871397 0 -0.095230237001734636 0.27080743213428882 0 -0.096974545082976191 0.25880538532589209 0 -0.088307373389434785 0.26824767274871397 0 -0.084329260359261832 0.26677674789216088 0 -0.088307373389434785 0.26824767274871397 0 -0.095230237001734636 0.27080743213428882 0 -0.088307373389434785 0.26824767274871397 0 -0.096974545082976191 0.25880538532589209 0 -0.073553522625709841 0.25068431627396631 0 -0.088715331182393942 0.2449718195011524 0 -0.096974545082976191 0.25880538532589209 0 -0.084329260359261832 0.26677674789216088 0 -0.073553522625709841 0.25068431627396631 0 -0.096974545082976191 0.25880538532589209 0 -0.073553522625709841 0.25068431627396631 0 -0.096974545082976191 0.25880538532589209 0 -0.088307373389434785 0.26824767274871397 0 -0.096974545082976191 0.25880538532589209 0 -0.084329260359261832 0.26677674789216088 0 -0.088307373389434785 0.26824767274871397 0 -0.084329260359261832 0.26677674789216088 0 -0.073553522625709841 0.25068431627396631 0 -0.074399806026204385 0.26466482186588819 0 -0.064867048676514966 0.26815492676469338 0 -0.073553522625709841 0.25068431627396631 0 -0.050450936449665702 0.26047062327699849 0 -0.064867048676514966 0.26815492676469338 0 -0.073553522625709841 0.25068431627396631 0 -0.074399806026204385 0.26466482186588819 0 -0.073553522625709841 0.25068431627396631 0 -0.050450936449665702 0.26047062327699849 0 -0.050132500168443887 0.2425632472220397 0 -0.064867048676514966 0.26815492676469338 0 -0.050450936449665702 0.26047062327699849 0 -0.056753075498150757 0.28085207326825551 0 -0.050450936449665702 0.26047062327699849 0 -0.056753075498150757 0.28085207326825551 0 -0.041567118232982071 0.28155035039042642 0 -0.050450936449665702 0.26047062327699849 0 -0.032664289439585513 0.26886008103247921 0 -0.041567118232982071 0.28155035039042642 0 -0.032664289439585513 0.26886008103247921 0 -0.025724023578003428 0.28484302527062832 0 -0.041567118232982071 0.28155035039042642 0 -0.050450936449665702 0.26047062327699849 0 -0.032664289439585513 0.26886008103247921 0 -0.029881977245259539 0.25372898958001938 0 -0.050450936449665702 0.26047062327699849 0 -0.029881977245259539 0.25372898958001938 0 -0.050132500168443887 0.2425632472220397 0 -0.029881977245259539 0.25372898958001938 0 -0.019473314891880141 0.26767922737850353 0 -0.0082457657602449386 0.25246627485226031 0 -0.032664289439585513 0.26886008103247921 0 -0.029881977245259539 0.25372898958001938 0 -0.019473314891880141 0.26767922737850353 0 -0.019473314891880141 0.26767922737850353 0 -0.0042610585373493576 0.2771562680236046 0 -0.025724023578003428 0.28484302527062832 0 -0.032664289439585513 0.26886008103247921 0 -0.019473314891880141 0.26767922737850353 0 -0.025724023578003428 0.28484302527062832 0 -0.019473314891880141 0.26767922737850353 0 -0.0042610585373493576 0.2771562680236046 0 -0.0082457657602449386 0.25246627485226031 0 -0.0042610585373493576 0.2771562680236046 0 -0.0082457657602449386 0.25246627485226031 0 0.0071094060709509964 0.26564087220093879 0 -0.0069555348311276686 0.31079851600377723 0 -0.00058836015198596755 0.32088344941533808 0 0.0054341821912287152 0.30403492879740468 0 -0.013098506886936411 0.29875518722530359 0 -0.0069555348311276686 0.31079851600377723 0 0.0054341821912287152 0.30403492879740468 0 -0.013098506886936411 0.29875518722530359 0 -0.0069555348311276686 0.31079851600377723 0 -0.020687787070248039 0.31403805852116051 0 -0.0042610585373493576 0.2771562680236046 0 -0.013098506886936411 0.29875518722530359 0 -0.025724023578003428 0.28484302527062832 0 -0.0042610585373493576 0.2771562680236046 0 -0.013098506886936411 0.29875518722530359 0 0.0054341821912287152 0.30403492879740468 0 -0.013098506886936411 0.29875518722530359 0 -0.025724023578003428 0.28484302527062832 0 -0.02904570801181227 0.30414560716861699 0 -0.013098506886936411 0.29875518722530359 0 -0.02904570801181227 0.30414560716861699 0 -0.020687787070248039 0.31403805852116051 0 -0.02904570801181227 0.30414560716861699 0 -0.034308890996313193 0.31619803717231232 0 -0.020687787070248039 0.31403805852116051 0 -0.02904570801181227 0.30414560716861699 0 -0.04581664775108537 0.30961879620062571 0 -0.039958169045478269 0.29575445567546388 0 -0.02904570801181227 0.30414560716861699 0 -0.04581664775108537 0.30961879620062571 0 -0.034308890996313193 0.31619803717231232 0 -0.025724023578003428 0.28484302527062832 0 -0.02904570801181227 0.30414560716861699 0 -0.039958169045478269 0.29575445567546388 0 -0.025724023578003428 0.28484302527062832 0 -0.039958169045478269 0.29575445567546388 0 -0.041567118232982071 0.28155035039042642 0 -0.039958169045478269 0.29575445567546388 0 -0.041567118232982071 0.28155035039042642 0 -0.055410192489386563 0.29691908750413831 0 -0.056753075498150757 0.28085207326825551 0 -0.041567118232982071 0.28155035039042642 0 -0.055410192489386563 0.29691908750413831 0 -0.064150197611200194 0.29028153745804169 0 -0.056753075498150757 0.28085207326825551 0 -0.055410192489386563 0.29691908750413831 0 -0.06406362287003417 0.30105685935529619 0 -0.064150197611200194 0.29028153745804169 0 -0.055410192489386563 0.29691908750413831 0 -0.064150197611200194 0.29028153745804169 0 -0.066272470786091969 0.27951596978905408 0 -0.056753075498150757 0.28085207326825551 0 -0.04581664775108537 0.30961879620062571 0 -0.055410192489386563 0.29691908750413831 0 -0.05903493703298672 0.30842013861035528 0 -0.04581664775108537 0.30961879620062571 0 -0.039958169045478269 0.29575445567546388 0 -0.055410192489386563 0.29691908750413831 0 -0.06406362287003417 0.30105685935529619 0 -0.055410192489386563 0.29691908750413831 0 -0.05903493703298672 0.30842013861035528 0 -0.04581664775108537 0.30961879620062571 0 -0.05999398685661865 0.32296608029812152 0 -0.042756171354298787 0.3224483405388896 0 -0.05999398685661865 0.32296608029812152 0 -0.04261807333459134 0.33512561188054663 0 -0.042756171354298787 0.3224483405388896 0 -0.04581664775108537 0.30961879620062571 0 -0.05903493703298672 0.30842013861035528 0 -0.05999398685661865 0.32296608029812152 0 -0.05999398685661865 0.32296608029812152 0 -0.056804034856699187 0.33429177223338907 0 -0.04261807333459134 0.33512561188054663 0 -0.056804034856699187 0.33429177223338907 0 -0.046192251460743447 0.34598703554363702 0 -0.071259793987160716 0.33632540193228971 0 -0.046192251460743447 0.34598703554363702 0 -0.071259793987160716 0.33632540193228971 0 -0.05999398685661865 0.32296608029812152 0 -0.04261807333459134 0.33512561188054663 0 -0.05999398685661865 0.32296608029812152 0 -0.056804034856699187 0.33429177223338907 0 -0.064831017760781137 0.32924814232959693 0 -0.056804034856699187 0.33429177223338907 0 -0.04261807333459134 0.33512561188054663 0 -0.046192251460743447 0.34598703554363702 0 -0.04261807333459134 0.33512561188054663 0 -0.034276320251641283 0.34282206612864702 0 -0.046192251460743447 0.34598703554363702 0 -0.04261807333459134 0.33512561188054663 0 -0.034276320251641283 0.34282206612864702 0 -0.031043257832885369 0.32833317714284199 0 -0.04261807333459134 0.33512561188054663 0 -0.042756171354298787 0.3224483405388896 0 -0.031043257832885369 0.32833317714284199 0 -0.04581664775108537 0.30961879620062571 0 -0.042756171354298787 0.3224483405388896 0 -0.034308890996313193 0.31619803717231232 0 -0.042756171354298787 0.3224483405388896 0 -0.034308890996313193 0.31619803717231232 0 -0.031043257832885369 0.32833317714284199 0 -0.020687787070248039 0.31403805852116051 0 -0.031043257832885369 0.32833317714284199 0 -0.01426308592107553 0.32709781564023149 0 -0.034308890996313193 0.31619803717231232 0 -0.020687787070248039 0.31403805852116051 0 -0.031043257832885369 0.32833317714284199 0 -0.025032962324117471 0.33875149869244531 0 -0.01426308592107553 0.32709781564023149 0 -0.014716180493599089 0.34442071988127893 0 -0.031043257832885369 0.32833317714284199 0 -0.025032962324117471 0.33875149869244531 0 -0.01426308592107553 0.32709781564023149 0 -0.034276320251641283 0.34282206612864702 0 -0.025032962324117471 0.33875149869244531 0 -0.023787543000920942 0.34541073846433867 0 -0.034276320251641283 0.34282206612864702 0 -0.031043257832885369 0.32833317714284199 0 -0.025032962324117471 0.33875149869244531 0 -0.025032962324117471 0.33875149869244531 0 -0.014716180493599089 0.34442071988127893 0 -0.023787543000920942 0.34541073846433867 0 -0.0025616559074486049 0.3329031852911295 0 -0.01426308592107553 0.32709781564023149 0 -0.014716180493599089 0.34442071988127893 0 -0.0025616559074486049 0.3329031852911295 0 -0.002583240235104544 0.34489224502179239 0 -0.014716180493599089 0.34442071988127893 0 -0.0069555348311276686 0.31079851600377723 0 -0.020687787070248039 0.31403805852116051 0 -0.01426308592107553 0.32709781564023149 0 -0.0025616559074486049 0.3329031852911295 0 -0.00058836015198596755 0.32088344941533808 0 -0.01426308592107553 0.32709781564023149 0 -0.0069555348311276686 0.31079851600377723 0 -0.00058836015198596755 0.32088344941533808 0 -0.01426308592107553 0.32709781564023149 0 -0.012102714267097759 0.36590539057294968 0 -0.001064505034491721 0.37161458349227261 0 0.0039428335920915006 0.36531030276633031 0 -0.021124708934325921 0.35564866915498361 0 0.0039428335920915006 0.36531030276633031 0 -0.001064505034491721 0.37161458349227261 0 -0.017677659244944521 0.37122807787390621 0 -0.017803283764421592 0.37921609746689411 0 -0.012102714267097759 0.36590539057294968 0 -0.001064505034491721 0.37161458349227261 0 -0.017677659244944521 0.37122807787390621 0 -0.012102714267097759 0.36590539057294968 0 -0.021124708934325921 0.35564866915498361 0 0.0039428335920915006 0.36531030276633031 0 -0.0064988099748367559 0.35299106404641623 0 -0.021124708934325921 0.35564866915498361 0 0.0039428335920915006 0.36531030276633031 0 -0.0064988099748367559 0.35299106404641623 0 -0.002583240235104544 0.34489224502179239 0 0.0032447233134405931 0.35422125060834359 0 -0.0064988099748367559 0.35299106404641623 0 -0.002583240235104544 0.34489224502179239 0 -0.014716180493599089 0.34442071988127893 0 -0.0064988099748367559 0.35299106404641623 0 -0.014716180493599089 0.34442071988127893 0 -0.021124708934325921 0.35564866915498361 0 -0.021124708934325921 0.35564866915498361 0 -0.03312405361854439 0.36059385714354403 0 -0.039104805720823227 0.35618275869992938 0 -0.014716180493599089 0.34442071988127893 0 -0.021124708934325921 0.35564866915498361 0 -0.023787543000920942 0.34541073846433867 0 -0.034276320251641283 0.34282206612864702 0 -0.021124708934325921 0.35564866915498361 0 -0.023787543000920942 0.34541073846433867 0 -0.021124708934325921 0.35564866915498361 0 -0.0246585823330631 0.36616539344166837 0 -0.03312405361854439 0.36059385714354403 0 -0.0246585823330631 0.36616539344166837 0 -0.033447590357386023 0.36570071259042941 0 -0.03312405361854439 0.36059385714354403 0 -0.012102714267097759 0.36590539057294968 0 -0.021124708934325921 0.35564866915498361 0 -0.0246585823330631 0.36616539344166837 0 -0.017677659244944521 0.37122807787390621 0 -0.032897312064139907 0.37411907212457252 0 -0.017803283764421592 0.37921609746689411 0 -0.012102714267097759 0.36590539057294968 0 -0.0246585823330631 0.36616539344166837 0 -0.017677659244944521 0.37122807787390621 0 -0.0246585823330631 0.36616539344166837 0 -0.017677659244944521 0.37122807787390621 0 -0.032897312064139907 0.37411907212457252 0 -0.0246585823330631 0.36616539344166837 0 -0.032897312064139907 0.37411907212457252 0 -0.0246585823330631 0.36616539344166837 0 -0.032897312064139907 0.37411907212457252 0 -0.033447590357386023 0.36570071259042941 0 -0.032897312064139907 0.37411907212457252 0 -0.059723517795068168 0.36506026769318489 0 -0.032897312064139907 0.37411907212457252 0 -0.033447590357386023 0.36570071259042941 0 -0.04311041341379776 0.36192452765193173 0 -0.032897312064139907 0.37411907212457252 0 -0.046925961112427347 0.36446589286881009 0 -0.059723517795068168 0.36506026769318489 0 -0.032897312064139907 0.37411907212457252 0 -0.049098878804771373 0.3725140996878949 0 -0.043775979817191349 0.37615739516056462 0 -0.03312405361854439 0.36059385714354403 0 -0.04311041341379776 0.36192452765193173 0 -0.039104805720823227 0.35618275869992938 0 -0.033447590357386023 0.36570071259042941 0 -0.03312405361854439 0.36059385714354403 0 -0.04311041341379776 0.36192452765193173 0 -0.032897312064139907 0.37411907212457252 0 -0.04311041341379776 0.36192452765193173 0 -0.046925961112427347 0.36446589286881009 0 -0.034276320251641283 0.34282206612864702 0 -0.021124708934325921 0.35564866915498361 0 -0.046192251460743447 0.34598703554363702 0 -0.021124708934325921 0.35564866915498361 0 -0.039104805720823227 0.35618275869992938 0 -0.046192251460743447 0.34598703554363702 0 -0.021124708934325921 0.35564866915498361 0 -0.046192251460743447 0.34598703554363702 0 -0.039104805720823227 0.35618275869992938 0 -0.046192251460743447 0.34598703554363702 0 -0.051972601176704672 0.35675970400555063 0 -0.04311041341379776 0.36192452765193173 0 -0.039104805720823227 0.35618275869992938 0 -0.051972601176704672 0.35675970400555063 0 -0.046192251460743447 0.34598703554363702 0 -0.066911938965716039 0.35448421406914471 0 -0.071259793987160716 0.33632540193228971 0 -0.046192251460743447 0.34598703554363702 0 -0.051972601176704672 0.35675970400555063 0 -0.066911938965716039 0.35448421406914471 0 -0.051972601176704672 0.35675970400555063 0 -0.059723517795068168 0.36506026769318489 0 -0.066911938965716039 0.35448421406914471 0 -0.032897312064139907 0.37411907212457252 0 -0.049098878804771373 0.3725140996878949 0 -0.059723517795068168 0.36506026769318489 0 -0.049098878804771373 0.3725140996878949 0 -0.056089193364373929 0.37273715424054699 0 -0.050724207312953518 0.37700173675436199 0 -0.051972601176704672 0.35675970400555063 0 -0.046925961112427347 0.36446589286881009 0 -0.059723517795068168 0.36506026769318489 0 -0.04311041341379776 0.36192452765193173 0 -0.051972601176704672 0.35675970400555063 0 -0.046925961112427347 0.36446589286881009 0 -0.049098878804771373 0.3725140996878949 0 -0.059723517795068168 0.36506026769318489 0 -0.056089193364373929 0.37273715424054699 0 -0.059723517795068168 0.36506026769318489 0 -0.056089193364373929 0.37273715424054699 0 -0.062564083944274151 0.37264302620600032 0 -0.062075486208271788 0.37468365416042188 0 -0.062564083944274151 0.37264302620600032 0 -0.062075486208271788 0.37468365416042188 0 -0.062564083944274151 0.37264302620600032 0 -0.064607287490063475 0.3752877934920828 0 -0.069626031180744216 0.37451783031500979 0 -0.079039419043354958 0.3748493973737258 0 -0.082597891671162132 0.35089307241393791 0 -0.062564083944274151 0.37264302620600032 0 -0.066911938965716039 0.35448421406914471 0 -0.062564083944274151 0.37264302620600032 0 -0.069626031180744216 0.37451783031500979 0 -0.064607287490063475 0.3752877934920828 0 -0.062564083944274151 0.37264302620600032 0 -0.069626031180744216 0.37451783031500979 0 -0.082597891671162132 0.35089307241393791 0 -0.062564083944274151 0.37264302620600032 0 -0.082597891671162132 0.35089307241393791 0 -0.059723517795068168 0.36506026769318489 0 -0.062564083944274151 0.37264302620600032 0 -0.066911938965716039 0.35448421406914471 0 -0.090941745129797052 0.36956363188929697 0 -0.082597891671162132 0.35089307241393791 0 -0.097939085056313616 0.35825468271447503 0 -0.079039419043354958 0.3748493973737258 0 -0.090941745129797052 0.36956363188929697 0 -0.082597891671162132 0.35089307241393791 0 -0.082597891671162132 0.35089307241393791 0 -0.097939085056313616 0.35825468271447503 0 -0.099795521962392192 0.34663223796478099 0 -0.066911938965716039 0.35448421406914471 0 -0.071259793987160716 0.33632540193228971 0 -0.082597891671162132 0.35089307241393791 0 -0.066911938965716039 0.35448421406914471 0 -0.079003984513522238 0.34200566120660753 0 -0.066911938965716039 0.35448421406914471 0 -0.071259793987160716 0.33632540193228971 0 -0.079003984513522238 0.34200566120660753 0 -0.062564083944274151 0.37264302620600032 0 -0.082597891671162132 0.35089307241393791 0 -0.066911938965716039 0.35448421406914471 0 -0.056804034856699187 0.33429177223338907 0 -0.064831017760781137 0.32924814232959693 0 -0.071259793987160716 0.33632540193228971 0 -0.071259793987160716 0.33632540193228971 0 -0.079659291821908368 0.33308803351003258 0 -0.071259793987160716 0.33632540193228971 0 -0.079003984513522238 0.34200566120660753 0 -0.079659291821908368 0.33308803351003258 0 -0.0773699003786468 0.31080654871569757 0 -0.07000108740115632 0.31024084673351238 0 -0.05999398685661865 0.32296608029812152 0 -0.0773699003786468 0.31080654871569757 0 -0.071259793987160716 0.33632540193228971 0 -0.0773699003786468 0.31080654871569757 0 -0.071259793987160716 0.33632540193228971 0 -0.079659291821908368 0.33308803351003258 0 -0.0773699003786468 0.31080654871569757 0 -0.05999398685661865 0.32296608029812152 0 -0.0773699003786468 0.31080654871569757 0 -0.064831017760781137 0.32924814232959693 0 -0.071259793987160716 0.33632540193228971 0 -0.0773699003786468 0.31080654871569757 0 -0.05999398685661865 0.32296608029812152 0 -0.064831017760781137 0.32924814232959693 0 -0.07000108740115632 0.31024084673351238 0 -0.05903493703298672 0.30842013861035528 0 -0.05999398685661865 0.32296608029812152 0 -0.091673901452025128 0.31746800270450398 0 -0.079659291821908368 0.33308803351003258 0 -0.1026316993980491 0.32914311862187462 0 -0.0773699003786468 0.31080654871569757 0 -0.091673901452025128 0.31746800270450398 0 -0.079659291821908368 0.33308803351003258 0 -0.082597891671162132 0.35089307241393791 0 -0.1026316993980491 0.32914311862187462 0 -0.082597891671162132 0.35089307241393791 0 -0.079003984513522238 0.34200566120660753 0 -0.1026316993980491 0.32914311862187462 0 -0.079003984513522238 0.34200566120660753 0 -0.079659291821908368 0.33308803351003258 0 -0.1026316993980491 0.32914311862187462 0 -0.082597891671162132 0.35089307241393791 0 -0.1026316993980491 0.32914311862187462 0 -0.099795521962392192 0.34663223796478099 0 -0.1026316993980491 0.32914311862187462 0 -0.11309959964963499 0.35023802862820708 0 -0.099795521962392192 0.34663223796478099 0 -0.1041414057358224 0.31201579539373148 0 -0.091673901452025128 0.31746800270450398 0 -0.1026316993980491 0.32914311862187462 0 -0.122665507124936 0.30739316482981133 0 -0.1041414057358224 0.31201579539373148 0 -0.1026316993980491 0.32914311862187462 0 -0.122665507124936 0.30739316482981133 0 -0.1026316993980491 0.32914311862187462 0 -0.1213981112161233 0.32606083512094008 0 -0.122665507124936 0.30739316482981133 0 -0.1026316993980491 0.32914311862187462 0 -0.1026316993980491 0.32914311862187462 0 -0.1215793900664241 0.33965542352680428 0 -0.11309959964963499 0.35023802862820708 0 -0.1026316993980491 0.32914311862187462 0 -0.1213981112161233 0.32606083512094008 0 -0.1215793900664241 0.33965542352680428 0 -0.1215793900664241 0.33965542352680428 0 -0.11309959964963499 0.35023802862820708 0 -0.1223522029902982 0.35608225162756879 0 -0.11309959964963499 0.35023802862820708 0 -0.1223522029902982 0.35608225162756879 0 -0.1091573093543224 0.361674516205302 0 -0.12881796099468981 0.36725667352730101 0 -0.1223522029902982 0.35608225162756879 0 -0.11881971476920231 0.36528086459794751 0 -0.12881796099468981 0.36725667352730101 0 -0.11881971476920231 0.36528086459794751 0 -0.114951385737499 0.37611001703161828 0 -0.11881971476920231 0.36528086459794751 0 -0.1091573093543224 0.361674516205302 0 -0.114951385737499 0.37611001703161828 0 -0.1223522029902982 0.35608225162756879 0 -0.11881971476920231 0.36528086459794751 0 -0.1091573093543224 0.361674516205302 0 -0.1091573093543224 0.361674516205302 0 -0.1012990589455684 0.36953412384373102 0 -0.097939085056313616 0.35825468271447503 0 -0.1091573093543224 0.361674516205302 0 -0.1012990589455684 0.36953412384373102 0 -0.114951385737499 0.37611001703161828 0 -0.090941745129797052 0.36956363188929697 0 -0.1012990589455684 0.36953412384373102 0 -0.098890550417286477 0.38099249480062602 0 -0.090941745129797052 0.36956363188929697 0 -0.1012990589455684 0.36953412384373102 0 -0.097939085056313616 0.35825468271447503 0 -0.11309959964963499 0.35023802862820708 0 -0.097939085056313616 0.35825468271447503 0 -0.099795521962392192 0.34663223796478099 0 -0.11309959964963499 0.35023802862820708 0 -0.1091573093543224 0.361674516205302 0 -0.097939085056313616 0.35825468271447503 0 -0.094424665366596924 0.39634464281418252 0 -0.11202845405726 0.40531330452479791 0 -0.098926296137628822 0.41605616341005208 0 -0.1085605322944487 0.39079571404043828 0 -0.094424665366596924 0.39634464281418252 0 -0.11202845405726 0.40531330452479791 0 -0.1085605322944487 0.39079571404043828 0 -0.098890550417286477 0.38099249480062602 0 -0.114951385737499 0.37611001703161828 0 -0.1085605322944487 0.39079571404043828 0 -0.094424665366596924 0.39634464281418252 0 -0.098890550417286477 0.38099249480062602 0 -0.1012990589455684 0.36953412384373102 0 -0.098890550417286477 0.38099249480062602 0 -0.114951385737499 0.37611001703161828 0 -0.1085605322944487 0.39079571404043828 0 -0.114951385737499 0.37611001703161828 0 -0.1224972888069677 0.39405447109156733 0 -0.13238272395945991 0.37847398983736519 0 -0.114951385737499 0.37611001703161828 0 -0.1224972888069677 0.39405447109156733 0 -0.1277268958593005 0.40709158096490278 0 -0.1224972888069677 0.39405447109156733 0 -0.11202845405726 0.40531330452479791 0 -0.1085605322944487 0.39079571404043828 0 -0.1224972888069677 0.39405447109156733 0 -0.11202845405726 0.40531330452479791 0 -0.11202845405726 0.40531330452479791 0 -0.12025274126089 0.42574105579372712 0 -0.098926296137628822 0.41605616341005208 0 -0.12025274126089 0.42574105579372712 0 -0.098926296137628822 0.41605616341005208 0 -0.1277268958593005 0.40709158096490278 0 -0.11202845405726 0.40531330452479791 0 -0.12025274126089 0.42574105579372712 0 -0.12025274126089 0.42574105579372712 0 -0.1161249595423428 0.42742254588607831 0 -0.098926296137628822 0.41605616341005208 0 -0.12509104342100061 0.44188941827772182 0 -0.1161249595423428 0.42742254588607831 0 -0.098677616465060528 0.43762344985591101 0 -0.1161249595423428 0.42742254588607831 0 -0.090695480784097504 0.41727281212483158 0 -0.1161249595423428 0.42742254588607831 0 -0.090695480784097504 0.41727281212483158 0 -0.098677616465060528 0.43762344985591101 0 -0.1161249595423428 0.42742254588607831 0 -0.098926296137628822 0.41605616341005208 0 -0.090695480784097504 0.41727281212483158 0 -0.098926296137628822 0.41605616341005208 0 -0.077599851014367602 0.40637127102637732 0 -0.094424665366596924 0.39634464281418252 0 -0.098926296137628822 0.41605616341005208 0 -0.077599851014367602 0.40637127102637732 0 -0.098926296137628822 0.41605616341005208 0 -0.090695480784097504 0.41727281212483158 0 -0.077599851014367602 0.40637127102637732 0 -0.090695480784097504 0.41727281212483158 0 -0.077599851014367602 0.40637127102637732 0 -0.077475511178084946 0.4171549142493044 0 -0.077475511178084946 0.4171549142493044 0 -0.098677616465060528 0.43762344985591101 0 -0.090695480784097504 0.41727281212483158 0 -0.077475511178084946 0.4171549142493044 0 -0.098677616465060528 0.43762344985591101 0 -0.077475511178084946 0.4171549142493044 0 -0.078698858269308614 0.44343419105434712 0 -0.098677616465060528 0.43762344985591101 0 -0.077475511178084946 0.4171549142493044 0 -0.059178928229814701 0.4365201208845606 0 -0.055106871557328428 0.42305161159228227 0 -0.077475511178084946 0.4171549142493044 0 -0.059178928229814701 0.4365201208845606 0 -0.078698858269308614 0.44343419105434712 0 -0.077475511178084946 0.4171549142493044 0 -0.056273405891107527 0.39668637864269979 0 -0.077599851014367602 0.40637127102637732 0 -0.077475511178084946 0.4171549142493044 0 -0.056273405891107527 0.39668637864269979 0 -0.077599851014367602 0.40637127102637732 0 -0.056273405891107527 0.39668637864269979 0 -0.077599851014367602 0.40637127102637732 0 -0.078331801269405671 0.3911923311589619 0 -0.056273405891107527 0.39668637864269979 0 -0.094424665366596924 0.39634464281418252 0 -0.077599851014367602 0.40637127102637732 0 -0.078331801269405671 0.3911923311589619 0 -0.094424665366596924 0.39634464281418252 0 -0.078331801269405671 0.3911923311589619 0 -0.087166581823546807 0.38268142547449258 0 -0.079039419043354958 0.3748493973737258 0 -0.078331801269405671 0.3911923311589619 0 -0.087166581823546807 0.38268142547449258 0 -0.090941745129797052 0.36956363188929697 0 -0.098890550417286477 0.38099249480062602 0 -0.087166581823546807 0.38268142547449258 0 -0.094424665366596924 0.39634464281418252 0 -0.098890550417286477 0.38099249480062602 0 -0.087166581823546807 0.38268142547449258 0 -0.079039419043354958 0.3748493973737258 0 -0.090941745129797052 0.36956363188929697 0 -0.087166581823546807 0.38268142547449258 0 -0.078331801269405671 0.3911923311589619 0 -0.070241768304658683 0.38125320512289401 0 -0.062400115896225239 0.38328565763688038 0 -0.078331801269405671 0.3911923311589619 0 -0.047880784994249512 0.38858413326022379 0 -0.069626031180744216 0.37451783031500979 0 -0.079039419043354958 0.3748493973737258 0 -0.070241768304658683 0.38125320512289401 0 -0.078331801269405671 0.3911923311589619 0 -0.062400115896225239 0.38328565763688038 0 -0.047880784994249512 0.38858413326022379 0 -0.079039419043354958 0.3748493973737258 0 -0.078331801269405671 0.3911923311589619 0 -0.070241768304658683 0.38125320512289401 0 -0.070241768304658683 0.38125320512289401 0 -0.064210651178174066 0.37904237845721811 0 -0.062400115896225239 0.38328565763688038 0 -0.069626031180744216 0.37451783031500979 0 -0.070241768304658683 0.38125320512289401 0 -0.064210651178174066 0.37904237845721811 0 -0.069626031180744216 0.37451783031500979 0 -0.064210651178174066 0.37904237845721811 0 -0.064607287490063475 0.3752877934920828 0 -0.062075486208271788 0.37468365416042188 0 -0.064210651178174066 0.37904237845721811 0 -0.064607287490063475 0.3752877934920828 0 -0.062075486208271788 0.37468365416042188 0 -0.064210651178174066 0.37904237845721811 0 -0.059083848751135488 0.37840884602566088 0 -0.059083848751135488 0.37840884602566088 0 -0.062400115896225239 0.38328565763688038 0 -0.054293362626053041 0.38162223819359442 0 -0.062075486208271788 0.37468365416042188 0 -0.062564083944274151 0.37264302620600032 0 -0.059083848751135488 0.37840884602566088 0 -0.062564083944274151 0.37264302620600032 0 -0.054293362626053041 0.38162223819359442 0 -0.062564083944274151 0.37264302620600032 0 -0.059083848751135488 0.37840884602566088 0 -0.054293362626053041 0.38162223819359442 0 -0.056089193364373929 0.37273715424054699 0 -0.062564083944274151 0.37264302620600032 0 -0.054293362626053041 0.38162223819359442 0 -0.059083848751135488 0.37840884602566088 0 -0.054293362626053041 0.38162223819359442 0 -0.064210651178174066 0.37904237845721811 0 -0.059083848751135488 0.37840884602566088 0 -0.062400115896225239 0.38328565763688038 0 -0.062400115896225239 0.38328565763688038 0 -0.047880784994249512 0.38858413326022379 0 -0.054293362626053041 0.38162223819359442 0 -0.047880784994249512 0.38858413326022379 0 -0.054293362626053041 0.38162223819359442 0 -0.047880784994249512 0.38858413326022379 0 -0.054293362626053041 0.38162223819359442 0 -0.046254793771615982 0.3870143995575549 0 -0.047836657145122599 0.38128015361824008 0 -0.054293362626053041 0.38162223819359442 0 -0.046254793771615982 0.3870143995575549 0 -0.054293362626053041 0.38162223819359442 0 -0.046254793771615982 0.3870143995575549 0 -0.047880784994249512 0.38858413326022379 0 -0.046254793771615982 0.3870143995575549 0 -0.056089193364373929 0.37273715424054699 0 -0.050724207312953518 0.37700173675436199 0 -0.054293362626053041 0.38162223819359442 0 -0.049098878804771373 0.3725140996878949 0 -0.050724207312953518 0.37700173675436199 0 -0.043775979817191349 0.37615739516056462 0 -0.047836657145122599 0.38128015361824008 0 -0.050724207312953518 0.37700173675436199 0 -0.043775979817191349 0.37615739516056462 0 -0.047836657145122599 0.38128015361824008 0 -0.050724207312953518 0.37700173675436199 0 -0.054293362626053041 0.38162223819359442 0 -0.078331801269405671 0.3911923311589619 0 -0.047880784994249512 0.38858413326022379 0 -0.056273405891107527 0.39668637864269979 0 -0.047880784994249512 0.38858413326022379 0 -0.056273405891107527 0.39668637864269979 0 -0.045094078598563243 0.39160955589403151 0 -0.056273405891107527 0.39668637864269979 0 -0.048342871606355781 0.40097934792702961 0 -0.045094078598563243 0.39160955589403151 0 -0.047880784994249512 0.38858413326022379 0 -0.056273405891107527 0.39668637864269979 0 -0.056273405891107527 0.39668637864269979 0 -0.045094078598563243 0.39160955589403151 0 -0.056273405891107527 0.39668637864269979 0 -0.048342871606355781 0.40097934792702961 0 -0.051161828253680347 0.40954535298997258 0 -0.04342775431262437 0.39341862168501102 0 -0.028839939204686131 0.40925606551247828 0 -0.042973684961738069 0.41592643291826231 0 -0.048342871606355781 0.40097934792702961 0 -0.04342775431262437 0.39341862168501102 0 -0.042973684961738069 0.41592643291826231 0 -0.041701311968281377 0.39006881248802111 0 -0.02243782954129785 0.40299049140363558 0 -0.041701311968281377 0.39006881248802111 0 -0.03457878247319518 0.38683428693719679 0 -0.02243782954129785 0.40299049140363558 0 -0.04342775431262437 0.39341862168501102 0 -0.041701311968281377 0.39006881248802111 0 -0.02243782954129785 0.40299049140363558 0 -0.04342775431262437 0.39341862168501102 0 -0.028839939204686131 0.40925606551247828 0 -0.04342775431262437 0.39341862168501102 0 -0.042973684961738069 0.41592643291826231 0 -0.04342775431262437 0.39341862168501102 0 -0.02243782954129785 0.40299049140363558 0 -0.028839939204686131 0.40925606551247828 0 -0.048342871606355781 0.40097934792702961 0 -0.04342775431262437 0.39341862168501102 0 -0.045094078598563243 0.39160955589403151 0 -0.04342775431262437 0.39341862168501102 0 -0.045094078598563243 0.39160955589403151 0 -0.043479046219812342 0.39087612776318198 0 -0.04342775431262437 0.39341862168501102 0 -0.043479046219812342 0.39087612776318198 0 -0.045094078598563243 0.39160955589403151 0 -0.043479046219812342 0.39087612776318198 0 -0.045094078598563243 0.39160955589403151 0 -0.043479046219812342 0.39087612776318198 0 -0.045172553619539632 0.38973569244798251 0 -0.04342775431262437 0.39341862168501102 0 -0.045094078598563243 0.39160955589403151 0 -0.04342775431262437 0.39341862168501102 0 -0.043479046219812342 0.39087612776318198 0 -0.041701311968281377 0.39006881248802111 0 -0.047836657145122599 0.38128015361824008 0 -0.043775979817191349 0.37615739516056462 0 -0.043608491196287617 0.38445965616034072 0 -0.043775979817191349 0.37615739516056462 0 -0.043608491196287617 0.38445965616034072 0 -0.032897312064139907 0.37411907212457252 0 -0.043775979817191349 0.37615739516056462 0 -0.043608491196287617 0.38445965616034072 0 -0.047836657145122599 0.38128015361824008 0 -0.043608491196287617 0.38445965616034072 0 -0.046254793771615982 0.3870143995575549 0 -0.043542573639619581 0.38772713043400647 0 -0.041701311968281377 0.39006881248802111 0 -0.03457878247319518 0.38683428693719679 0 -0.043608491196287617 0.38445965616034072 0 -0.043542573639619581 0.38772713043400647 0 -0.03457878247319518 0.38683428693719679 0 -0.043608491196287617 0.38445965616034072 0 -0.046254793771615982 0.3870143995575549 0 -0.043608491196287617 0.38445965616034072 0 -0.046254793771615982 0.3870143995575549 0 -0.043542573639619581 0.38772713043400647 0 -0.043608491196287617 0.38445965616034072 0 -0.043542573639619581 0.38772713043400647 0 -0.047880784994249512 0.38858413326022379 0 -0.045094078598563243 0.39160955589403151 0 -0.047880784994249512 0.38858413326022379 0 -0.045094078598563243 0.39160955589403151 0 -0.045172553619539632 0.38973569244798251 0 -0.047880784994249512 0.38858413326022379 0 -0.045172553619539632 0.38973569244798251 0 -0.046254793771615982 0.3870143995575549 0 -0.045172553619539632 0.38973569244798251 0 -0.046254793771615982 0.3870143995575549 0 -0.043542573639619581 0.38772713043400647 0 -0.046254793771615982 0.3870143995575549 0 -0.043542573639619581 0.38772713043400647 0 -0.043479046219812342 0.39087612776318198 0 -0.045172553619539632 0.38973569244798251 0 -0.043542573639619581 0.38772713043400647 0 -0.043479046219812342 0.39087612776318198 0 -0.043542573639619581 0.38772713043400647 0 -0.043542573639619581 0.38772713043400647 0 -0.041701311968281377 0.39006881248802111 0 -0.043479046219812342 0.39087612776318198 0 -0.043542573639619581 0.38772713043400647 0 -0.041701311968281377 0.39006881248802111 0 -0.043479046219812342 0.39087612776318198 0 -0.041701311968281377 0.39006881248802111 0 -0.043542573639619581 0.38772713043400647 0 -0.03457878247319518 0.38683428693719679 0 -0.041701311968281377 0.39006881248802111 0 -0.03457878247319518 0.38683428693719679 0 -0.032897312064139907 0.37411907212457252 0 -0.043608491196287617 0.38445965616034072 0 -0.032897312064139907 0.37411907212457252 0 -0.043608491196287617 0.38445965616034072 0 -0.03457878247319518 0.38683428693719679 0 -0.03457878247319518 0.38683428693719679 0 -0.017803283764421592 0.37921609746689411 0 -0.03457878247319518 0.38683428693719679 0 -0.017803283764421592 0.37921609746689411 0 -0.019390911734903489 0.38532149046890818 0 -0.032897312064139907 0.37411907212457252 0 -0.017803283764421592 0.37921609746689411 0 -0.032897312064139907 0.37411907212457252 0 -0.03457878247319518 0.38683428693719679 0 -0.017803283764421592 0.37921609746689411 0 -0.03457878247319518 0.38683428693719679 0 -0.019390911734903489 0.38532149046890818 0 -0.019390911734903489 0.38532149046890818 0 -0.02243782954129785 0.40299049140363558 0 -0.0064316016559190746 0.3999483233353413 0 -0.03457878247319518 0.38683428693719679 0 -0.019390911734903489 0.38532149046890818 0 -0.02243782954129785 0.40299049140363558 0 -0.0064316016559190746 0.3999483233353413 0 -0.0042030409966118051 0.38380869400061962 0 0.010437450069317761 0.40463061763750507 0 -0.001064505034491721 0.37161458349227261 0 -0.017803283764421592 0.37921609746689411 0 -0.001064505034491721 0.37161458349227261 0 -0.017803283764421592 0.37921609746689411 0 -0.0042030409966118051 0.38380869400061962 0 -0.019390911734903489 0.38532149046890818 0 -0.0064316016559190746 0.3999483233353413 0 -0.0042030409966118051 0.38380869400061962 0 -0.017803283764421592 0.37921609746689411 0 -0.0042030409966118051 0.38380869400061962 0 -0.017803283764421592 0.37921609746689411 0 -0.019390911734903489 0.38532149046890818 0 -0.0042030409966118051 0.38380869400061962 0 -0.019390911734903489 0.38532149046890818 0 -0.0042030409966118051 0.38380869400061962 0 -0.014252124096747171 0.42509350933994478 0 0.0048617880261327502 0.44584476697033082 0 -0.014252124096747171 0.42509350933994478 0 -0.010454900682288101 0.44126855924159908 0 0.0048617880261327502 0.44584476697033082 0 -0.014252124096747171 0.42509350933994478 0 -0.0026301228576318379 0.42717885202372191 0 0.0048617880261327502 0.44584476697033082 0 -0.014252124096747171 0.42509350933994478 0 -0.0026301228576318379 0.42717885202372191 0 -0.003174347114314008 0.41591217031924949 0 -0.02243782954129785 0.40299049140363558 0 -0.0064316016559190746 0.3999483233353413 0 -0.003174347114314008 0.41591217031924949 0 -0.02243782954129785 0.40299049140363558 0 -0.003174347114314008 0.41591217031924949 0 -0.02243782954129785 0.40299049140363558 0 -0.014252124096747171 0.42509350933994478 0 -0.003174347114314008 0.41591217031924949 0 -0.014252124096747171 0.42509350933994478 0 -0.003174347114314008 0.41591217031924949 0 -0.014252124096747171 0.42509350933994478 0 -0.028839939204686131 0.40925606551247828 0 -0.02243782954129785 0.40299049140363558 0 -0.014252124096747171 0.42509350933994478 0 -0.028839939204686131 0.40925606551247828 0 -0.014252124096747171 0.42509350933994478 0 -0.028839939204686131 0.40925606551247828 0 -0.022470349574322469 0.43190483207895858 0 -0.014252124096747171 0.42509350933994478 0 -0.022470349574322469 0.43190483207895858 0 -0.010454900682288101 0.44126855924159908 0 -0.014252124096747171 0.42509350933994478 0 -0.022470349574322469 0.43190483207895858 0 -0.022470349574322469 0.43190483207895858 0 -0.010454900682288101 0.44126855924159908 0 -0.022470349574322469 0.43190483207895858 0 -0.042646571141636773 0.43214117214318359 0 -0.04231945732153318 0.44835591136810488 0 -0.022470349574322469 0.43190483207895858 0 -0.042646571141636773 0.43214117214318359 0 -0.042973684961738069 0.41592643291826231 0 -0.042646571141636773 0.43214117214318359 0 -0.042973684961738069 0.41592643291826231 0 -0.022470349574322469 0.43190483207895858 0 -0.042973684961738069 0.41592643291826231 0 -0.028839939204686131 0.40925606551247828 0 -0.022470349574322469 0.43190483207895858 0 -0.042973684961738069 0.41592643291826231 0 -0.077475511178084946 0.4171549142493044 0 -0.051161828253680347 0.40954535298997258 0 -0.055106871557328428 0.42305161159228227 0 -0.077475511178084946 0.4171549142493044 0 -0.056273405891107527 0.39668637864269979 0 -0.051161828253680347 0.40954535298997258 0 -0.048342871606355781 0.40097934792702961 0 -0.042973684961738069 0.41592643291826231 0 -0.051161828253680347 0.40954535298997258 0 -0.042973684961738069 0.41592643291826231 0 -0.051161828253680347 0.40954535298997258 0 -0.042973684961738069 0.41592643291826231 0 -0.051161828253680347 0.40954535298997258 0 -0.055106871557328428 0.42305161159228227 0 -0.042646571141636773 0.43214117214318359 0 -0.059178928229814701 0.4365201208845606 0 -0.055106871557328428 0.42305161159228227 0 -0.042646571141636773 0.43214117214318359 0 -0.042973684961738069 0.41592643291826231 0 -0.055106871557328428 0.42305161159228227 0 -0.042646571141636773 0.43214117214318359 0 -0.059178928229814701 0.4365201208845606 0 -0.049245987713513212 0.44319563894678482 0 -0.059178928229814701 0.4365201208845606 0 -0.050742244958162368 0.46439359559444437 0 -0.049245987713513212 0.44319563894678482 0 -0.050742244958162368 0.46439359559444437 0 -0.044608833217136261 0.45025336211807931 0 -0.059178928229814701 0.4365201208845606 0 -0.050742244958162368 0.46439359559444437 0 -0.065484051744298263 0.4513847118260722 0 -0.059178928229814701 0.4365201208845606 0 -0.049245987713513212 0.44319563894678482 0 -0.050742244958162368 0.46439359559444437 0 -0.050742244958162368 0.46439359559444437 0 -0.061707257777874093 0.47273252787991399 0 -0.073231504917427276 0.46237159316971249 0 -0.050742244958162368 0.46439359559444437 0 -0.073231504917427276 0.46237159316971249 0 -0.0419800222431604 0.46518140433549732 0 -0.04231945732153318 0.44835591136810488 0 -0.025697431038521311 0.45487791879973932 0 -0.0419800222431604 0.46518140433549732 0 -0.04231945732153318 0.44835591136810488 0 -0.0419800222431604 0.46518140433549732 0 -0.044608833217136261 0.45025336211807931 0 -0.04231945732153318 0.44835591136810488 0 -0.050742244958162368 0.46439359559444437 0 -0.0419800222431604 0.46518140433549732 0 -0.050742244958162368 0.46439359559444437 0 -0.0419800222431604 0.46518140433549732 0 -0.044608833217136261 0.45025336211807931 0 -0.022470349574322469 0.43190483207895858 0 -0.04231945732153318 0.44835591136810488 0 -0.042646571141636773 0.43214117214318359 0 -0.049245987713513212 0.44319563894678482 0 -0.04231945732153318 0.44835591136810488 0 -0.042646571141636773 0.43214117214318359 0 -0.04231945732153318 0.44835591136810488 0 -0.049245987713513212 0.44319563894678482 0 -0.044608833217136261 0.45025336211807931 0 -0.04231945732153318 0.44835591136810488 0 -0.044608833217136261 0.45025336211807931 0 -0.04231945732153318 0.44835591136810488 0 -0.022470349574322469 0.43190483207895858 0 -0.04231945732153318 0.44835591136810488 0 -0.022362297003099281 0.44511471557515531 0 -0.04231945732153318 0.44835591136810488 0 -0.022362297003099281 0.44511471557515531 0 -0.025697431038521311 0.45487791879973932 0 -0.022470349574322469 0.43190483207895858 0 -0.022362297003099281 0.44511471557515531 0 -0.010454900682288101 0.44126855924159908 0 -0.022362297003099281 0.44511471557515531 0 -0.025697431038521311 0.45487791879973932 0 -0.01311544116488466 0.453963754661173 0 -0.0419800222431604 0.46518140433549732 0 -0.025697431038521311 0.45487791879973932 0 -0.01345201465746383 0.46774634869629322 0 -0.0419800222431604 0.46518140433549732 0 -0.01345201465746383 0.46774634869629322 0 -0.025697431038521311 0.45487791879973932 0 -0.01311544116488466 0.453963754661173 0 -0.01345201465746383 0.46774634869629322 0 -0.0094095992007081283 0.46654139838691122 0 -0.010427957625441169 0.46801824073108461 0 0.0053167838454733218 0.46943384557929257 0 -0.0094095992007081283 0.46654139838691122 0 0.0015605482097463411 0.45063228640423969 0 -0.010427957625441169 0.46801824073108461 0 0.0053167838454733218 0.46943384557929257 0 -0.0094095992007081283 0.46654139838691122 0 0.0080738590363113663 0.46132998490476868 0 -0.01311544116488466 0.453963754661173 0 -0.0094095992007081283 0.46654139838691122 0 0.0015605482097463411 0.45063228640423969 0 -0.01311544116488466 0.453963754661173 0 -0.01345201465746383 0.46774634869629322 0 -0.0094095992007081283 0.46654139838691122 0 -0.01345201465746383 0.46774634869629322 0 -0.010427957625441169 0.46801824073108461 0 -0.01345201465746383 0.46774634869629322 0 -0.0094095992007081283 0.46654139838691122 0 -0.01345201465746383 0.46774634869629322 0 -0.0094095992007081283 0.46654139838691122 0 -0.010427957625441169 0.46801824073108461 0 -0.0094095992007081283 0.46654139838691122 0 -0.010427957625441169 0.46801824073108461 0 -0.01311544116488466 0.453963754661173 0 -0.010454900682288101 0.44126855924159908 0 0.0015605482097463411 0.45063228640423969 0 -0.010454900682288101 0.44126855924159908 0 0.0048617880261327502 0.44584476697033082 0 0.0015605482097463411 0.45063228640423969 0 -0.010454900682288101 0.44126855924159908 0 0.0015605482097463411 0.45063228640423969 0 -0.022362297003099281 0.44511471557515531 0 -0.01311544116488466 0.453963754661173 0 -0.010454900682288101 0.44126855924159908 0 -0.0067005321321746969 0.5 0 -0.003880604538310756 0.48346324919380129 0 -0.021454488019086362 0.48400912036554289 0 -0.01345201465746383 0.46774634869629322 0 -0.010427957625441169 0.46801824073108461 0 -0.021454488019086362 0.48400912036554289 0 -0.010427957625441169 0.46801824073108461 0 -0.003880604538310756 0.48346324919380129 0 -0.021454488019086362 0.48400912036554289 0 -0.010427957625441169 0.46801824073108461 0 -0.001026908195020756 0.47486914558720472 0 0.0053167838454733218 0.46943384557929257 0 -0.010427957625441169 0.46801824073108461 0 -0.003880604538310756 0.48346324919380129 0 -0.001026908195020756 0.47486914558720472 0 -0.010427957625441169 0.46801824073108461 0 -0.021454488019086362 0.48400912036554289 0 -0.01345201465746383 0.46774634869629322 0 -0.021454488019086362 0.48400912036554289 0 -0.032447842195153342 0.48378293317924542 0 -0.01345201465746383 0.46774634869629322 0 -0.032447842195153342 0.48378293317924542 0 -0.041758062999807367 0.47618372532725728 0 -0.01345201465746383 0.46774634869629322 0 -0.041758062999807367 0.47618372532725728 0 -0.021454488019086362 0.48400912036554289 0 -0.032481018412731863 0.50000000000000089 0 -0.033555046977316587 0.49207813668870121 0 -0.021454488019086362 0.48400912036554289 0 -0.032481018412731863 0.50000000000000089 0 -0.021454488019086362 0.48400912036554289 0 -0.033555046977316587 0.49207813668870121 0 -0.032447842195153342 0.48378293317924542 0 -0.0067005321321746969 0.5 0 -0.021454488019086362 0.48400912036554289 0 -0.032481018412731863 0.50000000000000089 0 -0.033555046977316587 0.49207813668870121 0 -0.039964975186860582 0.49999999999999872 0 -0.042139887415076342 0.49281443204190178 0 -0.032481018412731863 0.50000000000000089 0 -0.033555046977316587 0.49207813668870121 0 -0.039964975186860582 0.49999999999999872 0 -0.042139887415076342 0.49281443204190178 0 -0.041758062999807367 0.47618372532725728 0 -0.033555046977316587 0.49207813668870121 0 -0.042139887415076342 0.49281443204190178 0 -0.032447842195153342 0.48378293317924542 0 -0.042139887415076342 0.49281443204190178 0 -0.046725468384182907 0.47766439368476649 0 -0.039964975186860582 0.49999999999999872 0 -0.042139887415076342 0.49281443204190178 0 -0.053580454847170257 0.49193017513362319 0 -0.039964975186860582 0.49999999999999872 0 -0.042139887415076342 0.49281443204190178 0 -0.042139887415076342 0.49281443204190178 0 -0.046725468384182907 0.47766439368476649 0 -0.041758062999807367 0.47618372532725728 0 -0.0419800222431604 0.46518140433549732 0 -0.01345201465746383 0.46774634869629322 0 -0.041758062999807367 0.47618372532725728 0 -0.042139887415076342 0.49281443204190178 0 -0.032447842195153342 0.48378293317924542 0 -0.041758062999807367 0.47618372532725728 0 -0.046725468384182907 0.47766439368476649 0 -0.041758062999807367 0.47618372532725728 0 -0.0419800222431604 0.46518140433549732 0 -0.046725468384182907 0.47766439368476649 0 -0.041758062999807367 0.47618372532725728 0 -0.050742244958162368 0.46439359559444437 0 -0.0419800222431604 0.46518140433549732 0 -0.046725468384182907 0.47766439368476649 0 -0.0419800222431604 0.46518140433549732 0 -0.041758062999807367 0.47618372532725728 0 -0.046725468384182907 0.47766439368476649 0 -0.061707257777874093 0.47273252787991399 0 -0.071702929972361051 0.48510959578984503 0 -0.046725468384182907 0.47766439368476649 0 -0.071702929972361051 0.48510959578984503 0 -0.050742244958162368 0.46439359559444437 0 -0.046725468384182907 0.47766439368476649 0 -0.061707257777874093 0.47273252787991399 0 -0.050742244958162368 0.46439359559444437 0 -0.046725468384182907 0.47766439368476649 0 -0.046725468384182907 0.47766439368476649 0 -0.053580454847170257 0.49193017513362319 0 -0.071702929972361051 0.48510959578984503 0 -0.039964975186860582 0.49999999999999872 0 -0.053580454847170257 0.49193017513362319 0 -0.067195934507479516 0.5 0 -0.042139887415076342 0.49281443204190178 0 -0.046725468384182907 0.47766439368476649 0 -0.053580454847170257 0.49193017513362319 0 -0.053580454847170257 0.49193017513362319 0 -0.067195934507479516 0.5 0 -0.071702929972361051 0.48510959578984503 0 -0.067195934507479516 0.5 0 -0.071702929972361051 0.48510959578984503 0 -0.094426893828098324 0.5 0 -0.071702929972361051 0.48510959578984503 0 -0.096680391560538939 0.49255479789492401 0 -0.071702929972361051 0.48510959578984503 0 -0.094426893828098324 0.5 0 -0.096680391560538939 0.49255479789492401 0 -0.071702929972361051 0.48510959578984503 0 -0.094342239683345888 0.46564946071770819 0 -0.096680391560538939 0.49255479789492401 0 -0.071702929972361051 0.48510959578984503 0 -0.073231504917427276 0.46237159316971249 0 -0.094342239683345888 0.46564946071770819 0 -0.061707257777874093 0.47273252787991399 0 -0.071702929972361051 0.48510959578984503 0 -0.073231504917427276 0.46237159316971249 0 -0.050742244958162368 0.46439359559444437 0 -0.073231504917427276 0.46237159316971249 0 -0.065484051744298263 0.4513847118260722 0 -0.059178928229814701 0.4365201208845606 0 -0.065484051744298263 0.4513847118260722 0 -0.078698858269308614 0.44343419105434712 0 -0.073231504917427276 0.46237159316971249 0 -0.065484051744298263 0.4513847118260722 0 -0.078698858269308614 0.44343419105434712 0 -0.078698858269308614 0.44343419105434712 0 -0.094342239683345888 0.46564946071770819 0 -0.098677616465060528 0.43762344985591101 0 -0.073231504917427276 0.46237159316971249 0 -0.078698858269308614 0.44343419105434712 0 -0.094342239683345888 0.46564946071770819 0 -0.094342239683345888 0.46564946071770819 0 -0.098677616465060528 0.43762344985591101 0 -0.11987972175203609 0.45809198546251739 0 -0.098677616465060528 0.43762344985591101 0 -0.11987972175203609 0.45809198546251739 0 -0.12509104342100061 0.44188941827772182 0 -0.098677616465060528 0.43762344985591101 0 -0.11987972175203609 0.45809198546251739 0 -0.094342239683345888 0.46564946071770819 0 -0.11987972175203609 0.45809198546251739 0 -0.1215246548466888 0.48036061179670092 0 -0.1215246548466888 0.48036061179670092 0 -0.1216578531487173 0.50000000000000155 0 -0.096680391560538939 0.49255479789492401 0 -0.1216578531487173 0.50000000000000155 0 -0.094426893828098324 0.5 0 -0.096680391560538939 0.49255479789492401 0 -0.1216578531487173 0.50000000000000155 0 -0.096680391560538939 0.49255479789492401 0 -0.094342239683345888 0.46564946071770819 0 -0.1215246548466888 0.48036061179670092 0 -0.096680391560538939 0.49255479789492401 0 -0.16310986573530631 0.084156321085019567 0 -0.17544541039362899 0.09436804860009354 0 -0.15783765240444911 0.096274401630791262 0 -0.16310986573530631 0.084156321085019567 0 -0.15783765240444911 0.096274401630791262 0 -0.16310986573530631 0.084156321085019567 0 -0.1657815390990264 0.070802932860687437 0 -0.15463431661472629 0.07014553381523804 0 -0.16310986573530631 0.084156321085019567 0 -0.1657815390990264 0.070802932860687437 0 -0.17966236107341149 0.074300518116336353 0 -0.1657815390990264 0.070802932860687437 0 -0.17966236107341149 0.074300518116336353 0 -0.1657196129726615 0.054609358426155781 0 -0.1657815390990264 0.070802932860687437 0 -0.15463431661472629 0.07014553381523804 0 -0.1657196129726615 0.054609358426155781 0 -0.17966236107341149 0.074300518116336353 0 -0.1657196129726615 0.054609358426155781 0 -0.19326118210642521 0.060262893486061127 0 -0.17966236107341149 0.074300518116336353 0 -0.1657196129726615 0.054609358426155781 0 -0.16310986573530631 0.084156321085019567 0 -0.17966236107341149 0.074300518116336353 0 -0.17544541039362899 0.09436804860009354 0 -0.17966236107341149 0.074300518116336353 0 -0.17544541039362899 0.09436804860009354 0 -0.19360510917416149 0.093991677806516877 0 -0.17966236107341149 0.074300518116336353 0 -0.19360510917416149 0.093991677806516877 0 -0.17544541039362899 0.09436804860009354 0 -0.18934336527218601 0.1087413065502997 0 -0.19360510917416149 0.093991677806516877 0 -0.17544541039362899 0.09436804860009354 0 -0.16911410870225951 0.1087440664115976 0 -0.18934336527218601 0.1087413065502997 0 -0.18039056500006781 0.12121373119240569 0 -0.16911410870225951 0.1087440664115976 0 -0.18934336527218601 0.1087413065502997 0 -0.18039056500006781 0.12121373119240569 0 -0.16911410870225951 0.1087440664115976 0 -0.18039056500006781 0.12121373119240569 0 -0.16911410870225951 0.1087440664115976 0 -0.15507510040999009 0.1056512286087255 0 -0.18039056500006781 0.12121373119240569 0 -0.15507510040999009 0.1056512286087255 0 -0.1628447509754036 0.1248738178506951 0 -0.15507510040999009 0.1056512286087255 0 -0.15358711882774939 0.11801712706942639 0 -0.18039056500006781 0.12121373119240569 0 -0.1628447509754036 0.1248738178506951 0 -0.15507510040999009 0.1056512286087255 0 -0.17544541039362899 0.09436804860009354 0 -0.16911410870225951 0.1087440664115976 0 -0.15783765240444911 0.096274401630791262 0 -0.16911410870225951 0.1087440664115976 0 -0.15783765240444911 0.096274401630791262 0 -0.16911410870225951 0.1087440664115976 0 -0.15783765240444911 0.096274401630791262 0 -0.15507510040999009 0.1056512286087255 0 -0.15783765240444911 0.096274401630791262 0 -0.14455303356647331 0.096744639073681929 0 -0.15139402388202119 0.11108495737684999 0 -0.14455303356647331 0.096744639073681929 0 -0.15139402388202119 0.11108495737684999 0 -0.12991930243541749 0.1020465165188278 0 -0.15783765240444911 0.096274401630791262 0 -0.15507510040999009 0.1056512286087255 0 -0.15139402388202119 0.11108495737684999 0 -0.15783765240444911 0.096274401630791262 0 -0.15139402388202119 0.11108495737684999 0 -0.15139402388202119 0.11108495737684999 0 -0.12991930243541749 0.1020465165188278 0 -0.14495039535959489 0.12589551312290931 0 -0.1628447509754036 0.1248738178506951 0 -0.15358711882774939 0.11801712706942639 0 -0.14495039535959489 0.12589551312290931 0 -0.15358711882774939 0.11801712706942639 0 -0.15139402388202119 0.11108495737684999 0 -0.14495039535959489 0.12589551312290931 0 -0.15507510040999009 0.1056512286087255 0 -0.15358711882774939 0.11801712706942639 0 -0.15139402388202119 0.11108495737684999 0 -0.15139402388202119 0.11108495737684999 0 -0.14495039535959489 0.12589551312290931 0 -0.12991930243541749 0.1020465165188278 0 -0.14495039535959489 0.12589551312290931 0 -0.12991930243541749 0.1020465165188278 0 -0.14495039535959489 0.12589551312290931 0 -0.13028426483969929 0.13221647237215789 0 -0.14455303356647331 0.096744639073681929 0 -0.12991930243541749 0.1020465165188278 0 -0.13683438329036771 0.088098653177494879 0 -0.12991930243541749 0.1020465165188278 0 -0.13683438329036771 0.088098653177494879 0 -0.1248370695698198 0.083226530136874921 0 -0.13683438329036771 0.088098653177494879 0 -0.13729578978526799 0.073558919561796721 0 -0.1248370695698198 0.083226530136874921 0 -0.13683438329036771 0.088098653177494879 0 -0.14756672109485969 0.08491666059629295 0 -0.13729578978526799 0.073558919561796721 0 -0.14455303356647331 0.096744639073681929 0 -0.13683438329036771 0.088098653177494879 0 -0.14756672109485969 0.08491666059629295 0 -0.14756672109485969 0.08491666059629295 0 -0.13729578978526799 0.073558919561796721 0 -0.16310986573530631 0.084156321085019567 0 -0.14756672109485969 0.08491666059629295 0 -0.15463431661472629 0.07014553381523804 0 -0.16310986573530631 0.084156321085019567 0 -0.15783765240444911 0.096274401630791262 0 -0.14756672109485969 0.08491666059629295 0 -0.15783765240444911 0.096274401630791262 0 -0.14756672109485969 0.08491666059629295 0 -0.15783765240444911 0.096274401630791262 0 -0.14455303356647331 0.096744639073681929 0 -0.14756672109485969 0.08491666059629295 0 -0.14756672109485969 0.08491666059629295 0 -0.15463431661472629 0.07014553381523804 0 -0.13729578978526799 0.073558919561796721 0 -0.15463431661472629 0.07014553381523804 0 -0.13729578978526799 0.073558919561796721 0 -0.14428807100988511 0.057223156242914672 0 -0.13729578978526799 0.073558919561796721 0 -0.1311901693420546 0.060374133793646992 0 -0.14428807100988511 0.057223156242914672 0 -0.13729578978526799 0.073558919561796721 0 -0.12498233095038511 0.069533312171706482 0 -0.1248370695698198 0.083226530136874921 0 -0.13729578978526799 0.073558919561796721 0 -0.1311901693420546 0.060374133793646992 0 -0.12498233095038511 0.069533312171706482 0 -0.1311901693420546 0.060374133793646992 0 -0.1304591025064194 0.044551821316570157 0 -0.1169815729820268 0.057446916627697332 0 -0.1311901693420546 0.060374133793646992 0 -0.1304591025064194 0.044551821316570157 0 -0.14428807100988511 0.057223156242914672 0 -0.1304591025064194 0.044551821316570157 0 -0.1338093633065561 0.031702984145267947 0 -0.14718764802187309 0.041237794311798179 0 -0.1304591025064194 0.044551821316570157 0 -0.1338093633065561 0.031702984145267947 0 -0.120950474974805 0.030974477430810402 0 -0.14718764802187309 0.041237794311798179 0 -0.14507935476777459 0.024735833563247479 0 -0.16332082262574071 0.033969476032413119 0 -0.1338093633065561 0.031702984145267947 0 -0.14718764802187309 0.041237794311798179 0 -0.14507935476777459 0.024735833563247479 0 -0.1304591025064194 0.044551821316570157 0 -0.14718764802187309 0.041237794311798179 0 -0.14428807100988511 0.057223156242914672 0 -0.15463431661472629 0.07014553381523804 0 -0.14428807100988511 0.057223156242914672 0 -0.1657196129726615 0.054609358426155781 0 -0.14718764802187309 0.041237794311798179 0 -0.14428807100988511 0.057223156242914672 0 -0.1657196129726615 0.054609358426155781 0 -0.1273771369441013 0.0023450629401116992 0 -0.12537023626190849 0.01701499410391356 0 -0.14358534871595791 0.0085390787577918573 0 -0.14275634286812811 -0.006203461430080404 0 -0.1273771369441013 0.0023450629401116992 0 -0.14358534871595791 0.0085390787577918573 0 -0.1338093633065561 0.031702984145267947 0 -0.12537023626190849 0.01701499410391356 0 -0.14507935476777459 0.024735833563247479 0 -0.12537023626190849 0.01701499410391356 0 -0.14507935476777459 0.024735833563247479 0 -0.14358534871595791 0.0085390787577918573 0 -0.1338093633065561 0.031702984145267947 0 -0.12537023626190849 0.01701499410391356 0 -0.120950474974805 0.030974477430810402 0 -0.14507935476777459 0.024735833563247479 0 -0.14358534871595791 0.0085390787577918573 0 -0.1631610812614456 0.0141265482177085 0 -0.15796117991031841 -0.00029962151665172479 0 -0.14358534871595791 0.0085390787577918573 0 -0.1631610812614456 0.0141265482177085 0 -0.14275634286812811 -0.006203461430080404 0 -0.15796117991031841 -0.00029962151665172479 0 -0.14358534871595791 0.0085390787577918573 0 -0.15796117991031841 -0.00029962151665172479 0 -0.17967452986780849 -0.0030086181600807401 0 -0.1631610812614456 0.0141265482177085 0 -0.1631610812614456 0.0141265482177085 0 -0.18063081477410151 0.02444866588981499 0 -0.16332082262574071 0.033969476032413119 0 -0.14507935476777459 0.024735833563247479 0 -0.1631610812614456 0.0141265482177085 0 -0.16332082262574071 0.033969476032413119 0 -0.17967452986780849 -0.0030086181600807401 0 -0.1631610812614456 0.0141265482177085 0 -0.18063081477410151 0.02444866588981499 0 -0.17967452986780849 -0.0030086181600807401 0 -0.18063081477410151 0.02444866588981499 0 -0.19591489879339791 0.012499298725408061 0 -0.1657196129726615 0.054609358426155781 0 -0.16332082262574071 0.033969476032413119 0 -0.1853408533429271 0.041769259974547668 0 -0.14718764802187309 0.041237794311798179 0 -0.1657196129726615 0.054609358426155781 0 -0.16332082262574071 0.033969476032413119 0 -0.18063081477410151 0.02444866588981499 0 -0.16332082262574071 0.033969476032413119 0 -0.1853408533429271 0.041769259974547668 0 -0.1657196129726615 0.054609358426155781 0 -0.1853408533429271 0.041769259974547668 0 -0.19326118210642521 0.060262893486061127 0 -0.1853408533429271 0.041769259974547668 0 -0.19326118210642521 0.060262893486061127 0 -0.20638984228336041 0.047204147208118788 0 -0.18063081477410151 0.02444866588981499 0 -0.1853408533429271 0.041769259974547668 0 -0.2003712226561333 0.029120430419108619 0 -0.1853408533429271 0.041769259974547668 0 -0.20638984228336041 0.047204147208118788 0 -0.2003712226561333 0.029120430419108619 0 -0.20638984228336041 0.047204147208118788 0 -0.2003712226561333 0.029120430419108619 0 -0.21890969838457369 0.03387481538926377 0 -0.20638984228336041 0.047204147208118788 0 -0.2248274879423891 0.050626958701997932 0 -0.21890969838457369 0.03387481538926377 0 -0.20638984228336041 0.047204147208118788 0 -0.2248274879423891 0.050626958701997932 0 -0.21240822864659401 0.064474545157398255 0 -0.19326118210642521 0.060262893486061127 0 -0.20638984228336041 0.047204147208118788 0 -0.21240822864659401 0.064474545157398255 0 -0.17967452986780849 -0.0030086181600807401 0 -0.20680301002479959 -0.0020434230711429339 0 -0.19591489879339791 0.012499298725408061 0 -0.18063081477410151 0.02444866588981499 0 -0.19591489879339791 0.012499298725408061 0 -0.2003712226561333 0.029120430419108619 0 -0.2003712226561333 0.029120430419108619 0 -0.2150412283584397 0.01492639532749848 0 -0.21890969838457369 0.03387481538926377 0 -0.19591489879339791 0.012499298725408061 0 -0.2003712226561333 0.029120430419108619 0 -0.2150412283584397 0.01492639532749848 0 -0.20680301002479959 -0.0020434230711429339 0 -0.19591489879339791 0.012499298725408061 0 -0.2150412283584397 0.01492639532749848 0 -0.20680301002479959 -0.0020434230711429339 0 -0.2150412283584397 0.01492639532749848 0 -0.22850437187820721 0.00061554774341724197 0 -0.2150412283584397 0.01492639532749848 0 -0.22850437187820721 0.00061554774341724197 0 -0.23416676111704099 0.01917273774715204 0 -0.23416676111704099 0.01917273774715204 0 -0.21890969838457369 0.03387481538926377 0 -0.23451298379830759 0.036058925104307242 0 -0.2150412283584397 0.01492639532749848 0 -0.23416676111704099 0.01917273774715204 0 -0.21890969838457369 0.03387481538926377 0 -0.25132042997239518 0.0027134119798401068 0 -0.25642639863326749 0.02710060176493858 0 -0.23416676111704099 0.01917273774715204 0 -0.25642639863326749 0.02710060176493858 0 -0.23416676111704099 0.01917273774715204 0 -0.23451298379830759 0.036058925104307242 0 -0.25132042997239518 0.0027134119798401068 0 -0.22850437187820721 0.00061554774341724197 0 -0.23416676111704099 0.01917273774715204 0 -0.2248274879423891 0.050626958701997932 0 -0.234130504556473 0.067172247096954504 0 -0.21240822864659401 0.064474545157398255 0 -0.2248274879423891 0.050626958701997932 0 -0.21890969838457369 0.03387481538926377 0 -0.23451298379830759 0.036058925104307242 0 -0.25642639863326749 0.02710060176493858 0 -0.23451298379830759 0.036058925104307242 0 -0.24534917185526489 0.049526218608574313 0 -0.2248274879423891 0.050626958701997932 0 -0.23451298379830759 0.036058925104307242 0 -0.24534917185526489 0.049526218608574313 0 -0.26195798501385009 0.070226375813507561 0 -0.24534917185526489 0.049526218608574313 0 -0.234130504556473 0.067172247096954504 0 -0.2248274879423891 0.050626958701997932 0 -0.24534917185526489 0.049526218608574313 0 -0.234130504556473 0.067172247096954504 0 -0.26195798501385009 0.070226375813507561 0 -0.24382127576753621 0.084711863041238192 0 -0.234130504556473 0.067172247096954504 0 -0.24382127576753621 0.084711863041238192 0 -0.22568456652122221 0.099197350268968809 0 -0.24382127576753621 0.084711863041238192 0 -0.221160002309051 0.081738136999685213 0 -0.22568456652122221 0.099197350268968809 0 -0.221160002309051 0.081738136999685213 0 -0.20949418686790969 0.097522886253834359 0 -0.22568456652122221 0.099197350268968809 0 -0.24382127576753621 0.084711863041238192 0 -0.221160002309051 0.081738136999685213 0 -0.234130504556473 0.067172247096954504 0 -0.221160002309051 0.081738136999685213 0 -0.234130504556473 0.067172247096954504 0 -0.21240822864659401 0.064474545157398255 0 -0.221160002309051 0.081738136999685213 0 -0.21240822864659401 0.064474545157398255 0 -0.19789508720454749 0.077516785054754192 0 -0.221160002309051 0.081738136999685213 0 -0.19789508720454749 0.077516785054754192 0 -0.20949418686790969 0.097522886253834359 0 -0.17966236107341149 0.074300518116336353 0 -0.19789508720454749 0.077516785054754192 0 -0.19360510917416149 0.093991677806516877 0 -0.19789508720454749 0.077516785054754192 0 -0.19360510917416149 0.093991677806516877 0 -0.20949418686790969 0.097522886253834359 0 -0.19326118210642521 0.060262893486061127 0 -0.21240822864659401 0.064474545157398255 0 -0.19789508720454749 0.077516785054754192 0 -0.17966236107341149 0.074300518116336353 0 -0.19326118210642521 0.060262893486061127 0 -0.19789508720454749 0.077516785054754192 0 -0.20040659369392541 0.1193864456313013 0 -0.18934336527218601 0.1087413065502997 0 -0.2075478572749084 0.11368283749669961 0 -0.18039056500006781 0.12121373119240569 0 -0.20040659369392541 0.1193864456313013 0 -0.18934336527218601 0.1087413065502997 0 -0.19360510917416149 0.093991677806516877 0 -0.2075478572749084 0.11368283749669961 0 -0.18934336527218601 0.1087413065502997 0 -0.19360510917416149 0.093991677806516877 0 -0.2075478572749084 0.11368283749669961 0 -0.19360510917416149 0.093991677806516877 0 -0.20949418686790969 0.097522886253834359 0 -0.2075478572749084 0.11368283749669961 0 -0.2075478572749084 0.11368283749669961 0 -0.22568456652122221 0.099197350268968809 0 -0.20949418686790969 0.097522886253834359 0 -0.2075478572749084 0.11368283749669961 0 -0.22568456652122221 0.099197350268968809 0 -0.2075478572749084 0.11368283749669961 0 -0.22488407219564061 0.1186598638475915 0 -0.22370276663374011 0.1364982034250237 0 -0.20040659369392541 0.1193864456313013 0 -0.2075478572749084 0.11368283749669961 0 -0.20214902218410111 0.13458958866239301 0 -0.20040659369392541 0.1193864456313013 0 -0.2075478572749084 0.11368283749669961 0 -0.2075478572749084 0.11368283749669961 0 -0.22488407219564061 0.1186598638475915 0 -0.22568456652122221 0.099197350268968809 0 -0.22488407219564061 0.1186598638475915 0 -0.23975573915859391 0.1186480270080747 0 -0.23562440086935879 0.12869665656040569 0 -0.22488407219564061 0.1186598638475915 0 -0.22568456652122221 0.099197350268968809 0 -0.23888908650362611 0.1045060591559635 0 -0.24382127576753621 0.084711863041238192 0 -0.22568456652122221 0.099197350268968809 0 -0.23888908650362611 0.1045060591559635 0 -0.25364395357421121 0.10678394025260531 0 -0.24382127576753621 0.084711863041238192 0 -0.23888908650362611 0.1045060591559635 0 -0.25033803458298193 0.12914144363467839 0 -0.25364395357421121 0.10678394025260531 0 -0.23975573915859391 0.1186480270080747 0 -0.22488407219564061 0.1186598638475915 0 -0.23888908650362611 0.1045060591559635 0 -0.23975573915859391 0.1186480270080747 0 -0.25364395357421121 0.10678394025260531 0 -0.23888908650362611 0.1045060591559635 0 -0.23975573915859391 0.1186480270080747 0 -0.25033803458298193 0.12914144363467839 0 -0.23975573915859391 0.1186480270080747 0 -0.23562440086935879 0.12869665656040569 0 -0.25033803458298193 0.12914144363467839 0 -0.2394413917758374 0.14053574488666021 0 -0.23562440086935879 0.12869665656040569 0 -0.2394413917758374 0.14053574488666021 0 -0.23562440086935879 0.12869665656040569 0 -0.22370276663374011 0.1364982034250237 0 -0.22488407219564061 0.1186598638475915 0 -0.23562440086935879 0.12869665656040569 0 -0.22370276663374011 0.1364982034250237 0 -0.2394413917758374 0.14053574488666021 0 -0.22370276663374011 0.1364982034250237 0 -0.22390747936813421 0.14796544613238069 0 -0.22390747936813421 0.14796544613238069 0 -0.22774584105848089 0.15976823357977049 0 -0.2168312664826515 0.15850745189495519 0 -0.2394413917758374 0.14053574488666021 0 -0.22390747936813421 0.14796544613238069 0 -0.24566593655216731 0.1613413036023684 0 -0.22390747936813421 0.14796544613238069 0 -0.24566593655216731 0.1613413036023684 0 -0.26077588748637798 0.14053443996503889 0 -0.2394413917758374 0.14053574488666021 0 -0.24566593655216731 0.1613413036023684 0 -0.24566593655216731 0.1613413036023684 0 -0.2425545525554833 0.18325607046718431 0 -0.22457868183097049 0.171258732689378 0 -0.2425545525554833 0.18325607046718431 0 -0.2235130486054053 0.18492553164669809 0 -0.22457868183097049 0.171258732689378 0 -0.2425545525554833 0.18325607046718431 0 -0.2235130486054053 0.18492553164669809 0 -0.2315679775879351 0.19375458513227489 0 -0.2235130486054053 0.18492553164669809 0 -0.22457868183097049 0.171258732689378 0 -0.209750232499154 0.17791844316711489 0 -0.24566593655216731 0.1613413036023684 0 -0.22774584105848089 0.15976823357977049 0 -0.22457868183097049 0.171258732689378 0 -0.22390747936813421 0.14796544613238069 0 -0.24566593655216731 0.1613413036023684 0 -0.22774584105848089 0.15976823357977049 0 -0.22774584105848089 0.15976823357977049 0 -0.22457868183097049 0.171258732689378 0 -0.2168312664826515 0.15850745189495519 0 -0.2168312664826515 0.15850745189495519 0 -0.21186753860838101 0.16733255095299371 0 -0.20758447520558959 0.15683863127083711 0 -0.22457868183097049 0.171258732689378 0 -0.2168312664826515 0.15850745189495519 0 -0.21186753860838101 0.16733255095299371 0 -0.21186753860838101 0.16733255095299371 0 -0.209750232499154 0.17791844316711489 0 -0.20173639765426299 0.1643971743801825 0 -0.21186753860838101 0.16733255095299371 0 -0.20758447520558959 0.15683863127083711 0 -0.20173639765426299 0.1643971743801825 0 -0.20758447520558959 0.15683863127083711 0 -0.20173639765426299 0.1643971743801825 0 -0.20024290349544879 0.15519061181074151 0 -0.22457868183097049 0.171258732689378 0 -0.21186753860838101 0.16733255095299371 0 -0.209750232499154 0.17791844316711489 0 -0.19610042498268601 0.17522502183351021 0 -0.19038698318195549 0.16711234260031069 0 -0.17752183765376101 0.1775748035498933 0 -0.19610042498268601 0.17522502183351021 0 -0.19785886193094021 0.18900131099286041 0 -0.17752183765376101 0.1775748035498933 0 -0.19785886193094021 0.18900131099286041 0 -0.17752183765376101 0.1775748035498933 0 -0.209750232499154 0.17791844316711489 0 -0.19610042498268601 0.17522502183351021 0 -0.19785886193094021 0.18900131099286041 0 -0.209750232499154 0.17791844316711489 0 -0.19610042498268601 0.17522502183351021 0 -0.20173639765426299 0.1643971743801825 0 -0.20173639765426299 0.1643971743801825 0 -0.1927705130470404 0.15866088515044 0 -0.20024290349544879 0.15519061181074151 0 -0.19610042498268601 0.17522502183351021 0 -0.20173639765426299 0.1643971743801825 0 -0.19038698318195549 0.16711234260031069 0 -0.20173639765426299 0.1643971743801825 0 -0.19038698318195549 0.16711234260031069 0 -0.1927705130470404 0.15866088515044 0 -0.19038698318195549 0.16711234260031069 0 -0.1927705130470404 0.15866088515044 0 -0.18413510522225521 0.16259499244525211 0 -0.1927705130470404 0.15866088515044 0 -0.19507878308752141 0.1486405391940768 0 -0.1852646507768699 0.1545619776798173 0 -0.19507878308752141 0.1486405391940768 0 -0.18706065072040501 0.14468661846275019 0 -0.1852646507768699 0.1545619776798173 0 -0.19507878308752141 0.1486405391940768 0 -0.20024290349544879 0.15519061181074151 0 -0.20390252305447459 0.15036513687703029 0 -0.1927705130470404 0.15866088515044 0 -0.19507878308752141 0.1486405391940768 0 -0.20024290349544879 0.15519061181074151 0 -0.19507878308752141 0.1486405391940768 0 -0.202312374299252 0.1441640524023215 0 -0.19563802519160789 0.13807458821396759 0 -0.19507878308752141 0.1486405391940768 0 -0.202312374299252 0.1441640524023215 0 -0.20390252305447459 0.15036513687703029 0 -0.19507878308752141 0.1486405391940768 0 -0.19563802519160789 0.13807458821396759 0 -0.18706065072040501 0.14468661846275019 0 -0.18039056500006781 0.12121373119240569 0 -0.20214902218410111 0.13458958866239301 0 -0.18039056500006781 0.12121373119240569 0 -0.20040659369392541 0.1193864456313013 0 -0.20214902218410111 0.13458958866239301 0 -0.18039056500006781 0.12121373119240569 0 -0.19563802519160789 0.13807458821396759 0 -0.20214902218410111 0.13458958866239301 0 -0.18039056500006781 0.12121373119240569 0 -0.19563802519160789 0.13807458821396759 0 -0.202312374299252 0.1441640524023215 0 -0.19563802519160789 0.13807458821396759 0 -0.20214902218410111 0.13458958866239301 0 -0.2075478572749084 0.11368283749669961 0 -0.22370276663374011 0.1364982034250237 0 -0.20214902218410111 0.13458958866239301 0 -0.2075478572749084 0.11368283749669961 0 -0.22370276663374011 0.1364982034250237 0 -0.22370276663374011 0.1364982034250237 0 -0.22390747936813421 0.14796544613238069 0 -0.20214902218410111 0.13458958866239301 0 -0.22390747936813421 0.14796544613238069 0 -0.20214902218410111 0.13458958866239301 0 -0.22390747936813421 0.14796544613238069 0 -0.20214902218410111 0.13458958866239301 0 -0.20948943058945241 0.14863997276184041 0 -0.22390747936813421 0.14796544613238069 0 -0.2168312664826515 0.15850745189495519 0 -0.20948943058945241 0.14863997276184041 0 -0.2168312664826515 0.15850745189495519 0 -0.20758447520558959 0.15683863127083711 0 -0.20948943058945241 0.14863997276184041 0 -0.20758447520558959 0.15683863127083711 0 -0.20948943058945241 0.14863997276184041 0 -0.20390252305447459 0.15036513687703029 0 -0.20758447520558959 0.15683863127083711 0 -0.20024290349544879 0.15519061181074151 0 -0.20390252305447459 0.15036513687703029 0 -0.202312374299252 0.1441640524023215 0 -0.20214902218410111 0.13458958866239301 0 -0.20948943058945241 0.14863997276184041 0 -0.202312374299252 0.1441640524023215 0 -0.20948943058945241 0.14863997276184041 0 -0.20390252305447459 0.15036513687703029 0 -0.22764024225575111 0.25709488017932702 0 -0.2151106411052526 0.2372148610219694 0 -0.22764024225575111 0.25709488017932702 0 -0.2283272457552897 0.2411225242229286 0 -0.2468893326351202 0.24329134098969171 0 -0.22764024225575111 0.25709488017932702 0 -0.2283272457552897 0.2411225242229286 0 -0.2151106411052526 0.2372148610219694 0 -0.2283272457552897 0.2411225242229286 0 -0.22236430254422471 0.22707510271615991 0 -0.2151106411052526 0.2372148610219694 0 -0.2283272457552897 0.2411225242229286 0 -0.2468893326351202 0.24329134098969171 0 -0.2329273297721271 0.2301735095518313 0 -0.25250373055295899 0.22903132158689779 0 -0.2468893326351202 0.24329134098969171 0 -0.24260825180894061 0.22311859240920151 0 -0.2468893326351202 0.24329134098969171 0 -0.24260825180894061 0.22311859240920151 0 -0.2329273297721271 0.2301735095518313 0 -0.25326648915379463 0.21765104414027969 0 -0.25250373055295899 0.22903132158689779 0 -0.24260825180894061 0.22311859240920151 0 -0.24260825180894061 0.22311859240920151 0 -0.23239639752576971 0.22100751879425451 0 -0.2329273297721271 0.2301735095518313 0 -0.23239639752576971 0.22100751879425451 0 -0.2329273297721271 0.2301735095518313 0 -0.22236430254422471 0.22707510271615991 0 -0.2283272457552897 0.2411225242229286 0 -0.2329273297721271 0.2301735095518313 0 -0.22236430254422471 0.22707510271615991 0 -0.23239639752576971 0.22100751879425451 0 -0.22236430254422471 0.22707510271615991 0 -0.2228431611521535 0.2155973608413651 0 -0.2228431611521535 0.2155973608413651 0 -0.2385329104852989 0.2118543258787943 0 -0.21819588620811961 0.20042781843582741 0 -0.2385329104852989 0.2118543258787943 0 -0.21819588620811961 0.20042781843582741 0 -0.23239639752576971 0.22100751879425451 0 -0.2228431611521535 0.2155973608413651 0 -0.2385329104852989 0.2118543258787943 0 -0.2385329104852989 0.2118543258787943 0 -0.24039455529309961 0.2058142864805034 0 -0.21819588620811961 0.20042781843582741 0 -0.24260825180894061 0.22311859240920151 0 -0.23239639752576971 0.22100751879425451 0 -0.2385329104852989 0.2118543258787943 0 -0.25326648915379463 0.21765104414027969 0 -0.24039455529309961 0.2058142864805034 0 -0.25326648915379463 0.21765104414027969 0 -0.2385329104852989 0.2118543258787943 0 -0.24039455529309961 0.2058142864805034 0 -0.25326648915379463 0.21765104414027969 0 -0.24260825180894061 0.22311859240920151 0 -0.2385329104852989 0.2118543258787943 0 -0.25264776582176801 0.2054066783297176 0 -0.25326648915379463 0.21765104414027969 0 -0.24039455529309961 0.2058142864805034 0 -0.25846339158769432 0.19477026040294029 0 -0.2425545525554833 0.18325607046718431 0 -0.24512564856919611 0.1966003761625241 0 -0.24039455529309961 0.2058142864805034 0 -0.24512564856919611 0.1966003761625241 0 -0.2315679775879351 0.19375458513227489 0 -0.25264776582176801 0.2054066783297176 0 -0.24039455529309961 0.2058142864805034 0 -0.24512564856919611 0.1966003761625241 0 -0.2425545525554833 0.18325607046718431 0 -0.24512564856919611 0.1966003761625241 0 -0.2315679775879351 0.19375458513227489 0 -0.24039455529309961 0.2058142864805034 0 -0.2315679775879351 0.19375458513227489 0 -0.21819588620811961 0.20042781843582741 0 -0.2235130486054053 0.18492553164669809 0 -0.2315679775879351 0.19375458513227489 0 -0.21819588620811961 0.20042781843582741 0 -0.21819588620811961 0.20042781843582741 0 -0.19785886193094021 0.18900131099286041 0 -0.2235130486054053 0.18492553164669809 0 -0.209750232499154 0.17791844316711489 0 -0.21819588620811961 0.20042781843582741 0 -0.209750232499154 0.17791844316711489 0 -0.21819588620811961 0.20042781843582741 0 -0.19785886193094021 0.18900131099286041 0 -0.21819588620811961 0.20042781843582741 0 -0.20376966825666501 0.2022924765927995 0 -0.19785886193094021 0.18900131099286041 0 -0.19785886193094021 0.18900131099286041 0 -0.19005143880425829 0.1974548227072519 0 -0.17752183765376101 0.1775748035498933 0 -0.20376966825666501 0.2022924765927995 0 -0.19785886193094021 0.18900131099286041 0 -0.19005143880425829 0.1974548227072519 0 -0.19005143880425829 0.1974548227072519 0 -0.187650486280975 0.21451757224245291 0 -0.20258103995475549 0.21733484186461069 0 -0.19005143880425829 0.1974548227072519 0 -0.20258103995475549 0.21733484186461069 0 -0.20376966825666501 0.2022924765927995 0 -0.19005143880425829 0.1974548227072519 0 -0.20258103995475549 0.21733484186461069 0 -0.2228431611521535 0.2155973608413651 0 -0.21819588620811961 0.20042781843582741 0 -0.20258103995475549 0.21733484186461069 0 -0.21819588620811961 0.20042781843582741 0 -0.20376966825666501 0.2022924765927995 0 -0.20258103995475549 0.21733484186461069 0 -0.20258103995475549 0.21733484186461069 0 -0.19839606398960871 0.22991008851962841 0 -0.2151106411052526 0.2372148610219694 0 -0.22236430254422471 0.22707510271615991 0 -0.2228431611521535 0.2155973608413651 0 -0.20258103995475549 0.21733484186461069 0 -0.22236430254422471 0.22707510271615991 0 -0.20258103995475549 0.21733484186461069 0 -0.2151106411052526 0.2372148610219694 0 -0.20258103995475549 0.21733484186461069 0 -0.2151106411052526 0.2372148610219694 0 -0.187650486280975 0.21451757224245291 0 -0.20258103995475549 0.21733484186461069 0 -0.19839606398960871 0.22991008851962841 0 -0.187650486280975 0.21451757224245291 0 -0.19839606398960871 0.22991008851962841 0 -0.18195408303730121 0.23534357450296481 0 -0.18940688912330481 0.25610334311205268 0 -0.2046840695697589 0.2451395929661444 0 -0.18195408303730121 0.23534357450296481 0 -0.2046840695697589 0.2451395929661444 0 -0.18195408303730121 0.23534357450296481 0 -0.19839606398960871 0.22991008851962841 0 -0.2046840695697589 0.2451395929661444 0 -0.18195408303730121 0.23534357450296481 0 -0.21239874098331929 0.25437807278244762 0 -0.2046840695697589 0.2451395929661444 0 -0.2151106411052526 0.2372148610219694 0 -0.19839606398960871 0.22991008851962841 0 -0.2046840695697589 0.2451395929661444 0 -0.2151106411052526 0.2372148610219694 0 -0.22764024225575111 0.25709488017932702 0 -0.21239874098331929 0.25437807278244762 0 -0.2151106411052526 0.2372148610219694 0 -0.16225317791305921 0.25358582624422438 0 -0.18195408303730121 0.23534357450296481 0 -0.155242522585569 0.24016045739440639 0 -0.17508206900779469 0.25918785244088571 0 -0.16225317791305921 0.25358582624422438 0 -0.18195408303730121 0.23534357450296481 0 -0.187650486280975 0.21451757224245291 0 -0.18195408303730121 0.23534357450296481 0 -0.17144823439391829 0.2141895330645725 0 -0.18195408303730121 0.23534357450296481 0 -0.15922409650484359 0.2255475560397853 0 -0.18195408303730121 0.23534357450296481 0 -0.15922409650484359 0.2255475560397853 0 -0.155242522585569 0.24016045739440639 0 -0.18195408303730121 0.23534357450296481 0 -0.15922409650484359 0.2255475560397853 0 -0.17144823439391829 0.2141895330645725 0 -0.15922409650484359 0.2255475560397853 0 -0.15900733689739069 0.21062159977010589 0 -0.17144823439391829 0.2141895330645725 0 -0.15900733689739069 0.21062159977010589 0 -0.1653418357915476 0.2018213455952054 0 -0.15361129879784891 0.20139719057542019 0 -0.17144823439391829 0.2141895330645725 0 -0.17723797391968729 0.20390802022475071 0 -0.1653418357915476 0.2018213455952054 0 -0.15900733689739069 0.21062159977010589 0 -0.17144823439391829 0.2141895330645725 0 -0.1653418357915476 0.2018213455952054 0 -0.187650486280975 0.21451757224245291 0 -0.17144823439391829 0.2141895330645725 0 -0.17723797391968729 0.20390802022475071 0 -0.19005143880425829 0.1974548227072519 0 -0.187650486280975 0.21451757224245291 0 -0.17723797391968729 0.20390802022475071 0 -0.19005143880425829 0.1974548227072519 0 -0.17169787432773731 0.19155682751427069 0 -0.17752183765376101 0.1775748035498933 0 -0.19005143880425829 0.1974548227072519 0 -0.17723797391968729 0.20390802022475071 0 -0.17169787432773731 0.19155682751427069 0 -0.19005143880425829 0.1974548227072519 0 -0.17752183765376101 0.1775748035498933 0 -0.17169787432773731 0.19155682751427069 0 -0.1653418357915476 0.2018213455952054 0 -0.15791164184663151 0.19274793286901881 0 -0.17723797391968729 0.20390802022475071 0 -0.17169787432773731 0.19155682751427069 0 -0.1653418357915476 0.2018213455952054 0 -0.1653418357915476 0.2018213455952054 0 -0.15791164184663151 0.19274793286901881 0 -0.15361129879784891 0.20139719057542019 0 -0.17169787432773731 0.19155682751427069 0 -0.15791164184663151 0.19274793286901881 0 -0.16134243263699979 0.18146195783717889 0 -0.15791164184663151 0.19274793286901881 0 -0.15361129879784891 0.20139719057542019 0 -0.14754997702249989 0.19123102061556399 0 -0.15791164184663151 0.19274793286901881 0 -0.14754997702249989 0.19123102061556399 0 -0.15378055215212841 0.1853342336718547 0 -0.15361129879784891 0.20139719057542019 0 -0.144337775963609 0.20069921068637719 0 -0.14754997702249989 0.19123102061556399 0 -0.14754997702249989 0.19123102061556399 0 -0.13411435042981179 0.19106266128805069 0 -0.1463292802833521 0.18023770330257241 0 -0.144337775963609 0.20069921068637719 0 -0.14754997702249989 0.19123102061556399 0 -0.13411435042981179 0.19106266128805069 0 -0.13411435042981179 0.19106266128805069 0 -0.12967955466007261 0.2074258594294596 0 -0.1235431789710726 0.1969801993001162 0 -0.13411435042981179 0.19106266128805069 0 -0.13770187294137159 0.2043383794177894 0 -0.12967955466007261 0.2074258594294596 0 -0.144337775963609 0.20069921068637719 0 -0.13411435042981179 0.19106266128805069 0 -0.13770187294137159 0.2043383794177894 0 -0.13770187294137159 0.2043383794177894 0 -0.13855706597983281 0.21350408889879899 0 -0.14247480998137141 0.20718589651263181 0 -0.1364941099723872 0.21575153757660309 0 -0.120958802369795 0.22183359367242919 0 -0.11894773722242739 0.20818951851535461 0 -0.12967955466007261 0.2074258594294596 0 -0.1364941099723872 0.21575153757660309 0 -0.11894773722242739 0.20818951851535461 0 -0.13770187294137159 0.2043383794177894 0 -0.12967955466007261 0.2074258594294596 0 -0.13855706597983281 0.21350408889879899 0 -0.1364941099723872 0.21575153757660309 0 -0.11894773722242739 0.20818951851535461 0 -0.12967955466007261 0.2074258594294596 0 -0.1364941099723872 0.21575153757660309 0 -0.13855706597983281 0.21350408889879899 0 -0.1364941099723872 0.21575153757660309 0 -0.13855706597983281 0.21350408889879899 0 -0.15922409650484359 0.2255475560397853 0 -0.1364941099723872 0.21575153757660309 0 -0.13855706597983281 0.21350408889879899 0 -0.15922409650484359 0.2255475560397853 0 -0.13855706597983281 0.21350408889879899 0 -0.14930252504067221 0.21020190704756139 0 -0.13855706597983281 0.21350408889879899 0 -0.14247480998137141 0.20718589651263181 0 -0.14930252504067221 0.21020190704756139 0 -0.144337775963609 0.20069921068637719 0 -0.14247480998137141 0.20718589651263181 0 -0.14930252504067221 0.21020190704756139 0 -0.144337775963609 0.20069921068637719 0 -0.13770187294137159 0.2043383794177894 0 -0.14247480998137141 0.20718589651263181 0 -0.15900733689739069 0.21062159977010589 0 -0.15361129879784891 0.20139719057542019 0 -0.14930252504067221 0.21020190704756139 0 -0.15361129879784891 0.20139719057542019 0 -0.144337775963609 0.20069921068637719 0 -0.14930252504067221 0.21020190704756139 0 -0.15922409650484359 0.2255475560397853 0 -0.15900733689739069 0.21062159977010589 0 -0.14930252504067221 0.21020190704756139 0 -0.15922409650484359 0.2255475560397853 0 -0.13635804662702189 0.23039018670563211 0 -0.14207867318260539 0.23889574066385899 0 -0.15922409650484359 0.2255475560397853 0 -0.1364941099723872 0.21575153757660309 0 -0.13635804662702189 0.23039018670563211 0 -0.15922409650484359 0.2255475560397853 0 -0.1364941099723872 0.21575153757660309 0 -0.1364941099723872 0.21575153757660309 0 -0.13635804662702189 0.23039018670563211 0 -0.11673432752768111 0.2372784614512472 0 -0.1364941099723872 0.21575153757660309 0 -0.11673432752768111 0.2372784614512472 0 -0.13635804662702189 0.23039018670563211 0 -0.12961957513534 0.23973743310435161 0 -0.11673432752768111 0.2372784614512472 0 -0.13635804662702189 0.23039018670563211 0 -0.12961957513534 0.23973743310435161 0 -0.14207867318260539 0.23889574066385899 0 -0.12961957513534 0.23973743310435161 0 -0.13357218109292621 0.2499317644564327 0 -0.1213089330464012 0.24626659804535689 0 -0.12961957513534 0.23973743310435161 0 -0.13357218109292621 0.2499317644564327 0 -0.14207867318260539 0.23889574066385899 0 -0.14746997276257359 0.25293699741112718 0 -0.13357218109292621 0.2499317644564327 0 -0.14207867318260539 0.23889574066385899 0 -0.15922409650484359 0.2255475560397853 0 -0.14207867318260539 0.23889574066385899 0 -0.155242522585569 0.24016045739440639 0 -0.14746997276257359 0.25293699741112718 0 -0.14207867318260539 0.23889574066385899 0 -0.155242522585569 0.24016045739440639 0 -0.16225317791305921 0.25358582624422438 0 -0.14746997276257359 0.25293699741112718 0 -0.155242522585569 0.24016045739440639 0 -0.166988808872575 0.14091924592242799 0 -0.1736883691443292 0.1501381655411517 0 -0.1666646902223726 0.16034837340756511 0 -0.166988808872575 0.14091924592242799 0 -0.1666646902223726 0.16034837340756511 0 -0.15580754279098399 0.143121943265237 0 -0.1666646902223726 0.16034837340756511 0 -0.1549726550285947 0.15674585516748279 0 -0.15580754279098399 0.143121943265237 0 -0.1666646902223726 0.16034837340756511 0 -0.15580754279098399 0.143121943265237 0 -0.1628447509754036 0.1248738178506951 0 -0.166988808872575 0.14091924592242799 0 -0.17824709647023271 0.1379937977022469 0 -0.1628447509754036 0.1248738178506951 0 -0.166988808872575 0.14091924592242799 0 -0.15580754279098399 0.143121943265237 0 -0.18039056500006781 0.12121373119240569 0 -0.1628447509754036 0.1248738178506951 0 -0.17824709647023271 0.1379937977022469 0 -0.19563802519160789 0.13807458821396759 0 -0.17824709647023271 0.1379937977022469 0 -0.18706065072040501 0.14468661846275019 0 -0.18039056500006781 0.12121373119240569 0 -0.19563802519160789 0.13807458821396759 0 -0.17824709647023271 0.1379937977022469 0 -0.17824709647023271 0.1379937977022469 0 -0.18706065072040501 0.14468661846275019 0 -0.1811623126986891 0.14793864394101769 0 -0.166988808872575 0.14091924592242799 0 -0.17824709647023271 0.1379937977022469 0 -0.1736883691443292 0.1501381655411517 0 -0.17824709647023271 0.1379937977022469 0 -0.1811623126986891 0.14793864394101769 0 -0.1736883691443292 0.1501381655411517 0 -0.1811623126986891 0.14793864394101769 0 -0.1736883691443292 0.1501381655411517 0 -0.17666515903818969 0.15970684649729899 0 -0.1811623126986891 0.14793864394101769 0 -0.1852646507768699 0.1545619776798173 0 -0.17666515903818969 0.15970684649729899 0 -0.18706065072040501 0.14468661846275019 0 -0.1811623126986891 0.14793864394101769 0 -0.1852646507768699 0.1545619776798173 0 -0.17752183765376101 0.1775748035498933 0 -0.1666646902223726 0.16034837340756511 0 -0.1927705130470404 0.15866088515044 0 -0.1852646507768699 0.1545619776798173 0 -0.18413510522225521 0.16259499244525211 0 -0.17666515903818969 0.15970684649729899 0 -0.17752183765376101 0.1775748035498933 0 -0.1666646902223726 0.16034837340756511 0 -0.1852646507768699 0.1545619776798173 0 -0.18413510522225521 0.16259499244525211 0 -0.17666515903818969 0.15970684649729899 0 -0.18413510522225521 0.16259499244525211 0 -0.17666515903818969 0.15970684649729899 0 -0.17752183765376101 0.1775748035498933 0 -0.19038698318195549 0.16711234260031069 0 -0.18413510522225521 0.16259499244525211 0 -0.17752183765376101 0.1775748035498933 0 -0.1736883691443292 0.1501381655411517 0 -0.17666515903818969 0.15970684649729899 0 -0.1666646902223726 0.16034837340756511 0 -0.17169787432773731 0.19155682751427069 0 -0.17752183765376101 0.1775748035498933 0 -0.16134243263699979 0.18146195783717889 0 -0.17752183765376101 0.1775748035498933 0 -0.160166055014445 0.16782332876165751 0 -0.17752183765376101 0.1775748035498933 0 -0.16134243263699979 0.18146195783717889 0 -0.160166055014445 0.16782332876165751 0 -0.16134243263699979 0.18146195783717889 0 -0.160166055014445 0.16782332876165751 0 -0.1543363168372556 0.17604552304072019 0 -0.16134243263699979 0.18146195783717889 0 -0.15378055215212841 0.1853342336718547 0 -0.1543363168372556 0.17604552304072019 0 -0.15791164184663151 0.19274793286901881 0 -0.16134243263699979 0.18146195783717889 0 -0.15378055215212841 0.1853342336718547 0 -0.17752183765376101 0.1775748035498933 0 -0.1666646902223726 0.16034837340756511 0 -0.160166055014445 0.16782332876165751 0 -0.1666646902223726 0.16034837340756511 0 -0.160166055014445 0.16782332876165751 0 -0.1549726550285947 0.15674585516748279 0 -0.160166055014445 0.16782332876165751 0 -0.1549726550285947 0.15674585516748279 0 -0.14281027237512919 0.15807185397342149 0 -0.160166055014445 0.16782332876165751 0 -0.14281027237512919 0.15807185397342149 0 -0.160166055014445 0.16782332876165751 0 -0.1483000089644074 0.1706867490983929 0 -0.14281027237512919 0.15807185397342149 0 -0.160166055014445 0.16782332876165751 0 -0.1483000089644074 0.1706867490983929 0 -0.1543363168372556 0.17604552304072019 0 -0.1483000089644074 0.1706867490983929 0 -0.14281027237512919 0.15807185397342149 0 -0.13856119746919621 0.1732320213376258 0 -0.14754997702249989 0.19123102061556399 0 -0.15378055215212841 0.1853342336718547 0 -0.1463292802833521 0.18023770330257241 0 -0.15378055215212841 0.1853342336718547 0 -0.1543363168372556 0.17604552304072019 0 -0.1463292802833521 0.18023770330257241 0 -0.1483000089644074 0.1706867490983929 0 -0.1543363168372556 0.17604552304072019 0 -0.1463292802833521 0.18023770330257241 0 -0.1483000089644074 0.1706867490983929 0 -0.1463292802833521 0.18023770330257241 0 -0.13856119746919621 0.1732320213376258 0 -0.13411435042981179 0.19106266128805069 0 -0.13856119746919621 0.1732320213376258 0 -0.12609153575556739 0.16924223779836581 0 -0.13411435042981179 0.19106266128805069 0 -0.12609153575556739 0.16924223779836581 0 -0.1152399272795421 0.1851742901109647 0 -0.13411435042981179 0.19106266128805069 0 -0.1463292802833521 0.18023770330257241 0 -0.13856119746919621 0.1732320213376258 0 -0.14281027237512919 0.15807185397342149 0 -0.12609153575556739 0.16924223779836581 0 -0.135520965557581 0.14756887546063741 0 -0.12609153575556739 0.16924223779836581 0 -0.135520965557581 0.14756887546063741 0 -0.14281027237512919 0.15807185397342149 0 -0.13856119746919621 0.1732320213376258 0 -0.12609153575556739 0.16924223779836581 0 -0.135520965557581 0.14756887546063741 0 -0.13028426483969929 0.13221647237215789 0 -0.1192914655824909 0.15059360814623801 0 -0.12609153575556739 0.16924223779836581 0 -0.135520965557581 0.14756887546063741 0 -0.1192914655824909 0.15059360814623801 0 -0.1549726550285947 0.15674585516748279 0 -0.14281027237512919 0.15807185397342149 0 -0.14652630769324659 0.14708303210739521 0 -0.14281027237512919 0.15807185397342149 0 -0.135520965557581 0.14756887546063741 0 -0.14652630769324659 0.14708303210739521 0 -0.1549726550285947 0.15674585516748279 0 -0.14652630769324659 0.14708303210739521 0 -0.15580754279098399 0.143121943265237 0 -0.1628447509754036 0.1248738178506951 0 -0.15580754279098399 0.143121943265237 0 -0.14495039535959489 0.12589551312290931 0 -0.135520965557581 0.14756887546063741 0 -0.14652630769324659 0.14708303210739521 0 -0.14495039535959489 0.12589551312290931 0 -0.15580754279098399 0.143121943265237 0 -0.14495039535959489 0.12589551312290931 0 -0.14652630769324659 0.14708303210739521 0 -0.15580754279098399 0.143121943265237 0 -0.14495039535959489 0.12589551312290931 0 -0.135520965557581 0.14756887546063741 0 -0.14495039535959489 0.12589551312290931 0 -0.135520965557581 0.14756887546063741 0 -0.14495039535959489 0.12589551312290931 0 -0.13028426483969929 0.13221647237215789 0 -0.13028426483969929 0.13221647237215789 0 -0.1131006250587715 0.12959615498317961 0 -0.1192914655824909 0.15059360814623801 0 -0.1131006250587715 0.12959615498317961 0 -0.10078539792307099 0.15464240809582361 0 -0.092802426943272898 0.12960292979422991 0 -0.1131006250587715 0.12959615498317961 0 -0.10078539792307099 0.15464240809582361 0 -0.1192914655824909 0.15059360814623801 0 -0.10078539792307099 0.15464240809582361 0 -0.1192914655824909 0.15059360814623801 0 -0.10897534263953949 0.16967833346669081 0 -0.12609153575556739 0.16924223779836581 0 -0.1192914655824909 0.15059360814623801 0 -0.10897534263953949 0.16967833346669081 0 -0.12609153575556739 0.16924223779836581 0 -0.1152399272795421 0.1851742901109647 0 -0.10897534263953949 0.16967833346669081 0 -0.1152399272795421 0.1851742901109647 0 -0.098409264142157865 0.1851788001203086 0 -0.10897534263953949 0.16967833346669081 0 -0.098409264142157865 0.1851788001203086 0 -0.10897534263953949 0.16967833346669081 0 -0.082277471490505807 0.17420718144711089 0 -0.10078539792307099 0.15464240809582361 0 -0.10897534263953949 0.16967833346669081 0 -0.082277471490505807 0.17420718144711089 0 -0.10078539792307099 0.15464240809582361 0 -0.082277471490505807 0.17420718144711089 0 -0.082277471490505807 0.17420718144711089 0 -0.065615427061545384 0.16058384892905991 0 -0.074642854581774637 0.14147916649728479 0 -0.10078539792307099 0.15464240809582361 0 -0.082277471490505807 0.17420718144711089 0 -0.074642854581774637 0.14147916649728479 0 -0.098409264142157865 0.1851788001203086 0 -0.082277471490505807 0.17420718144711089 0 -0.084152214828733252 0.19620669612267311 0 -0.082277471490505807 0.17420718144711089 0 -0.063769545057940663 0.19377195479839809 0 -0.082277471490505807 0.17420718144711089 0 -0.063769545057940663 0.19377195479839809 0 -0.051824687549248197 0.17345858692208871 0 -0.082277471490505807 0.17420718144711089 0 -0.065615427061545384 0.16058384892905991 0 -0.051824687549248197 0.17345858692208871 0 -0.074642854581774637 0.14147916649728479 0 -0.055186524828957063 0.1281687789626855 0 -0.07438317581125764 0.1124407737129243 0 -0.074642854581774637 0.14147916649728479 0 -0.092802426943272898 0.12960292979422991 0 -0.07438317581125764 0.1124407737129243 0 -0.10078539792307099 0.15464240809582361 0 -0.074642854581774637 0.14147916649728479 0 -0.092802426943272898 0.12960292979422991 0 -0.10058650277722481 0.24229521027045481 0 -0.11673432752768111 0.2372784614512472 0 -0.1053270170515283 0.2324499666522013 0 -0.096974545082976191 0.25880538532589209 0 -0.10058650277722481 0.24229521027045481 0 -0.088715331182393942 0.2449718195011524 0 -0.096974545082976191 0.25880538532589209 0 -0.10058650277722481 0.24229521027045481 0 -0.11673432752768111 0.2372784614512472 0 -0.096974545082976191 0.25880538532589209 0 -0.112097455783086 0.24444379951602521 0 -0.11673432752768111 0.2372784614512472 0 -0.096974545082976191 0.25880538532589209 0 -0.11673432752768111 0.2372784614512472 0 -0.10058650277722481 0.24229521027045481 0 -0.091983872440322634 0.23323291704093771 0 -0.088715331182393942 0.2449718195011524 0 -0.10058650277722481 0.24229521027045481 0 -0.1053270170515283 0.2324499666522013 0 -0.091983872440322634 0.23323291704093771 0 -0.11521273165378559 0.25497892835963998 0 -0.112097455783086 0.24444379951602521 0 -0.1213089330464012 0.24626659804535689 0 -0.112097455783086 0.24444379951602521 0 -0.1213089330464012 0.24626659804535689 0 -0.11673432752768111 0.2372784614512472 0 -0.12961957513534 0.23973743310435161 0 -0.1213089330464012 0.24626659804535689 0 -0.11673432752768111 0.2372784614512472 0 -0.11673432752768111 0.2372784614512472 0 -0.111977792011399 0.2261119040305537 0 -0.1053270170515283 0.2324499666522013 0 -0.1364941099723872 0.21575153757660309 0 -0.11673432752768111 0.2372784614512472 0 -0.120958802369795 0.22183359367242919 0 -0.11673432752768111 0.2372784614512472 0 -0.120958802369795 0.22183359367242919 0 -0.111977792011399 0.2261119040305537 0 -0.120958802369795 0.22183359367242919 0 -0.111977792011399 0.2261119040305537 0 -0.11263418842693861 0.21654350143059611 0 -0.111977792011399 0.2261119040305537 0 -0.1027476190553803 0.22153268259517769 0 -0.11263418842693861 0.21654350143059611 0 -0.1027476190553803 0.22153268259517769 0 -0.088008266818085573 0.21525264443096179 0 -0.091983872440322634 0.23323291704093771 0 -0.111977792011399 0.2261119040305537 0 -0.1027476190553803 0.22153268259517769 0 -0.1053270170515283 0.2324499666522013 0 -0.1027476190553803 0.22153268259517769 0 -0.1053270170515283 0.2324499666522013 0 -0.091983872440322634 0.23323291704093771 0 -0.1027476190553803 0.22153268259517769 0 -0.1014013644724687 0.20062749945410349 0 -0.088008266818085573 0.21525264443096179 0 -0.1027476190553803 0.22153268259517769 0 -0.11263418842693861 0.21654350143059611 0 -0.1014013644724687 0.20062749945410349 0 -0.11263418842693861 0.21654350143059611 0 -0.11894773722242739 0.20818951851535461 0 -0.1014013644724687 0.20062749945410349 0 -0.11894773722242739 0.20818951851535461 0 -0.1014013644724687 0.20062749945410349 0 -0.120958802369795 0.22183359367242919 0 -0.11263418842693861 0.21654350143059611 0 -0.11894773722242739 0.20818951851535461 0 -0.12967955466007261 0.2074258594294596 0 -0.11894773722242739 0.20818951851535461 0 -0.1235431789710726 0.1969801993001162 0 -0.11894773722242739 0.20818951851535461 0 -0.1235431789710726 0.1969801993001162 0 -0.1014013644724687 0.20062749945410349 0 -0.13411435042981179 0.19106266128805069 0 -0.1152399272795421 0.1851742901109647 0 -0.1235431789710726 0.1969801993001162 0 -0.1152399272795421 0.1851742901109647 0 -0.1235431789710726 0.1969801993001162 0 -0.1014013644724687 0.20062749945410349 0 -0.1152399272795421 0.1851742901109647 0 -0.098409264142157865 0.1851788001203086 0 -0.1014013644724687 0.20062749945410349 0 -0.098409264142157865 0.1851788001203086 0 -0.1014013644724687 0.20062749945410349 0 -0.084152214828733252 0.19620669612267311 0 -0.084152214828733252 0.19620669612267311 0 -0.063769545057940663 0.19377195479839809 0 -0.072142849724606259 0.2099260872470029 0 -0.082277471490505807 0.17420718144711089 0 -0.084152214828733252 0.19620669612267311 0 -0.063769545057940663 0.19377195479839809 0 -0.072142849724606259 0.2099260872470029 0 -0.088008266818085573 0.21525264443096179 0 -0.068407602306599244 0.22780678473085289 0 -0.084152214828733252 0.19620669612267311 0 -0.072142849724606259 0.2099260872470029 0 -0.088008266818085573 0.21525264443096179 0 -0.1014013644724687 0.20062749945410349 0 -0.084152214828733252 0.19620669612267311 0 -0.088008266818085573 0.21525264443096179 0 -0.091983872440322634 0.23323291704093771 0 -0.068407602306599244 0.22780678473085289 0 -0.080478212985736569 0.23984126859451149 0 -0.088008266818085573 0.21525264443096179 0 -0.091983872440322634 0.23323291704093771 0 -0.068407602306599244 0.22780678473085289 0 -0.073553522625709841 0.25068431627396631 0 -0.068407602306599244 0.22780678473085289 0 -0.080478212985736569 0.23984126859451149 0 -0.073553522625709841 0.25068431627396631 0 -0.068407602306599244 0.22780678473085289 0 -0.050132500168443887 0.2425632472220397 0 -0.073553522625709841 0.25068431627396631 0 -0.080478212985736569 0.23984126859451149 0 -0.088715331182393942 0.2449718195011524 0 -0.091983872440322634 0.23323291704093771 0 -0.080478212985736569 0.23984126859451149 0 -0.088715331182393942 0.2449718195011524 0 -0.050132500168443887 0.2425632472220397 0 -0.026711477711177899 0.23444217817011309 0 -0.029881977245259539 0.25372898958001938 0 -0.050132500168443887 0.2425632472220397 0 -0.026711477711177899 0.23444217817011309 0 -0.050132500168443887 0.2425632472220397 0 -0.042100384295285467 0.22888272761933071 0 -0.026711477711177899 0.23444217817011309 0 -0.073553522625709841 0.25068431627396631 0 -0.050132500168443887 0.2425632472220397 0 -0.068407602306599244 0.22780678473085289 0 -0.050132500168443887 0.2425632472220397 0 -0.042100384295285467 0.22888272761933071 0 -0.068407602306599244 0.22780678473085289 0 -0.042100384295285467 0.22888272761933071 0 -0.045261618625375449 0.21333672814968549 0 -0.045261618625375449 0.21333672814968549 0 -0.02675369219281019 0.23290150150097291 0 -0.045261618625375449 0.21333672814968549 0 -0.02772339752401377 0.22169904798743939 0 -0.02675369219281019 0.23290150150097291 0 -0.042100384295285467 0.22888272761933071 0 -0.045261618625375449 0.21333672814968549 0 -0.02675369219281019 0.23290150150097291 0 -0.042100384295285467 0.22888272761933071 0 -0.02675369219281019 0.23290150150097291 0 -0.026711477711177899 0.23444217817011309 0 -0.045261618625375449 0.21333672814968549 0 -0.025983012380334781 0.2115930184476672 0 -0.02772339752401377 0.22169904798743939 0 -0.045261618625375449 0.21333672814968549 0 -0.029252980350323681 0.1977376245802884 0 -0.025983012380334781 0.2115930184476672 0 -0.063769545057940663 0.19377195479839809 0 -0.045261618625375449 0.21333672814968549 0 -0.063769545057940663 0.19377195479839809 0 -0.072142849724606259 0.2099260872470029 0 -0.045261618625375449 0.21333672814968549 0 -0.072142849724606259 0.2099260872470029 0 -0.068407602306599244 0.22780678473085289 0 -0.045261618625375449 0.21333672814968549 0 -0.063769545057940663 0.19377195479839809 0 -0.045261618625375449 0.21333672814968549 0 -0.041349789320347038 0.18749549167170951 0 -0.029252980350323681 0.1977376245802884 0 -0.041349789320347038 0.18749549167170951 0 -0.02440704960050057 0.1813667693045137 0 -0.045261618625375449 0.21333672814968549 0 -0.029252980350323681 0.1977376245802884 0 -0.041349789320347038 0.18749549167170951 0 -0.029252980350323681 0.1977376245802884 0 -0.01949536222664228 0.1923427933584827 0 -0.02440704960050057 0.1813667693045137 0 -0.029252980350323681 0.1977376245802884 0 -0.019383630886315679 0.20246845033521829 0 -0.01949536222664228 0.1923427933584827 0 -0.019383630886315679 0.20246845033521829 0 -0.01949536222664228 0.1923427933584827 0 -0.011799668219416901 0.19617813045667529 0 -0.01949536222664228 0.1923427933584827 0 -0.011799668219416901 0.19617813045667529 0 -0.0099503170468955675 0.185467411183286 0 -0.0047591026019954026 0.19332022418589959 0 -0.011799668219416901 0.19617813045667529 0 -0.0099503170468955675 0.185467411183286 0 -0.0047591026019954026 0.19332022418589959 0 -0.003081975793268537 0.18782002811878001 0 -0.0099503170468955675 0.185467411183286 0 -0.0047591026019954026 0.19332022418589959 0 -2.3422743153838069e-05 0.1988005567515452 0 0.0015327128313205251 0.1915709431207247 0 -0.0047591026019954026 0.19332022418589959 0 -0.003081975793268537 0.18782002811878001 0 0.0015327128313205251 0.1915709431207247 0 -2.3422743153838069e-05 0.1988005567515452 0 -0.0064134676939889088 0.1997865992100484 0 -0.0042090490499692894 0.20625736901624969 0 -0.0047591026019954026 0.19332022418589959 0 -2.3422743153838069e-05 0.1988005567515452 0 -0.0064134676939889088 0.1997865992100484 0 -0.0047591026019954026 0.19332022418589959 0 -0.0064134676939889088 0.1997865992100484 0 -0.011799668219416901 0.19617813045667529 0 -0.019383630886315679 0.20246845033521829 0 -0.011799668219416901 0.19617813045667529 0 -0.01127609585540912 0.20437671563987239 0 -0.0064134676939889088 0.1997865992100484 0 -0.011799668219416901 0.19617813045667529 0 -0.01127609585540912 0.20437671563987239 0 -0.019383630886315679 0.20246845033521829 0 -0.01127609585540912 0.20437671563987239 0 -0.015975625416527989 0.21106072298800291 0 -0.0098363755348389904 0.2097806401996784 0 -0.01127609585540912 0.20437671563987239 0 -0.015975625416527989 0.21106072298800291 0 -0.0098363755348389904 0.2097806401996784 0 -0.01127609585540912 0.20437671563987239 0 -0.0042090490499692894 0.20625736901624969 0 -0.0042090490499692894 0.20625736901624969 0 0.00083142932333707279 0.21381627434491049 0 0.0029581381265264858 0.20519393183106241 0 -0.0064134676939889088 0.1997865992100484 0 -0.01127609585540912 0.20437671563987239 0 -0.0042090490499692894 0.20625736901624969 0 -0.0098363755348389904 0.2097806401996784 0 -0.0042090490499692894 0.20625736901624969 0 -0.0060196598873338584 0.21321125444391051 0 -2.3422743153838069e-05 0.1988005567515452 0 -0.0042090490499692894 0.20625736901624969 0 0.0029581381265264858 0.20519393183106241 0 -0.0055559642639475869 0.21913689448513271 0 0.0001093474821353509 0.22215689039817851 0 0.00083142932333707279 0.21381627434491049 0 -0.0060196598873338584 0.21321125444391051 0 -0.0055559642639475869 0.21913689448513271 0 0.00083142932333707279 0.21381627434491049 0 -0.0042090490499692894 0.20625736901624969 0 -0.0060196598873338584 0.21321125444391051 0 0.00083142932333707279 0.21381627434491049 0 -0.0060196598873338584 0.21321125444391051 0 -0.01091493828254137 0.21625783395607551 0 -0.0055559642639475869 0.21913689448513271 0 -0.01091493828254137 0.21625783395607551 0 -0.015975625416527989 0.21106072298800291 0 -0.017588491814277241 0.22188462813269769 0 -0.0098363755348389904 0.2097806401996784 0 -0.0060196598873338584 0.21321125444391051 0 -0.01091493828254137 0.21625783395607551 0 -0.0098363755348389904 0.2097806401996784 0 -0.01091493828254137 0.21625783395607551 0 -0.015975625416527989 0.21106072298800291 0 -0.015975625416527989 0.21106072298800291 0 -0.025983012380334781 0.2115930184476672 0 -0.017588491814277241 0.22188462813269769 0 -0.019383630886315679 0.20246845033521829 0 -0.015975625416527989 0.21106072298800291 0 -0.025983012380334781 0.2115930184476672 0 -0.029252980350323681 0.1977376245802884 0 -0.019383630886315679 0.20246845033521829 0 -0.025983012380334781 0.2115930184476672 0 -0.025983012380334781 0.2115930184476672 0 -0.02772339752401377 0.22169904798743939 0 -0.017588491814277241 0.22188462813269769 0 -0.02772339752401377 0.22169904798743939 0 -0.02675369219281019 0.23290150150097291 0 -0.022352419066048221 0.22652947853539249 0 -0.02675369219281019 0.23290150150097291 0 -0.017344094733091689 0.22963273652046001 0 -0.01246950101347712 0.23792538229425519 0 -0.02675369219281019 0.23290150150097291 0 -0.017344094733091689 0.22963273652046001 0 -0.022352419066048221 0.22652947853539249 0 -0.017344094733091689 0.22963273652046001 0 -0.017588491814277241 0.22188462813269769 0 -0.01350500053265637 0.2263729039251991 0 -0.017344094733091689 0.22963273652046001 0 -0.022352419066048221 0.22652947853539249 0 -0.017588491814277241 0.22188462813269769 0 -0.02772339752401377 0.22169904798743939 0 -0.022352419066048221 0.22652947853539249 0 -0.017588491814277241 0.22188462813269769 0 -0.01091493828254137 0.21625783395607551 0 -0.017588491814277241 0.22188462813269769 0 -0.01009356448405245 0.2229710377255022 0 -0.017588491814277241 0.22188462813269769 0 -0.01350500053265637 0.2263729039251991 0 -0.01009356448405245 0.2229710377255022 0 -0.01091493828254137 0.21625783395607551 0 -0.01009356448405245 0.2229710377255022 0 -0.0055559642639475869 0.21913689448513271 0 -0.01009356448405245 0.2229710377255022 0 -0.0055559642639475869 0.21913689448513271 0 -0.0046023563546483629 0.22639127835839259 0 -0.0055559642639475869 0.21913689448513271 0 -0.0046023563546483629 0.22639127835839259 0 0.0001093474821353509 0.22215689039817851 0 -0.0046023563546483629 0.22639127835839259 0 0.0010433620948100131 0.23240638127880581 0 0.0001093474821353509 0.22215689039817851 0 -0.0046023563546483629 0.22639127835839259 0 -0.0089938510992040935 0.23100321332213661 0 0.0010433620948100131 0.23240638127880581 0 -0.017344094733091689 0.22963273652046001 0 -0.0089938510992040935 0.23100321332213661 0 -0.01246950101347712 0.23792538229425519 0 -0.01009356448405245 0.2229710377255022 0 -0.0046023563546483629 0.22639127835839259 0 -0.0089938510992040935 0.23100321332213661 0 -0.017344094733091689 0.22963273652046001 0 -0.01350500053265637 0.2263729039251991 0 -0.0089938510992040935 0.23100321332213661 0 -0.01350500053265637 0.2263729039251991 0 -0.01009356448405245 0.2229710377255022 0 -0.0089938510992040935 0.23100321332213661 0 -0.0089938510992040935 0.23100321332213661 0 -0.001965278602122185 0.24182690426762959 0 0.0010433620948100131 0.23240638127880581 0 -0.0089938510992040935 0.23100321332213661 0 -0.01246950101347712 0.23792538229425519 0 -0.001965278602122185 0.24182690426762959 0 -0.0082457657602449386 0.25246627485226031 0 -0.01246950101347712 0.23792538229425519 0 -0.001965278602122185 0.24182690426762959 0 -0.0082457657602449386 0.25246627485226031 0 -0.02675369219281019 0.23290150150097291 0 -0.01246950101347712 0.23792538229425519 0 -0.029881977245259539 0.25372898958001938 0 -0.0082457657602449386 0.25246627485226031 0 -0.026711477711177899 0.23444217817011309 0 -0.0082457657602449386 0.25246627485226031 0 -0.02675369219281019 0.23290150150097291 0 -0.026711477711177899 0.23444217817011309 0 -0.0082457657602449386 0.25246627485226031 0 -0.02675369219281019 0.23290150150097291 0 -0.046893106203257602 0.1507880314475378 0 -0.033582854738693747 0.16530128627528251 0 -0.03096555907766051 0.14775731769023701 0 -0.035508455794597132 0.13046501110523001 0 -0.046893106203257602 0.1507880314475378 0 -0.03096555907766051 0.14775731769023701 0 -0.035508455794597132 0.13046501110523001 0 -0.046893106203257602 0.1507880314475378 0 -0.035508455794597132 0.13046501110523001 0 -0.055186524828957063 0.1281687789626855 0 -0.046893106203257602 0.1507880314475378 0 -0.035508455794597132 0.13046501110523001 0 -0.055186524828957063 0.1281687789626855 0 -0.04045215309894238 0.1165912735558266 0 -0.074642854581774637 0.14147916649728479 0 -0.055186524828957063 0.1281687789626855 0 -0.046893106203257602 0.1507880314475378 0 -0.065615427061545384 0.16058384892905991 0 -0.074642854581774637 0.14147916649728479 0 -0.046893106203257602 0.1507880314475378 0 -0.065615427061545384 0.16058384892905991 0 -0.046893106203257602 0.1507880314475378 0 -0.051824687549248197 0.17345858692208871 0 -0.063769545057940663 0.19377195479839809 0 -0.051824687549248197 0.17345858692208871 0 -0.041349789320347038 0.18749549167170951 0 -0.041349789320347038 0.18749549167170951 0 -0.033582854738693747 0.16530128627528251 0 -0.02440704960050057 0.1813667693045137 0 -0.051824687549248197 0.17345858692208871 0 -0.041349789320347038 0.18749549167170951 0 -0.033582854738693747 0.16530128627528251 0 -0.046893106203257602 0.1507880314475378 0 -0.051824687549248197 0.17345858692208871 0 -0.033582854738693747 0.16530128627528251 0 -0.033582854738693747 0.16530128627528251 0 -0.022139091883514501 0.16815071126606429 0 -0.02440704960050057 0.1813667693045137 0 -0.033582854738693747 0.16530128627528251 0 -0.022139091883514501 0.16815071126606429 0 -0.016648491277264341 0.15771365056650341 0 -0.033582854738693747 0.16530128627528251 0 -0.016648491277264341 0.15771365056650341 0 -0.03096555907766051 0.14775731769023701 0 -0.022139091883514501 0.16815071126606429 0 -0.02440704960050057 0.1813667693045137 0 -0.01283771780100665 0.17547196173435681 0 -0.01949536222664228 0.1923427933584827 0 -0.02440704960050057 0.1813667693045137 0 -0.0099503170468955675 0.185467411183286 0 -0.02440704960050057 0.1813667693045137 0 -0.0099503170468955675 0.185467411183286 0 -0.01283771780100665 0.17547196173435681 0 -0.0099503170468955675 0.185467411183286 0 -0.01283771780100665 0.17547196173435681 0 -0.00450206117857799 0.17688747855202069 0 -0.01283771780100665 0.17547196173435681 0 -0.00450206117857799 0.17688747855202069 0 -0.0026654791677323511 0.16604552865166611 0 -0.00450206117857799 0.17688747855202069 0 -0.0026654791677323511 0.16604552865166611 0 0.0024081860720475369 0.17557227428335351 0 -0.00450206117857799 0.17688747855202069 0 0.00053502205069707774 0.18188021690744111 0 0.0024081860720475369 0.17557227428335351 0 -0.0099503170468955675 0.185467411183286 0 -0.00450206117857799 0.17688747855202069 0 0.00053502205069707774 0.18188021690744111 0 -0.003081975793268537 0.18782002811878001 0 -0.0099503170468955675 0.185467411183286 0 0.00053502205069707774 0.18188021690744111 0 -0.022139091883514501 0.16815071126606429 0 -0.016648491277264341 0.15771365056650341 0 -0.0026654791677323511 0.16604552865166611 0 -0.022139091883514501 0.16815071126606429 0 -0.01283771780100665 0.17547196173435681 0 -0.0026654791677323511 0.16604552865166611 0 -0.016648491277264341 0.15771365056650341 0 -0.0026654791677323511 0.16604552865166611 0 0.00151890392611572 0.15456094484017679 0 -0.016648491277264341 0.15771365056650341 0 -0.0026654791677323511 0.16604552865166611 0 -0.0082797250895681185 0.13474448294352481 0 0.00151890392611572 0.15456094484017679 0 -0.016648491277264341 0.15771365056650341 0 -0.0082797250895681185 0.13474448294352481 0 0.00151890392611572 0.15456094484017679 0 -0.016648491277264341 0.15771365056650341 0 -0.03096555907766051 0.14775731769023701 0 -0.022194887374489752 0.13451860905663129 0 -0.016648491277264341 0.15771365056650341 0 -0.022194887374489752 0.13451860905663129 0 -0.0082797250895681185 0.13474448294352481 0 -0.035508455794597132 0.13046501110523001 0 -0.03096555907766051 0.14775731769023701 0 -0.022194887374489752 0.13451860905663129 0 -0.035508455794597132 0.13046501110523001 0 -0.022194887374489752 0.13451860905663129 0 -0.02222625157844095 0.1227088344756834 0 -0.022194887374489752 0.13451860905663129 0 -0.012678773622269129 0.1213748672570316 0 -0.02222625157844095 0.1227088344756834 0 -0.022194887374489752 0.13451860905663129 0 -0.0082797250895681185 0.13474448294352481 0 -0.012678773622269129 0.1213748672570316 0 -0.0082797250895681185 0.13474448294352481 0 -0.012678773622269129 0.1213748672570316 0 0.0010393500416724941 0.12595831854165979 0 -0.012678773622269129 0.1213748672570316 0 -0.0069683050282923539 0.11495619240176071 0 0.0010393500416724941 0.12595831854165979 0 -0.0069683050282923539 0.11495619240176071 0 0.00039794405216867472 0.112072386291362 0 0.0010393500416724941 0.12595831854165979 0 -0.012678773622269129 0.1213748672570316 0 -0.012248850971573841 0.1125208075020822 0 -0.01744198128355802 0.11503771634109559 0 -0.012678773622269129 0.1213748672570316 0 -0.012248850971573841 0.1125208075020822 0 -0.0069683050282923539 0.11495619240176071 0 -0.012248850971573841 0.1125208075020822 0 -0.0069683050282923539 0.11495619240176071 0 -0.0083997351711877014 0.10895079227570641 0 -0.0069683050282923539 0.11495619240176071 0 -0.0083997351711877014 0.10895079227570641 0 0.00039794405216867472 0.112072386291362 0 -0.011506603279544361 0.087618711973773578 0 0.0058206420146291954 0.1114089238878985 0 0.00039794405216867472 0.112072386291362 0 -0.015837719346710199 0.095350294128549784 0 -0.011506603279544361 0.087618711973773578 0 0.00039794405216867472 0.112072386291362 0 -0.011506603279544361 0.087618711973773578 0 0.0058206420146291954 0.1114089238878985 0 -0.015837719346710199 0.095350294128549784 0 0.00039794405216867472 0.112072386291362 0 -0.0083997351711877014 0.10895079227570641 0 -0.015837719346710199 0.095350294128549784 0 0.00039794405216867472 0.112072386291362 0 -0.011506603279544361 0.087618711973773578 0 0.0017142141577850001 0.096485027642689541 0 0.0058206420146291954 0.1114089238878985 0 -0.0083997351711877014 0.10895079227570641 0 -0.013221823848225379 0.1065091018144344 0 -0.015837719346710199 0.095350294128549784 0 -0.012248850971573841 0.1125208075020822 0 -0.0083997351711877014 0.10895079227570641 0 -0.013221823848225379 0.1065091018144344 0 -0.012248850971573841 0.1125208075020822 0 -0.013221823848225379 0.1065091018144344 0 -0.017997844109414411 0.1087655018954708 0 -0.017997844109414411 0.1087655018954708 0 -0.015837719346710199 0.095350294128549784 0 -0.024123805385937312 0.11014199076292169 0 -0.013221823848225379 0.1065091018144344 0 -0.017997844109414411 0.1087655018954708 0 -0.015837719346710199 0.095350294128549784 0 -0.024123805385937312 0.11014199076292169 0 -0.032300333499350402 0.090057470672271281 0 -0.015837719346710199 0.095350294128549784 0 -0.024123805385937312 0.11014199076292169 0 -0.032300333499350402 0.090057470672271281 0 -0.015837719346710199 0.095350294128549784 0 -0.024123805385937312 0.11014199076292169 0 -0.035508455794597132 0.13046501110523001 0 -0.024123805385937312 0.11014199076292169 0 -0.023307159817290739 0.1121479686184283 0 -0.035508455794597132 0.13046501110523001 0 -0.02222625157844095 0.1227088344756834 0 -0.023307159817290739 0.1121479686184283 0 -0.035508455794597132 0.13046501110523001 0 -0.024123805385937312 0.11014199076292169 0 -0.024123805385937312 0.11014199076292169 0 -0.023307159817290739 0.1121479686184283 0 -0.012678773622269129 0.1213748672570316 0 -0.02222625157844095 0.1227088344756834 0 -0.01744198128355802 0.11503771634109559 0 -0.02222625157844095 0.1227088344756834 0 -0.01744198128355802 0.11503771634109559 0 -0.023307159817290739 0.1121479686184283 0 -0.012248850971573841 0.1125208075020822 0 -0.017997844109414411 0.1087655018954708 0 -0.01744198128355802 0.11503771634109559 0 -0.017997844109414411 0.1087655018954708 0 -0.024123805385937312 0.11014199076292169 0 -0.023307159817290739 0.1121479686184283 0 -0.017997844109414411 0.1087655018954708 0 -0.01744198128355802 0.11503771634109559 0 -0.023307159817290739 0.1121479686184283 0 -0.0046988296279310846 0.075465987257500103 0 -0.004471055932428975 0.061346262570306953 0 0.0079626054049135586 0.052863747179962457 0 -0.0093767874180366029 0.073051079923104223 0 -0.014915188529848109 0.07157527628023079 0 -0.011506603279544361 0.087618711973773578 0 -0.0096267601800840239 0.066065855624376196 0 -0.01690032334888349 0.065021557104339434 0 -0.015766095144715799 0.059221925757037469 0 -0.0096267601800840239 0.066065855624376196 0 -0.014915188529848109 0.07157527628023079 0 -0.01690032334888349 0.065021557104339434 0 -0.0096267601800840239 0.066065855624376196 0 -0.0093767874180366029 0.073051079923104223 0 -0.014915188529848109 0.07157527628023079 0 -0.0096267601800840239 0.066065855624376196 0 -0.0046988296279310846 0.075465987257500103 0 -0.004471055932428975 0.061346262570306953 0 -0.0046988296279310846 0.075465987257500103 0 -0.0093767874180366029 0.073051079923104223 0 -0.0096267601800840239 0.066065855624376196 0 -0.0046988296279310846 0.075465987257500103 0 -0.0093767874180366029 0.073051079923104223 0 -0.0046988296279310846 0.075465987257500103 0 -0.011506603279544361 0.087618711973773578 0 -0.0046988296279310846 0.075465987257500103 0 -0.0093767874180366029 0.073051079923104223 0 -0.011506603279544361 0.087618711973773578 0 -0.0046988296279310846 0.075465987257500103 0 -0.011506603279544361 0.087618711973773578 0 0.00056903788424511365 0.086682396089073327 0 -0.011506603279544361 0.087618711973773578 0 0.00056903788424511365 0.086682396089073327 0 0.0017142141577850001 0.096485027642689541 0 -0.015837719346710199 0.095350294128549784 0 -0.011506603279544361 0.087618711973773578 0 -0.011506603279544361 0.087618711973773578 0 -0.028157290479737571 0.082661622355085798 0 -0.027165468422692102 0.066119176775560506 0 -0.015837719346710199 0.095350294128549784 0 -0.011506603279544361 0.087618711973773578 0 -0.028157290479737571 0.082661622355085798 0 -0.015837719346710199 0.095350294128549784 0 -0.028157290479737571 0.082661622355085798 0 -0.032300333499350402 0.090057470672271281 0 -0.015837719346710199 0.095350294128549784 0 -0.028157290479737571 0.082661622355085798 0 -0.014915188529848109 0.07157527628023079 0 -0.011506603279544361 0.087618711973773578 0 -0.027165468422692102 0.066119176775560506 0 -0.011506603279544361 0.087618711973773578 0 -0.027165468422692102 0.066119176775560506 0 -0.027165468422692102 0.066119176775560506 0 -0.01690032334888349 0.065021557104339434 0 -0.021155304748881689 0.062203044053262727 0 -0.014915188529848109 0.07157527628023079 0 -0.027165468422692102 0.066119176775560506 0 -0.01690032334888349 0.065021557104339434 0 -0.027165468422692102 0.066119176775560506 0 -0.040476861612764189 0.069972950581621118 0 -0.047888547298180387 0.051767161035057033 0 -0.028157290479737571 0.082661622355085798 0 -0.027165468422692102 0.066119176775560506 0 -0.040476861612764189 0.069972950581621118 0 -0.040476861612764189 0.069972950581621118 0 -0.049934811086014087 0.07186746235717667 0 -0.047859912164240369 0.063897566148078455 0 -0.028157290479737571 0.082661622355085798 0 -0.040476861612764189 0.069972950581621118 0 -0.040476861612764189 0.069972950581621118 0 -0.032300333499350402 0.090057470672271281 0 -0.028157290479737571 0.082661622355085798 0 -0.040476861612764189 0.069972950581621118 0 -0.032300333499350402 0.090057470672271281 0 -0.032300333499350402 0.090057470672271281 0 -0.052294403454901703 0.081174947256086191 0 -0.05578440732887191 0.096170589739797752 0 -0.040476861612764189 0.069972950581621118 0 -0.032300333499350402 0.090057470672271281 0 -0.052294403454901703 0.081174947256086191 0 -0.052294403454901703 0.081174947256086191 0 -0.05578440732887191 0.096170589739797752 0 -0.071620526940906107 0.087533684005701329 0 -0.052294403454901703 0.081174947256086191 0 -0.071620526940906107 0.087533684005701329 0 -0.062515526400001881 0.068377579792855414 0 -0.040476861612764189 0.069972950581621118 0 -0.052294403454901703 0.081174947256086191 0 -0.049934811086014087 0.07186746235717667 0 -0.052294403454901703 0.081174947256086191 0 -0.049934811086014087 0.07186746235717667 0 -0.062515526400001881 0.068377579792855414 0 -0.049934811086014087 0.07186746235717667 0 -0.052204780428632629 0.062945341387988421 0 -0.062515526400001881 0.068377579792855414 0 -0.052204780428632629 0.062945341387988421 0 -0.062515526400001881 0.068377579792855414 0 -0.055379183454653792 0.058514889464143828 0 -0.049934811086014087 0.07186746235717667 0 -0.052204780428632629 0.062945341387988421 0 -0.047859912164240369 0.063897566148078455 0 -0.024123805385937312 0.11014199076292169 0 -0.04045215309894238 0.1165912735558266 0 -0.041170092212669533 0.1046411265361262 0 -0.035508455794597132 0.13046501110523001 0 -0.024123805385937312 0.11014199076292169 0 -0.04045215309894238 0.1165912735558266 0 -0.04045215309894238 0.1165912735558266 0 -0.041170092212669533 0.1046411265361262 0 -0.052159737415513489 0.1112025467171566 0 -0.032300333499350402 0.090057470672271281 0 -0.041170092212669533 0.1046411265361262 0 -0.05578440732887191 0.096170589739797752 0 -0.024123805385937312 0.11014199076292169 0 -0.032300333499350402 0.090057470672271281 0 -0.041170092212669533 0.1046411265361262 0 -0.05578440732887191 0.096170589739797752 0 -0.052159737415513489 0.1112025467171566 0 -0.07438317581125764 0.1124407737129243 0 -0.041170092212669533 0.1046411265361262 0 -0.05578440732887191 0.096170589739797752 0 -0.052159737415513489 0.1112025467171566 0 -0.055186524828957063 0.1281687789626855 0 -0.04045215309894238 0.1165912735558266 0 -0.052159737415513489 0.1112025467171566 0 -0.055186524828957063 0.1281687789626855 0 -0.052159737415513489 0.1112025467171566 0 -0.07438317581125764 0.1124407737129243 0 -0.092802426943272898 0.12960292979422991 0 -0.07438317581125764 0.1124407737129243 0 -0.10110008134148971 0.1098561456819369 0 -0.07438317581125764 0.1124407737129243 0 -0.086834659998143784 0.098004038152668241 0 -0.10110008134148971 0.1098561456819369 0 -0.07438317581125764 0.1124407737129243 0 -0.086834659998143784 0.098004038152668241 0 -0.071620526940906107 0.087533684005701329 0 -0.05578440732887191 0.096170589739797752 0 -0.07438317581125764 0.1124407737129243 0 -0.071620526940906107 0.087533684005701329 0 -0.071620526940906107 0.087533684005701329 0 -0.062515526400001881 0.068377579792855414 0 -0.077633089280774809 0.070659037798975324 0 -0.062515526400001881 0.068377579792855414 0 -0.077633089280774809 0.070659037798975324 0 -0.069862538744371955 0.057777113150521288 0 -0.077633089280774809 0.070659037798975324 0 -0.081860045586377939 0.060182951188062161 0 -0.069862538744371955 0.057777113150521288 0 -0.077633089280774809 0.070659037798975324 0 -0.09054666164713164 0.067286880848174316 0 -0.081860045586377939 0.060182951188062161 0 -0.077633089280774809 0.070659037798975324 0 -0.09054666164713164 0.067286880848174316 0 -0.091096470542610469 0.082323341280698709 0 -0.071620526940906107 0.087533684005701329 0 -0.077633089280774809 0.070659037798975324 0 -0.091096470542610469 0.082323341280698709 0 -0.086834659998143784 0.098004038152668241 0 -0.071620526940906107 0.087533684005701329 0 -0.091096470542610469 0.082323341280698709 0 -0.086834659998143784 0.098004038152668241 0 -0.091096470542610469 0.082323341280698709 0 -0.1074822184466613 0.088136729408796272 0 -0.091096470542610469 0.082323341280698709 0 -0.1074822184466613 0.088136729408796272 0 -0.10104646070399111 0.074349611526457776 0 -0.1074822184466613 0.088136729408796272 0 -0.10104646070399111 0.074349611526457776 0 -0.1134486320906168 0.071653759806922179 0 -0.09054666164713164 0.067286880848174316 0 -0.10104646070399111 0.074349611526457776 0 -0.1026583207929353 0.062347346287697412 0 -0.09054666164713164 0.067286880848174316 0 -0.091096470542610469 0.082323341280698709 0 -0.10104646070399111 0.074349611526457776 0 -0.10104646070399111 0.074349611526457776 0 -0.1134486320906168 0.071653759806922179 0 -0.1026583207929353 0.062347346287697412 0 -0.1134486320906168 0.071653759806922179 0 -0.1169815729820268 0.057446916627697332 0 -0.1026583207929353 0.062347346287697412 0 -0.1134486320906168 0.071653759806922179 0 -0.12498233095038511 0.069533312171706482 0 -0.1248370695698198 0.083226530136874921 0 -0.1134486320906168 0.071653759806922179 0 -0.12498233095038511 0.069533312171706482 0 -0.1169815729820268 0.057446916627697332 0 -0.1074822184466613 0.088136729408796272 0 -0.1134486320906168 0.071653759806922179 0 -0.1248370695698198 0.083226530136874921 0 -0.12991930243541749 0.1020465165188278 0 -0.1074822184466613 0.088136729408796272 0 -0.1248370695698198 0.083226530136874921 0 -0.12991930243541749 0.1020465165188278 0 -0.1074822184466613 0.088136729408796272 0 -0.10110008134148971 0.1098561456819369 0 -0.12991930243541749 0.1020465165188278 0 -0.1131006250587715 0.12959615498317961 0 -0.10110008134148971 0.1098561456819369 0 -0.12991930243541749 0.1020465165188278 0 -0.13028426483969929 0.13221647237215789 0 -0.1131006250587715 0.12959615498317961 0 -0.1131006250587715 0.12959615498317961 0 -0.092802426943272898 0.12960292979422991 0 -0.10110008134148971 0.1098561456819369 0 -0.086834659998143784 0.098004038152668241 0 -0.1074822184466613 0.088136729408796272 0 -0.10110008134148971 0.1098561456819369 0 -0.1061587232064081 0.029080734372794698 0 -0.094449021505079139 0.018227913303066591 0 -0.1094215753963574 0.0115277712725063 0 -0.1061587232064081 0.029080734372794698 0 -0.094924595462104619 0.030399760044886301 0 -0.094449021505079139 0.018227913303066591 0 -0.094449021505079139 0.018227913303066591 0 -0.097507665945787692 0.0040820149966005574 0 -0.1094215753963574 0.0115277712725063 0 -0.097507665945787692 0.0040820149966005574 0 -0.1058521268010089 0.00073384547527136773 0 -0.1094215753963574 0.0115277712725063 0 -0.1152652699767374 -0.0044733142422073097 0 -0.1273771369441013 0.0023450629401116992 0 -0.1094215753963574 0.0115277712725063 0 -0.1152652699767374 -0.0044733142422073097 0 -0.1058521268010089 0.00073384547527136773 0 -0.1094215753963574 0.0115277712725063 0 -0.1273771369441013 0.0023450629401116992 0 -0.12537023626190849 0.01701499410391356 0 -0.1094215753963574 0.0115277712725063 0 -0.12537023626190849 0.01701499410391356 0 -0.1094215753963574 0.0115277712725063 0 -0.1154752524598698 0.02214949429500624 0 -0.12537023626190849 0.01701499410391356 0 -0.1154752524598698 0.02214949429500624 0 -0.120950474974805 0.030974477430810402 0 -0.1061587232064081 0.029080734372794698 0 -0.1094215753963574 0.0115277712725063 0 -0.1154752524598698 0.02214949429500624 0 -0.1061587232064081 0.029080734372794698 0 -0.1154752524598698 0.02214949429500624 0 -0.120950474974805 0.030974477430810402 0 -0.1304591025064194 0.044551821316570157 0 -0.120950474974805 0.030974477430810402 0 -0.112428546201817 0.041955624634692393 0 -0.1061587232064081 0.029080734372794698 0 -0.120950474974805 0.030974477430810402 0 -0.112428546201817 0.041955624634692393 0 -0.1304591025064194 0.044551821316570157 0 -0.112428546201817 0.041955624634692393 0 -0.1169815729820268 0.057446916627697332 0 -0.1311901693420546 0.060374133793646992 0 -0.12498233095038511 0.069533312171706482 0 -0.1169815729820268 0.057446916627697332 0 -0.112428546201817 0.041955624634692393 0 -0.1169815729820268 0.057446916627697332 0 -0.10210071185166431 0.050014029354961582 0 -0.1169815729820268 0.057446916627697332 0 -0.1026583207929353 0.062347346287697412 0 -0.10210071185166431 0.050014029354961582 0 -0.10210071185166431 0.050014029354961582 0 -0.091201579857211959 0.041080799774458047 0 -0.091131717688311603 0.055225201160547438 0 -0.1026583207929353 0.062347346287697412 0 -0.10210071185166431 0.050014029354961582 0 -0.091131717688311603 0.055225201160547438 0 -0.09054666164713164 0.067286880848174316 0 -0.1026583207929353 0.062347346287697412 0 -0.091131717688311603 0.055225201160547438 0 -0.1061587232064081 0.029080734372794698 0 -0.112428546201817 0.041955624634692393 0 -0.1016080011228369 0.039407166226836883 0 -0.112428546201817 0.041955624634692393 0 -0.10210071185166431 0.050014029354961582 0 -0.1016080011228369 0.039407166226836883 0 -0.10210071185166431 0.050014029354961582 0 -0.1016080011228369 0.039407166226836883 0 -0.091201579857211959 0.041080799774458047 0 -0.1061587232064081 0.029080734372794698 0 -0.094924595462104619 0.030399760044886301 0 -0.1016080011228369 0.039407166226836883 0 -0.094924595462104619 0.030399760044886301 0 -0.1016080011228369 0.039407166226836883 0 -0.091201579857211959 0.041080799774458047 0 -0.094924595462104619 0.030399760044886301 0 -0.091201579857211959 0.041080799774458047 0 -0.083613433652756419 0.02825823648094046 0 -0.091201579857211959 0.041080799774458047 0 -0.080163505572120847 0.038728335950810322 0 -0.0801262205712997 0.049966522982092462 0 -0.091201579857211959 0.041080799774458047 0 -0.080163505572120847 0.038728335950810322 0 -0.083613433652756419 0.02825823648094046 0 -0.080163505572120847 0.038728335950810322 0 -0.075199828102842814 0.032505994045140242 0 -0.083613433652756419 0.02825823648094046 0 -0.09054666164713164 0.067286880848174316 0 -0.091131717688311603 0.055225201160547438 0 -0.081860045586377939 0.060182951188062161 0 -0.091201579857211959 0.041080799774458047 0 -0.091131717688311603 0.055225201160547438 0 -0.0801262205712997 0.049966522982092462 0 -0.091131717688311603 0.055225201160547438 0 -0.0801262205712997 0.049966522982092462 0 -0.081860045586377939 0.060182951188062161 0 -0.0801262205712997 0.049966522982092462 0 -0.069862538744371955 0.057777113150521288 0 -0.06901267431079619 0.039797487593251017 0 -0.069862538744371955 0.057777113150521288 0 -0.06901267431079619 0.039797487593251017 0 -0.058907879691800273 0.050969475640674493 0 -0.062515526400001881 0.068377579792855414 0 -0.069862538744371955 0.057777113150521288 0 -0.058907879691800273 0.050969475640674493 0 -0.0801262205712997 0.049966522982092462 0 -0.081860045586377939 0.060182951188062161 0 -0.069862538744371955 0.057777113150521288 0 -0.06901267431079619 0.039797487593251017 0 -0.068009698875697827 0.023239916155559141 0 -0.055300232983598208 0.033561371488493641 0 -0.075199828102842814 0.032505994045140242 0 -0.06901267431079619 0.039797487593251017 0 -0.068009698875697827 0.023239916155559141 0 -0.080163505572120847 0.038728335950810322 0 -0.075199828102842814 0.032505994045140242 0 -0.06901267431079619 0.039797487593251017 0 -0.080163505572120847 0.038728335950810322 0 -0.0801262205712997 0.049966522982092462 0 -0.06901267431079619 0.039797487593251017 0 -0.068009698875697827 0.023239916155559141 0 -0.066123158358303874 0.0069763394170788487 0 -0.055300232983598208 0.033561371488493641 0 -0.068009698875697827 0.023239916155559141 0 -0.083613433652756419 0.02825823648094046 0 -0.080050012301679602 0.015705407900093959 0 -0.068009698875697827 0.023239916155559141 0 -0.080050012301679602 0.015705407900093959 0 -0.07274845615251338 0.0135364418571977 0 -0.075199828102842814 0.032505994045140242 0 -0.068009698875697827 0.023239916155559141 0 -0.083613433652756419 0.02825823648094046 0 -0.094449021505079139 0.018227913303066591 0 -0.083613433652756419 0.02825823648094046 0 -0.080050012301679602 0.015705407900093959 0 -0.094924595462104619 0.030399760044886301 0 -0.094449021505079139 0.018227913303066591 0 -0.083613433652756419 0.02825823648094046 0 -0.089124004628701792 -0.0040277377021705899 0 -0.097507665945787692 0.0040820149966005574 0 -0.086098134196158846 0.0059583430860626887 0 -0.094449021505079139 0.018227913303066591 0 -0.080050012301679602 0.015705407900093959 0 -0.086098134196158846 0.0059583430860626887 0 -0.094449021505079139 0.018227913303066591 0 -0.097507665945787692 0.0040820149966005574 0 -0.086098134196158846 0.0059583430860626887 0 -0.080050012301679602 0.015705407900093959 0 -0.086098134196158846 0.0059583430860626887 0 -0.076810955074372203 0.0082241039560588727 0 -0.079764572027605563 -0.001208843295517239 0 -0.086098134196158846 0.0059583430860626887 0 -0.076810955074372203 0.0082241039560588727 0 -0.079764572027605563 -0.001208843295517239 0 -0.089124004628701792 -0.0040277377021705899 0 -0.086098134196158846 0.0059583430860626887 0 -0.079764572027605563 -0.001208843295517239 0 -0.076810955074372203 0.0082241039560588727 0 -0.066123158358303874 0.0069763394170788487 0 -0.068009698875697827 0.023239916155559141 0 -0.07274845615251338 0.0135364418571977 0 -0.066123158358303874 0.0069763394170788487 0 -0.076810955074372203 0.0082241039560588727 0 -0.07274845615251338 0.0135364418571977 0 -0.066123158358303874 0.0069763394170788487 0 -0.080050012301679602 0.015705407900093959 0 -0.076810955074372203 0.0082241039560588727 0 -0.07274845615251338 0.0135364418571977 0 -0.047617207273071643 -0.0035118018543059538 0 -0.059664616745900671 -0.0040500510012267867 0 -0.050798470683601923 0.01183886002179501 0 -0.059664616745900671 -0.0040500510012267867 0 -0.066123158358303874 0.0069763394170788487 0 -0.050798470683601923 0.01183886002179501 0 -0.059664616745900671 -0.0040500510012267867 0 -0.050798470683601923 0.01183886002179501 0 -0.047617207273071643 -0.0035118018543059538 0 -0.050798470683601923 0.01183886002179501 0 -0.050798470683601923 0.01183886002179501 0 -0.055300232983598208 0.033561371488493641 0 -0.04692109718252771 0.035386244484329407 0 -0.066123158358303874 0.0069763394170788487 0 -0.055300232983598208 0.033561371488493641 0 -0.066123158358303874 0.0069763394170788487 0 -0.050798470683601923 0.01183886002179501 0 -0.055300232983598208 0.033561371488493641 0 -0.050798470683601923 0.01183886002179501 0 -0.055300232983598208 0.033561371488493641 0 -0.050798470683601923 0.01183886002179501 0 -0.034391162446891957 0.018187238464497092 0 -0.037793901381418679 0.035144188298954319 0 -0.034391162446891957 0.018187238464497092 0 -0.037793901381418679 0.035144188298954319 0 -0.022455882408961961 0.026825405924253771 0 -0.050798470683601923 0.01183886002179501 0 -0.037793901381418679 0.035144188298954319 0 -0.050798470683601923 0.01183886002179501 0 -0.04692109718252771 0.035386244484329407 0 -0.037793901381418679 0.035144188298954319 0 -0.050798470683601923 0.01183886002179501 0 -0.034391162446891957 0.018187238464497092 0 -0.03671052455766443 0.0037031618858211421 0 -0.034391162446891957 0.018187238464497092 0 -0.03671052455766443 0.0037031618858211421 0 -0.022890364083827771 0.01081673007749915 0 -0.047617207273071643 -0.0035118018543059538 0 -0.050798470683601923 0.01183886002179501 0 -0.03671052455766443 0.0037031618858211421 0 -0.062515526400001881 0.068377579792855414 0 -0.058907879691800273 0.050969475640674493 0 -0.062515526400001881 0.068377579792855414 0 -0.055379183454653792 0.058514889464143828 0 -0.058907879691800273 0.050969475640674493 0 -0.052204780428632629 0.062945341387988421 0 -0.047859912164240369 0.063897566148078455 0 -0.047888547298180387 0.051767161035057033 0 -0.052204780428632629 0.062945341387988421 0 -0.055379183454653792 0.058514889464143828 0 -0.047888547298180387 0.051767161035057033 0 -0.055379183454653792 0.058514889464143828 0 -0.058907879691800273 0.050969475640674493 0 -0.047888547298180387 0.051767161035057033 0 -0.06901267431079619 0.039797487593251017 0 -0.058907879691800273 0.050969475640674493 0 -0.055300232983598208 0.033561371488493641 0 -0.047888547298180387 0.051767161035057033 0 -0.055300232983598208 0.033561371488493641 0 -0.04692109718252771 0.035386244484329407 0 -0.058907879691800273 0.050969475640674493 0 -0.047888547298180387 0.051767161035057033 0 -0.055300232983598208 0.033561371488493641 0 -0.047888547298180387 0.051767161035057033 0 -0.055300232983598208 0.033561371488493641 0 -0.058907879691800273 0.050969475640674493 0 -0.055300232983598208 0.033561371488493641 0 -0.037793901381418679 0.035144188298954319 0 -0.024789332079235359 0.058449516576113518 0 -0.047888547298180387 0.051767161035057033 0 -0.04692109718252771 0.035386244484329407 0 -0.042824333565839388 0.044619641577347061 0 -0.037793901381418679 0.035144188298954319 0 -0.042824333565839388 0.044619641577347061 0 -0.024789332079235359 0.058449516576113518 0 -0.04692109718252771 0.035386244484329407 0 -0.037793901381418679 0.035144188298954319 0 -0.042824333565839388 0.044619641577347061 0 -0.027165468422692102 0.066119176775560506 0 -0.047888547298180387 0.051767161035057033 0 -0.042824333565839388 0.044619641577347061 0 -0.040476861612764189 0.069972950581621118 0 -0.047859912164240369 0.063897566148078455 0 -0.047888547298180387 0.051767161035057033 0 -0.040476861612764189 0.069972950581621118 0 -0.047888547298180387 0.051767161035057033 0 -0.027165468422692102 0.066119176775560506 0 -0.042824333565839388 0.044619641577347061 0 -0.027165468422692102 0.066119176775560506 0 -0.042824333565839388 0.044619641577347061 0 -0.024789332079235359 0.058449516576113518 0 -0.015766095144715799 0.059221925757037469 0 -0.024789332079235359 0.058449516576113518 0 -0.0190365636870411 0.05257699221554326 0 -0.015766095144715799 0.059221925757037469 0 -0.021155304748881689 0.062203044053262727 0 -0.024789332079235359 0.058449516576113518 0 -0.01690032334888349 0.065021557104339434 0 -0.015766095144715799 0.059221925757037469 0 -0.021155304748881689 0.062203044053262727 0 -0.027165468422692102 0.066119176775560506 0 -0.021155304748881689 0.062203044053262727 0 -0.024789332079235359 0.058449516576113518 0 -0.024789332079235359 0.058449516576113518 0 -0.0190365636870411 0.05257699221554326 0 -0.02501616098884394 0.043295095323351421 0 -0.0190365636870411 0.05257699221554326 0 -0.02501616098884394 0.043295095323351421 0 -0.010574666535369299 0.049341431205670631 0 -0.037793901381418679 0.035144188298954319 0 -0.024789332079235359 0.058449516576113518 0 -0.02501616098884394 0.043295095323351421 0 -0.037793901381418679 0.035144188298954319 0 -0.02501616098884394 0.043295095323351421 0 -0.022455882408961961 0.026825405924253771 0 -0.02501616098884394 0.043295095323351421 0 -0.01174883101074616 0.035626247072063598 0 -0.022455882408961961 0.026825405924253771 0 -0.02501616098884394 0.043295095323351421 0 -0.01174883101074616 0.035626247072063598 0 -0.010574666535369299 0.049341431205670631 0 -0.01174883101074616 0.035626247072063598 0 -0.010574666535369299 0.049341431205670631 0 0.0050554059078342702 0.036817447586302399 0 -0.010574666535369299 0.049341431205670631 0 -0.004471055932428975 0.061346262570306953 0 0.0079626054049135586 0.052863747179962457 0 -0.015766095144715799 0.059221925757037469 0 -0.0190365636870411 0.05257699221554326 0 -0.010574666535369299 0.049341431205670631 0 -0.015766095144715799 0.059221925757037469 0 -0.010574666535369299 0.049341431205670631 0 -0.004471055932428975 0.061346262570306953 0 -0.0096267601800840239 0.066065855624376196 0 -0.015766095144715799 0.059221925757037469 0 -0.004471055932428975 0.061346262570306953 0 -0.025670282478897081 -0.0054027298625421993 0 -0.03671052455766443 0.0037031618858211421 0 -0.022890364083827771 0.01081673007749915 0 -0.025670282478897081 -0.0054027298625421993 0 -0.022890364083827771 0.01081673007749915 0 -0.010105069976996849 0.0023765649732562961 0 -0.022890364083827771 0.01081673007749915 0 -0.022455882408961961 0.026825405924253771 0 -0.0028948745420432241 0.01788293630915707 0 -0.034391162446891957 0.018187238464497092 0 -0.022890364083827771 0.01081673007749915 0 -0.022455882408961961 0.026825405924253771 0 -0.01174883101074616 0.035626247072063598 0 -0.022455882408961961 0.026825405924253771 0 -0.0028948745420432241 0.01788293630915707 0 -0.01174883101074616 0.035626247072063598 0 -0.0028948745420432241 0.01788293630915707 0 0.0050554059078342702 0.036817447586302399 0 -0.022890364083827771 0.01081673007749915 0 -0.0028948745420432241 0.01788293630915707 0 -0.010105069976996849 0.0023765649732562961 0 -0.0028948745420432241 0.01788293630915707 0 -0.010105069976996849 0.0023765649732562961 0 0.0047038114401232534 -0.001040937293712483 0 -0.0028948745420432241 0.01788293630915707 0 0.020415517075116841 0.0076517724901667356 0 0.0047038114401232534 -0.001040937293712483 0 -0.0028948745420432241 0.01788293630915707 0 0.020342672512877309 0.02491627604112644 0 0.020415517075116841 0.0076517724901667356 0 -0.0028948745420432241 0.01788293630915707 0 0.020342672512877309 0.02491627604112644 0 0.0050554059078342702 0.036817447586302399 0 0.020342672512877309 0.02491627604112644 0 0.020415517075116841 0.0076517724901667356 0 0.04034715667016759 0.018897687307637179 0 0.020342672512877309 0.02491627604112644 0 0.02507841675544124 0.048354097280414877 0 0.04034715667016759 0.018897687307637179 0 0.0079626054049135586 0.052863747179962457 0 0.02507841675544124 0.048354097280414877 0 0.010722424996073881 0.068121568230846891 0 -0.010574666535369299 0.049341431205670631 0 0.0079626054049135586 0.052863747179962457 0 0.0050554059078342702 0.036817447586302399 0 0.0079626054049135586 0.052863747179962457 0 0.0050554059078342702 0.036817447586302399 0 0.02507841675544124 0.048354097280414877 0 0.020342672512877309 0.02491627604112644 0 0.0050554059078342702 0.036817447586302399 0 0.02507841675544124 0.048354097280414877 0 0.02507841675544124 0.048354097280414877 0 0.050251726499931808 0.044842678424317363 0 0.039807943620716157 0.068946520475498749 0 0.050251726499931808 0.044842678424317363 0 0.039807943620716157 0.068946520475498749 0 0.02507841675544124 0.048354097280414877 0 0.050251726499931808 0.044842678424317363 0 0.04034715667016759 0.018897687307637179 0 0.050251726499931808 0.044842678424317363 0 0.060695509379147472 0.02073883637313596 0 0.066628286533047365 0.040173783681243101 0 0.050251726499931808 0.044842678424317363 0 0.060695509379147472 0.02073883637313596 0 0.050251726499931808 0.044842678424317363 0 0.066628286533047365 0.040173783681243101 0 0.063756980967503582 0.059761195325569103 0 0.050251726499931808 0.044842678424317363 0 0.063756980967503582 0.059761195325569103 0 0.039807943620716157 0.068946520475498749 0 0.020415517075116841 0.0076517724901667356 0 0.04034715667016759 0.018897687307637179 0 0.039787151186370009 -0.0039594854922263374 0 0.04034715667016759 0.018897687307637179 0 0.053306813386582982 0.0056008818424343951 0 0.039787151186370009 -0.0039594854922263374 0 0.050251726499931808 0.044842678424317363 0 0.04034715667016759 0.018897687307637179 0 0.060695509379147472 0.02073883637313596 0 0.04034715667016759 0.018897687307637179 0 0.060695509379147472 0.02073883637313596 0 0.053306813386582982 0.0056008818424343951 0 0.060695509379147472 0.02073883637313596 0 0.053306813386582982 0.0056008818424343951 0 0.065940651683257009 0.0024831850618150888 0 0.060695509379147472 0.02073883637313596 0 0.065940651683257009 0.0024831850618150888 0 0.07992851590561921 0.0082161523869754144 0 0.065940651683257009 0.0024831850618150888 0 0.07992851590561921 0.0082161523869754144 0 0.074177093133044117 -0.010507922444979889 0 0.07992851590561921 0.0082161523869754144 0 0.1009244284881298 0.0078078577834924806 0 0.09649789417263642 -0.0037639840011086311 0 0.07992851590561921 0.0082161523869754144 0 0.1009244284881298 0.0078078577834924806 0 0.09893654195113713 0.02570505514797651 0 0.07992851590561921 0.0082161523869754144 0 0.08516149451907469 0.032589503251719387 0 0.07992851590561921 0.0082161523869754144 0 0.08516149451907469 0.032589503251719387 0 0.09893654195113713 0.02570505514797651 0 0.060695509379147472 0.02073883637313596 0 0.07992851590561921 0.0082161523869754144 0 0.08516149451907469 0.032589503251719387 0 0.060695509379147472 0.02073883637313596 0 0.066628286533047365 0.040173783681243101 0 0.08516149451907469 0.032589503251719387 0 0.066628286533047365 0.040173783681243101 0 0.076734924211177571 0.049535316522237388 0 0.08516149451907469 0.032589503251719387 0 0.066628286533047365 0.040173783681243101 0 0.063756980967503582 0.059761195325569103 0 0.076734924211177571 0.049535316522237388 0 0.063756980967503582 0.059761195325569103 0 0.076734924211177571 0.049535316522237388 0 0.078896317813284711 0.063130005487330554 0 0.076734924211177571 0.049535316522237388 0 0.090394473132530156 0.056962854116463339 0 0.078896317813284711 0.063130005487330554 0 0.090394473132530156 0.056962854116463339 0 0.08516149451907469 0.032589503251719387 0 0.076734924211177571 0.049535316522237388 0 0.090394473132530156 0.056962854116463339 0 0.08516149451907469 0.032589503251719387 0 0.090394473132530156 0.056962854116463339 0 0.08516149451907469 0.032589503251719387 0 0.096764564946639139 0.043178279343160431 0 0.08516149451907469 0.032589503251719387 0 0.096764564946639139 0.043178279343160431 0 0.09893654195113713 0.02570505514797651 0 0.096764564946639139 0.043178279343160431 0 0.10666951487556919 0.040720151324231749 0 0.09893654195113713 0.02570505514797651 0 0.096764564946639139 0.043178279343160431 0 0.10666951487556919 0.040720151324231749 0 0.10388747543703999 0.053358399551525167 0 0.10666951487556919 0.040720151324231749 0 0.1142736493139349 0.03087626799389703 0 0.09893654195113713 0.02570505514797651 0 0.10388747543703999 0.053358399551525167 0 0.11892469151436 0.060175562481194378 0 0.096340815718618328 0.066677421107029802 0 0.090394473132530156 0.056962854116463339 0 0.10388747543703999 0.053358399551525167 0 0.096340815718618328 0.066677421107029802 0 0.090394473132530156 0.056962854116463339 0 0.096764564946639139 0.043178279343160431 0 0.10388747543703999 0.053358399551525167 0 0.10666951487556919 0.040720151324231749 0 0.10388747543703999 0.053358399551525167 0 0.1137328545953389 0.049471119462924477 0 0.1137328545953389 0.049471119462924477 0 0.11892469151436 0.060175562481194378 0 0.12367169586596689 0.04413069599522032 0 0.10388747543703999 0.053358399551525167 0 0.1137328545953389 0.049471119462924477 0 0.11892469151436 0.060175562481194378 0 0.10666951487556919 0.040720151324231749 0 0.12367169586596689 0.04413069599522032 0 0.1142736493139349 0.03087626799389703 0 0.12367169586596689 0.04413069599522032 0 0.1142736493139349 0.03087626799389703 0 0.13034027439662041 0.028127834929059549 0 0.10666951487556919 0.040720151324231749 0 0.1137328545953389 0.049471119462924477 0 0.12367169586596689 0.04413069599522032 0 0.1142736493139349 0.03087626799389703 0 0.111750219480381 0.015697602572997061 0 0.13034027439662041 0.028127834929059549 0 0.11917198148314 0.002581966002757949 0 0.13034027439662041 0.028127834929059549 0 0.111750219480381 0.015697602572997061 0 0.11917198148314 0.002581966002757949 0 0.13034027439662041 0.028127834929059549 0 0.11917198148314 0.002581966002757949 0 0.1309849453148588 0.01811654968683717 0 0.1228376310831711 -0.00076623140119310329 0 0.11917198148314 0.002581966002757949 0 0.1228376310831711 -0.00076623140119310329 0 0.11917198148314 0.002581966002757949 0 0.1133629416093747 0.002418872237081233 0 0.1105415625726717 -0.0014271332550589229 0 0.11917198148314 0.002581966002757949 0 0.1133629416093747 0.002418872237081233 0 0.11092652002007269 0.0067640166461111727 0 0.1133629416093747 0.002418872237081233 0 0.1078625722471533 0.0022823866337398822 0 0.1105415625726717 -0.0014271332550589229 0 0.1133629416093747 0.002418872237081233 0 0.11092652002007269 0.0067640166461111727 0 0.1078625722471533 0.0022823866337398822 0 0.111750219480381 0.015697602572997061 0 0.11917198148314 0.002581966002757949 0 0.11092652002007269 0.0067640166461111727 0 0.111750219480381 0.015697602572997061 0 0.11092652002007269 0.0067640166461111727 0 0.1009244284881298 0.0078078577834924806 0 0.1078625722471533 0.0022823866337398822 0 0.1009244284881298 0.0078078577834924806 0 0.1039166904039584 -0.0028966343462391718 0 0.11092652002007269 0.0067640166461111727 0 0.1078625722471533 0.0022823866337398822 0 0.1009244284881298 0.0078078577834924806 0 0.1009244284881298 0.0078078577834924806 0 0.1039166904039584 -0.0028966343462391718 0 0.09649789417263642 -0.0037639840011086311 0 0.111750219480381 0.015697602572997061 0 0.1009244284881298 0.0078078577834924806 0 0.09893654195113713 0.02570505514797651 0 0.1142736493139349 0.03087626799389703 0 0.111750219480381 0.015697602572997061 0 0.09893654195113713 0.02570505514797651 0 0.10086043035944101 0.1057095558459509 0 0.088353675930770217 0.1090445403681379 0 0.098136173783193614 0.12855261503670501 0 0.10086043035944101 0.1057095558459509 0 0.11707998843366239 0.12090166170324231 0 0.098136173783193614 0.12855261503670501 0 0.10086043035944101 0.1057095558459509 0 0.11707998843366239 0.12090166170324231 0 0.12018819637303869 0.10164151191590461 0 0.11707998843366239 0.12090166170324231 0 0.12018819637303869 0.10164151191590461 0 0.1368974078767736 0.107501873099266 0 0.10086043035944101 0.1057095558459509 0 0.12018819637303869 0.10164151191590461 0 0.11039993896964689 0.089589601033300492 0 0.12018819637303869 0.10164151191590461 0 0.1225478872688979 0.090713611373926736 0 0.11039993896964689 0.089589601033300492 0 0.1225478872688979 0.090713611373926736 0 0.1210037722340596 0.082520495593825793 0 0.11039993896964689 0.089589601033300492 0 0.1210037722340596 0.082520495593825793 0 0.11039993896964689 0.089589601033300492 0 0.1079674466630436 0.07575227550831827 0 0.1243405792371938 0.066503547411893488 0 0.1152310018430296 0.068591719667449438 0 0.13121537104960351 0.072689189806444385 0 0.1152310018430296 0.068591719667449438 0 0.1079674466630436 0.07575227550831827 0 0.13121537104960351 0.072689189806444385 0 0.11892469151436 0.060175562481194378 0 0.1152310018430296 0.068591719667449438 0 0.096340815718618328 0.066677421107029802 0 0.1210037722340596 0.082520495593825793 0 0.1079674466630436 0.07575227550831827 0 0.13121537104960351 0.072689189806444385 0 0.1079674466630436 0.07575227550831827 0 0.13121537104960351 0.072689189806444385 0 0.11892469151436 0.060175562481194378 0 0.1243405792371938 0.066503547411893488 0 0.1152310018430296 0.068591719667449438 0 0.090394473132530156 0.056962854116463339 0 0.096340815718618328 0.066677421107029802 0 0.095627451745985609 0.081336204981207194 0 0.11892469151436 0.060175562481194378 0 0.096340815718618328 0.066677421107029802 0 0.1152310018430296 0.068591719667449438 0 0.1079674466630436 0.07575227550831827 0 0.096340815718618328 0.066677421107029802 0 0.1079674466630436 0.07575227550831827 0 0.096340815718618328 0.066677421107029802 0 0.095627451745985609 0.081336204981207194 0 0.10086043035944101 0.1057095558459509 0 0.095627451745985609 0.081336204981207194 0 0.10086043035944101 0.1057095558459509 0 0.095627451745985609 0.081336204981207194 0 0.085469831166676849 0.087436677031336632 0 0.10086043035944101 0.1057095558459509 0 0.11039993896964689 0.089589601033300492 0 0.095627451745985609 0.081336204981207194 0 0.11039993896964689 0.089589601033300492 0 0.1079674466630436 0.07575227550831827 0 0.095627451745985609 0.081336204981207194 0 0.095627451745985609 0.081336204981207194 0 0.085469831166676849 0.087436677031336632 0 0.085588317529406169 0.073238424790440806 0 0.085469831166676849 0.087436677031336632 0 0.085588317529406169 0.073238424790440806 0 0.076873554133312927 0.079435143693455501 0 0.085469831166676849 0.087436677031336632 0 0.070098818600398835 0.095008337279511162 0 0.081838863589211913 0.097859807548057495 0 0.085588317529406169 0.073238424790440806 0 0.078896317813284711 0.063130005487330554 0 0.076873554133312927 0.079435143693455501 0 0.090394473132530156 0.056962854116463339 0 0.095627451745985609 0.081336204981207194 0 0.090394473132530156 0.056962854116463339 0 0.095627451745985609 0.081336204981207194 0 0.085588317529406169 0.073238424790440806 0 0.090394473132530156 0.056962854116463339 0 0.085588317529406169 0.073238424790440806 0 0.078896317813284711 0.063130005487330554 0 0.063756980967503582 0.059761195325569103 0 0.076873554133312927 0.079435143693455501 0 0.058428932400687923 0.080576723114904505 0 0.063756980967503582 0.059761195325569103 0 0.078896317813284711 0.063130005487330554 0 0.076873554133312927 0.079435143693455501 0 0.076873554133312927 0.079435143693455501 0 0.070098818600398835 0.095008337279511162 0 0.058428932400687923 0.080576723114904505 0 0.085469831166676849 0.087436677031336632 0 0.076873554133312927 0.079435143693455501 0 0.070098818600398835 0.095008337279511162 0 0.076873554133312927 0.079435143693455501 0 0.070098818600398835 0.095008337279511162 0 0.070098818600398835 0.095008337279511162 0 0.063324083067484813 0.1105815308655668 0 0.056772327777908818 0.093355456469435216 0 0.070098818600398835 0.095008337279511162 0 0.073686861685182473 0.1058294153104071 0 0.063324083067484813 0.1105815308655668 0 0.070098818600398835 0.095008337279511162 0 0.063324083067484813 0.1105815308655668 0 0.070098818600398835 0.095008337279511162 0 0.073686861685182473 0.1058294153104071 0 0.081838863589211913 0.097859807548057495 0 0.10086043035944101 0.1057095558459509 0 0.088353675930770217 0.1090445403681379 0 0.081838863589211913 0.097859807548057495 0 0.10086043035944101 0.1057095558459509 0 0.085469831166676849 0.087436677031336632 0 0.081838863589211913 0.097859807548057495 0 0.073686861685182473 0.1058294153104071 0 0.081838863589211913 0.097859807548057495 0 0.081058066011519173 0.11973636453468819 0 0.081838863589211913 0.097859807548057495 0 0.081058066011519173 0.11973636453468819 0 0.088353675930770217 0.1090445403681379 0 0.081838863589211913 0.097859807548057495 0 0.081058066011519173 0.11973636453468819 0 0.081058066011519173 0.11973636453468819 0 0.098136173783193614 0.12855261503670501 0 0.088353675930770217 0.1090445403681379 0 0.081058066011519173 0.11973636453468819 0 0.098136173783193614 0.12855261503670501 0 0.081058066011519173 0.11973636453468819 0 0.063324083067484813 0.1105815308655668 0 0.068402942841081005 0.12865021266463919 0 0.081058066011519173 0.11973636453468819 0 0.063324083067484813 0.1105815308655668 0 0.073686861685182473 0.1058294153104071 0 0.081058066011519173 0.11973636453468819 0 0.063324083067484813 0.1105815308655668 0 0.063324083067484813 0.1105815308655668 0 0.047212646671147621 0.11637508280246631 0 0.046344121904492837 0.10181594669612309 0 0.063324083067484813 0.1105815308655668 0 0.047212646671147621 0.11637508280246631 0 0.054704645729867107 0.1303951701743557 0 0.063324083067484813 0.1105815308655668 0 0.054704645729867107 0.1303951701743557 0 0.068402942841081005 0.12865021266463919 0 0.063324083067484813 0.1105815308655668 0 0.054704645729867107 0.1303951701743557 0 0.063324083067484813 0.1105815308655668 0 0.046344121904492837 0.10181594669612309 0 0.056772327777908818 0.093355456469435216 0 0.063324083067484813 0.1105815308655668 0 0.046344121904492837 0.10181594669612309 0 0.046344121904492837 0.10181594669612309 0 0.056772327777908818 0.093355456469435216 0 0.045320775007697253 0.087378911453508054 0 0.046344121904492837 0.10181594669612309 0 0.0293641607415005 0.093050362526680058 0 0.027539824430943272 0.097260859315675907 0 0.046344121904492837 0.10181594669612309 0 0.0293641607415005 0.093050362526680058 0 0.046344121904492837 0.10181594669612309 0 0.045320775007697253 0.087378911453508054 0 0.0293641607415005 0.093050362526680058 0 0.046344121904492837 0.10181594669612309 0 0.034802580128522533 0.108370238657299 0 0.027539824430943272 0.097260859315675907 0 0.047212646671147621 0.11637508280246631 0 0.046344121904492837 0.10181594669612309 0 0.034802580128522533 0.108370238657299 0 0.034802580128522533 0.108370238657299 0 0.02295827912300942 0.1143792008990337 0 0.036209801575650402 0.12755429465012871 0 0.047212646671147621 0.11637508280246631 0 0.054704645729867107 0.1303951701743557 0 0.036209801575650402 0.12755429465012871 0 0.047212646671147621 0.11637508280246631 0 0.034802580128522533 0.108370238657299 0 0.036209801575650402 0.12755429465012871 0 0.063756980967503582 0.059761195325569103 0 0.058428932400687923 0.080576723114904505 0 0.039807943620716157 0.068946520475498749 0 0.058428932400687923 0.080576723114904505 0 0.045320775007697253 0.087378911453508054 0 0.039807943620716157 0.068946520475498749 0 0.070098818600398835 0.095008337279511162 0 0.058428932400687923 0.080576723114904505 0 0.056772327777908818 0.093355456469435216 0 0.058428932400687923 0.080576723114904505 0 0.056772327777908818 0.093355456469435216 0 0.045320775007697253 0.087378911453508054 0 0.039807943620716157 0.068946520475498749 0 0.02523443473854358 0.074793540318702806 0 0.0293641607415005 0.093050362526680058 0 0.045320775007697253 0.087378911453508054 0 0.039807943620716157 0.068946520475498749 0 0.0293641607415005 0.093050362526680058 0 0.039807943620716157 0.068946520475498749 0 0.0293641607415005 0.093050362526680058 0 0.02507841675544124 0.048354097280414877 0 0.039807943620716157 0.068946520475498749 0 0.02523443473854358 0.074793540318702806 0 0.02523443473854358 0.074793540318702806 0 0.01233266555678463 0.084258174892090337 0 0.010722424996073881 0.068121568230846891 0 0.02507841675544124 0.048354097280414877 0 0.02523443473854358 0.074793540318702806 0 0.010722424996073881 0.068121568230846891 0 0.0293641607415005 0.093050362526680058 0 0.01233266555678463 0.084258174892090337 0 0.0293641607415005 0.093050362526680058 0 0.01233266555678463 0.084258174892090337 0 0.019584721545335231 0.095933386042030777 0 0.02523443473854358 0.074793540318702806 0 0.0293641607415005 0.093050362526680058 0 0.01233266555678463 0.084258174892090337 0 -0.0046988296279310846 0.075465987257500103 0 0.01233266555678463 0.084258174892090337 0 -0.0046988296279310846 0.075465987257500103 0 0.00056903788424511365 0.086682396089073327 0 0.01233266555678463 0.084258174892090337 0 0.01233266555678463 0.084258174892090337 0 0.019584721545335231 0.095933386042030777 0 0.0096773837387348072 0.094713106344260181 0 0.00056903788424511365 0.086682396089073327 0 0.0096773837387348072 0.094713106344260181 0 0.0017142141577850001 0.096485027642689541 0 0.00056903788424511365 0.086682396089073327 0 0.01233266555678463 0.084258174892090337 0 0.0096773837387348072 0.094713106344260181 0 -0.0046988296279310846 0.075465987257500103 0 0.0079626054049135586 0.052863747179962457 0 -0.0046988296279310846 0.075465987257500103 0 0.01233266555678463 0.084258174892090337 0 0.010722424996073881 0.068121568230846891 0 -0.0046988296279310846 0.075465987257500103 0 0.0079626054049135586 0.052863747179962457 0 0.010722424996073881 0.068121568230846891 0 0.02295827912300942 0.1143792008990337 0 0.016633607451047409 0.12879447845417449 0 0.036209801575650402 0.12755429465012871 0 0.02295827912300942 0.1143792008990337 0 0.02320798257890765 0.1047443639128517 0 0.017264926825327171 0.1093249123190818 0 0.02295827912300942 0.1143792008990337 0 0.017264926825327171 0.1093249123190818 0 0.01360187540002143 0.11722717171449371 0 0.02295827912300942 0.1143792008990337 0 0.01360187540002143 0.11722717171449371 0 0.016633607451047409 0.12879447845417449 0 0.034802580128522533 0.108370238657299 0 0.027539824430943272 0.097260859315675907 0 0.02320798257890765 0.1047443639128517 0 0.034802580128522533 0.108370238657299 0 0.02295827912300942 0.1143792008990337 0 0.02320798257890765 0.1047443639128517 0 0.0293641607415005 0.093050362526680058 0 0.027539824430943272 0.097260859315675907 0 0.019584721545335231 0.095933386042030777 0 0.027539824430943272 0.097260859315675907 0 0.019584721545335231 0.095933386042030777 0 0.02320798257890765 0.1047443639128517 0 0.0293641607415005 0.093050362526680058 0 0.027539824430943272 0.097260859315675907 0 0.019584721545335231 0.095933386042030777 0 0.02320798257890765 0.1047443639128517 0 0.01504081682007688 0.10253598369847031 0 0.02320798257890765 0.1047443639128517 0 0.017264926825327171 0.1093249123190818 0 0.01504081682007688 0.10253598369847031 0 0.0088228464681819972 0.10238366970120689 0 0.01151568020462046 0.1077378413705596 0 0.0058206420146291954 0.1114089238878985 0 0.017264926825327171 0.1093249123190818 0 0.01504081682007688 0.10253598369847031 0 0.01151568020462046 0.1077378413705596 0 0.01504081682007688 0.10253598369847031 0 0.0088228464681819972 0.10238366970120689 0 0.01151568020462046 0.1077378413705596 0 0.019584721545335231 0.095933386042030777 0 0.01504081682007688 0.10253598369847031 0 0.0096773837387348072 0.094713106344260181 0 0.01504081682007688 0.10253598369847031 0 0.0088228464681819972 0.10238366970120689 0 0.0096773837387348072 0.094713106344260181 0 0.0088228464681819972 0.10238366970120689 0 0.0096773837387348072 0.094713106344260181 0 0.0017142141577850001 0.096485027642689541 0 0.0088228464681819972 0.10238366970120689 0 0.0017142141577850001 0.096485027642689541 0 0.0058206420146291954 0.1114089238878985 0 0.0058206420146291954 0.1114089238878985 0 0.00039794405216867472 0.112072386291362 0 0.01360187540002143 0.11722717171449371 0 0.00039794405216867472 0.112072386291362 0 0.016633607451047409 0.12879447845417449 0 0.00039794405216867472 0.112072386291362 0 0.01360187540002143 0.11722717171449371 0 0.016633607451047409 0.12879447845417449 0 0.00039794405216867472 0.112072386291362 0 0.0010393500416724941 0.12595831854165979 0 0.016633607451047409 0.12879447845417449 0 0.01151568020462046 0.1077378413705596 0 0.0058206420146291954 0.1114089238878985 0 0.01360187540002143 0.11722717171449371 0 0.017264926825327171 0.1093249123190818 0 0.01151568020462046 0.1077378413705596 0 0.01360187540002143 0.11722717171449371 0 -0.0082797250895681185 0.13474448294352481 0 0.0010393500416724941 0.12595831854165979 0 0.01291562537333717 0.14373886088149129 0 0.0010393500416724941 0.12595831854165979 0 0.016633607451047409 0.12879447845417449 0 0.01291562537333717 0.14373886088149129 0 0.016633607451047409 0.12879447845417449 0 0.030096440749716711 0.14309687622970299 0 0.036209801575650402 0.12755429465012871 0 0.016633607451047409 0.12879447845417449 0 0.030096440749716711 0.14309687622970299 0 0.01291562537333717 0.14373886088149129 0 0.030096440749716711 0.14309687622970299 0 0.01291562537333717 0.14373886088149129 0 0.026789162612504271 0.15663130254031199 0 0.01291562537333717 0.14373886088149129 0 0.015650655317666261 0.15865613344587939 0 0.026789162612504271 0.15663130254031199 0 0.01291562537333717 0.14373886088149129 0 0.00151890392611572 0.15456094484017679 0 0.015650655317666261 0.15865613344587939 0 -0.0082797250895681185 0.13474448294352481 0 0.01291562537333717 0.14373886088149129 0 0.00151890392611572 0.15456094484017679 0 0.00151890392611572 0.15456094484017679 0 0.01131753294179963 0.17437740673682869 0 0.00151890392611572 0.15456094484017679 0 0.012386788017382491 0.1641388541230504 0 0.01131753294179963 0.17437740673682869 0 -0.0026654791677323511 0.16604552865166611 0 0.00151890392611572 0.15456094484017679 0 0.01131753294179963 0.17437740673682869 0 -0.0026654791677323511 0.16604552865166611 0 0.01131753294179963 0.17437740673682869 0 0.012386788017382491 0.1641388541230504 0 0.01131753294179963 0.17437740673682869 0 0.021060059883948341 0.16896093146931659 0 0.00151890392611572 0.15456094484017679 0 0.012386788017382491 0.1641388541230504 0 0.015650655317666261 0.15865613344587939 0 0.0072367552089822543 0.1840346549744645 0 0.003085550936940849 0.18695469644268639 0 0.007927604969267173 0.18944813828794729 0 0.0072367552089822543 0.1840346549744645 0 0.003085550936940849 0.18695469644268639 0 0.00053502205069707774 0.18188021690744111 0 -0.003081975793268537 0.18782002811878001 0 0.003085550936940849 0.18695469644268639 0 0.00053502205069707774 0.18188021690744111 0 0.0072367552089822543 0.1840346549744645 0 0.00053502205069707774 0.18188021690744111 0 0.0082701590199136289 0.17900500476799119 0 -0.0026654791677323511 0.16604552865166611 0 0.0024081860720475369 0.17557227428335351 0 0.01131753294179963 0.17437740673682869 0 0.0024081860720475369 0.17557227428335351 0 0.01131753294179963 0.17437740673682869 0 0.0082701590199136289 0.17900500476799119 0 0.00053502205069707774 0.18188021690744111 0 0.0024081860720475369 0.17557227428335351 0 0.0082701590199136289 0.17900500476799119 0 0.01131753294179963 0.17437740673682869 0 0.013543000689093809 0.1790660034635034 0 0.021389494149062459 0.18037885708243739 0 0.01131753294179963 0.17437740673682869 0 0.013543000689093809 0.1790660034635034 0 0.01131753294179963 0.17437740673682869 0 0.013543000689093809 0.1790660034635034 0 0.0082701590199136289 0.17900500476799119 0 0.013543000689093809 0.1790660034635034 0 0.0115175493401282 0.18523262863701309 0 0.016985704636488509 0.19275209946522329 0 0.0072367552089822543 0.1840346549744645 0 0.0082701590199136289 0.17900500476799119 0 0.0115175493401282 0.18523262863701309 0 0.013543000689093809 0.1790660034635034 0 0.0082701590199136289 0.17900500476799119 0 0.0115175493401282 0.18523262863701309 0 0.0072367552089822543 0.1840346549744645 0 0.0115175493401282 0.18523262863701309 0 0.007927604969267173 0.18944813828794729 0 0.021389494149062459 0.18037885708243739 0 0.039453436217199322 0.18340126598870379 0 0.013543000689093809 0.1790660034635034 0 0.021389494149062459 0.18037885708243739 0 0.02230428843080948 0.19662630733770359 0 0.013543000689093809 0.1790660034635034 0 0.021389494149062459 0.18037885708243739 0 0.01131753294179963 0.17437740673682869 0 0.021389494149062459 0.18037885708243739 0 0.01131753294179963 0.17437740673682869 0 0.021389494149062459 0.18037885708243739 0 0.021060059883948341 0.16896093146931659 0 0.021389494149062459 0.18037885708243739 0 0.021060059883948341 0.16896093146931659 0 0.034487576316221548 0.17006964541133651 0 0.021389494149062459 0.18037885708243739 0 0.036772518206031037 0.18954494233072339 0 0.012386788017382491 0.1641388541230504 0 0.015650655317666261 0.15865613344587939 0 0.021060059883948341 0.16896093146931659 0 0.015650655317666261 0.15865613344587939 0 0.021060059883948341 0.16896093146931659 0 0.026789162612504271 0.15663130254031199 0 0.021060059883948341 0.16896093146931659 0 0.026789162612504271 0.15663130254031199 0 0.034487576316221548 0.17006964541133651 0 0.026789162612504271 0.15663130254031199 0 0.034487576316221548 0.17006964541133651 0 0.046085208392249437 0.15020880948314461 0 0.034487576316221548 0.17006964541133651 0 0.049790080527993393 0.16878629006039211 0 0.046085208392249437 0.15020880948314461 0 0.021389494149062459 0.18037885708243739 0 0.039453436217199322 0.18340126598870379 0 0.036772518206031037 0.18954494233072339 0 0.021389494149062459 0.18037885708243739 0 0.034487576316221548 0.17006964541133651 0 0.039453436217199322 0.18340126598870379 0 0.034487576316221548 0.17006964541133651 0 0.039453436217199322 0.18340126598870379 0 0.049790080527993393 0.16878629006039211 0 0.039453436217199322 0.18340126598870379 0 0.057517378285335978 0.18642367489497111 0 0.049790080527993393 0.16878629006039211 0 0.057517378285335978 0.18642367489497111 0 0.06670876632053821 0.16536039993208129 0 0.039453436217199322 0.18340126598870379 0 0.057517378285335978 0.18642367489497111 0 0.039453436217199322 0.18340126598870379 0 0.057517378285335978 0.18642367489497111 0 0.046621016020550923 0.1898787739154234 0 0.057517378285335978 0.18642367489497111 0 0.049790080527993393 0.16878629006039211 0 0.06670876632053821 0.16536039993208129 0 0.056759789081437029 0.15816783404816359 0 0.049790080527993393 0.16878629006039211 0 0.06670876632053821 0.16536039993208129 0 0.056759789081437029 0.15816783404816359 0 0.049790080527993393 0.16878629006039211 0 0.046085208392249437 0.15020880948314461 0 0.056759789081437029 0.15816783404816359 0 0.046085208392249437 0.15020880948314461 0 0.06445510108496709 0.14831583671703669 0 0.054704645729867107 0.1303951701743557 0 0.046085208392249437 0.15020880948314461 0 0.06445510108496709 0.14831583671703669 0 0.054704645729867107 0.1303951701743557 0 0.046085208392249437 0.15020880948314461 0 0.054704645729867107 0.1303951701743557 0 0.036209801575650402 0.12755429465012871 0 0.046085208392249437 0.15020880948314461 0 0.030096440749716711 0.14309687622970299 0 0.036209801575650402 0.12755429465012871 0 0.046085208392249437 0.15020880948314461 0 0.030096440749716711 0.14309687622970299 0 0.026789162612504271 0.15663130254031199 0 0.046085208392249437 0.15020880948314461 0 0.02117589590128718 0.2395927914801684 0 0.012156823249103331 0.25259817100369902 0 0.030652172791378579 0.25229956247347313 0 0.02117589590128718 0.2395927914801684 0 0.034188277432347557 0.23988537883147459 0 0.030652172791378579 0.25229956247347313 0 0.02117589590128718 0.2395927914801684 0 0.030323397599499081 0.22959965211839081 0 0.034188277432347557 0.23988537883147459 0 -0.0082457657602449386 0.25246627485226031 0 -0.001965278602122185 0.24182690426762959 0 0.012156823249103331 0.25259817100369902 0 0.02117589590128718 0.2395927914801684 0 0.008579196815527634 0.23953031834541311 0 0.012156823249103331 0.25259817100369902 0 -0.001965278602122185 0.24182690426762959 0 0.008579196815527634 0.23953031834541311 0 0.012156823249103331 0.25259817100369902 0 -0.001965278602122185 0.24182690426762959 0 0.008579196815527634 0.23953031834541311 0 0.0010433620948100131 0.23240638127880581 0 0.02117589590128718 0.2395927914801684 0 0.008579196815527634 0.23953031834541311 0 0.01115565641706814 0.2303537873583584 0 0.008579196815527634 0.23953031834541311 0 0.01115565641706814 0.2303537873583584 0 0.0010433620948100131 0.23240638127880581 0 0.01115565641706814 0.2303537873583584 0 0.0010433620948100131 0.23240638127880581 0 0.0091084557899102862 0.2202403998025296 0 0.0010433620948100131 0.23240638127880581 0 0.0001093474821353509 0.22215689039817851 0 0.0091084557899102862 0.2202403998025296 0 0.01115565641706814 0.2303537873583584 0 0.0091084557899102862 0.2202403998025296 0 0.016496999093422449 0.223541986747673 0 0.0091084557899102862 0.2202403998025296 0 0.016496999093422449 0.223541986747673 0 0.01612020317490017 0.2152275371535412 0 0.016496999093422449 0.223541986747673 0 0.02147394042148347 0.23028557103733549 0 0.024626739663750161 0.22160263838659999 0 0.016496999093422449 0.223541986747673 0 0.024626739663750161 0.22160263838659999 0 0.01612020317490017 0.2152275371535412 0 0.01115565641706814 0.2303537873583584 0 0.016496999093422449 0.223541986747673 0 0.02147394042148347 0.23028557103733549 0 0.02117589590128718 0.2395927914801684 0 0.01115565641706814 0.2303537873583584 0 0.02147394042148347 0.23028557103733549 0 0.02147394042148347 0.23028557103733549 0 0.030323397599499081 0.22959965211839081 0 0.024626739663750161 0.22160263838659999 0 0.02117589590128718 0.2395927914801684 0 0.02147394042148347 0.23028557103733549 0 0.030323397599499081 0.22959965211839081 0 0.024626739663750161 0.22160263838659999 0 0.027508903383077599 0.21474836631904051 0 0.034268755792753257 0.2207932912834846 0 0.030323397599499081 0.22959965211839081 0 0.024626739663750161 0.22160263838659999 0 0.034268755792753257 0.2207932912834846 0 0.027508903383077599 0.21474836631904051 0 0.023943201944243639 0.1999111919537408 0 0.034268755792753257 0.2207932912834846 0 0.023943201944243639 0.1999111919537408 0 0.034268755792753257 0.2207932912834846 0 0.027508903383077599 0.21474836631904051 0 0.023922045305692211 0.20684028787671799 0 0.022699459496289199 0.2141990688659105 0 0.024626739663750161 0.22160263838659999 0 0.027508903383077599 0.21474836631904051 0 0.022699459496289199 0.2141990688659105 0 0.027508903383077599 0.21474836631904051 0 0.023922045305692211 0.20684028787671799 0 0.023943201944243639 0.1999111919537408 0 0.01896544066016782 0.20973745132843891 0 0.01612020317490017 0.2152275371535412 0 0.013247665380499421 0.20734461508933349 0 0.023922045305692211 0.20684028787671799 0 0.01896544066016782 0.20973745132843891 0 0.022699459496289199 0.2141990688659105 0 0.023922045305692211 0.20684028787671799 0 0.021734838082019509 0.20302577286306159 0 0.023943201944243639 0.1999111919537408 0 0.023922045305692211 0.20684028787671799 0 0.018650848458870179 0.20436341187488569 0 0.021734838082019509 0.20302577286306159 0 0.023922045305692211 0.20684028787671799 0 0.018650848458870179 0.20436341187488569 0 0.01896544066016782 0.20973745132843891 0 0.018650848458870179 0.20436341187488569 0 0.01896544066016782 0.20973745132843891 0 0.013247665380499421 0.20734461508933349 0 0.024626739663750161 0.22160263838659999 0 0.022699459496289199 0.2141990688659105 0 0.01612020317490017 0.2152275371535412 0 0.01896544066016782 0.20973745132843891 0 0.022699459496289199 0.2141990688659105 0 0.01612020317490017 0.2152275371535412 0 0.01612020317490017 0.2152275371535412 0 0.0085100262700745465 0.21094865931476009 0 0.013247665380499421 0.20734461508933349 0 0.0091084557899102862 0.2202403998025296 0 0.01612020317490017 0.2152275371535412 0 0.0085100262700745465 0.21094865931476009 0 0.0001093474821353509 0.22215689039817851 0 0.0091084557899102862 0.2202403998025296 0 0.00083142932333707279 0.21381627434491049 0 0.0091084557899102862 0.2202403998025296 0 0.0085100262700745465 0.21094865931476009 0 0.00083142932333707279 0.21381627434491049 0 0.0085100262700745465 0.21094865931476009 0 0.00083142932333707279 0.21381627434491049 0 0.0029581381265264858 0.20519393183106241 0 0.0085100262700745465 0.21094865931476009 0 0.0029581381265264858 0.20519393183106241 0 0.0087942658252738396 0.20386919766718339 0 0.0029581381265264858 0.20519393183106241 0 0.0087942658252738396 0.20386919766718339 0 0.0056326315351633537 0.2004899601979887 0 0.0085100262700745465 0.21094865931476009 0 0.0087942658252738396 0.20386919766718339 0 0.013247665380499421 0.20734461508933349 0 0.0087942658252738396 0.20386919766718339 0 0.013247665380499421 0.20734461508933349 0 0.013927284278231049 0.2027684573698135 0 0.018650848458870179 0.20436341187488569 0 0.013247665380499421 0.20734461508933349 0 0.013927284278231049 0.2027684573698135 0 0.013927284278231049 0.2027684573698135 0 0.010260103200158849 0.1991700010832006 0 0.016231602148303749 0.1987520895161983 0 0.010260103200158849 0.1991700010832006 0 0.01183675088797494 0.19419665586736051 0 0.016231602148303749 0.1987520895161983 0 0.010260103200158849 0.1991700010832006 0 0.0061740732670114221 0.19541611365695169 0 0.01183675088797494 0.19419665586736051 0 0.0087942658252738396 0.20386919766718339 0 0.010260103200158849 0.1991700010832006 0 0.0056326315351633537 0.2004899601979887 0 0.0087942658252738396 0.20386919766718339 0 0.013927284278231049 0.2027684573698135 0 0.010260103200158849 0.1991700010832006 0 0.010260103200158849 0.1991700010832006 0 0.0056326315351633537 0.2004899601979887 0 0.0061740732670114221 0.19541611365695169 0 -2.3422743153838069e-05 0.1988005567515452 0 0.0056326315351633537 0.2004899601979887 0 0.0061740732670114221 0.19541611365695169 0 -2.3422743153838069e-05 0.1988005567515452 0 0.0029581381265264858 0.20519393183106241 0 0.0056326315351633537 0.2004899601979887 0 -0.003081975793268537 0.18782002811878001 0 0.003085550936940849 0.18695469644268639 0 0.0015327128313205251 0.1915709431207247 0 -2.3422743153838069e-05 0.1988005567515452 0 0.0061740732670114221 0.19541611365695169 0 0.0015327128313205251 0.1915709431207247 0 0.0061740732670114221 0.19541611365695169 0 0.0015327128313205251 0.1915709431207247 0 0.007927604969267173 0.18944813828794729 0 0.003085550936940849 0.18695469644268639 0 0.0015327128313205251 0.1915709431207247 0 0.007927604969267173 0.18944813828794729 0 0.007927604969267173 0.18944813828794729 0 0.01183675088797494 0.19419665586736051 0 0.012456110925155389 0.1902446129755902 0 0.0115175493401282 0.18523262863701309 0 0.007927604969267173 0.18944813828794729 0 0.012456110925155389 0.1902446129755902 0 0.0061740732670114221 0.19541611365695169 0 0.007927604969267173 0.18944813828794729 0 0.01183675088797494 0.19419665586736051 0 0.01183675088797494 0.19419665586736051 0 0.012456110925155389 0.1902446129755902 0 0.016985704636488509 0.19275209946522329 0 0.01183675088797494 0.19419665586736051 0 0.016985704636488509 0.19275209946522329 0 0.016231602148303749 0.1987520895161983 0 0.0115175493401282 0.18523262863701309 0 0.012456110925155389 0.1902446129755902 0 0.016985704636488509 0.19275209946522329 0 0.021389494149062459 0.18037885708243739 0 0.02230428843080948 0.19662630733770359 0 0.036772518206031037 0.18954494233072339 0 0.013543000689093809 0.1790660034635034 0 0.02230428843080948 0.19662630733770359 0 0.013543000689093809 0.1790660034635034 0 0.016985704636488509 0.19275209946522329 0 0.02230428843080948 0.19662630733770359 0 0.016985704636488509 0.19275209946522329 0 0.019428477636303031 0.19812266709439569 0 0.016231602148303749 0.1987520895161983 0 0.019428477636303031 0.19812266709439569 0 0.016231602148303749 0.1987520895161983 0 0.020423256619271999 0.20098819974690199 0 0.018650848458870179 0.20436341187488569 0 0.016231602148303749 0.1987520895161983 0 0.020423256619271999 0.20098819974690199 0 0.018650848458870179 0.20436341187488569 0 0.013927284278231049 0.2027684573698135 0 0.016231602148303749 0.1987520895161983 0 0.019428477636303031 0.19812266709439569 0 0.020423256619271999 0.20098819974690199 0 0.023943201944243639 0.1999111919537408 0 0.018650848458870179 0.20436341187488569 0 0.020423256619271999 0.20098819974690199 0 0.021734838082019509 0.20302577286306159 0 0.020423256619271999 0.20098819974690199 0 0.021734838082019509 0.20302577286306159 0 0.023943201944243639 0.1999111919537408 0 0.016985704636488509 0.19275209946522329 0 0.02230428843080948 0.19662630733770359 0 0.023943201944243639 0.1999111919537408 0 0.016985704636488509 0.19275209946522329 0 0.019428477636303031 0.19812266709439569 0 0.023943201944243639 0.1999111919537408 0 0.02230428843080948 0.19662630733770359 0 0.023943201944243639 0.1999111919537408 0 0.02230428843080948 0.19662630733770359 0 0.023943201944243639 0.1999111919537408 0 0.035957366435008513 0.20647473970990701 0 0.02230428843080948 0.19662630733770359 0 0.050897121833006063 0.20159486356051531 0 0.035957366435008513 0.20647473970990701 0 0.02230428843080948 0.19662630733770359 0 0.036772518206031037 0.18954494233072339 0 0.050897121833006063 0.20159486356051531 0 0.02230428843080948 0.19662630733770359 0 0.050897121833006063 0.20159486356051531 0 0.036772518206031037 0.18954494233072339 0 0.050897121833006063 0.20159486356051531 0 0.052155542262999663 0.1987110275790093 0 0.036772518206031037 0.18954494233072339 0 0.052155542262999663 0.1987110275790093 0 0.036772518206031037 0.18954494233072339 0 0.046621016020550923 0.1898787739154234 0 0.052155542262999663 0.1987110275790093 0 0.039453436217199322 0.18340126598870379 0 0.036772518206031037 0.18954494233072339 0 0.046621016020550923 0.1898787739154234 0 0.057517378285335978 0.18642367489497111 0 0.046621016020550923 0.1898787739154234 0 0.052155542262999663 0.1987110275790093 0 0.057517378285335978 0.18642367489497111 0 0.052155542262999663 0.1987110275790093 0 0.057517378285335978 0.18642367489497111 0 0.057090951257530269 0.197109929087698 0 0.052155542262999663 0.1987110275790093 0 0.057517378285335978 0.18642367489497111 0 0.060667890749981898 0.1933513013873914 0 0.057090951257530269 0.197109929087698 0 0.060667890749981898 0.1933513013873914 0 0.057090951257530269 0.197109929087698 0 0.058031923789004708 0.2022125116707813 0 0.060667890749981898 0.1933513013873914 0 0.058031923789004708 0.2022125116707813 0 0.060667890749981898 0.1933513013873914 0 0.058031923789004708 0.2022125116707813 0 0.059673977213942478 0.20319094098477611 0 0.058031923789004708 0.2022125116707813 0 0.059673977213942478 0.20319094098477611 0 0.057090951257530269 0.197109929087698 0 0.058031923789004708 0.2022125116707813 0 0.052155542262999663 0.1987110275790093 0 0.058031923789004708 0.2022125116707813 0 0.052155542262999663 0.1987110275790093 0 0.058031923789004708 0.2022125116707813 0 0.050897121833006063 0.20159486356051531 0 0.052155542262999663 0.1987110275790093 0 0.058031923789004708 0.2022125116707813 0 0.050897121833006063 0.20159486356051531 0 0.050897121833006063 0.20159486356051531 0 0.052155542262999663 0.1987110275790093 0 0.050897121833006063 0.20159486356051531 0 0.042542699632676838 0.22074012119599501 0 0.053005439111290922 0.21910981667301421 0 0.058031923789004708 0.2022125116707813 0 0.050897121833006063 0.20159486356051531 0 0.053005439111290922 0.21910981667301421 0 0.058031923789004708 0.2022125116707813 0 0.053005439111290922 0.21910981667301421 0 0.058031923789004708 0.2022125116707813 0 0.061718375040706958 0.21244198365854619 0 0.053005439111290922 0.21910981667301421 0 0.058031923789004708 0.2022125116707813 0 0.059673977213942478 0.20319094098477611 0 0.061718375040706958 0.21244198365854619 0 0.061718375040706958 0.21244198365854619 0 0.053005439111290922 0.21910981667301421 0 0.062081063031912492 0.22413796841031719 0 0.050897121833006063 0.20159486356051531 0 0.042542699632676838 0.22074012119599501 0 0.023943201944243639 0.1999111919537408 0 0.035957366435008513 0.20647473970990701 0 0.034268755792753257 0.2207932912834846 0 0.050897121833006063 0.20159486356051531 0 0.038363073609551428 0.21412918370060571 0 0.042542699632676838 0.22074012119599501 0 0.050897121833006063 0.20159486356051531 0 0.035957366435008513 0.20647473970990701 0 0.038363073609551428 0.21412918370060571 0 0.038363073609551428 0.21412918370060571 0 0.034268755792753257 0.2207932912834846 0 0.042542699632676838 0.22074012119599501 0 0.035957366435008513 0.20647473970990701 0 0.038363073609551428 0.21412918370060571 0 0.034268755792753257 0.2207932912834846 0 0.042542699632676838 0.22074012119599501 0 0.034188277432347557 0.23988537883147459 0 0.042542699632676838 0.22074012119599501 0 0.04817080422001134 0.23536218897101929 0 0.044937254539659167 0.2379713478153713 0 0.030323397599499081 0.22959965211839081 0 0.042542699632676838 0.22074012119599501 0 0.034188277432347557 0.23988537883147459 0 0.042542699632676838 0.22074012119599501 0 0.044937254539659167 0.2379713478153713 0 0.034188277432347557 0.23988537883147459 0 0.030323397599499081 0.22959965211839081 0 0.034268755792753257 0.2207932912834846 0 0.042542699632676838 0.22074012119599501 0 0.053005439111290922 0.21910981667301421 0 0.04817080422001134 0.23536218897101929 0 0.053005439111290922 0.21910981667301421 0 0.062081063031912492 0.22413796841031719 0 0.04817080422001134 0.23536218897101929 0 0.062081063031912492 0.22413796841031719 0 0.04817080422001134 0.23536218897101929 0 0.059531729096570118 0.24099028160929839 0 0.042542699632676838 0.22074012119599501 0 0.053005439111290922 0.21910981667301421 0 0.04817080422001134 0.23536218897101929 0 0.062081063031912492 0.22413796841031719 0 0.04817080422001134 0.23536218897101929 0 0.04817080422001134 0.23536218897101929 0 0.052294646587479003 0.2493466198794505 0 0.04073495957405681 0.26035892983227987 0 0.04817080422001134 0.23536218897101929 0 0.059531729096570118 0.24099028160929839 0 0.052294646587479003 0.2493466198794505 0 0.059531729096570118 0.24099028160929839 0 0.067445722382230539 0.24771064348785149 0 0.06034442261467237 0.25120339486286308 0 0.059531729096570118 0.24099028160929839 0 0.052294646587479003 0.2493466198794505 0 0.06034442261467237 0.25120339486286308 0 0.04817080422001134 0.23536218897101929 0 0.04073495957405681 0.26035892983227987 0 0.04817080422001134 0.23536218897101929 0 0.044937254539659167 0.2379713478153713 0 0.04073495957405681 0.26035892983227987 0 0.04817080422001134 0.23536218897101929 0 0.044937254539659167 0.2379713478153713 0 0.044937254539659167 0.2379713478153713 0 0.034188277432347557 0.23988537883147459 0 0.030652172791378579 0.25229956247347313 0 0.085975255819246227 0.24304742420893821 0 0.091760355399887042 0.24149966876957779 0 0.085886262968569133 0.25948379364412733 0 0.091760355399887042 0.24149966876957779 0 0.10166443252893551 0.23659000017624271 0 0.085886262968569133 0.25948379364412733 0 0.085975255819246227 0.24304742420893821 0 0.091760355399887042 0.24149966876957779 0 0.090327239942362525 0.2312920649275291 0 0.085975255819246227 0.24304742420893821 0 0.075396639696560977 0.24390878816167419 0 0.077103558767455421 0.230534611802553 0 0.085975255819246227 0.24304742420893821 0 0.077103558767455421 0.230534611802553 0 0.090327239942362525 0.2312920649275291 0 0.085975255819246227 0.24304742420893821 0 0.075396639696560977 0.24390878816167419 0 0.080478695998155714 0.25165019938018113 0 0.075396639696560977 0.24390878816167419 0 0.074707437689247702 0.25389633834412328 0 0.080478695998155714 0.25165019938018113 0 0.075396639696560977 0.24390878816167419 0 0.067445722382230539 0.24771064348785149 0 0.068934414955804643 0.23628801399858909 0 0.075396639696560977 0.24390878816167419 0 0.067445722382230539 0.24771064348785149 0 0.074707437689247702 0.25389633834412328 0 0.059531729096570118 0.24099028160929839 0 0.067445722382230539 0.24771064348785149 0 0.068934414955804643 0.23628801399858909 0 0.075396639696560977 0.24390878816167419 0 0.068934414955804643 0.23628801399858909 0 0.077103558767455421 0.230534611802553 0 0.062081063031912492 0.22413796841031719 0 0.059531729096570118 0.24099028160929839 0 0.068934414955804643 0.23628801399858909 0 0.062081063031912492 0.22413796841031719 0 0.077103558767455421 0.230534611802553 0 0.077696208689423979 0.21392961690810641 0 0.077103558767455421 0.230534611802553 0 0.077696208689423979 0.21392961690810641 0 0.062081063031912492 0.22413796841031719 0 0.068934414955804643 0.23628801399858909 0 0.077103558767455421 0.230534611802553 0 0.077103558767455421 0.230534611802553 0 0.086723057100410644 0.21930832929599969 0 0.077696208689423979 0.21392961690810641 0 0.077103558767455421 0.230534611802553 0 0.090327239942362525 0.2312920649275291 0 0.086723057100410644 0.21930832929599969 0 0.090327239942362525 0.2312920649275291 0 0.086723057100410644 0.21930832929599969 0 0.099258091607832458 0.22228701345730209 0 0.08282365066700062 0.20740072564839451 0 0.1001331263781514 0.21054846617837791 0 0.08282365066700062 0.20740072564839451 0 0.0830920941513177 0.21288940176841251 0 0.1001331263781514 0.21054846617837791 0 0.086723057100410644 0.21930832929599969 0 0.0830920941513177 0.21288940176841251 0 0.1001331263781514 0.21054846617837791 0 0.08282365066700062 0.20740072564839451 0 0.077960793866212394 0.2065164116634538 0 0.08282365066700062 0.20740072564839451 0 0.07778409662064556 0.21146715366449201 0 0.077960793866212394 0.2065164116634538 0 0.08282365066700062 0.20740072564839451 0 0.0830920941513177 0.21288940176841251 0 0.07778409662064556 0.21146715366449201 0 0.08282365066700062 0.20740072564839451 0 0.07778409662064556 0.21146715366449201 0 0.086723057100410644 0.21930832929599969 0 0.077696208689423979 0.21392961690810641 0 0.086723057100410644 0.21930832929599969 0 0.0830920941513177 0.21288940176841251 0 0.077696208689423979 0.21392961690810641 0 0.0830920941513177 0.21288940176841251 0 0.07778409662064556 0.21146715366449201 0 0.077696208689423979 0.21392961690810641 0 0.059673977213942478 0.20319094098477611 0 0.077960793866212394 0.2065164116634538 0 0.062081063031912492 0.22413796841031719 0 0.077696208689423979 0.21392961690810641 0 0.075991321843812007 0.21291374784961289 0 0.059673977213942478 0.20319094098477611 0 0.075991321843812007 0.21291374784961289 0 0.059673977213942478 0.20319094098477611 0 0.061718375040706958 0.21244198365854619 0 0.075991321843812007 0.21291374784961289 0 0.059673977213942478 0.20319094098477611 0 0.075991321843812007 0.21291374784961289 0 0.077960793866212394 0.2065164116634538 0 0.07778409662064556 0.21146715366449201 0 0.077696208689423979 0.21392961690810641 0 0.075991321843812007 0.21291374784961289 0 0.07778409662064556 0.21146715366449201 0 0.077696208689423979 0.21392961690810641 0 0.07778409662064556 0.21146715366449201 0 0.075991321843812007 0.21291374784961289 0 0.077696208689423979 0.21392961690810641 0 0.075991321843812007 0.21291374784961289 0 0.062081063031912492 0.22413796841031719 0 0.075991321843812007 0.21291374784961289 0 0.061718375040706958 0.21244198365854619 0 0.062081063031912492 0.22413796841031719 0 0.075991321843812007 0.21291374784961289 0 0.07778409662064556 0.21146715366449201 0 0.075991321843812007 0.21291374784961289 0 0.077960793866212394 0.2065164116634538 0 0.07778409662064556 0.21146715366449201 0 0.077960793866212394 0.2065164116634538 0 0.060667890749981898 0.1933513013873914 0 0.069391780603767286 0.1985353247034998 0 0.078552310067739675 0.1899431815963343 0 0.059673977213942478 0.20319094098477611 0 0.077960793866212394 0.2065164116634538 0 0.069391780603767286 0.1985353247034998 0 0.057517378285335978 0.18642367489497111 0 0.060667890749981898 0.1933513013873914 0 0.078552310067739675 0.1899431815963343 0 0.077960793866212394 0.2065164116634538 0 0.069391780603767286 0.1985353247034998 0 0.078552310067739675 0.1899431815963343 0 0.057517378285335978 0.18642367489497111 0 0.078552310067739675 0.1899431815963343 0 0.060667890749981898 0.1933513013873914 0 0.059673977213942478 0.20319094098477611 0 0.069391780603767286 0.1985353247034998 0 0.077960793866212394 0.2065164116634538 0 0.078552310067739675 0.1899431815963343 0 0.08282365066700062 0.20740072564839451 0 0.078552310067739675 0.1899431815963343 0 0.1000095862482286 0.19353335379614581 0 0.08282365066700062 0.20740072564839451 0 0.077960793866212394 0.2065164116634538 0 0.078552310067739675 0.1899431815963343 0 0.08282365066700062 0.20740072564839451 0 0.1000095862482286 0.19353335379614581 0 0.078552310067739675 0.1899431815963343 0 0.1000095862482286 0.19353335379614581 0 0.1000095862482286 0.19353335379614581 0 0.1119621855324581 0.18388877331391679 0 0.1119621855324581 0.18388877331391679 0 0.12809949413598259 0.1982332796183166 0 0.12623709760602039 0.18867627876683751 0 0.1000095862482286 0.19353335379614581 0 0.12809949413598259 0.1982332796183166 0 0.1000095862482286 0.19353335379614581 0 0.1174426020893027 0.21369620670835879 0 0.12809949413598259 0.1982332796183166 0 0.1000095862482286 0.19353335379614581 0 0.1119621855324581 0.18388877331391679 0 0.12809949413598259 0.1982332796183166 0 0.1174426020893027 0.21369620670835879 0 0.12809949413598259 0.1982332796183166 0 0.1174426020893027 0.21369620670835879 0 0.13079881134157489 0.21612504290720769 0 0.1174426020893027 0.21369620670835879 0 0.1001331263781514 0.21054846617837791 0 0.1000095862482286 0.19353335379614581 0 0.1174426020893027 0.21369620670835879 0 0.1001331263781514 0.21054846617837791 0 0.08282365066700062 0.20740072564839451 0 0.1000095862482286 0.19353335379614581 0 0.1001331263781514 0.21054846617837791 0 0.1174426020893027 0.21369620670835879 0 0.1001331263781514 0.21054846617837791 0 0.099258091607832458 0.22228701345730209 0 0.086723057100410644 0.21930832929599969 0 0.1001331263781514 0.21054846617837791 0 0.099258091607832458 0.22228701345730209 0 0.1174426020893027 0.21369620670835879 0 0.099258091607832458 0.22228701345730209 0 0.10166443252893551 0.23659000017624271 0 0.090327239942362525 0.2312920649275291 0 0.099258091607832458 0.22228701345730209 0 0.10166443252893551 0.23659000017624271 0 0.11193009187841341 0.23778907333103991 0 0.1233060832280653 0.2372070654073864 0 0.13079881134157489 0.21612504290720769 0 0.1174426020893027 0.21369620670835879 0 0.11193009187841341 0.23778907333103991 0 0.10166443252893551 0.23659000017624271 0 0.1174426020893027 0.21369620670835879 0 0.11193009187841341 0.23778907333103991 0 0.13079881134157489 0.21612504290720769 0 0.11193009187841341 0.23778907333103991 0 0.13079881134157489 0.21612504290720769 0 0.1174426020893027 0.21369620670835879 0 0.10166443252893551 0.23659000017624271 0 0.11193009187841341 0.23778907333103991 0 0.1233060832280653 0.2372070654073864 0 0.1152979079485152 0.2467056018988516 0 0.1233060832280653 0.2372070654073864 0 0.1152979079485152 0.2467056018988516 0 0.1250676346401875 0.24796443701554319 0 0.11193009187841341 0.23778907333103991 0 0.1152979079485152 0.2467056018988516 0 0.10650461767427161 0.25132517155921902 0 0.11193009187841341 0.23778907333103991 0 0.10166443252893551 0.23659000017624271 0 0.093061372415253377 0.25945310375487363 0 0.10166443252893551 0.23659000017624271 0 0.085886262968569133 0.25948379364412733 0 0.11193009187841341 0.23778907333103991 0 0.093061372415253377 0.25945310375487363 0 0.11193009187841341 0.23778907333103991 0 0.093061372415253377 0.25945310375487363 0 0.10650461767427161 0.25132517155921902 0 0.091760355399887042 0.24149966876957779 0 0.090327239942362525 0.2312920649275291 0 0.10166443252893551 0.23659000017624271 0 0.08022281403025916 0.14313863688857029 0 0.093167312330706492 0.16073073013935579 0 0.097579150219516186 0.1459852772673329 0 0.08022281403025916 0.14313863688857029 0 0.079387562048995053 0.16654090924245221 0 0.08022281403025916 0.14313863688857029 0 0.097579150219516186 0.1459852772673329 0 0.098136173783193614 0.12855261503670501 0 0.081058066011519173 0.11973636453468819 0 0.08022281403025916 0.14313863688857029 0 0.081058066011519173 0.11973636453468819 0 0.08022281403025916 0.14313863688857029 0 0.098136173783193614 0.12855261503670501 0 0.054704645729867107 0.1303951701743557 0 0.068402942841081005 0.12865021266463919 0 0.06445510108496709 0.14831583671703669 0 0.081058066011519173 0.11973636453468819 0 0.08022281403025916 0.14313863688857029 0 0.068402942841081005 0.12865021266463919 0 0.08022281403025916 0.14313863688857029 0 0.068402942841081005 0.12865021266463919 0 0.06445510108496709 0.14831583671703669 0 0.08022281403025916 0.14313863688857029 0 0.06445510108496709 0.14831583671703669 0 0.079387562048995053 0.16654090924245221 0 0.06445510108496709 0.14831583671703669 0 0.06670876632053821 0.16536039993208129 0 0.079387562048995053 0.16654090924245221 0 0.056759789081437029 0.15816783404816359 0 0.06445510108496709 0.14831583671703669 0 0.06670876632053821 0.16536039993208129 0 0.06670876632053821 0.16536039993208129 0 0.071220178094475839 0.177519435916074 0 0.079387562048995053 0.16654090924245221 0 0.078552310067739675 0.1899431815963343 0 0.071220178094475839 0.177519435916074 0 0.079387562048995053 0.16654090924245221 0 0.057517378285335978 0.18642367489497111 0 0.078552310067739675 0.1899431815963343 0 0.071220178094475839 0.177519435916074 0 0.057517378285335978 0.18642367489497111 0 0.06670876632053821 0.16536039993208129 0 0.071220178094475839 0.177519435916074 0 0.078552310067739675 0.1899431815963343 0 0.079387562048995053 0.16654090924245221 0 0.078552310067739675 0.1899431815963343 0 0.079387562048995053 0.16654090924245221 0 0.094656188726405799 0.1772984468475671 0 0.078552310067739675 0.1899431815963343 0 0.1000095862482286 0.19353335379614581 0 0.094656188726405799 0.1772984468475671 0 0.079387562048995053 0.16654090924245221 0 0.093167312330706492 0.16073073013935579 0 0.094656188726405799 0.1772984468475671 0 0.08022281403025916 0.14313863688857029 0 0.079387562048995053 0.16654090924245221 0 0.093167312330706492 0.16073073013935579 0 0.093167312330706492 0.16073073013935579 0 0.1051682117550992 0.16863341283049499 0 0.094656188726405799 0.1772984468475671 0 0.093167312330706492 0.16073073013935579 0 0.1051682117550992 0.16863341283049499 0 0.10738037989590581 0.15691718048007991 0 0.1051682117550992 0.16863341283049499 0 0.094656188726405799 0.1772984468475671 0 0.1119621855324581 0.18388877331391679 0 0.1000095862482286 0.19353335379614581 0 0.094656188726405799 0.1772984468475671 0 0.1119621855324581 0.18388877331391679 0 0.1051682117550992 0.16863341283049499 0 0.1119621855324581 0.18388877331391679 0 0.1176573055604207 0.16965843036111 0 0.1119621855324581 0.18388877331391679 0 0.1176573055604207 0.16965843036111 0 0.12502668500631101 0.18003223183350331 0 0.1119621855324581 0.18388877331391679 0 0.12502668500631101 0.18003223183350331 0 0.12623709760602039 0.18867627876683751 0 0.10738037989590581 0.15691718048007991 0 0.1176573055604207 0.16965843036111 0 0.1263510041100718 0.15412713222648239 0 0.1051682117550992 0.16863341283049499 0 0.10738037989590581 0.15691718048007991 0 0.1176573055604207 0.16965843036111 0 0.10738037989590581 0.15691718048007991 0 0.1089890710575158 0.14058722379195329 0 0.1263510041100718 0.15412713222648239 0 0.1089890710575158 0.14058722379195329 0 0.1243116374868449 0.136850619307404 0 0.1263510041100718 0.15412713222648239 0 0.10738037989590581 0.15691718048007991 0 0.097579150219516186 0.1459852772673329 0 0.1089890710575158 0.14058722379195329 0 0.093167312330706492 0.16073073013935579 0 0.10738037989590581 0.15691718048007991 0 0.097579150219516186 0.1459852772673329 0 0.097579150219516186 0.1459852772673329 0 0.1089890710575158 0.14058722379195329 0 0.098136173783193614 0.12855261503670501 0 0.11707998843366239 0.12090166170324231 0 0.1089890710575158 0.14058722379195329 0 0.098136173783193614 0.12855261503670501 0 0.11707998843366239 0.12090166170324231 0 0.1089890710575158 0.14058722379195329 0 0.1243116374868449 0.136850619307404 0 0.11707998843366239 0.12090166170324231 0 0.1243116374868449 0.136850619307404 0 0.14061487869327599 0.12738787364596069 0 0.1243116374868449 0.136850619307404 0 0.14061487869327599 0.12738787364596069 0 0.1450893294801871 0.15084825440961219 0 0.14061487869327599 0.12738787364596069 0 0.1450893294801871 0.15084825440961219 0 0.16208469833826319 0.13464304631642149 0 0.1450893294801871 0.15084825440961219 0 0.16208469833826319 0.13464304631642149 0 0.1243116374868449 0.136850619307404 0 0.1450893294801871 0.15084825440961219 0 0.1263510041100718 0.15412713222648239 0 0.1450893294801871 0.15084825440961219 0 0.1263510041100718 0.15412713222648239 0 0.13434892063135129 0.1709012650253654 0 0.1176573055604207 0.16965843036111 0 0.1263510041100718 0.15412713222648239 0 0.13434892063135129 0.1709012650253654 0 0.1176573055604207 0.16965843036111 0 0.13434892063135129 0.1709012650253654 0 0.12502668500631101 0.18003223183350331 0 0.12502668500631101 0.18003223183350331 0 0.13317066441191511 0.18549658195139779 0 0.12623709760602039 0.18867627876683751 0 0.13434892063135129 0.1709012650253654 0 0.12502668500631101 0.18003223183350331 0 0.13317066441191511 0.18549658195139779 0 0.13434892063135129 0.1709012650253654 0 0.13317066441191511 0.18549658195139779 0 0.14289571148574401 0.18421669799074539 0 0.13434892063135129 0.1709012650253654 0 0.14289571148574401 0.18421669799074539 0 0.15014598838012391 0.16812378435884931 0 0.14289571148574401 0.18421669799074539 0 0.15014598838012391 0.16812378435884931 0 0.16340295837154781 0.17869074671240681 0 0.1450893294801871 0.15084825440961219 0 0.15014598838012391 0.16812378435884931 0 0.17025484901730581 0.156442106610301 0 0.1450893294801871 0.15084825440961219 0 0.13434892063135129 0.1709012650253654 0 0.15014598838012391 0.16812378435884931 0 0.15014598838012391 0.16812378435884931 0 0.17025484901730581 0.156442106610301 0 0.16340295837154781 0.17869074671240681 0 0.17025484901730581 0.156442106610301 0 0.16340295837154781 0.17869074671240681 0 0.18344157371591241 0.18406997535271 0 0.17025484901730581 0.156442106610301 0 0.18344157371591241 0.18406997535271 0 0.1981233639171355 0.16578679509823521 0 0.17025484901730581 0.156442106610301 0 0.1886017155567373 0.14211231666073301 0 0.1981233639171355 0.16578679509823521 0 0.17025484901730581 0.156442106610301 0 0.16208469833826319 0.13464304631642149 0 0.1886017155567373 0.14211231666073301 0 0.1886017155567373 0.14211231666073301 0 0.1790800671963392 0.1184378382232308 0 0.16208469833826319 0.13464304631642149 0 0.1886017155567373 0.14211231666073301 0 0.1790800671963392 0.1184378382232308 0 0.19325819231563421 0.12959887947710741 0 0.1886017155567373 0.14211231666073301 0 0.1790800671963392 0.1184378382232308 0 0.16208469833826319 0.13464304631642149 0 0.1790800671963392 0.1184378382232308 0 0.1450893294801871 0.15084825440961219 0 0.17025484901730581 0.156442106610301 0 0.16208469833826319 0.13464304631642149 0 0.1514273965657848 0.24085309905483679 0 0.13478444466321229 0.23767678351231611 0 0.14386495534927929 0.22895205141331151 0 0.1514273965657848 0.24085309905483679 0 0.13478444466321229 0.23767678351231611 0 0.1384713120865835 0.25773302092121009 0 0.1250676346401875 0.24796443701554319 0 0.13478444466321229 0.23767678351231611 0 0.1384713120865835 0.25773302092121009 0 0.1233060832280653 0.2372070654073864 0 0.1250676346401875 0.24796443701554319 0 0.13478444466321229 0.23767678351231611 0 0.1233060832280653 0.2372070654073864 0 0.13478444466321229 0.23767678351231611 0 0.13079881134157489 0.21612504290720769 0 0.13478444466321229 0.23767678351231611 0 0.14386495534927929 0.22895205141331151 0 0.13079881134157489 0.21612504290720769 0 0.14386495534927929 0.22895205141331151 0 0.13079881134157489 0.21612504290720769 0 0.15844916882654519 0.22115328017888419 0 0.1514273965657848 0.24085309905483679 0 0.14386495534927929 0.22895205141331151 0 0.15844916882654519 0.22115328017888419 0 0.13079881134157489 0.21612504290720769 0 0.15844916882654519 0.22115328017888419 0 0.13079881134157489 0.21612504290720769 0 0.14405659807402271 0.2009031781863346 0 0.15844916882654519 0.22115328017888419 0 0.13079881134157489 0.21612504290720769 0 0.12809949413598259 0.1982332796183166 0 0.14405659807402271 0.2009031781863346 0 0.1174426020893027 0.21369620670835879 0 0.13079881134157489 0.21612504290720769 0 0.12809949413598259 0.1982332796183166 0 0.13079881134157489 0.21612504290720769 0 0.14405659807402271 0.2009031781863346 0 0.12809949413598259 0.1982332796183166 0 0.14405659807402271 0.2009031781863346 0 0.12809949413598259 0.1982332796183166 0 0.1377541084679488 0.19338203871321119 0 0.14405659807402271 0.2009031781863346 0 0.12809949413598259 0.1982332796183166 0 0.13022991801334199 0.19514207920620891 0 0.1377541084679488 0.19338203871321119 0 0.12809949413598259 0.1982332796183166 0 0.13022991801334199 0.19514207920620891 0 0.12809949413598259 0.1982332796183166 0 0.12623709760602039 0.18867627876683751 0 0.13022991801334199 0.19514207920620891 0 0.13317066441191511 0.18549658195139779 0 0.12623709760602039 0.18867627876683751 0 0.13022991801334199 0.19514207920620891 0 0.13317066441191511 0.18549658195139779 0 0.14289571148574401 0.18421669799074539 0 0.1377541084679488 0.19338203871321119 0 0.13317066441191511 0.18549658195139779 0 0.13022991801334199 0.19514207920620891 0 0.1377541084679488 0.19338203871321119 0 0.14289571148574401 0.18421669799074539 0 0.1377541084679488 0.19338203871321119 0 0.14405659807402271 0.2009031781863346 0 0.14405659807402271 0.2009031781863346 0 0.1684266189286579 0.20498070278197239 0 0.14289571148574401 0.18421669799074539 0 0.16340295837154781 0.17869074671240681 0 0.14405659807402271 0.2009031781863346 0 0.16340295837154781 0.17869074671240681 0 0.14405659807402271 0.2009031781863346 0 0.16340295837154781 0.17869074671240681 0 0.18344157371591241 0.18406997535271 0 0.1684266189286579 0.20498070278197239 0 0.16340295837154781 0.17869074671240681 0 0.14405659807402271 0.2009031781863346 0 0.1684266189286579 0.20498070278197239 0 0.18344157371591241 0.18406997535271 0 0.1684266189286579 0.20498070278197239 0 0.19279663978329381 0.20905822737760699 0 0.1684266189286579 0.20498070278197239 0 0.19279663978329381 0.20905822737760699 0 0.17869659642439559 0.21414630976549021 0 0.1684266189286579 0.20498070278197239 0 0.19279663978329381 0.20905822737760699 0 0.17869659642439559 0.21414630976549021 0 0.18609952631151591 0.22618151745055959 0 0.19279663978329381 0.20905822737760699 0 0.14405659807402271 0.2009031781863346 0 0.1684266189286579 0.20498070278197239 0 0.15844916882654519 0.22115328017888419 0 0.17869659642439559 0.21414630976549021 0 0.1684266189286579 0.20498070278197239 0 0.15844916882654519 0.22115328017888419 0 0.1514273965657848 0.24085309905483679 0 0.15844916882654519 0.22115328017888419 0 0.1691493644934341 0.23606856512045299 0 0.15844916882654519 0.22115328017888419 0 0.18609952631151591 0.22618151745055959 0 0.1691493644934341 0.23606856512045299 0 0.17869659642439559 0.21414630976549021 0 0.15844916882654519 0.22115328017888419 0 0.18609952631151591 0.22618151745055959 0 0.15844916882654519 0.22115328017888419 0 0.18609952631151591 0.22618151745055959 0 0.18609952631151591 0.22618151745055959 0 0.1971008006350988 0.24422433182354611 0 0.17660728565697029 0.25284173787090108 0 0.18609952631151591 0.22618151745055959 0 0.1691493644934341 0.23606856512045299 0 0.17660728565697029 0.25284173787090108 0 0.1514273965657848 0.24085309905483679 0 0.17660728565697029 0.25284173787090108 0 0.1514273965657848 0.24085309905483679 0 0.1691493644934341 0.23606856512045299 0 0.17660728565697029 0.25284173787090108 0 0.1971008006350988 0.24422433182354611 0 0.21374988379648621 0.2312097547222359 0 0.2257125065402284 0.25431107802280528 0 0.18609952631151591 0.22618151745055959 0 0.19919001424274069 0.21902366269476331 0 0.2102140220753515 0.22438156273492879 0 0.18609952631151591 0.22618151745055959 0 0.1971008006350988 0.24422433182354611 0 0.21374988379648621 0.2312097547222359 0 0.18609952631151591 0.22618151745055959 0 0.21374988379648621 0.2312097547222359 0 0.18609952631151591 0.22618151745055959 0 0.2102140220753515 0.22438156273492879 0 0.21374988379648621 0.2312097547222359 0 0.19919001424274069 0.21902366269476331 0 0.2102140220753515 0.22438156273492879 0 0.22326984787173351 0.22831062181695069 0 0.19919001424274069 0.21902366269476331 0 0.21716666063792969 0.21313575197324039 0 0.22326984787173351 0.22831062181695069 0 0.19919001424274069 0.21902366269476331 0 0.22326984787173351 0.22831062181695069 0 0.2102140220753515 0.22438156273492879 0 0.21374988379648621 0.2312097547222359 0 0.2102140220753515 0.22438156273492879 0 0.21374988379648621 0.2312097547222359 0 0.22326984787173351 0.22831062181695069 0 0.21716666063792969 0.21313575197324039 0 0.19279663978329381 0.20905822737760699 0 0.20764501227753371 0.18946127353573741 0 0.21716666063792969 0.21313575197324039 0 0.19279663978329381 0.20905822737760699 0 0.19919001424274069 0.21902366269476331 0 0.21716666063792969 0.21313575197324039 0 0.19279663978329381 0.20905822737760699 0 0.18609952631151591 0.22618151745055959 0 0.19919001424274069 0.21902366269476331 0 0.19279663978329381 0.20905822737760699 0 0.18344157371591241 0.18406997535271 0 0.19279663978329381 0.20905822737760699 0 0.20764501227753371 0.18946127353573741 0 0.21716666063792969 0.21313575197324039 0 0.20764501227753371 0.18946127353573741 0 0.21716666063792969 0.21313575197324039 0 0.20764501227753371 0.18946127353573741 0 0.22349524510262589 0.1882929917077163 0 0.21716666063792969 0.21313575197324039 0 0.22349524510262589 0.1882929917077163 0 0.23482300448504159 0.1984970970255906 0 0.22349524510262589 0.1882929917077163 0 0.23482300448504159 0.1984970970255906 0 0.23800281531175979 0.18073324988006281 0 0.23482300448504159 0.1984970970255906 0 0.24828008483854189 0.20295934428596721 0 0.25113643024109478 0.19094495075723769 0 0.23482300448504159 0.1984970970255906 0 0.23800281531175979 0.18073324988006281 0 0.25113643024109478 0.19094495075723769 0 0.23482300448504159 0.1984970970255906 0 0.24828008483854189 0.20295934428596721 0 0.24332195560292991 0.2175119837032847 0 0.21716666063792969 0.21313575197324039 0 0.23482300448504159 0.1984970970255906 0 0.24332195560292991 0.2175119837032847 0 0.21716666063792969 0.21313575197324039 0 0.24332195560292991 0.2175119837032847 0 0.22527908084694109 0.23330634744632109 0 0.22326984787173351 0.22831062181695069 0 0.2459873280094696 0.23707215699401071 0 0.21716666063792969 0.21313575197324039 0 0.24332195560292991 0.2175119837032847 0 0.22326984787173351 0.22831062181695069 0 0.21716666063792969 0.21313575197324039 0 0.22326984787173351 0.22831062181695069 0 0.21374988379648621 0.2312097547222359 0 0.22527908084694109 0.23330634744632109 0 0.22326984787173351 0.22831062181695069 0 0.21374988379648621 0.2312097547222359 0 0.22527908084694109 0.23330634744632109 0 0.22527908084694109 0.23330634744632109 0 0.22326984787173351 0.22831062181695069 0 0.22326984787173351 0.22831062181695069 0 0.2459873280094696 0.23707215699401071 0 0.24332195560292991 0.2175119837032847 0 0.22326984787173351 0.22831062181695069 0 0.2459873280094696 0.23707215699401071 0 0.22527908084694109 0.23330634744632109 0 0.2459873280094696 0.23707215699401071 0 0.22527908084694109 0.23330634744632109 0 0.2459873280094696 0.23707215699401071 0 0.23435940432808119 0.2558835225658645 0 0.22527908084694109 0.23330634744632109 0 0.23435940432808119 0.2558835225658645 0 0.21374988379648621 0.2312097547222359 0 0.2257125065402284 0.25431107802280528 0 0.21374988379648621 0.2312097547222359 0 0.22527908084694109 0.23330634744632109 0 0.2257125065402284 0.25431107802280528 0 0.22527908084694109 0.23330634744632109 0 0.2257125065402284 0.25431107802280528 0 0.23435940432808119 0.2558835225658645 0 0.207677409848747 0.15265436726913009 0 0.20799191400454739 0.1375227668896451 0 0.22134903716669199 0.14708536363501609 0 0.20799191400454739 0.1375227668896451 0 0.22703691245497479 0.13189098412415109 0 0.21251029914637609 0.1192952894197942 0 0.20799191400454739 0.1375227668896451 0 0.19325819231563421 0.12959887947710741 0 0.21251029914637609 0.1192952894197942 0 0.20799191400454739 0.1375227668896451 0 0.19325819231563421 0.12959887947710741 0 0.1886017155567373 0.14211231666073301 0 0.1886017155567373 0.14211231666073301 0 0.1981233639171355 0.16578679509823521 0 0.207677409848747 0.15265436726913009 0 0.20799191400454739 0.1375227668896451 0 0.1886017155567373 0.14211231666073301 0 0.207677409848747 0.15265436726913009 0 0.1886017155567373 0.14211231666073301 0 0.1981233639171355 0.16578679509823521 0 0.20764501227753371 0.18946127353573741 0 0.1981233639171355 0.16578679509823521 0 0.18344157371591241 0.18406997535271 0 0.20764501227753371 0.18946127353573741 0 0.1981233639171355 0.16578679509823521 0 0.20764501227753371 0.18946127353573741 0 0.1981233639171355 0.16578679509823521 0 0.22193333897365611 0.16940236618161161 0 0.20764501227753371 0.18946127353573741 0 0.22349524510262589 0.1882929917077163 0 0.22193333897365611 0.16940236618161161 0 0.207677409848747 0.15265436726913009 0 0.1981233639171355 0.16578679509823521 0 0.22193333897365611 0.16940236618161161 0 0.207677409848747 0.15265436726913009 0 0.22193333897365611 0.16940236618161161 0 0.22134903716669199 0.14708536363501609 0 0.22349524510262589 0.1882929917077163 0 0.22193333897365611 0.16940236618161161 0 0.23800281531175979 0.18073324988006281 0 0.23800281531175979 0.18073324988006281 0 0.24342118736862761 0.16410875332904781 0 0.25421457754785548 0.17528354573505059 0 0.23800281531175979 0.18073324988006281 0 0.25421457754785548 0.17528354573505059 0 0.25113643024109478 0.19094495075723769 0 0.22193333897365611 0.16940236618161161 0 0.23800281531175979 0.18073324988006281 0 0.24342118736862761 0.16410875332904781 0 0.22193333897365611 0.16940236618161161 0 0.24342118736862761 0.16410875332904781 0 0.2381959797174126 0.14809141417820801 0 0.2381959797174126 0.14809141417820801 0 0.2471064899150823 0.133463067737116 0 0.25227113898158787 0.14916335431643429 0 0.24342118736862761 0.16410875332904781 0 0.2381959797174126 0.14809141417820801 0 0.25227113898158787 0.14916335431643429 0 0.2381959797174126 0.14809141417820801 0 0.22134903716669199 0.14708536363501609 0 0.22703691245497479 0.13189098412415109 0 0.22193333897365611 0.16940236618161161 0 0.2381959797174126 0.14809141417820801 0 0.22134903716669199 0.14708536363501609 0 0.20799191400454739 0.1375227668896451 0 0.22134903716669199 0.14708536363501609 0 0.22703691245497479 0.13189098412415109 0 0.22703691245497479 0.13189098412415109 0 0.2471064899150823 0.133463067737116 0 0.2348532799323845 0.1126728752525727 0 0.2381959797174126 0.14809141417820801 0 0.22703691245497479 0.13189098412415109 0 0.2471064899150823 0.133463067737116 0 0.2471064899150823 0.133463067737116 0 0.2496952397761337 0.1160329650041991 0 0.2348532799323845 0.1126728752525727 0 0.2348532799323845 0.1126728752525727 0 0.23238347446995899 0.09878858498409393 0 0.25089272908716931 0.092982859712809007 0 0.2496952397761337 0.1160329650041991 0 0.2348532799323845 0.1126728752525727 0 0.25089272908716931 0.092982859712809007 0 0.23238347446995899 0.09878858498409393 0 0.21965336389696419 0.1029970115124081 0 0.22413452496331809 0.086501593458585962 0 0.2348532799323845 0.1126728752525727 0 0.23238347446995899 0.09878858498409393 0 0.21965336389696419 0.1029970115124081 0 0.2348532799323845 0.1126728752525727 0 0.21965336389696419 0.1029970115124081 0 0.21251029914637609 0.1192952894197942 0 0.22703691245497479 0.13189098412415109 0 0.2348532799323845 0.1126728752525727 0 0.21251029914637609 0.1192952894197942 0 0.21965336389696419 0.1029970115124081 0 0.21251029914637609 0.1192952894197942 0 0.20714728240524249 0.10617251279081751 0 0.21251029914637609 0.1192952894197942 0 0.20714728240524249 0.10617251279081751 0 0.2007454095485067 0.1153730887768626 0 0.21965336389696419 0.1029970115124081 0 0.21155544327336909 0.093494818701204518 0 0.22413452496331809 0.086501593458585962 0 0.21965336389696419 0.1029970115124081 0 0.20714728240524249 0.10617251279081751 0 0.21155544327336909 0.093494818701204518 0 0.20029711589946361 0.098207227624031723 0 0.20055037116402991 0.091606906531847498 0 0.21155544327336909 0.093494818701204518 0 0.20714728240524249 0.10617251279081751 0 0.20029711589946361 0.098207227624031723 0 0.21155544327336909 0.093494818701204518 0 0.19812206266677551 0.107667640710604 0 0.20029711589946361 0.098207227624031723 0 0.1885688884481975 0.1093901779912298 0 0.20714728240524249 0.10617251279081751 0 0.19812206266677551 0.107667640710604 0 0.20029711589946361 0.098207227624031723 0 0.20029711589946361 0.098207227624031723 0 0.1929726046438287 0.094705252597794665 0 0.20055037116402991 0.091606906531847498 0 0.1929726046438287 0.094705252597794665 0 0.1885688884481975 0.1093901779912298 0 0.1832996600419958 0.1003897382564244 0 0.20029711589946361 0.098207227624031723 0 0.1929726046438287 0.094705252597794665 0 0.1885688884481975 0.1093901779912298 0 0.20029711589946361 0.098207227624031723 0 0.1885688884481975 0.1093901779912298 0 0.1929726046438287 0.094705252597794665 0 0.1885688884481975 0.1093901779912298 0 0.19812206266677551 0.107667640710604 0 0.19247123508700151 0.1156451737142033 0 0.1885688884481975 0.1093901779912298 0 0.19247123508700151 0.1156451737142033 0 0.1885688884481975 0.1093901779912298 0 0.1858372065203453 0.1184994265274882 0 0.19325819231563421 0.12959887947710741 0 0.21251029914637609 0.1192952894197942 0 0.2007454095485067 0.1153730887768626 0 0.19325819231563421 0.12959887947710741 0 0.19247123508700151 0.1156451737142033 0 0.1858372065203453 0.1184994265274882 0 0.19325819231563421 0.12959887947710741 0 0.19247123508700151 0.1156451737142033 0 0.2007454095485067 0.1153730887768626 0 0.20714728240524249 0.10617251279081751 0 0.19812206266677551 0.107667640710604 0 0.2007454095485067 0.1153730887768626 0 0.19812206266677551 0.107667640710604 0 0.19247123508700151 0.1156451737142033 0 0.2007454095485067 0.1153730887768626 0 0.20238686903042469 0.063311819413239129 0 0.1973763208394673 0.08002032720436178 0 0.18079222374313991 0.066157073385880324 0 0.20238686903042469 0.063311819413239129 0 0.18079222374313991 0.066157073385880324 0 0.1973763208394673 0.08002032720436178 0 0.17868141559437861 0.075492121278057239 0 0.20238686903042469 0.063311819413239129 0 0.1973763208394673 0.08002032720436178 0 0.1929726046438287 0.094705252597794665 0 0.1973763208394673 0.08002032720436178 0 0.1929726046438287 0.094705252597794665 0 0.1973763208394673 0.08002032720436178 0 0.18493574174144031 0.087819629641268118 0 0.1929726046438287 0.094705252597794665 0 0.20055037116402991 0.091606906531847498 0 0.1973763208394673 0.08002032720436178 0 0.1973763208394673 0.08002032720436178 0 0.22413452496331809 0.086501593458585962 0 0.1973763208394673 0.08002032720436178 0 0.21155544327336909 0.093494818701204518 0 0.22413452496331809 0.086501593458585962 0 0.1973763208394673 0.08002032720436178 0 0.21581045027983861 0.072515516379325212 0 0.22413452496331809 0.086501593458585962 0 0.20055037116402991 0.091606906531847498 0 0.1973763208394673 0.08002032720436178 0 0.21155544327336909 0.093494818701204518 0 0.20238686903042469 0.063311819413239129 0 0.21581045027983861 0.072515516379325212 0 0.22639199231908241 0.060148967164815811 0 0.20238686903042469 0.063311819413239129 0 0.1973763208394673 0.08002032720436178 0 0.21581045027983861 0.072515516379325212 0 0.21581045027983861 0.072515516379325212 0 0.22413452496331809 0.086501593458585962 0 0.23571274181676019 0.070187616308315881 0 0.21581045027983861 0.072515516379325212 0 0.23571274181676019 0.070187616308315881 0 0.22639199231908241 0.060148967164815811 0 0.23571274181676019 0.070187616308315881 0 0.23935269316475091 0.05797056278501677 0 0.22639199231908241 0.060148967164815811 0 0.22413452496331809 0.086501593458585962 0 0.25089272908716931 0.092982859712809007 0 0.22413452496331809 0.086501593458585962 0 0.23571274181676019 0.070187616308315881 0 0.25089272908716931 0.092982859712809007 0 0.23238347446995899 0.09878858498409393 0 0.22413452496331809 0.086501593458585962 0 0.25089272908716931 0.092982859712809007 0 0.23571274181676019 0.070187616308315881 0 0.25089272908716931 0.092982859712809007 0 0.23571274181676019 0.070187616308315881 0 0.25282536794073712 0.073272794188635415 0 0.25089272908716931 0.092982859712809007 0 0.23935269316475091 0.05797056278501677 0 0.25425538404847059 0.057624927133231481 0 0.25282536794073712 0.073272794188635415 0 0.23571274181676019 0.070187616308315881 0 0.23935269316475091 0.05797056278501677 0 0.25282536794073712 0.073272794188635415 0 0.2368345322212535 0.044434942105003657 0 0.25425538404847059 0.057624927133231481 0 0.23935269316475091 0.05797056278501677 0 0.2368345322212535 0.044434942105003657 0 0.25425538404847059 0.057624927133231481 0 0.23935269316475091 0.05797056278501677 0 0.2368345322212535 0.044434942105003657 0 0.23127016951469481 0.052559852354376588 0 0.2368345322212535 0.044434942105003657 0 0.25291178968964928 0.037547667281027097 0 0.25425538404847059 0.057624927133231481 0 0.2368345322212535 0.044434942105003657 0 0.24190969492169709 0.024768393557462999 0 0.25291178968964928 0.037547667281027097 0 0.2368345322212535 0.044434942105003657 0 0.21941368039403211 0.031244957076781411 0 0.2368345322212535 0.044434942105003657 0 0.22121604545690071 0.040326540279582428 0 0.22250146035369231 0.047684937362670127 0 0.2368345322212535 0.044434942105003657 0 0.22121604545690071 0.040326540279582428 0 0.21941368039403211 0.031244957076781411 0 0.2368345322212535 0.044434942105003657 0 0.24190969492169709 0.024768393557462999 0 0.21941368039403211 0.031244957076781411 0 0.22121604545690071 0.040326540279582428 0 0.22250146035369231 0.047684937362670127 0 0.2151241054634794 0.043140718643033253 0 0.22250146035369231 0.047684937362670127 0 0.22639199231908241 0.060148967164815811 0 0.21464985550632831 0.05254647609126252 0 0.23935269316475091 0.05797056278501677 0 0.22639199231908241 0.060148967164815811 0 0.23127016951469481 0.052559852354376588 0 0.2368345322212535 0.044434942105003657 0 0.22250146035369231 0.047684937362670127 0 0.23127016951469481 0.052559852354376588 0 0.22250146035369231 0.047684937362670127 0 0.22639199231908241 0.060148967164815811 0 0.23127016951469481 0.052559852354376588 0 0.23517440673197429 0.0051848507458196356 0 0.24190969492169709 0.024768393557462999 0 0.22860778246280219 0.01441509204728152 0 0.23517440673197429 0.0051848507458196356 0 0.2485551203034157 0.0102848256948572 0 0.24190969492169709 0.024768393557462999 0 0.23517440673197429 0.0051848507458196356 0 0.2429424487767215 0.0026164120279975069 0 0.24005113852307369 -0.0027355710512556022 0 0.23517440673197429 0.0051848507458196356 0 0.2429424487767215 0.0026164120279975069 0 0.2485551203034157 0.0102848256948572 0 0.2429424487767215 0.0026164120279975069 0 0.2485551203034157 0.0102848256948572 0 0.2479891295484222 -0.0022684572774312019 0 0.2237082671027216 0.020648212041472009 0 0.22100796739575951 0.001216664300799794 0 0.21337432104441539 0.026672329963493752 0 0.24190969492169709 0.024768393557462999 0 0.21941368039403211 0.031244957076781411 0 0.24190969492169709 0.024768393557462999 0 0.21941368039403211 0.031244957076781411 0 0.2237082671027216 0.020648212041472009 0 0.24190969492169709 0.024768393557462999 0 0.2237082671027216 0.020648212041472009 0 0.22860778246280219 0.01441509204728152 0 0.21941368039403211 0.031244957076781411 0 0.2237082671027216 0.020648212041472009 0 0.21337432104441539 0.026672329963493752 0 0.2237082671027216 0.020648212041472009 0 0.22860778246280219 0.01441509204728152 0 0.22100796739575951 0.001216664300799794 0 0.23517440673197429 0.0051848507458196356 0 0.22860778246280219 0.01441509204728152 0 0.22100796739575951 0.001216664300799794 0 0.22100796739575951 0.001216664300799794 0 0.21337432104441539 0.026672329963493752 0 0.22100796739575951 0.001216664300799794 0 0.21213365429295861 0.01041237886839381 0 0.21337432104441539 0.026672329963493752 0 0.20938161325362409 0.0025060029461209908 0 0.21213365429295861 0.01041237886839381 0 0.19981118715584381 0.0070254328827108366 0 0.20938161325362409 0.0025060029461209908 0 0.19981118715584381 0.0070254328827108366 0 0.20239897911060981 -0.0049616950454924097 0 0.22100796739575951 0.001216664300799794 0 0.21476518088515931 0.0026345493870347861 0 0.21213365429295861 0.01041237886839381 0 0.20938161325362409 0.0025060029461209908 0 0.21476518088515931 0.0026345493870347861 0 0.21653748859829491 -0.0035968485671754561 0 0.20938161325362409 0.0025060029461209908 0 0.21476518088515931 0.0026345493870347861 0 0.21213365429295861 0.01041237886839381 0 0.22100796739575951 0.001216664300799794 0 0.21476518088515931 0.0026345493870347861 0 0.21653748859829491 -0.0035968485671754561 0 0.21213365429295861 0.01041237886839381 0 0.20775643638324501 0.022418817258943329 0 0.19981118715584381 0.0070254328827108366 0 0.20775643638324501 0.022418817258943329 0 0.19981118715584381 0.0070254328827108366 0 0.21213365429295861 0.01041237886839381 0 0.20775643638324501 0.022418817258943329 0 0.21337432104441539 0.026672329963493752 0 0.20775643638324501 0.022418817258943329 0 0.21337432104441539 0.026672329963493752 0 0.21211661331991941 0.030866365927793071 0 0.21941368039403211 0.031244957076781411 0 0.21337432104441539 0.026672329963493752 0 0.21211661331991941 0.030866365927793071 0 0.21941368039403211 0.031244957076781411 0 0.21337432104441539 0.026672329963493752 0 0.21337432104441539 0.026672329963493752 0 0.21211661331991941 0.030866365927793071 0 0.20775643638324501 0.022418817258943329 0 0.21211661331991941 0.030866365927793071 0 0.2008624239423544 0.027751844864101351 0 0.21211661331991941 0.030866365927793071 0 0.2008624239423544 0.027751844864101351 0 0.21130283169949521 0.033580056331867662 0 0.20775643638324501 0.022418817258943329 0 0.21211661331991941 0.030866365927793071 0 0.20775643638324501 0.022418817258943329 0 0.21337432104441539 0.026672329963493752 0 0.2008624239423544 0.027751844864101351 0 0.1914807756371078 0.039286791852227318 0 0.1874867753674215 0.0231110496262097 0 0.2008624239423544 0.027751844864101351 0 0.19503111124693581 0.017247988187571551 0 0.1874867753674215 0.0231110496262097 0 0.19503111124693581 0.017247988187571551 0 0.18734518720319909 0.015281891910368059 0 0.1874867753674215 0.0231110496262097 0 0.20775643638324501 0.022418817258943329 0 0.2008624239423544 0.027751844864101351 0 0.19503111124693581 0.017247988187571551 0 0.20775643638324501 0.022418817258943329 0 0.19503111124693581 0.017247988187571551 0 0.18660242445042999 0.0064023156866817926 0 0.20775643638324501 0.022418817258943329 0 0.18660242445042999 0.0064023156866817926 0 0.20775643638324501 0.022418817258943329 0 0.1894192936343001 0.0060385698470956234 0 0.19981118715584381 0.0070254328827108366 0 0.20775643638324501 0.022418817258943329 0 0.1894192936343001 0.0060385698470956234 0 0.18660242445042999 0.0064023156866817926 0 0.19503111124693581 0.017247988187571551 0 0.18832376542685261 0.012450231659139751 0 0.18660242445042999 0.0064023156866817926 0 0.19503111124693581 0.017247988187571551 0 0.18832376542685261 0.012450231659139751 0 0.18734518720319909 0.015281891910368059 0 0.1894192936343001 0.0060385698470956234 0 0.19981118715584381 0.0070254328827108366 0 0.1918659379284415 -0.0083679514935210662 0 0.20238686903042469 0.063311819413239129 0 0.22639199231908241 0.060148967164815811 0 0.21464985550632831 0.05254647609126252 0 0.20238686903042469 0.063311819413239129 0 0.22639199231908241 0.060148967164815811 0 0.20238686903042469 0.063311819413239129 0 0.20684485036496281 0.04844593787255428 0 0.21464985550632831 0.05254647609126252 0 0.20238686903042469 0.063311819413239129 0 0.20684485036496281 0.04844593787255428 0 0.20684485036496281 0.04844593787255428 0 0.21464985550632831 0.05254647609126252 0 0.2151241054634794 0.043140718643033253 0 0.22250146035369231 0.047684937362670127 0 0.21464985550632831 0.05254647609126252 0 0.2151241054634794 0.043140718643033253 0 0.20684485036496281 0.04844593787255428 0 0.2151241054634794 0.043140718643033253 0 0.21130283169949521 0.033580056331867662 0 0.20684485036496281 0.04844593787255428 0 0.21130283169949521 0.033580056331867662 0 0.1914807756371078 0.039286791852227318 0 0.2151241054634794 0.043140718643033253 0 0.21130283169949521 0.033580056331867662 0 0.21323078658658201 0.03302500146766809 0 0.22121604545690071 0.040326540279582428 0 0.2151241054634794 0.043140718643033253 0 0.21323078658658201 0.03302500146766809 0 0.22121604545690071 0.040326540279582428 0 0.21941368039403211 0.031244957076781411 0 0.21323078658658201 0.03302500146766809 0 0.21941368039403211 0.031244957076781411 0 0.21211661331991941 0.030866365927793071 0 0.21323078658658201 0.03302500146766809 0 0.21941368039403211 0.031244957076781411 0 0.21323078658658201 0.03302500146766809 0 0.21130283169949521 0.033580056331867662 0 0.21323078658658201 0.03302500146766809 0 0.21211661331991941 0.030866365927793071 0 0.21130283169949521 0.033580056331867662 0 0.21323078658658201 0.03302500146766809 0 0.21211661331991941 0.030866365927793071 0 0.21130283169949521 0.033580056331867662 0 0.21211661331991941 0.030866365927793071 0 0.21323078658658201 0.03302500146766809 0 0.20684485036496281 0.04844593787255428 0 0.21130283169949521 0.033580056331867662 0 0.20684485036496281 0.04844593787255428 0 0.1914807756371078 0.039286791852227318 0 0.1906326876700713 0.052439029979298252 0 0.21130283169949521 0.033580056331867662 0 0.1914807756371078 0.039286791852227318 0 0.2008624239423544 0.027751844864101351 0 0.21130283169949521 0.033580056331867662 0 0.1914807756371078 0.039286791852227318 0 0.20238686903042469 0.063311819413239129 0 0.20684485036496281 0.04844593787255428 0 0.1906326876700713 0.052439029979298252 0 0.20238686903042469 0.063311819413239129 0 0.1906326876700713 0.052439029979298252 0 0.18079222374313991 0.066157073385880324 0 0.1906326876700713 0.052439029979298252 0 0.1716587195747214 0.044993527372590117 0 0.18079222374313991 0.066157073385880324 0 0.1914807756371078 0.039286791852227318 0 0.17895959729017549 0.03270519686463521 0 0.1874867753674215 0.0231110496262097 0 0.1914807756371078 0.039286791852227318 0 0.1906326876700713 0.052439029979298252 0 0.1716587195747214 0.044993527372590117 0 0.1914807756371078 0.039286791852227318 0 0.1716587195747214 0.044993527372590117 0 0.1914807756371078 0.039286791852227318 0 0.17895959729017549 0.03270519686463521 0 0.1716587195747214 0.044993527372590117 0 0.17895959729017549 0.03270519686463521 0 0.1716587195747214 0.044993527372590117 0 0.1692336025848987 0.033942773786365128 0 0.1716587195747214 0.044993527372590117 0 0.1692336025848987 0.033942773786365128 0 0.1566962317421734 0.039838803654011962 0 0.1716587195747214 0.044993527372590117 0 0.1566962317421734 0.039838803654011962 0 0.15183666351233449 0.050700262892952028 0 0.1692336025848987 0.033942773786365128 0 0.1566962317421734 0.039838803654011962 0 0.158601754226253 0.030081739901262169 0 0.1716587195747214 0.044993527372590117 0 0.15183666351233449 0.050700262892952028 0 0.15919757845585511 0.069002327358520896 0 0.1716587195747214 0.044993527372590117 0 0.18079222374313991 0.066157073385880324 0 0.15919757845585511 0.069002327358520896 0 0.1716587195747214 0.044993527372590117 0 0.15183666351233449 0.050700262892952028 0 0.17227434920368959 0.00081991249798677823 0 0.17658810010716819 0.0040568459827444014 0 0.17786282304025339 -0.001583287003114023 0 0.17227434920368959 0.00081991249798677823 0 0.17658810010716819 0.0040568459827444014 0 0.17233771352019589 0.0083561011481188656 0 0.17658810010716819 0.0040568459827444014 0 0.18177514670000741 0.0039010391453388991 0 0.17943453638861959 0.0091511058078182841 0 0.17658810010716819 0.0040568459827444014 0 0.17943453638861959 0.0091511058078182841 0 0.17233771352019589 0.0083561011481188656 0 0.17658810010716819 0.0040568459827444014 0 0.18177514670000741 0.0039010391453388991 0 0.17786282304025339 -0.001583287003114023 0 0.18177514670000741 0.0039010391453388991 0 0.18580903226614379 -0.0011502469314075439 0 0.17786282304025339 -0.001583287003114023 0 0.1894192936343001 0.0060385698470956234 0 0.18660242445042999 0.0064023156866817926 0 0.18580903226614379 -0.0011502469314075439 0 0.18177514670000741 0.0039010391453388991 0 0.18660242445042999 0.0064023156866817926 0 0.18580903226614379 -0.0011502469314075439 0 0.18177514670000741 0.0039010391453388991 0 0.18660242445042999 0.0064023156866817926 0 0.18303211158647559 0.0075807978729441382 0 0.18177514670000741 0.0039010391453388991 0 0.18303211158647559 0.0075807978729441382 0 0.17943453638861959 0.0091511058078182841 0 0.18303211158647559 0.0075807978729441382 0 0.18431633880684531 0.01086873085193758 0 0.17943453638861959 0.0091511058078182841 0 0.18660242445042999 0.0064023156866817926 0 0.18303211158647559 0.0075807978729441382 0 0.18431633880684531 0.01086873085193758 0 0.18832376542685261 0.012450231659139751 0 0.18660242445042999 0.0064023156866817926 0 0.18431633880684531 0.01086873085193758 0 0.18431633880684531 0.01086873085193758 0 0.18734518720319909 0.015281891910368059 0 0.18195036267736389 0.015275800378046231 0 0.18832376542685261 0.012450231659139751 0 0.18431633880684531 0.01086873085193758 0 0.18734518720319909 0.015281891910368059 0 0.18431633880684531 0.01086873085193758 0 0.18195036267736389 0.015275800378046231 0 0.17943453638861959 0.0091511058078182841 0 0.18195036267736389 0.015275800378046231 0 0.1761571917665653 0.013806221612761949 0 0.17943453638861959 0.0091511058078182841 0 0.1761571917665653 0.013806221612761949 0 0.17943453638861959 0.0091511058078182841 0 0.17233771352019589 0.0083561011481188656 0 0.1761571917665653 0.013806221612761949 0 0.17233771352019589 0.0083561011481188656 0 0.1709247624247007 0.01466984692398882 0 0.1761571917665653 0.013806221612761949 0 0.17493811328672779 0.022191841685783802 0 0.1709247624247007 0.01466984692398882 0 0.18195036267736389 0.015275800378046231 0 0.1761571917665653 0.013806221612761949 0 0.17493811328672779 0.022191841685783802 0 0.18734518720319909 0.015281891910368059 0 0.18195036267736389 0.015275800378046231 0 0.1874867753674215 0.0231110496262097 0 0.18195036267736389 0.015275800378046231 0 0.17493811328672779 0.022191841685783802 0 0.1874867753674215 0.0231110496262097 0 0.17895959729017549 0.03270519686463521 0 0.17493811328672779 0.022191841685783802 0 0.1874867753674215 0.0231110496262097 0 0.17895959729017549 0.03270519686463521 0 0.1692336025848987 0.033942773786365128 0 0.17493811328672779 0.022191841685783802 0 0.1692336025848987 0.033942773786365128 0 0.1660519956958274 0.025200646889517071 0 0.158601754226253 0.030081739901262169 0 0.1692336025848987 0.033942773786365128 0 0.17493811328672779 0.022191841685783802 0 0.1660519956958274 0.025200646889517071 0 0.1660519956958274 0.025200646889517071 0 0.158601754226253 0.030081739901262169 0 0.15656323758401319 0.020842958383828041 0 0.15656323758401319 0.020842958383828041 0 0.1655425680131333 0.017645951334422452 0 0.15799820797772829 0.01069464001977203 0 0.1660519956958274 0.025200646889517071 0 0.15656323758401319 0.020842958383828041 0 0.1655425680131333 0.017645951334422452 0 0.17493811328672779 0.022191841685783802 0 0.1660519956958274 0.025200646889517071 0 0.1655425680131333 0.017645951334422452 0 0.17493811328672779 0.022191841685783802 0 0.1655425680131333 0.017645951334422452 0 0.1709247624247007 0.01466984692398882 0 0.17233771352019589 0.0083561011481188656 0 0.1709247624247007 0.01466984692398882 0 0.16528784937855559 0.0099045707114697821 0 0.1655425680131333 0.017645951334422452 0 0.1709247624247007 0.01466984692398882 0 0.16528784937855559 0.0099045707114697821 0 0.1655425680131333 0.017645951334422452 0 0.16528784937855559 0.0099045707114697821 0 0.15799820797772829 0.01069464001977203 0 0.16528784937855559 0.0099045707114697821 0 0.15830422717032419 0.0026668804518291322 0 0.16550177429739321 0.001625335581948511 0 0.16528784937855559 0.0099045707114697821 0 0.15799820797772829 0.01069464001977203 0 0.15830422717032419 0.0026668804518291322 0 0.17233771352019589 0.0083561011481188656 0 0.16528784937855559 0.0099045707114697821 0 0.16550177429739321 0.001625335581948511 0 0.17227434920368959 0.00081991249798677823 0 0.17233771352019589 0.0083561011481188656 0 0.16550177429739321 0.001625335581948511 0 0.14127976741107601 0.00215554095495248 0 0.15230472087545879 0.0045339035350271751 0 0.14873370341600839 0.01190124285016711 0 0.15799820797772829 0.01069464001977203 0 0.15830422717032419 0.0026668804518291322 0 0.15230472087545879 0.0045339035350271751 0 0.14127976741107601 0.00215554095495248 0 0.15230472087545879 0.0045339035350271751 0 0.1552076984021574 -0.0047487866015848753 0 0.15830422717032419 0.0026668804518291322 0 0.15230472087545879 0.0045339035350271751 0 0.1552076984021574 -0.0047487866015848753 0 0.15656323758401319 0.020842958383828041 0 0.15799820797772829 0.01069464001977203 0 0.14873370341600839 0.01190124285016711 0 0.15799820797772829 0.01069464001977203 0 0.15230472087545879 0.0045339035350271751 0 0.14873370341600839 0.01190124285016711 0 0.14873370341600839 0.01190124285016711 0 0.1458857290053831 0.021389540043380069 0 0.13967636330765321 0.013174792475989121 0 0.14127976741107601 0.00215554095495248 0 0.14873370341600839 0.01190124285016711 0 0.13967636330765321 0.013174792475989121 0 0.1458857290053831 0.021389540043380069 0 0.13916191736165201 0.019633136795163032 0 0.13967636330765321 0.013174792475989121 0 0.1458857290053831 0.021389540043380069 0 0.14010063181871271 0.02585166497444577 0 0.13916191736165201 0.019633136795163032 0 0.15656323758401319 0.020842958383828041 0 0.1458857290053831 0.021389540043380069 0 0.15175299049851881 0.02729842449465077 0 0.15656323758401319 0.020842958383828041 0 0.14873370341600839 0.01190124285016711 0 0.1458857290053831 0.021389540043380069 0 0.158601754226253 0.030081739901262169 0 0.15656323758401319 0.020842958383828041 0 0.15175299049851881 0.02729842449465077 0 0.158601754226253 0.030081739901262169 0 0.15175299049851881 0.02729842449465077 0 0.15159127196488009 0.032471007951428398 0 0.15175299049851881 0.02729842449465077 0 0.14523576613563741 0.02976945682372012 0 0.15159127196488009 0.032471007951428398 0 0.1458857290053831 0.021389540043380069 0 0.14523576613563741 0.02976945682372012 0 0.14010063181871271 0.02585166497444577 0 0.14523576613563741 0.02976945682372012 0 0.14010063181871271 0.02585166497444577 0 0.1391322595465444 0.03699933077486834 0 0.1458857290053831 0.021389540043380069 0 0.15175299049851881 0.02729842449465077 0 0.14523576613563741 0.02976945682372012 0 0.1309849453148588 0.01811654968683717 0 0.1391322595465444 0.03699933077486834 0 0.14010063181871271 0.02585166497444577 0 0.1309849453148588 0.01811654968683717 0 0.1391322595465444 0.03699933077486834 0 0.11917198148314 0.002581966002757949 0 0.13034027439662041 0.028127834929059549 0 0.1309849453148588 0.01811654968683717 0 0.13034027439662041 0.028127834929059549 0 0.1309849453148588 0.01811654968683717 0 0.1391322595465444 0.03699933077486834 0 0.1309849453148588 0.01811654968683717 0 0.13916191736165201 0.019633136795163032 0 0.13967636330765321 0.013174792475989121 0 0.14010063181871271 0.02585166497444577 0 0.1309849453148588 0.01811654968683717 0 0.13916191736165201 0.019633136795163032 0 0.14127976741107601 0.00215554095495248 0 0.13362755423293271 0.0080562160832345926 0 0.1228376310831711 -0.00076623140119310329 0 0.1309849453148588 0.01811654968683717 0 0.13362755423293271 0.0080562160832345926 0 0.1228376310831711 -0.00076623140119310329 0 0.1309849453148588 0.01811654968683717 0 0.1228376310831711 -0.00076623140119310329 0 0.1309849453148588 0.01811654968683717 0 0.13362755423293271 0.0080562160832345926 0 0.13967636330765321 0.013174792475989121 0 0.14127976741107601 0.00215554095495248 0 0.13362755423293271 0.0080562160832345926 0 0.13967636330765321 0.013174792475989121 0 0.15183666351233449 0.050700262892952028 0 0.15919757845585511 0.069002327358520896 0 0.15048711395973299 0.060532750562707877 0 0.15183666351233449 0.050700262892952028 0 0.15919757845585511 0.069002327358520896 0 0.14215194880052681 0.055145346777992182 0 0.15048711395973299 0.060532750562707877 0 0.13253998066004699 0.064315925604492674 0 0.1415085673101022 0.053673703855360522 0 0.14215194880052681 0.055145346777992182 0 0.15183666351233449 0.050700262892952028 0 0.1415085673101022 0.053673703855360522 0 0.15183666351233449 0.050700262892952028 0 0.1415085673101022 0.053673703855360522 0 0.15183666351233449 0.050700262892952028 0 0.14453550543306221 0.044729731242042367 0 0.1415085673101022 0.053673703855360522 0 0.14215194880052681 0.055145346777992182 0 0.14215194880052681 0.055145346777992182 0 0.15048711395973299 0.060532750562707877 0 0.15183666351233449 0.050700262892952028 0 0.1415085673101022 0.053673703855360522 0 0.14453550543306221 0.044729731242042367 0 0.1391322595465444 0.03699933077486834 0 0.15183666351233449 0.050700262892952028 0 0.14566961722181801 0.035366614883496988 0 0.1566962317421734 0.039838803654011962 0 0.15183666351233449 0.050700262892952028 0 0.14566961722181801 0.035366614883496988 0 0.1566962317421734 0.039838803654011962 0 0.15159127196488009 0.032471007951428398 0 0.14566961722181801 0.035366614883496988 0 0.1566962317421734 0.039838803654011962 0 0.158601754226253 0.030081739901262169 0 0.15159127196488009 0.032471007951428398 0 0.14566961722181801 0.035366614883496988 0 0.14453550543306221 0.044729731242042367 0 0.1391322595465444 0.03699933077486834 0 0.14523576613563741 0.02976945682372012 0 0.15159127196488009 0.032471007951428398 0 0.14566961722181801 0.035366614883496988 0 0.14523576613563741 0.02976945682372012 0 0.14566961722181801 0.035366614883496988 0 0.1391322595465444 0.03699933077486834 0 0.15183666351233449 0.050700262892952028 0 0.14566961722181801 0.035366614883496988 0 0.14453550543306221 0.044729731242042367 0 0.13034027439662041 0.028127834929059549 0 0.1415085673101022 0.053673703855360522 0 0.13034027439662041 0.028127834929059549 0 0.1415085673101022 0.053673703855360522 0 0.1391322595465444 0.03699933077486834 0 0.12367169586596689 0.04413069599522032 0 0.13034027439662041 0.028127834929059549 0 0.1415085673101022 0.053673703855360522 0 0.11892469151436 0.060175562481194378 0 0.12367169586596689 0.04413069599522032 0 0.1415085673101022 0.053673703855360522 0 0.11892469151436 0.060175562481194378 0 0.1415085673101022 0.053673703855360522 0 0.11892469151436 0.060175562481194378 0 0.1415085673101022 0.053673703855360522 0 0.13253998066004699 0.064315925604492674 0 0.1415085673101022 0.053673703855360522 0 0.14215194880052681 0.055145346777992182 0 0.13253998066004699 0.064315925604492674 0 0.13253998066004699 0.064315925604492674 0 0.13121537104960351 0.072689189806444385 0 0.15446329543616341 0.069626104104570485 0 0.1243405792371938 0.066503547411893488 0 0.13253998066004699 0.064315925604492674 0 0.13121537104960351 0.072689189806444385 0 0.11892469151436 0.060175562481194378 0 0.1243405792371938 0.066503547411893488 0 0.13253998066004699 0.064315925604492674 0 0.13121537104960351 0.072689189806444385 0 0.14336397744542301 0.076431171561807093 0 0.13288821721910599 0.083857800247139097 0 0.15048711395973299 0.060532750562707877 0 0.13253998066004699 0.064315925604492674 0 0.15446329543616341 0.069626104104570485 0 0.13121537104960351 0.072689189806444385 0 0.15446329543616341 0.069626104104570485 0 0.13121537104960351 0.072689189806444385 0 0.14336397744542301 0.076431171561807093 0 0.15446329543616341 0.069626104104570485 0 0.13253998066004699 0.064315925604492674 0 0.15446329543616341 0.069626104104570485 0 0.14336397744542301 0.076431171561807093 0 0.15145508435945571 0.07730097997971673 0 0.15446329543616341 0.069626104104570485 0 0.15145508435945571 0.07730097997971673 0 0.15998651034928929 0.070963915351755544 0 0.15635019231632599 0.084708360937410687 0 0.15145508435945571 0.07730097997971673 0 0.15446329543616341 0.069626104104570485 0 0.15998651034928929 0.070963915351755544 0 0.15048711395973299 0.060532750562707877 0 0.15446329543616341 0.069626104104570485 0 0.15919757845585511 0.069002327358520896 0 0.1449478564828334 0.088262465871273704 0 0.15304430801011831 0.09759233646353245 0 0.15635019231632599 0.084708360937410687 0 0.15145508435945571 0.07730097997971673 0 0.1449478564828334 0.088262465871273704 0 0.15635019231632599 0.084708360937410687 0 0.14336397744542301 0.076431171561807093 0 0.15145508435945571 0.07730097997971673 0 0.1449478564828334 0.088262465871273704 0 0.1449478564828334 0.088262465871273704 0 0.13288821721910599 0.083857800247139097 0 0.1333435253298102 0.095432768439741328 0 0.14336397744542301 0.076431171561807093 0 0.1449478564828334 0.088262465871273704 0 0.13288821721910599 0.083857800247139097 0 0.1225478872688979 0.090713611373926736 0 0.1210037722340596 0.082520495593825793 0 0.13288821721910599 0.083857800247139097 0 0.1210037722340596 0.082520495593825793 0 0.13121537104960351 0.072689189806444385 0 0.13288821721910599 0.083857800247139097 0 0.1225478872688979 0.090713611373926736 0 0.13288821721910599 0.083857800247139097 0 0.1333435253298102 0.095432768439741328 0 0.1449478564828334 0.088262465871273704 0 0.1368974078767736 0.107501873099266 0 0.1333435253298102 0.095432768439741328 0 0.12018819637303869 0.10164151191590461 0 0.1368974078767736 0.107501873099266 0 0.1333435253298102 0.095432768439741328 0 0.12018819637303869 0.10164151191590461 0 0.1225478872688979 0.090713611373926736 0 0.1333435253298102 0.095432768439741328 0 0.11707998843366239 0.12090166170324231 0 0.14061487869327599 0.12738787364596069 0 0.1368974078767736 0.107501873099266 0 0.14061487869327599 0.12738787364596069 0 0.1368974078767736 0.107501873099266 0 0.1574927946018469 0.1127881056222175 0 0.14061487869327599 0.12738787364596069 0 0.16208469833826319 0.13464304631642149 0 0.1574927946018469 0.1127881056222175 0 0.1368974078767736 0.107501873099266 0 0.15304430801011831 0.09759233646353245 0 0.1574927946018469 0.1127881056222175 0 0.1449478564828334 0.088262465871273704 0 0.1368974078767736 0.107501873099266 0 0.15304430801011831 0.09759233646353245 0 0.15304430801011831 0.09759233646353245 0 0.1695332887728116 0.094700876787494351 0 0.1574927946018469 0.1127881056222175 0 0.1695332887728116 0.094700876787494351 0 0.1574927946018469 0.1127881056222175 0 0.1790800671963392 0.1184378382232308 0 0.16208469833826319 0.13464304631642149 0 0.1574927946018469 0.1127881056222175 0 0.1790800671963392 0.1184378382232308 0 0.1885688884481975 0.1093901779912298 0 0.1790800671963392 0.1184378382232308 0 0.1832996600419958 0.1003897382564244 0 0.1885688884481975 0.1093901779912298 0 0.1790800671963392 0.1184378382232308 0 0.1858372065203453 0.1184994265274882 0 0.1885688884481975 0.1093901779912298 0 0.1858372065203453 0.1184994265274882 0 0.1885688884481975 0.1093901779912298 0 0.1790800671963392 0.1184378382232308 0 0.19325819231563421 0.12959887947710741 0 0.1790800671963392 0.1184378382232308 0 0.1858372065203453 0.1184994265274882 0 0.1695332887728116 0.094700876787494351 0 0.1790800671963392 0.1184378382232308 0 0.1695332887728116 0.094700876787494351 0 0.1790800671963392 0.1184378382232308 0 0.1832996600419958 0.1003897382564244 0 0.1695332887728116 0.094700876787494351 0 0.1832996600419958 0.1003897382564244 0 0.18493574174144031 0.087819629641268118 0 0.1929726046438287 0.094705252597794665 0 0.1832996600419958 0.1003897382564244 0 0.18493574174144031 0.087819629641268118 0 0.1973763208394673 0.08002032720436178 0 0.18493574174144031 0.087819629641268118 0 0.17868141559437861 0.075492121278057239 0 0.1695332887728116 0.094700876787494351 0 0.18493574174144031 0.087819629641268118 0 0.17868141559437861 0.075492121278057239 0 0.1973763208394673 0.08002032720436178 0 0.17868141559437861 0.075492121278057239 0 0.18079222374313991 0.066157073385880324 0 0.17868141559437861 0.075492121278057239 0 0.18079222374313991 0.066157073385880324 0 0.15998651034928929 0.070963915351755544 0 0.18079222374313991 0.066157073385880324 0 0.15919757845585511 0.069002327358520896 0 0.18079222374313991 0.066157073385880324 0 0.15919757845585511 0.069002327358520896 0 0.15998651034928929 0.070963915351755544 0 0.17868141559437861 0.075492121278057239 0 0.15998651034928929 0.070963915351755544 0 0.15446329543616341 0.069626104104570485 0 0.15919757845585511 0.069002327358520896 0 0.15998651034928929 0.070963915351755544 0 0.15446329543616341 0.069626104104570485 0 0.15919757845585511 0.069002327358520896 0 0.15446329543616341 0.069626104104570485 0 0.15998651034928929 0.070963915351755544 0 0.15919757845585511 0.069002327358520896 0 0.15998651034928929 0.070963915351755544 0 0.1695332887728116 0.094700876787494351 0 0.17868141559437861 0.075492121278057239 0 0.15998651034928929 0.070963915351755544 0 0.15304430801011831 0.09759233646353245 0 0.1695332887728116 0.094700876787494351 0 0.15635019231632599 0.084708360937410687 0 0.1695332887728116 0.094700876787494351 0 0.15998651034928929 0.070963915351755544 0 0.1695332887728116 0.094700876787494351 0 0.15998651034928929 0.070963915351755544 0 0.15635019231632599 0.084708360937410687 0 0.097740131103692757 0.47211576306312553 0 0.10228396963995549 0.48764264937867408 0 0.092199203719590395 0.48872928857719472 0 0.097740131103692757 0.47211576306312553 0 0.1146358595090817 0.48605788153156299 0 0.097740131103692757 0.47211576306312553 0 0.10228396963995549 0.48764264937867408 0 0.1146358595090817 0.48605788153156299 0 0.1038255785689283 0.5 0 0.10228396963995549 0.48764264937867408 0 0.092199203719590395 0.48872928857719472 0 0.1038255785689283 0.5 0 0.10228396963995549 0.48764264937867408 0 0.1146358595090817 0.48605788153156299 0 0.1146358595090817 0.48605788153156299 0 0.13153158791447089 0.50000000000000033 0 0.1038255785689283 0.5 0 0.1146358595090817 0.48605788153156299 0 0.13153158791447089 0.50000000000000033 0 0.097740131103692757 0.47211576306312553 0 0.1146358595090817 0.48605788153156299 0 0.1160915578241386 0.4641835533930308 0 0.1146358595090817 0.48605788153156299 0 0.1160915578241386 0.4641835533930308 0 0.13792901651589951 0.46760966493884959 0 0.1160915578241386 0.4641835533930308 0 0.1237280261196836 0.44463014715047522 0 0.10202961426548091 0.45002724093957291 0 0.1237280261196836 0.44463014715047522 0 0.1057649319772677 0.43759517983083812 0 0.10202961426548091 0.45002724093957291 0 0.1057649319772677 0.43759517983083812 0 0.10202961426548091 0.45002724093957291 0 0.08764391112498858 0.43163178618934439 0 0.097740131103692757 0.47211576306312553 0 0.1160915578241386 0.4641835533930308 0 0.10202961426548091 0.45002724093957291 0 0.080844402698305312 0.45817364459468618 0 0.076730675362011974 0.47423156549521001 0 0.097740131103692757 0.47211576306312553 0 0.080844402698305312 0.45817364459468618 0 0.097740131103692757 0.47211576306312553 0 0.10202961426548091 0.45002724093957291 0 0.080844402698305312 0.45817364459468618 0 0.097740131103692757 0.47211576306312553 0 0.080844402698305312 0.45817364459468618 0 0.076730675362011974 0.47423156549521001 0 0.080844402698305312 0.45817364459468618 0 0.08764391112498858 0.43163178618934439 0 0.10202961426548091 0.45002724093957291 0 0.080844402698305312 0.45817364459468618 0 0.08764391112498858 0.43163178618934439 0 0.080844402698305312 0.45817364459468618 0 0.07540768018483697 0.44030754071393319 0 0.08764391112498858 0.43163178618934439 0 0.080844402698305312 0.45817364459468618 0 0.07540768018483697 0.44030754071393319 0 0.061556592319121653 0.44225761358074578 0 0.080844402698305312 0.45817364459468618 0 0.061556592319121653 0.44225761358074578 0 0.080844402698305312 0.45817364459468618 0 0.067859653170709522 0.45426422462270638 0 0.061556592319121653 0.44225761358074578 0 0.080844402698305312 0.45817364459468618 0 0.064346854003363874 0.46736183993319841 0 0.076730675362011974 0.47423156549521001 0 0.064346854003363874 0.46736183993319841 0 0.067859653170709522 0.45426422462270638 0 0.056076759981020123 0.44443419347066321 0 0.080844402698305312 0.45817364459468618 0 0.064346854003363874 0.46736183993319841 0 0.067859653170709522 0.45426422462270638 0 0.076730675362011974 0.47423156549521001 0 0.072616948025712127 0.490289486395732 0 0.064346854003363874 0.46736183993319841 0 0.072616948025712127 0.490289486395732 0 0.058055043786226751 0.49051055052906067 0 0.064346854003363874 0.46736183993319841 0 0.072616948025712127 0.490289486395732 0 0.064346854003363874 0.46736183993319841 0 0.076730675362011974 0.47423156549521001 0 0.072616948025712127 0.490289486395732 0 0.076730675362011974 0.47423156549521001 0 0.082075002421626492 0.48449271935339733 0 0.072616948025712127 0.490289486395732 0 0.097740131103692757 0.47211576306312553 0 0.076730675362011974 0.47423156549521001 0 0.082075002421626492 0.48449271935339733 0 0.097740131103692757 0.47211576306312553 0 0.092199203719590395 0.48872928857719472 0 0.082075002421626492 0.48449271935339733 0 0.1038255785689283 0.5 0 0.092199203719590395 0.48872928857719472 0 0.076119569223385697 0.50000000000000089 0 0.092199203719590395 0.48872928857719472 0 0.082075002421626492 0.48449271935339733 0 0.076119569223385697 0.50000000000000089 0 0.072616948025712127 0.490289486395732 0 0.07012930311136284 0.49999999999999661 0 0.076119569223385697 0.50000000000000089 0 0.072616948025712127 0.490289486395732 0 0.07012930311136284 0.49999999999999661 0 0.076119569223385697 0.50000000000000089 0 0.072616948025712127 0.490289486395732 0 0.082075002421626492 0.48449271935339733 0 0.076119569223385697 0.50000000000000089 0 0.072616948025712127 0.490289486395732 0 0.072616948025712127 0.490289486395732 0 0.07012930311136284 0.49999999999999661 0 0.058055043786226751 0.49051055052906067 0 0.058055043786226751 0.49051055052906067 0 0.046280597366186747 0.47957307303049429 0 0.044860440428939378 0.4999999999999995 0 0.07012930311136284 0.49999999999999661 0 0.058055043786226751 0.49051055052906067 0 0.044860440428939378 0.4999999999999995 0 0.064346854003363874 0.46736183993319841 0 0.058055043786226751 0.49051055052906067 0 0.046280597366186747 0.47957307303049429 0 0.046280597366186747 0.47957307303049429 0 0.047700754303434179 0.45914614606098908 0 0.046280597366186747 0.47957307303049429 0 0.029897162037545319 0.4839753813588808 0 0.03521852719449324 0.46736449501777538 0 0.044860440428939378 0.4999999999999995 0 0.01907995414838232 0.5 0 0.029897162037545319 0.4839753813588808 0 0.046280597366186747 0.47957307303049429 0 0.044860440428939378 0.4999999999999995 0 0.046280597366186747 0.47957307303049429 0 0.044860440428939378 0.4999999999999995 0 0.029897162037545319 0.4839753813588808 0 0.01907995414838232 0.5 0 0.029897162037545319 0.4839753813588808 0 0.01223017135109394 0.48399563131022733 0 0.029897162037545319 0.4839753813588808 0 0.02313076419329519 0.4718947066398041 0 0.01223017135109394 0.48399563131022733 0 0.029897162037545319 0.4839753813588808 0 0.02313076419329519 0.4718947066398041 0 0.03521852719449324 0.46736449501777538 0 0.02313076419329519 0.4718947066398041 0 0.01223017135109394 0.48399563131022733 0 0.01319884020628341 0.47022233111689332 0 -0.003880604538310756 0.48346324919380129 0 0.01223017135109394 0.48399563131022733 0 0.0050866533922729329 0.47701524235381432 0 0.01223017135109394 0.48399563131022733 0 0.01319884020628341 0.47022233111689332 0 0.0050866533922729329 0.47701524235381432 0 0.01319884020628341 0.47022233111689332 0 0.0053167838454733218 0.46943384557929257 0 0.0050866533922729329 0.47701524235381432 0 -0.001026908195020756 0.47486914558720472 0 0.0053167838454733218 0.46943384557929257 0 0.0050866533922729329 0.47701524235381432 0 -0.003880604538310756 0.48346324919380129 0 -0.001026908195020756 0.47486914558720472 0 0.0050866533922729329 0.47701524235381432 0 -0.0067005321321746969 0.5 0 0.01907995414838232 0.5 0 0.01223017135109394 0.48399563131022733 0 -0.0067005321321746969 0.5 0 -0.003880604538310756 0.48346324919380129 0 0.01223017135109394 0.48399563131022733 0 0.0094816941431487278 0.45086042579757712 0 0.01399183751309625 0.44462120914047132 0 0.0048617880261327502 0.44584476697033082 0 0.0094816941431487278 0.45086042579757712 0 0.01399183751309625 0.44462120914047132 0 0.016302396861864351 0.45114502888407948 0 0.01049598620797234 0.43767394788706171 0 0.01399183751309625 0.44462120914047132 0 0.0048617880261327502 0.44584476697033082 0 0.01049598620797234 0.43767394788706171 0 0.01399183751309625 0.44462120914047132 0 0.020379531913139331 0.43685778481219928 0 0.01049598620797234 0.43767394788706171 0 0.0048617880261327502 0.44584476697033082 0 0.01049598620797234 0.43767394788706171 0 0.0048617880261327502 0.44584476697033082 0 0.0065189226172944724 0.43188650626448272 0 0.0094816941431487278 0.45086042579757712 0 0.0048617880261327502 0.44584476697033082 0 0.0015605482097463411 0.45063228640423969 0 0.0048617880261327502 0.44584476697033082 0 0.0015605482097463411 0.45063228640423969 0 0.0094816941431487278 0.45086042579757712 0 0.0048617880261327502 0.44584476697033082 0 0.0015605482097463411 0.45063228640423969 0 0.0080738590363113663 0.46132998490476868 0 0.01222090350615627 0.45893997922115709 0 0.0015605482097463411 0.45063228640423969 0 0.01222090350615627 0.45893997922115709 0 -0.0094095992007081283 0.46654139838691122 0 0.0053167838454733218 0.46943384557929257 0 0.0080738590363113663 0.46132998490476868 0 0.0094816941431487278 0.45086042579757712 0 0.0015605482097463411 0.45063228640423969 0 0.01222090350615627 0.45893997922115709 0 -0.0094095992007081283 0.46654139838691122 0 0.0015605482097463411 0.45063228640423969 0 0.0080738590363113663 0.46132998490476868 0 0.0080738590363113663 0.46132998490476868 0 0.01222090350615627 0.45893997922115709 0 0.025557317273330941 0.45611857142262657 0 0.01319884020628341 0.47022233111689332 0 0.0080738590363113663 0.46132998490476868 0 0.025557317273330941 0.45611857142262657 0 0.01319884020628341 0.47022233111689332 0 0.0053167838454733218 0.46943384557929257 0 0.0080738590363113663 0.46132998490476868 0 0.0094816941431487278 0.45086042579757712 0 0.01222090350615627 0.45893997922115709 0 0.016302396861864351 0.45114502888407948 0 0.01222090350615627 0.45893997922115709 0 0.025557317273330941 0.45611857142262657 0 0.016302396861864351 0.45114502888407948 0 0.0080738590363113663 0.46132998490476868 0 0.025557317273330941 0.45611857142262657 0 0.02313076419329519 0.4718947066398041 0 0.01319884020628341 0.47022233111689332 0 0.025557317273330941 0.45611857142262657 0 0.02313076419329519 0.4718947066398041 0 0.025557317273330941 0.45611857142262657 0 0.03521852719449324 0.46736449501777538 0 0.025557317273330941 0.45611857142262657 0 0.029497972404799989 0.4465970104894148 0 0.021231693005787571 0.44530579808828252 0 0.025557317273330941 0.45611857142262657 0 0.016302396861864351 0.45114502888407948 0 0.021231693005787571 0.44530579808828252 0 0.01399183751309625 0.44462120914047132 0 0.016302396861864351 0.45114502888407948 0 0.021231693005787571 0.44530579808828252 0 0.01399183751309625 0.44462120914047132 0 0.021231693005787571 0.44530579808828252 0 0.020379531913139331 0.43685778481219928 0 0.029497972404799989 0.4465970104894148 0 0.021231693005787571 0.44530579808828252 0 0.030311313049230751 0.43763339856834432 0 0.021231693005787571 0.44530579808828252 0 0.030311313049230751 0.43763339856834432 0 0.020379531913139331 0.43685778481219928 0 0.038697605999956301 0.44825738244890739 0 0.047700754303434179 0.45914614606098908 0 0.049120911240681603 0.43871921909148398 0 0.029497972404799989 0.4465970104894148 0 0.038697605999956301 0.44825738244890739 0 0.040333793699140981 0.43958103258297831 0 0.029497972404799989 0.4465970104894148 0 0.030311313049230751 0.43763339856834432 0 0.040333793699140981 0.43958103258297831 0 0.025557317273330941 0.45611857142262657 0 0.029497972404799989 0.4465970104894148 0 0.038697605999956301 0.44825738244890739 0 0.038697605999956301 0.44825738244890739 0 0.040333793699140981 0.43958103258297831 0 0.049120911240681603 0.43871921909148398 0 0.046280597366186747 0.47957307303049429 0 0.03521852719449324 0.46736449501777538 0 0.047700754303434179 0.45914614606098908 0 0.025557317273330941 0.45611857142262657 0 0.038697605999956301 0.44825738244890739 0 0.03521852719449324 0.46736449501777538 0 0.038697605999956301 0.44825738244890739 0 0.03521852719449324 0.46736449501777538 0 0.047700754303434179 0.45914614606098908 0 0.064346854003363874 0.46736183993319841 0 0.056076759981020123 0.44443419347066321 0 0.064346854003363874 0.46736183993319841 0 0.046280597366186747 0.47957307303049429 0 0.047700754303434179 0.45914614606098908 0 0.064346854003363874 0.46736183993319841 0 0.047700754303434179 0.45914614606098908 0 0.056076759981020123 0.44443419347066321 0 0.047700754303434179 0.45914614606098908 0 0.049120911240681603 0.43871921909148398 0 0.056076759981020123 0.44443419347066321 0 0.047700754303434179 0.45914614606098908 0 0.049120911240681603 0.43871921909148398 0 0.067859653170709522 0.45426422462270638 0 0.056076759981020123 0.44443419347066321 0 0.061556592319121653 0.44225761358074578 0 0.056076759981020123 0.44443419347066321 0 0.061556592319121653 0.44225761358074578 0 0.059201111644200437 0.43099696977894508 0 0.056076759981020123 0.44443419347066321 0 0.047806665958676359 0.42150654700812801 0 0.049120911240681603 0.43871921909148398 0 0.056076759981020123 0.44443419347066321 0 0.047806665958676359 0.42150654700812801 0 0.056076759981020123 0.44443419347066321 0 0.059201111644200437 0.43099696977894508 0 0.047806665958676359 0.42150654700812801 0 0.059201111644200437 0.43099696977894508 0 0.058979725365252707 0.4176193763442323 0 0.047806665958676359 0.42150654700812801 0 0.058979725365252707 0.4176193763442323 0 0.039536571936328653 0.39857890054559408 0 0.063240005814886313 0.40658319209587829 0 0.058979725365252707 0.4176193763442323 0 0.047806665958676359 0.42150654700812801 0 0.039536571936328653 0.39857890054559408 0 0.035113551011259521 0.41687403621696922 0 0.02872917033170445 0.40503675834663061 0 0.039536571936328653 0.39857890054559408 0 0.047806665958676359 0.42150654700812801 0 0.039536571936328653 0.39857890054559408 0 0.047806665958676359 0.42150654700812801 0 0.035113551011259521 0.41687403621696922 0 0.039536571936328653 0.39857890054559408 0 0.049120911240681603 0.43871921909148398 0 0.047806665958676359 0.42150654700812801 0 0.039708047704291503 0.4306454839277386 0 0.040333793699140981 0.43958103258297831 0 0.049120911240681603 0.43871921909148398 0 0.039708047704291503 0.4306454839277386 0 0.047806665958676359 0.42150654700812801 0 0.035113551011259521 0.41687403621696922 0 0.039708047704291503 0.4306454839277386 0 0.035113551011259521 0.41687403621696922 0 0.039708047704291503 0.4306454839277386 0 0.028741688689164512 0.42811504149697438 0 0.030311313049230751 0.43763339856834432 0 0.039708047704291503 0.4306454839277386 0 0.028741688689164512 0.42811504149697438 0 0.030311313049230751 0.43763339856834432 0 0.040333793699140981 0.43958103258297831 0 0.039708047704291503 0.4306454839277386 0 0.030311313049230751 0.43763339856834432 0 0.020379531913139331 0.43685778481219928 0 0.028741688689164512 0.42811504149697438 0 0.01049598620797234 0.43767394788706171 0 0.020379531913139331 0.43685778481219928 0 0.01750467301358458 0.42779731369206181 0 0.020379531913139331 0.43685778481219928 0 0.01750467301358458 0.42779731369206181 0 0.028741688689164512 0.42811504149697438 0 0.01750467301358458 0.42779731369206181 0 0.028741688689164512 0.42811504149697438 0 0.02615916144738779 0.41736148597675132 0 0.035113551011259521 0.41687403621696922 0 0.028741688689164512 0.42811504149697438 0 0.02615916144738779 0.41736148597675132 0 0.02615916144738779 0.41736148597675132 0 0.010437450069317761 0.40463061763750507 0 0.02872917033170445 0.40503675834663061 0 0.02615916144738779 0.41736148597675132 0 0.01517065216307991 0.41806138940930709 0 0.010437450069317761 0.40463061763750507 0 0.035113551011259521 0.41687403621696922 0 0.02615916144738779 0.41736148597675132 0 0.02872917033170445 0.40503675834663061 0 0.01750467301358458 0.42779731369206181 0 0.02615916144738779 0.41736148597675132 0 0.01517065216307991 0.41806138940930709 0 -0.003174347114314008 0.41591217031924949 0 0.0065813241220295041 0.42245614033091039 0 0.010437450069317761 0.40463061763750507 0 -0.0064316016559190746 0.3999483233353413 0 -0.003174347114314008 0.41591217031924949 0 0.010437450069317761 0.40463061763750507 0 0.01517065216307991 0.41806138940930709 0 0.0065813241220295041 0.42245614033091039 0 0.010437450069317761 0.40463061763750507 0 -0.003174347114314008 0.41591217031924949 0 0.010437450069317761 0.40463061763750507 0 -0.003174347114314008 0.41591217031924949 0 0.0065813241220295041 0.42245614033091039 0 -0.0026301228576318379 0.42717885202372191 0 -0.003174347114314008 0.41591217031924949 0 0.0065813241220295041 0.42245614033091039 0 -0.0026301228576318379 0.42717885202372191 0 0.0065813241220295041 0.42245614033091039 0 0.0065189226172944724 0.43188650626448272 0 -0.0026301228576318379 0.42717885202372191 0 0.0048617880261327502 0.44584476697033082 0 0.0065189226172944724 0.43188650626448272 0 0.01049598620797234 0.43767394788706171 0 0.01750467301358458 0.42779731369206181 0 0.0065189226172944724 0.43188650626448272 0 0.01750467301358458 0.42779731369206181 0 0.0065813241220295041 0.42245614033091039 0 0.0065189226172944724 0.43188650626448272 0 0.01750467301358458 0.42779731369206181 0 0.01517065216307991 0.41806138940930709 0 0.0065813241220295041 0.42245614033091039 0 -0.0042030409966118051 0.38380869400061962 0 0.01009735409817194 0.38238429504652488 0 0.02404924725294803 0.393349064955759 0 -0.0042030409966118051 0.38380869400061962 0 0.02404924725294803 0.393349064955759 0 0.01009735409817194 0.38238429504652488 0 0.0197357255374827 0.37571737083264412 0 0.011110712074150059 0.37343232972227269 0 -0.001064505034491721 0.37161458349227261 0 0.01009735409817194 0.38238429504652488 0 0.011110712074150059 0.37343232972227269 0 -0.001064505034491721 0.37161458349227261 0 -0.0042030409966118051 0.38380869400061962 0 0.01009735409817194 0.38238429504652488 0 -0.0042030409966118051 0.38380869400061962 0 0.01009735409817194 0.38238429504652488 0 -0.0042030409966118051 0.38380869400061962 0 0.010437450069317761 0.40463061763750507 0 0.02404924725294803 0.393349064955759 0 0.010437450069317761 0.40463061763750507 0 0.02872917033170445 0.40503675834663061 0 0.02404924725294803 0.393349064955759 0 0.010437450069317761 0.40463061763750507 0 0.02404924725294803 0.393349064955759 0 0.02872917033170445 0.40503675834663061 0 0.02404924725294803 0.393349064955759 0 0.039536571936328653 0.39857890054559408 0 0.02404924725294803 0.393349064955759 0 0.034519904376963118 0.38467091111880503 0 0.02404924725294803 0.393349064955759 0 0.0197357255374827 0.37571737083264412 0 0.034519904376963118 0.38467091111880503 0 0.01009735409817194 0.38238429504652488 0 0.02404924725294803 0.393349064955759 0 0.0197357255374827 0.37571737083264412 0 0.034519904376963118 0.38467091111880503 0 0.050307067216076778 0.37158640017128619 0 0.034519904376963118 0.38467091111880503 0 0.039536571936328653 0.39857890054559408 0 0.056773536515482913 0.38908479613358171 0 0.02404924725294803 0.393349064955759 0 0.039536571936328653 0.39857890054559408 0 0.034519904376963118 0.38467091111880503 0 0.039536571936328653 0.39857890054559408 0 0.02404924725294803 0.393349064955759 0 0.034519904376963118 0.38467091111880503 0 0.039536571936328653 0.39857890054559408 0 0.039536571936328653 0.39857890054559408 0 0.063240005814886313 0.40658319209587829 0 0.039536571936328653 0.39857890054559408 0 0.056773536515482913 0.38908479613358171 0 0.063240005814886313 0.40658319209587829 0 0.056773536515482913 0.38908479613358171 0 0.063240005814886313 0.40658319209587829 0 0.056773536515482913 0.38908479613358171 0 0.059721524030669819 0.37431687333309788 0 0.050307067216076778 0.37158640017128619 0 0.056773536515482913 0.38908479613358171 0 0.050307067216076778 0.37158640017128619 0 0.034519904376963118 0.38467091111880503 0 0.056773536515482913 0.38908479613358171 0 0.050307067216076778 0.37158640017128619 0 0.056773536515482913 0.38908479613358171 0 0.069041936002645535 0.37820082441249081 0 0.059721524030669819 0.37431687333309788 0 0.056773536515482913 0.38908479613358171 0 0.069041936002645535 0.37820082441249081 0 0.068225210254675303 0.39186969982647402 0 0.069041936002645535 0.37820082441249081 0 0.078928226936330073 0.3918395352538776 0 0.068225210254675303 0.39186969982647402 0 0.069041936002645535 0.37820082441249081 0 0.087739402474845588 0.37833299208434412 0 0.078928226936330073 0.3918395352538776 0 0.087739402474845588 0.37833299208434412 0 0.078928226936330073 0.3918395352538776 0 0.094443419551670932 0.40508992778400232 0 0.078928226936330073 0.3918395352538776 0 0.080832552055978585 0.40498983155533402 0 0.094443419551670932 0.40508992778400232 0 0.080832552055978585 0.40498983155533402 0 0.073695702888484968 0.40005040040525608 0 0.075088081656536507 0.41058410832735293 0 0.078928226936330073 0.3918395352538776 0 0.080832552055978585 0.40498983155533402 0 0.073695702888484968 0.40005040040525608 0 0.056773536515482913 0.38908479613358171 0 0.068225210254675303 0.39186969982647402 0 0.063240005814886313 0.40658319209587829 0 0.073695702888484968 0.40005040040525608 0 0.063240005814886313 0.40658319209587829 0 0.075088081656536507 0.41058410832735293 0 0.078928226936330073 0.3918395352538776 0 0.073695702888484968 0.40005040040525608 0 0.068225210254675303 0.39186969982647402 0 0.073695702888484968 0.40005040040525608 0 0.068225210254675303 0.39186969982647402 0 0.063240005814886313 0.40658319209587829 0 0.058979725365252707 0.4176193763442323 0 0.063240005814886313 0.40658319209587829 0 0.071585814596931419 0.42916711849095618 0 0.063240005814886313 0.40658319209587829 0 0.075088081656536507 0.41058410832735293 0 0.071585814596931419 0.42916711849095618 0 0.063240005814886313 0.40658319209587829 0 0.071585814596931419 0.42916711849095618 0 0.063240005814886313 0.40658319209587829 0 0.075088081656536507 0.41058410832735293 0 0.075088081656536507 0.41058410832735293 0 0.071585814596931419 0.42916711849095618 0 0.082007329246870417 0.41738518600618091 0 0.061556592319121653 0.44225761358074578 0 0.059201111644200437 0.43099696977894508 0 0.071585814596931419 0.42916711849095618 0 0.07540768018483697 0.44030754071393319 0 0.061556592319121653 0.44225761358074578 0 0.071585814596931419 0.42916711849095618 0 0.059201111644200437 0.43099696977894508 0 0.058979725365252707 0.4176193763442323 0 0.071585814596931419 0.42916711849095618 0 0.07540768018483697 0.44030754071393319 0 0.071585814596931419 0.42916711849095618 0 0.08764391112498858 0.43163178618934439 0 0.071585814596931419 0.42916711849095618 0 0.08764391112498858 0.43163178618934439 0 0.082007329246870417 0.41738518600618091 0 0.08764391112498858 0.43163178618934439 0 0.082007329246870417 0.41738518600618091 0 0.094443419551670932 0.40508992778400232 0 0.08764391112498858 0.43163178618934439 0 0.094443419551670932 0.40508992778400232 0 0.080832552055978585 0.40498983155533402 0 0.075088081656536507 0.41058410832735293 0 0.082007329246870417 0.41738518600618091 0 0.080832552055978585 0.40498983155533402 0 0.082007329246870417 0.41738518600618091 0 0.094443419551670932 0.40508992778400232 0 0.08764391112498858 0.43163178618934439 0 0.1096581763989177 0.42409154504396013 0 0.094443419551670932 0.40508992778400232 0 0.1096581763989177 0.42409154504396013 0 0.11163148259572971 0.40863234267508453 0 0.094443419551670932 0.40508992778400232 0 0.1057649319772677 0.43759517983083812 0 0.08764391112498858 0.43163178618934439 0 0.1096581763989177 0.42409154504396013 0 0.1237280261196836 0.44463014715047522 0 0.1096581763989177 0.42409154504396013 0 0.13502200614688589 0.42010390008240672 0 0.1237280261196836 0.44463014715047522 0 0.1057649319772677 0.43759517983083812 0 0.1096581763989177 0.42409154504396013 0 0.11163148259572971 0.40863234267508453 0 0.1236499924648251 0.3984302041169589 0 0.13502200614688589 0.42010390008240672 0 0.1096581763989177 0.42409154504396013 0 0.11163148259572971 0.40863234267508453 0 0.13502200614688589 0.42010390008240672 0 0.11163148259572971 0.40863234267508453 0 0.1236499924648251 0.3984302041169589 0 0.10863659533572551 0.39290197353284961 0 0.10863659533572551 0.39290197353284961 0 0.114060711710889 0.37342974127053702 0 0.12550685613774351 0.37951055496914998 0 0.1236499924648251 0.3984302041169589 0 0.10863659533572551 0.39290197353284961 0 0.12550685613774351 0.37951055496914998 0 0.1012429279783533 0.37854806937866009 0 0.10863659533572551 0.39290197353284961 0 0.114060711710889 0.37342974127053702 0 0.087739402474845588 0.37833299208434412 0 0.1012429279783533 0.37854806937866009 0 0.094443419551670932 0.40508992778400232 0 0.11163148259572971 0.40863234267508453 0 0.10863659533572551 0.39290197353284961 0 0.094443419551670932 0.40508992778400232 0 0.1012429279783533 0.37854806937866009 0 0.094443419551670932 0.40508992778400232 0 0.1012429279783533 0.37854806937866009 0 0.10863659533572551 0.39290197353284961 0 0.094443419551670932 0.40508992778400232 0 0.10055213054656729 0.36013865237867942 0 0.1100489009895301 0.33374314175173209 0 0.10055213054656729 0.36013865237867942 0 0.1100489009895301 0.33374314175173209 0 0.08625589277749264 0.346999797836966 0 0.1069344999541316 0.36147573913557879 0 0.10055213054656729 0.36013865237867942 0 0.1165634558871128 0.3492406052842485 0 0.10055213054656729 0.36013865237867942 0 0.1165634558871128 0.3492406052842485 0 0.1100489009895301 0.33374314175173209 0 0.087739402474845588 0.37833299208434412 0 0.1012429279783533 0.37854806937866009 0 0.1069344999541316 0.36147573913557879 0 0.1012429279783533 0.37854806937866009 0 0.1069344999541316 0.36147573913557879 0 0.114060711710889 0.37342974127053702 0 0.1069344999541316 0.36147573913557879 0 0.10055213054656729 0.36013865237867942 0 0.081229983254247365 0.36650003300062722 0 0.1069344999541316 0.36147573913557879 0 0.081229983254247365 0.36650003300062722 0 0.114060711710889 0.37342974127053702 0 0.1326390166540157 0.35645144527053041 0 0.12550685613774351 0.37951055496914998 0 0.1069344999541316 0.36147573913557879 0 0.114060711710889 0.37342974127053702 0 0.1326390166540157 0.35645144527053041 0 0.1069344999541316 0.36147573913557879 0 0.1165634558871128 0.3492406052842485 0 0.1326390166540157 0.35645144527053041 0 0.1069344999541316 0.36147573913557879 0 0.1326390166540157 0.35645144527053041 0 0.1165634558871128 0.3492406052842485 0 0.1100489009895301 0.33374314175173209 0 0.13264273129131951 0.33439404788472138 0 0.1100489009895301 0.33374314175173209 0 0.099713977183769634 0.31807175575135088 0 0.11954567143249289 0.30734763112478491 0 0.1100489009895301 0.33374314175173209 0 0.11954567143249289 0.30734763112478491 0 0.13264273129131951 0.33439404788472138 0 0.1100489009895301 0.33374314175173209 0 0.11954567143249289 0.30734763112478491 0 0.1100489009895301 0.33374314175173209 0 0.099713977183769634 0.31807175575135088 0 0.083894735805945045 0.32735700357097808 0 0.1100489009895301 0.33374314175173209 0 0.083894735805945045 0.32735700357097808 0 0.08625589277749264 0.346999797836966 0 0.083894735805945045 0.32735700357097808 0 0.068148884279383815 0.34110740296781622 0 0.08625589277749264 0.346999797836966 0 0.099713977183769634 0.31807175575135088 0 0.083894735805945045 0.32735700357097808 0 0.079241751540062577 0.3091409184095229 0 0.083894735805945045 0.32735700357097808 0 0.067542665246266162 0.32227296773822012 0 0.079241751540062577 0.3091409184095229 0 0.067542665246266162 0.32227296773822012 0 0.068148884279383815 0.34110740296781622 0 0.052098030758102709 0.32848813316288678 0 0.083894735805945045 0.32735700357097808 0 0.067542665246266162 0.32227296773822012 0 0.068148884279383815 0.34110740296781622 0 0.068148884279383815 0.34110740296781622 0 0.072981575438615956 0.35429511825148829 0 0.08625589277749264 0.346999797836966 0 0.068148884279383815 0.34110740296781622 0 0.072981575438615956 0.35429511825148829 0 0.059971533893319953 0.35265308331869138 0 0.072981575438615956 0.35429511825148829 0 0.066555082361941326 0.36578627017444021 0 0.059971533893319953 0.35265308331869138 0 0.10055213054656729 0.36013865237867942 0 0.08625589277749264 0.346999797836966 0 0.081229983254247365 0.36650003300062722 0 0.072981575438615956 0.35429511825148829 0 0.08625589277749264 0.346999797836966 0 0.081229983254247365 0.36650003300062722 0 0.087739402474845588 0.37833299208434412 0 0.1069344999541316 0.36147573913557879 0 0.081229983254247365 0.36650003300062722 0 0.069041936002645535 0.37820082441249081 0 0.087739402474845588 0.37833299208434412 0 0.081229983254247365 0.36650003300062722 0 0.069041936002645535 0.37820082441249081 0 0.081229983254247365 0.36650003300062722 0 0.066555082361941326 0.36578627017444021 0 0.072981575438615956 0.35429511825148829 0 0.081229983254247365 0.36650003300062722 0 0.066555082361941326 0.36578627017444021 0 0.069041936002645535 0.37820082441249081 0 0.066555082361941326 0.36578627017444021 0 0.059721524030669819 0.37431687333309788 0 0.055929998057201551 0.36692607577369102 0 0.050307067216076778 0.37158640017128619 0 0.041108453413194898 0.34669476624024848 0 0.066555082361941326 0.36578627017444021 0 0.059721524030669819 0.37431687333309788 0 0.055929998057201551 0.36692607577369102 0 0.059721524030669819 0.37431687333309788 0 0.055929998057201551 0.36692607577369102 0 0.050307067216076778 0.37158640017128619 0 0.066555082361941326 0.36578627017444021 0 0.055929998057201551 0.36692607577369102 0 0.059971533893319953 0.35265308331869138 0 0.055929998057201551 0.36692607577369102 0 0.050307067216076778 0.37158640017128619 0 0.055929998057201551 0.36692607577369102 0 0.059971533893319953 0.35265308331869138 0 0.041108453413194898 0.34669476624024848 0 0.059971533893319953 0.35265308331869138 0 0.041108453413194898 0.34669476624024848 0 0.053731959496234848 0.34189436452501393 0 0.068148884279383815 0.34110740296781622 0 0.059971533893319953 0.35265308331869138 0 0.053731959496234848 0.34189436452501393 0 0.050307067216076778 0.37158640017128619 0 0.041108453413194898 0.34669476624024848 0 0.036325720293778493 0.35734230210966361 0 0.050307067216076778 0.37158640017128619 0 0.041108453413194898 0.34669476624024848 0 0.041108453413194898 0.34669476624024848 0 0.036325720293778493 0.35734230210966361 0 0.028822601092593811 0.34272768621728472 0 0.034519904376963118 0.38467091111880503 0 0.036565816098641138 0.36791040757449411 0 0.02482466364838485 0.35779225034500489 0 0.034519904376963118 0.38467091111880503 0 0.050307067216076778 0.37158640017128619 0 0.036565816098641138 0.36791040757449411 0 0.050307067216076778 0.37158640017128619 0 0.036325720293778493 0.35734230210966361 0 0.036565816098641138 0.36791040757449411 0 0.036325720293778493 0.35734230210966361 0 0.036565816098641138 0.36791040757449411 0 0.02482466364838485 0.35779225034500489 0 0.034519904376963118 0.38467091111880503 0 0.02482466364838485 0.35779225034500489 0 0.0197357255374827 0.37571737083264412 0 0.034519904376963118 0.38467091111880503 0 0.02482466364838485 0.35779225034500489 0 0.0197357255374827 0.37571737083264412 0 0.015674273695437339 0.36401306951764911 0 0.02482466364838485 0.35779225034500489 0 0.015674273695437339 0.36401306951764911 0 0.02482466364838485 0.35779225034500489 0 0.015768167676543349 0.35713923686247862 0 0.02482466364838485 0.35779225034500489 0 0.01512942291980679 0.33091358957120492 0 0.02482466364838485 0.35779225034500489 0 0.01512942291980679 0.33091358957120492 0 0.028822601092593811 0.34272768621728472 0 0.036325720293778493 0.35734230210966361 0 0.02482466364838485 0.35779225034500489 0 0.028822601092593811 0.34272768621728472 0 0.02482466364838485 0.35779225034500489 0 0.012196298529549159 0.34905700984651278 0 0.01512942291980679 0.33091358957120492 0 0.02482466364838485 0.35779225034500489 0 0.015768167676543349 0.35713923686247862 0 0.012196298529549159 0.34905700984651278 0 0.01037743483280206 0.35769461774074762 0 0.012196298529549159 0.34905700984651278 0 0.0032447233134405931 0.35422125060834359 0 0.015768167676543349 0.35713923686247862 0 0.01037743483280206 0.35769461774074762 0 0.012196298529549159 0.34905700984651278 0 -0.002583240235104544 0.34489224502179239 0 0.012196298529549159 0.34905700984651278 0 0.0065182143906638264 0.33911035096943482 0 -0.002583240235104544 0.34489224502179239 0 0.012196298529549159 0.34905700984651278 0 0.0032447233134405931 0.35422125060834359 0 0.01037743483280206 0.35769461774074762 0 0.0032447233134405931 0.35422125060834359 0 0.0039428335920915006 0.36531030276633031 0 -0.0064988099748367559 0.35299106404641623 0 0.0032447233134405931 0.35422125060834359 0 0.0039428335920915006 0.36531030276633031 0 -0.001064505034491721 0.37161458349227261 0 0.015674273695437339 0.36401306951764911 0 0.0039428335920915006 0.36531030276633031 0 -0.001064505034491721 0.37161458349227261 0 0.015674273695437339 0.36401306951764911 0 0.011110712074150059 0.37343232972227269 0 -0.001064505034491721 0.37161458349227261 0 0.015674273695437339 0.36401306951764911 0 0.0197357255374827 0.37571737083264412 0 0.015674273695437339 0.36401306951764911 0 0.011110712074150059 0.37343232972227269 0 0.015674273695437339 0.36401306951764911 0 0.01037743483280206 0.35769461774074762 0 0.0039428335920915006 0.36531030276633031 0 0.015674273695437339 0.36401306951764911 0 0.015768167676543349 0.35713923686247862 0 0.01037743483280206 0.35769461774074762 0 -0.00058836015198596755 0.32088344941533808 0 0.01512942291980679 0.33091358957120492 0 0.0054341821912287152 0.30403492879740468 0 0.01512942291980679 0.33091358957120492 0 0.0054341821912287152 0.30403492879740468 0 0.01512942291980679 0.33091358957120492 0 0.018796167632194181 0.3134157872639986 0 0.0054341821912287152 0.30403492879740468 0 0.012196298529549159 0.34905700984651278 0 0.01512942291980679 0.33091358957120492 0 0.0065182143906638264 0.33911035096943482 0 -0.0025616559074486049 0.3329031852911295 0 -0.00058836015198596755 0.32088344941533808 0 0.01512942291980679 0.33091358957120492 0 -0.0025616559074486049 0.3329031852911295 0 0.01512942291980679 0.33091358957120492 0 0.0065182143906638264 0.33911035096943482 0 -0.0025616559074486049 0.3329031852911295 0 -0.002583240235104544 0.34489224502179239 0 0.0065182143906638264 0.33911035096943482 0 0.01512942291980679 0.33091358957120492 0 0.028822601092593811 0.34272768621728472 0 0.031909839610312053 0.3218031323092112 0 0.01512942291980679 0.33091358957120492 0 0.018796167632194181 0.3134157872639986 0 0.031909839610312053 0.3218031323092112 0 0.031909839610312053 0.3218031323092112 0 0.052098030758102709 0.32848813316288678 0 0.054329923847836643 0.30527138057989611 0 0.041108453413194898 0.34669476624024848 0 0.031909839610312053 0.3218031323092112 0 0.041108453413194898 0.34669476624024848 0 0.028822601092593811 0.34272768621728472 0 0.031909839610312053 0.3218031323092112 0 0.041108453413194898 0.34669476624024848 0 0.031909839610312053 0.3218031323092112 0 0.052098030758102709 0.32848813316288678 0 0.041108453413194898 0.34669476624024848 0 0.052098030758102709 0.32848813316288678 0 0.053731959496234848 0.34189436452501393 0 0.068148884279383815 0.34110740296781622 0 0.052098030758102709 0.32848813316288678 0 0.053731959496234848 0.34189436452501393 0 0.067542665246266162 0.32227296773822012 0 0.052098030758102709 0.32848813316288678 0 0.054329923847836643 0.30527138057989611 0 0.054329923847836643 0.30527138057989611 0 0.058643640903709077 0.2841886380467647 0 0.070108093408202884 0.28237758711201172 0 0.054329923847836643 0.30527138057989611 0 0.058643640903709077 0.2841886380467647 0 0.046708945964444748 0.28470371633566799 0 0.054329923847836643 0.30527138057989611 0 0.070108093408202884 0.28237758711201172 0 0.033299114928103571 0.2853556706935409 0 0.038381760441483573 0.30030485014671859 0 0.022711225807429191 0.29691149837817382 0 0.054329923847836643 0.30527138057989611 0 0.046708945964444748 0.28470371633566799 0 0.038381760441483573 0.30030485014671859 0 0.046708945964444748 0.28470371633566799 0 0.033299114928103571 0.2853556706935409 0 0.038381760441483573 0.30030485014671859 0 0.031909839610312053 0.3218031323092112 0 0.054329923847836643 0.30527138057989611 0 0.038381760441483573 0.30030485014671859 0 0.031909839610312053 0.3218031323092112 0 0.022711225807429191 0.29691149837817382 0 0.018796167632194181 0.3134157872639986 0 0.031909839610312053 0.3218031323092112 0 0.022711225807429191 0.29691149837817382 0 0.018796167632194181 0.3134157872639986 0 0.022711225807429191 0.29691149837817382 0 0.0054341821912287152 0.30403492879740468 0 0.031909839610312053 0.3218031323092112 0 0.038381760441483573 0.30030485014671859 0 0.022711225807429191 0.29691149837817382 0 0.022711225807429191 0.29691149837817382 0 0.0097135815956244098 0.28932323485025419 0 0.01496997692118909 0.27919024420183391 0 0.033299114928103571 0.2853556706935409 0 0.022711225807429191 0.29691149837817382 0 0.01496997692118909 0.27919024420183391 0 -0.0042610585373493576 0.2771562680236046 0 0.0097135815956244098 0.28932323485025419 0 0.01496997692118909 0.27919024420183391 0 -0.0042610585373493576 0.2771562680236046 0 0.0097135815956244098 0.28932323485025419 0 0.0054341821912287152 0.30403492879740468 0 0.022711225807429191 0.29691149837817382 0 0.0097135815956244098 0.28932323485025419 0 0.0054341821912287152 0.30403492879740468 0 -0.0042610585373493576 0.2771562680236046 0 0.0054341821912287152 0.30403492879740468 0 0.012156823249103331 0.25259817100369902 0 0.0071094060709509964 0.26564087220093879 0 0.023079021189564172 0.26593697868694532 0 -0.0082457657602449386 0.25246627485226031 0 0.012156823249103331 0.25259817100369902 0 0.0071094060709509964 0.26564087220093879 0 0.0071094060709509964 0.26564087220093879 0 0.01496997692118909 0.27919024420183391 0 0.023079021189564172 0.26593697868694532 0 -0.0042610585373493576 0.2771562680236046 0 0.0071094060709509964 0.26564087220093879 0 0.01496997692118909 0.27919024420183391 0 0.033299114928103571 0.2853556706935409 0 0.01496997692118909 0.27919024420183391 0 0.023079021189564172 0.26593697868694532 0 0.012156823249103331 0.25259817100369902 0 0.023079021189564172 0.26593697868694532 0 0.030652172791378579 0.25229956247347313 0 0.023079021189564172 0.26593697868694532 0 0.030652172791378579 0.25229956247347313 0 0.04073495957405681 0.26035892983227987 0 0.044937254539659167 0.2379713478153713 0 0.030652172791378579 0.25229956247347313 0 0.04073495957405681 0.26035892983227987 0 0.033299114928103571 0.2853556706935409 0 0.023079021189564172 0.26593697868694532 0 0.04073495957405681 0.26035892983227987 0 0.033299114928103571 0.2853556706935409 0 0.04073495957405681 0.26035892983227987 0 0.046708945964444748 0.28470371633566799 0 0.033299114928103571 0.2853556706935409 0 0.04073495957405681 0.26035892983227987 0 0.046708945964444748 0.28470371633566799 0 0.04073495957405681 0.26035892983227987 0 0.054656664038459993 0.27221644551962948 0 0.058643640903709077 0.2841886380467647 0 0.046708945964444748 0.28470371633566799 0 0.054656664038459993 0.27221644551962948 0 0.054656664038459993 0.27221644551962948 0 0.05595459183600883 0.25980758553240452 0 0.063151913248908592 0.26702092668087168 0 0.054656664038459993 0.27221644551962948 0 0.063151913248908592 0.26702092668087168 0 0.062868354845155253 0.27542318723842002 0 0.058643640903709077 0.2841886380467647 0 0.054656664038459993 0.27221644551962948 0 0.062868354845155253 0.27542318723842002 0 0.058643640903709077 0.2841886380467647 0 0.062868354845155253 0.27542318723842002 0 0.06481936793225318 0.27971168374165578 0 0.052294646587479003 0.2493466198794505 0 0.04073495957405681 0.26035892983227987 0 0.05595459183600883 0.25980758553240452 0 0.04073495957405681 0.26035892983227987 0 0.054656664038459993 0.27221644551962948 0 0.05595459183600883 0.25980758553240452 0 0.05595459183600883 0.25980758553240452 0 0.066495423171073403 0.25816184380531082 0 0.063151913248908592 0.26702092668087168 0 0.052294646587479003 0.2493466198794505 0 0.05595459183600883 0.25980758553240452 0 0.06034442261467237 0.25120339486286308 0 0.05595459183600883 0.25980758553240452 0 0.06034442261467237 0.25120339486286308 0 0.066495423171073403 0.25816184380531082 0 0.067445722382230539 0.24771064348785149 0 0.066495423171073403 0.25816184380531082 0 0.074707437689247702 0.25389633834412328 0 0.067445722382230539 0.24771064348785149 0 0.06034442261467237 0.25120339486286308 0 0.066495423171073403 0.25816184380531082 0 0.066495423171073403 0.25816184380531082 0 0.070468357435777063 0.2657419037057816 0 0.063151913248908592 0.26702092668087168 0 0.066495423171073403 0.25816184380531082 0 0.074357597956477339 0.26064435546358339 0 0.070468357435777063 0.2657419037057816 0 0.074357597956477339 0.26064435546358339 0 0.075194191089397802 0.26640127341757941 0 0.070468357435777063 0.2657419037057816 0 0.074357597956477339 0.26064435546358339 0 0.080427883817154544 0.25791465254204288 0 0.078852294536213494 0.26175012096666261 0 0.074357597956477339 0.26064435546358339 0 0.078852294536213494 0.26175012096666261 0 0.075194191089397802 0.26640127341757941 0 0.066495423171073403 0.25816184380531082 0 0.074357597956477339 0.26064435546358339 0 0.074707437689247702 0.25389633834412328 0 0.074357597956477339 0.26064435546358339 0 0.074707437689247702 0.25389633834412328 0 0.080427883817154544 0.25791465254204288 0 0.085975255819246227 0.24304742420893821 0 0.080478695998155714 0.25165019938018113 0 0.085886262968569133 0.25948379364412733 0 0.080478695998155714 0.25165019938018113 0 0.080427883817154544 0.25791465254204288 0 0.085886262968569133 0.25948379364412733 0 0.10166443252893551 0.23659000017624271 0 0.085886262968569133 0.25948379364412733 0 0.093061372415253377 0.25945310375487363 0 0.074707437689247702 0.25389633834412328 0 0.080478695998155714 0.25165019938018113 0 0.080427883817154544 0.25791465254204288 0 0.078852294536213494 0.26175012096666261 0 0.085886262968569133 0.25948379364412733 0 0.075194191089397802 0.26640127341757941 0 0.080427883817154544 0.25791465254204288 0 0.078852294536213494 0.26175012096666261 0 0.085886262968569133 0.25948379364412733 0 0.093061372415253377 0.25945310375487363 0 0.088669334409182038 0.27365465257629329 0 0.074192652952093263 0.28111713417870732 0 0.093061372415253377 0.25945310375487363 0 0.074192652952093263 0.28111713417870732 0 0.085886262968569133 0.25948379364412733 0 0.093061372415253377 0.25945310375487363 0 0.074192652952093263 0.28111713417870732 0 0.088669334409182038 0.27365465257629329 0 0.090629520296699906 0.27989165378522829 0 0.096617072050330918 0.27420358010706619 0 0.088669334409182038 0.27365465257629329 0 0.090629520296699906 0.27989165378522829 0 0.083300485689734874 0.28178689503457671 0 0.093061372415253377 0.25945310375487363 0 0.088669334409182038 0.27365465257629329 0 0.097208854645582696 0.26674380090640232 0 0.088669334409182038 0.27365465257629329 0 0.074192652952093263 0.28111713417870732 0 0.083300485689734874 0.28178689503457671 0 0.085886262968569133 0.25948379364412733 0 0.072732619288592745 0.27411268144752271 0 0.070108093408202884 0.28237758711201172 0 0.085886262968569133 0.25948379364412733 0 0.074192652952093263 0.28111713417870732 0 0.070108093408202884 0.28237758711201172 0 0.085886262968569133 0.25948379364412733 0 0.070108093408202884 0.28237758711201172 0 0.085886262968569133 0.25948379364412733 0 0.072732619288592745 0.27411268144752271 0 0.075194191089397802 0.26640127341757941 0 0.072732619288592745 0.27411268144752271 0 0.075194191089397802 0.26640127341757941 0 0.068678803079962825 0.27092621584326698 0 0.075194191089397802 0.26640127341757941 0 0.070468357435777063 0.2657419037057816 0 0.068678803079962825 0.27092621584326698 0 0.068678803079962825 0.27092621584326698 0 0.063151913248908592 0.26702092668087168 0 0.062868354845155253 0.27542318723842002 0 0.070468357435777063 0.2657419037057816 0 0.068678803079962825 0.27092621584326698 0 0.063151913248908592 0.26702092668087168 0 0.072732619288592745 0.27411268144752271 0 0.067657382571945521 0.27685732256942691 0 0.070108093408202884 0.28237758711201172 0 0.067657382571945521 0.27685732256942691 0 0.06481936793225318 0.27971168374165578 0 0.070108093408202884 0.28237758711201172 0 0.072732619288592745 0.27411268144752271 0 0.068678803079962825 0.27092621584326698 0 0.067657382571945521 0.27685732256942691 0 0.067657382571945521 0.27685732256942691 0 0.062868354845155253 0.27542318723842002 0 0.06481936793225318 0.27971168374165578 0 0.068678803079962825 0.27092621584326698 0 0.067657382571945521 0.27685732256942691 0 0.062868354845155253 0.27542318723842002 0 0.058643640903709077 0.2841886380467647 0 0.06481936793225318 0.27971168374165578 0 0.070108093408202884 0.28237758711201172 0 0.054329923847836643 0.30527138057989611 0 0.070108093408202884 0.28237758711201172 0 0.07616196246918229 0.29401120062856562 0 0.070108093408202884 0.28237758711201172 0 0.07616196246918229 0.29401120062856562 0 0.077305327314718786 0.28670206069564769 0 0.074192652952093263 0.28111713417870732 0 0.070108093408202884 0.28237758711201172 0 0.077305327314718786 0.28670206069564769 0 0.054329923847836643 0.30527138057989611 0 0.07616196246918229 0.29401120062856562 0 0.079241751540062577 0.3091409184095229 0 0.067542665246266162 0.32227296773822012 0 0.054329923847836643 0.30527138057989611 0 0.079241751540062577 0.3091409184095229 0 0.07616196246918229 0.29401120062856562 0 0.079241751540062577 0.3091409184095229 0 0.093760017070794913 0.30048783451418309 0 0.099713977183769634 0.31807175575135088 0 0.079241751540062577 0.3091409184095229 0 0.093760017070794913 0.30048783451418309 0 0.07616196246918229 0.29401120062856562 0 0.086675975183887061 0.28808357667035972 0 0.093760017070794913 0.30048783451418309 0 0.074192652952093263 0.28111713417870732 0 0.077305327314718786 0.28670206069564769 0 0.083300485689734874 0.28178689503457671 0 0.077305327314718786 0.28670206069564769 0 0.083300485689734874 0.28178689503457671 0 0.086675975183887061 0.28808357667035972 0 0.07616196246918229 0.29401120062856562 0 0.077305327314718786 0.28670206069564769 0 0.086675975183887061 0.28808357667035972 0 0.090629520296699906 0.27989165378522829 0 0.083300485689734874 0.28178689503457671 0 0.086675975183887061 0.28808357667035972 0 0.090629520296699906 0.27989165378522829 0 0.086675975183887061 0.28808357667035972 0 0.1012207646153751 0.28627192450051492 0 0.086675975183887061 0.28808357667035972 0 0.1012207646153751 0.28627192450051492 0 0.093760017070794913 0.30048783451418309 0 0.099713977183769634 0.31807175575135088 0 0.093760017070794913 0.30048783451418309 0 0.11954567143249289 0.30734763112478491 0 0.1012207646153751 0.28627192450051492 0 0.093760017070794913 0.30048783451418309 0 0.11954567143249289 0.30734763112478491 0 0.11954567143249289 0.30734763112478491 0 0.1141818460752707 0.27714397317686529 0 0.12904244187545569 0.2809521204978378 0 0.1012207646153751 0.28627192450051492 0 0.11954567143249289 0.30734763112478491 0 0.1141818460752707 0.27714397317686529 0 0.11954567143249289 0.30734763112478491 0 0.12904244187545569 0.2809521204978378 0 0.1141818460752707 0.27714397317686529 0 0.11615378911320511 0.26032519799560372 0 0.1048644735931679 0.26655228778042589 0 0.1141818460752707 0.27714397317686529 0 0.11615378911320511 0.26032519799560372 0 0.12904244187545569 0.2809521204978378 0 0.1152979079485152 0.2467056018988516 0 0.1250676346401875 0.24796443701554319 0 0.11615378911320511 0.26032519799560372 0 0.1152979079485152 0.2467056018988516 0 0.11615378911320511 0.26032519799560372 0 0.10650461767427161 0.25132517155921902 0 0.11615378911320511 0.26032519799560372 0 0.1028320207599793 0.25985538031335248 0 0.1048644735931679 0.26655228778042589 0 0.1028320207599793 0.25985538031335248 0 0.097208854645582696 0.26674380090640232 0 0.1048644735931679 0.26655228778042589 0 0.11615378911320511 0.26032519799560372 0 0.1028320207599793 0.25985538031335248 0 0.10650461767427161 0.25132517155921902 0 0.093061372415253377 0.25945310375487363 0 0.1028320207599793 0.25985538031335248 0 0.10650461767427161 0.25132517155921902 0 0.093061372415253377 0.25945310375487363 0 0.1028320207599793 0.25985538031335248 0 0.097208854645582696 0.26674380090640232 0 0.088669334409182038 0.27365465257629329 0 0.097208854645582696 0.26674380090640232 0 0.096617072050330918 0.27420358010706619 0 0.097208854645582696 0.26674380090640232 0 0.096617072050330918 0.27420358010706619 0 0.1048644735931679 0.26655228778042589 0 0.1141818460752707 0.27714397317686529 0 0.096617072050330918 0.27420358010706619 0 0.1048644735931679 0.26655228778042589 0 0.1012207646153751 0.28627192450051492 0 0.1141818460752707 0.27714397317686529 0 0.096617072050330918 0.27420358010706619 0 0.090629520296699906 0.27989165378522829 0 0.1012207646153751 0.28627192450051492 0 0.096617072050330918 0.27420358010706619 0 0.1384713120865835 0.25773302092121009 0 0.12904244187545569 0.2809521204978378 0 0.15915390062653459 0.27760612704708998 0 0.1514273965657848 0.24085309905483679 0 0.1384713120865835 0.25773302092121009 0 0.156278998070083 0.25778272565978 0 0.1384713120865835 0.25773302092121009 0 0.15915390062653459 0.27760612704708998 0 0.156278998070083 0.25778272565978 0 0.1250676346401875 0.24796443701554319 0 0.11615378911320511 0.26032519799560372 0 0.1384713120865835 0.25773302092121009 0 0.11615378911320511 0.26032519799560372 0 0.1384713120865835 0.25773302092121009 0 0.12904244187545569 0.2809521204978378 0 0.11954567143249289 0.30734763112478491 0 0.12904244187545569 0.2809521204978378 0 0.14488164426314301 0.29594920495010729 0 0.11954567143249289 0.30734763112478491 0 0.14488164426314301 0.29594920495010729 0 0.15139514334923471 0.31791608062108467 0 0.14488164426314301 0.29594920495010729 0 0.16637322996135739 0.30016678813796199 0 0.15139514334923471 0.31791608062108467 0 0.12904244187545569 0.2809521204978378 0 0.14488164426314301 0.29594920495010729 0 0.15915390062653459 0.27760612704708998 0 0.14488164426314301 0.29594920495010729 0 0.16637322996135739 0.30016678813796199 0 0.15915390062653459 0.27760612704708998 0 0.16637322996135739 0.30016678813796199 0 0.18265278236186541 0.28020603593405619 0 0.15915390062653459 0.27760612704708998 0 0.16637322996135739 0.30016678813796199 0 0.18588027836364171 0.30417070427619303 0 0.17427563080372541 0.32515257599924119 0 0.16637322996135739 0.30016678813796199 0 0.18588027836364171 0.30417070427619303 0 0.18265278236186541 0.28020603593405619 0 0.18265278236186541 0.28020603593405619 0 0.15915390062653459 0.27760612704708998 0 0.17660728565697029 0.25284173787090108 0 0.18265278236186541 0.28020603593405619 0 0.17660728565697029 0.25284173787090108 0 0.20178717474815569 0.26483037668696541 0 0.1514273965657848 0.24085309905483679 0 0.156278998070083 0.25778272565978 0 0.17660728565697029 0.25284173787090108 0 0.15915390062653459 0.27760612704708998 0 0.156278998070083 0.25778272565978 0 0.17660728565697029 0.25284173787090108 0 0.1971008006350988 0.24422433182354611 0 0.17660728565697029 0.25284173787090108 0 0.20178717474815569 0.26483037668696541 0 0.17660728565697029 0.25284173787090108 0 0.20178717474815569 0.26483037668696541 0 0.18265278236186541 0.28020603593405619 0 0.20178717474815569 0.26483037668696541 0 0.20721699074389299 0.28586320426344869 0 0.20178717474815569 0.26483037668696541 0 0.22696706383934109 0.27681901550302962 0 0.20721699074389299 0.28586320426344869 0 0.20178717474815569 0.26483037668696541 0 0.22696706383934109 0.27681901550302962 0 0.1971008006350988 0.24422433182354611 0 0.20178717474815569 0.26483037668696541 0 0.2257125065402284 0.25431107802280528 0 0.20178717474815569 0.26483037668696541 0 0.2257125065402284 0.25431107802280528 0 0.22696706383934109 0.27681901550302962 0 0.2257125065402284 0.25431107802280528 0 0.23435940432808119 0.2558835225658645 0 0.2376751292839718 0.27741240132337408 0 0.2257125065402284 0.25431107802280528 0 0.22696706383934109 0.27681901550302962 0 0.2376751292839718 0.27741240132337408 0 0.2257125065402284 0.25431107802280528 0 0.2376751292839718 0.27741240132337408 0 0.22696706383934109 0.27681901550302962 0 0.2376751292839718 0.27741240132337408 0 0.2318681827461313 0.28775992326468519 0 0.23435940432808119 0.2558835225658645 0 0.2434397278092077 0.27846069768541332 0 0.2376751292839718 0.27741240132337408 0 0.23435940432808119 0.2558835225658645 0 0.2434397278092077 0.27846069768541332 0 0.23435940432808119 0.2558835225658645 0 0.2434397278092077 0.27846069768541332 0 0.24763005152173001 0.25910176257370959 0 0.2459873280094696 0.23707215699401071 0 0.23435940432808119 0.2558835225658645 0 0.24763005152173001 0.25910176257370959 0 0.24963775202771521 0.30051372462394288 0 0.22557231514573739 0.29747977878921561 0 0.2305146992996441 0.31691702429977642 0 0.2376751292839718 0.27741240132337408 0 0.24963775202771521 0.30051372462394288 0 0.2318681827461313 0.28775992326468519 0 0.2434397278092077 0.27846069768541332 0 0.25252005129033422 0.30103787280496203 0 0.2434397278092077 0.27846069768541332 0 0.2376751292839718 0.27741240132337408 0 0.24963775202771521 0.30051372462394288 0 0.2434397278092077 0.27846069768541332 0 0.24963775202771521 0.30051372462394288 0 0.25252005129033422 0.30103787280496203 0 0.24963775202771521 0.30051372462394288 0 0.2318681827461313 0.28775992326468519 0 0.22557231514573739 0.29747977878921561 0 0.2376751292839718 0.27741240132337408 0 0.24963775202771521 0.30051372462394288 0 0.22696706383934109 0.27681901550302962 0 0.2318681827461313 0.28775992326468519 0 0.22192971392309441 0.28686454206331458 0 0.2318681827461313 0.28775992326468519 0 0.22192971392309441 0.28686454206331458 0 0.22557231514573739 0.29747977878921561 0 0.22557231514573739 0.29747977878921561 0 0.21067009246602381 0.31050760251916348 0 0.2305146992996441 0.31691702429977642 0 0.22557231514573739 0.29747977878921561 0 0.2305146992996441 0.31691702429977642 0 0.22557231514573739 0.29747977878921561 0 0.21067009246602381 0.31050760251916348 0 0.20721699074389299 0.28586320426344869 0 0.22192971392309441 0.28686454206331458 0 0.22557231514573739 0.29747977878921561 0 0.20721699074389299 0.28586320426344869 0 0.22696706383934109 0.27681901550302962 0 0.22192971392309441 0.28686454206331458 0 0.20721699074389299 0.28586320426344869 0 0.18588027836364171 0.30417070427619303 0 0.18265278236186541 0.28020603593405619 0 0.20721699074389299 0.28586320426344869 0 0.18588027836364171 0.30417070427619303 0 0.21067009246602381 0.31050760251916348 0 0.20721699074389299 0.28586320426344869 0 0.18588027836364171 0.30417070427619303 0 0.21067009246602381 0.31050760251916348 0 0.1975742485098208 0.32622361772240582 0 0.1975742485098208 0.32622361772240582 0 0.2097525667536678 0.34137856367538538 0 0.18404805005378369 0.34640285754043382 0 0.1975742485098208 0.32622361772240582 0 0.2097525667536678 0.34137856367538538 0 0.2167937380965417 0.3262762156054137 0 0.21067009246602381 0.31050760251916348 0 0.1975742485098208 0.32622361772240582 0 0.2167937380965417 0.3262762156054137 0 0.21067009246602381 0.31050760251916348 0 0.2167937380965417 0.3262762156054137 0 0.2305146992996441 0.31691702429977642 0 0.2305146992996441 0.31691702429977642 0 0.2354570834535519 0.33635426981033711 0 0.2167937380965417 0.3262762156054137 0 0.2305146992996441 0.31691702429977642 0 0.2354570834535519 0.33635426981033711 0 0.2097525667536678 0.34137856367538538 0 0.2167937380965417 0.3262762156054137 0 0.2354570834535519 0.33635426981033711 0 0.2097525667536678 0.34137856367538538 0 0.2354570834535519 0.33635426981033711 0 0.2097525667536678 0.34137856367538538 0 0.2354570834535519 0.33635426981033711 0 0.22572342153310379 0.35183723080414581 0 0.2354570834535519 0.33635426981033711 0 0.24833100513142109 0.32161764704062729 0 0.26518788721623437 0.33054298393043219 0 0.24963775202771521 0.30051372462394288 0 0.2305146992996441 0.31691702429977642 0 0.24833100513142109 0.32161764704062729 0 0.2305146992996441 0.31691702429977642 0 0.2354570834535519 0.33635426981033711 0 0.24833100513142109 0.32161764704062729 0 0.2354570834535519 0.33635426981033711 0 0.24217950803475169 0.36279199964721098 0 0.25397109136889212 0.34953950795812871 0 0.2354570834535519 0.33635426981033711 0 0.24217950803475169 0.36279199964721098 0 0.22572342153310379 0.35183723080414581 0 0.2354570834535519 0.33635426981033711 0 0.24217950803475169 0.36279199964721098 0 0.24217950803475169 0.36279199964721098 0 0.22572342153310379 0.35183723080414581 0 0.21637712922286109 0.36651385017664678 0 0.24217950803475169 0.36279199964721098 0 0.21637712922286109 0.36651385017664678 0 0.22693728272114971 0.38251641872149622 0 0.2097525667536678 0.34137856367538538 0 0.22572342153310379 0.35183723080414581 0 0.21637712922286109 0.36651385017664678 0 0.2097525667536678 0.34137856367538538 0 0.21637712922286109 0.36651385017664678 0 0.19198276408895759 0.36846918068195189 0 0.2097525667536678 0.34137856367538538 0 0.19198276408895759 0.36846918068195189 0 0.18404805005378369 0.34640285754043382 0 0.2097525667536678 0.34137856367538538 0 0.18404805005378369 0.34640285754043382 0 0.21637712922286109 0.36651385017664678 0 0.19198276408895759 0.36846918068195189 0 0.2008438189570996 0.38963870543367402 0 0.1583435333538997 0.35142715140548209 0 0.18404805005378369 0.34640285754043382 0 0.17157629822801171 0.38002160271682978 0 0.19198276408895759 0.36846918068195189 0 0.18404805005378369 0.34640285754043382 0 0.17157629822801171 0.38002160271682978 0 0.1583435333538997 0.35142715140548209 0 0.14756927440754089 0.37573381366887992 0 0.17157629822801171 0.38002160271682978 0 0.1583435333538997 0.35142715140548209 0 0.18404805005378369 0.34640285754043382 0 0.1583435333538997 0.35142715140548209 0 0.17427563080372541 0.32515257599924119 0 0.15139514334923471 0.31791608062108467 0 0.1975742485098208 0.32622361772240582 0 0.18404805005378369 0.34640285754043382 0 0.17427563080372541 0.32515257599924119 0 0.1583435333538997 0.35142715140548209 0 0.18404805005378369 0.34640285754043382 0 0.17427563080372541 0.32515257599924119 0 0.18588027836364171 0.30417070427619303 0 0.1975742485098208 0.32622361772240582 0 0.17427563080372541 0.32515257599924119 0 0.16637322996135739 0.30016678813796199 0 0.17427563080372541 0.32515257599924119 0 0.15139514334923471 0.31791608062108467 0 0.1583435333538997 0.35142715140548209 0 0.15139514334923471 0.31791608062108467 0 0.13264273129131951 0.33439404788472138 0 0.11954567143249289 0.30734763112478491 0 0.15139514334923471 0.31791608062108467 0 0.13264273129131951 0.33439404788472138 0 0.1165634558871128 0.3492406052842485 0 0.13264273129131951 0.33439404788472138 0 0.1326390166540157 0.35645144527053041 0 0.1326390166540157 0.35645144527053041 0 0.14756927440754089 0.37573381366887992 0 0.12550685613774351 0.37951055496914998 0 0.1583435333538997 0.35142715140548209 0 0.1326390166540157 0.35645144527053041 0 0.14756927440754089 0.37573381366887992 0 0.1583435333538997 0.35142715140548209 0 0.1326390166540157 0.35645144527053041 0 0.1583435333538997 0.35142715140548209 0 0.13264273129131951 0.33439404788472138 0 0.1326390166540157 0.35645144527053041 0 0.1528019220027558 0.40532518960412911 0 0.14756927440754089 0.37573381366887992 0 0.13567422075440499 0.38715007620423969 0 0.14756927440754089 0.37573381366887992 0 0.12550685613774351 0.37951055496914998 0 0.13567422075440499 0.38715007620423969 0 0.1236499924648251 0.3984302041169589 0 0.12550685613774351 0.37951055496914998 0 0.13567422075440499 0.38715007620423969 0 0.1236499924648251 0.3984302041169589 0 0.1528019220027558 0.40532518960412911 0 0.13567422075440499 0.38715007620423969 0 0.1528019220027558 0.40532518960412911 0 0.13502200614688589 0.42010390008240672 0 0.17098438647877001 0.42850314348833868 0 0.13502200614688589 0.42010390008240672 0 0.17098438647877001 0.42850314348833868 0 0.1532788809183856 0.44756588495706878 0 0.1236499924648251 0.3984302041169589 0 0.1528019220027558 0.40532518960412911 0 0.13502200614688589 0.42010390008240672 0 0.1237280261196836 0.44463014715047522 0 0.13502200614688589 0.42010390008240672 0 0.1532788809183856 0.44756588495706878 0 0.1528019220027558 0.40532518960412911 0 0.17098438647877001 0.42850314348833868 0 0.1528019220027558 0.40532518960412911 0 0.17098438647877001 0.42850314348833868 0 0.17902253221663289 0.40492788695933207 0 0.17098438647877001 0.42850314348833868 0 0.19890623541652749 0.42115079355368912 0 0.18916685095478419 0.4516810973725483 0 0.17098438647877001 0.42850314348833868 0 0.17902253221663289 0.40492788695933207 0 0.19890623541652749 0.42115079355368912 0 0.17902253221663289 0.40492788695933207 0 0.17157629822801171 0.38002160271682978 0 0.2008438189570996 0.38963870543367402 0 0.1528019220027558 0.40532518960412911 0 0.17902253221663289 0.40492788695933207 0 0.17157629822801171 0.38002160271682978 0 0.1528019220027558 0.40532518960412911 0 0.14756927440754089 0.37573381366887992 0 0.17157629822801171 0.38002160271682978 0 0.17902253221663289 0.40492788695933207 0 0.2008438189570996 0.38963870543367402 0 0.19890623541652749 0.42115079355368912 0 0.19198276408895759 0.36846918068195189 0 0.17157629822801171 0.38002160271682978 0 0.2008438189570996 0.38963870543367402 0 0.2008438189570996 0.38963870543367402 0 0.22638402477508329 0.40440780886586492 0 0.19890623541652749 0.42115079355368912 0 0.2008438189570996 0.38963870543367402 0 0.22693728272114971 0.38251641872149622 0 0.22638402477508329 0.40440780886586492 0 0.21637712922286109 0.36651385017664678 0 0.2008438189570996 0.38963870543367402 0 0.22693728272114971 0.38251641872149622 0 0.22693728272114971 0.38251641872149622 0 0.22638402477508329 0.40440780886586492 0 0.24890193261595259 0.38922972948408457 0 0.22638402477508329 0.40440780886586492 0 0.24890193261595259 0.38922972948408457 0 0.25562435719715348 0.41566745932095828 0 0.24217950803475169 0.36279199964721098 0 0.24890193261595259 0.38922972948408457 0 0.24217950803475169 0.36279199964721098 0 0.22693728272114971 0.38251641872149622 0 0.24890193261595259 0.38922972948408457 0 0.22638402477508329 0.40440780886586492 0 0.23929670148200641 0.42651558303428039 0 0.25562435719715348 0.41566745932095828 0 0.22638402477508329 0.40440780886586492 0 0.23929670148200641 0.42651558303428039 0 0.21947817947708001 0.42577831055793047 0 0.23929670148200641 0.42651558303428039 0 0.21947817947708001 0.42577831055793047 0 0.23265016418236131 0.44461914726881641 0 0.21947817947708001 0.42577831055793047 0 0.19890623541652749 0.42115079355368912 0 0.21144352365240529 0.44700262568134053 0 0.22638402477508329 0.40440780886586492 0 0.21947817947708001 0.42577831055793047 0 0.19890623541652749 0.42115079355368912 0 0.19890623541652749 0.42115079355368912 0 0.18916685095478419 0.4516810973725483 0 0.21144352365240529 0.44700262568134053 0 0.18916685095478419 0.4516810973725483 0 0.20734931543079829 0.47485905125675792 0 0.18916685095478419 0.4516810973725483 0 0.21144352365240529 0.44700262568134053 0 0.20734931543079829 0.47485905125675792 0 0.21144352365240529 0.44700262568134053 0 0.22111039645288069 0.46392735407830132 0 0.20734931543079829 0.47485905125675792 0 0.21144352365240529 0.44700262568134053 0 0.23265016418236131 0.44461914726881641 0 0.22111039645288069 0.46392735407830132 0 0.21947817947708001 0.42577831055793047 0 0.21144352365240529 0.44700262568134053 0 0.23265016418236131 0.44461914726881641 0 0.23265016418236131 0.44461914726881641 0 0.22111039645288069 0.46392735407830132 0 0.24508980140621781 0.46623513653650361 0 0.22111039645288069 0.46392735407830132 0 0.24508980140621781 0.46623513653650361 0 0.23265016418236131 0.44461914726881641 0 0.24508980140621781 0.46623513653650361 0 0.26234678177835441 0.44210518915783192 0 0.23929670148200641 0.42651558303428039 0 0.23265016418236131 0.44461914726881641 0 0.26234678177835441 0.44210518915783192 0 0.2479606543192433 0.5 0 0.23772208332050199 0.48786840683281429 0 0.2255317799068125 0.49803700514096738 0 0.2479606543192433 0.5 0 0.23772208332050199 0.48786840683281429 0 0.25513941322049821 0.48355515434954122 0 0.24508980140621781 0.46623513653650361 0 0.23688712964706901 0.4763018139788181 0 0.25513941322049821 0.48355515434954122 0 0.23772208332050199 0.48786840683281429 0 0.23688712964706901 0.4763018139788181 0 0.25513941322049821 0.48355515434954122 0 0.22111039645288069 0.46392735407830132 0 0.23688712964706901 0.4763018139788181 0 0.22537395383524639 0.47992301809693011 0 0.22537395383524639 0.47992301809693011 0 0.2255317799068125 0.49803700514096738 0 0.20734931543079829 0.47485905125675792 0 0.23772208332050199 0.48786840683281429 0 0.23688712964706901 0.4763018139788181 0 0.22537395383524639 0.47992301809693011 0 0.22111039645288069 0.46392735407830132 0 0.24508980140621781 0.46623513653650361 0 0.23688712964706901 0.4763018139788181 0 0.23772208332050199 0.48786840683281429 0 0.22537395383524639 0.47992301809693011 0 0.2255317799068125 0.49803700514096738 0 0.2479606543192433 0.5 0 0.21885338771805021 0.5 0 0.2255317799068125 0.49803700514096738 0 0.21885338771805021 0.5 0 0.2255317799068125 0.49803700514096738 0 0.20734931543079829 0.47485905125675792 0 0.21885338771805021 0.5 0 0.20734931543079829 0.47485905125675792 0 0.1897461211168571 0.5 0 0.2255317799068125 0.49803700514096738 0 0.20734931543079829 0.47485905125675792 0 0.22111039645288069 0.46392735407830132 0 0.22537395383524639 0.47992301809693011 0 0.20734931543079829 0.47485905125675792 0 0.18916685095478419 0.4516810973725483 0 0.20734931543079829 0.47485905125675792 0 0.18375498264642379 0.4799820804674747 0 0.20734931543079829 0.47485905125675792 0 0.1897461211168571 0.5 0 0.18375498264642379 0.4799820804674747 0 0.1897461211168571 0.5 0 0.1606388545156639 0.5 0 0.18375498264642379 0.4799820804674747 0 0.1606388545156639 0.5 0 0.16284299929429041 0.47286735670979418 0 0.18375498264642379 0.4799820804674747 0 0.17098438647877001 0.42850314348833868 0 0.18916685095478419 0.4516810973725483 0 0.1532788809183856 0.44756588495706878 0 0.18916685095478419 0.4516810973725483 0 0.16284299929429041 0.47286735670979418 0 0.18375498264642379 0.4799820804674747 0 0.18916685095478419 0.4516810973725483 0 0.16284299929429041 0.47286735670979418 0 0.1532788809183856 0.44756588495706878 0 0.17098438647877001 0.42850314348833868 0 0.18916685095478419 0.4516810973725483 0 0.16284299929429041 0.47286735670979418 0 0.1532788809183856 0.44756588495706878 0 0.13792901651589951 0.46760966493884959 0 0.1160915578241386 0.4641835533930308 0 0.1237280261196836 0.44463014715047522 0 0.13792901651589951 0.46760966493884959 0 0.1237280261196836 0.44463014715047522 0 0.1532788809183856 0.44756588495706878 0 0.13792901651589951 0.46760966493884959 0 0.1146358595090817 0.48605788153156299 0 0.13792901651589951 0.46760966493884959 0 0.14375381424303349 0.48699105670781317 0 0.1146358595090817 0.48605788153156299 0 0.13153158791447089 0.50000000000000033 0 0.14375381424303349 0.48699105670781317 0 0.1606388545156639 0.5 0 0.13153158791447089 0.50000000000000033 0 0.14375381424303349 0.48699105670781317 0 0.1606388545156639 0.5 0 0.16284299929429041 0.47286735670979418 0 0.14375381424303349 0.48699105670781317 0 0.16284299929429041 0.47286735670979418 0 0.13792901651589951 0.46760966493884959 0 0.14375381424303349 0.48699105670781317 0 0.35818797179075601 0.47458138126870081 0 0.34642182508771258 0.48585203466637861 0 0.33573625410597768 0.47071191077640329 0 0.35818797179075601 0.47458138126870081 0 0.34642182508771258 0.48585203466637861 0 0.35839011049240282 0.5 0 0.34642182508771258 0.48585203466637861 0 0.35839011049240282 0.5 0 0.33128271396841408 0.5 0 0.35818797179075601 0.47458138126870081 0 0.35839011049240282 0.5 0 0.37951078222479251 0.47868038482078018 0 0.35839011049240282 0.5 0 0.37951078222479251 0.47868038482078018 0 0.38549750701639152 0.5 0 0.35818797179075601 0.47458138126870081 0 0.37565915938479377 0.45849116020829678 0 0.37951078222479251 0.47868038482078018 0 0.35818797179075601 0.47458138126870081 0 0.35384759317055892 0.4558722467826386 0 0.37565915938479377 0.45849116020829678 0 0.3672128213662551 0.44140310366938379 0 0.35384759317055892 0.4558722467826386 0 0.37565915938479377 0.45849116020829678 0 0.35041805056504127 0.44039830756831011 0 0.35384759317055892 0.4558722467826386 0 0.33587130181052999 0.44964761720473639 0 0.3672128213662551 0.44140310366938379 0 0.35041805056504127 0.44039830756831011 0 0.35384759317055892 0.4558722467826386 0 0.35818797179075601 0.47458138126870081 0 0.35384759317055892 0.4558722467826386 0 0.33573625410597768 0.47071191077640329 0 0.33587130181052999 0.44964761720473639 0 0.32245641590876828 0.45710047073305682 0 0.33573625410597768 0.47071191077640329 0 0.35384759317055892 0.4558722467826386 0 0.33587130181052999 0.44964761720473639 0 0.33573625410597768 0.47071191077640329 0 0.35041805056504127 0.44039830756831011 0 0.33587130181052999 0.44964761720473639 0 0.34011375395909899 0.42827966665244982 0 0.33587130181052999 0.44964761720473639 0 0.32313042491148092 0.43915640659962429 0 0.34011375395909899 0.42827966665244982 0 0.33587130181052999 0.44964761720473639 0 0.32313042491148092 0.43915640659962429 0 0.32245641590876828 0.45710047073305682 0 0.32313042491148092 0.43915640659962429 0 0.32245641590876828 0.45710047073305682 0 0.3069723578181176 0.44921026163567479 0 0.32313042491148092 0.43915640659962429 0 0.3069723578181176 0.44921026163567479 0 0.30967478190587899 0.43248339293908478 0 0.32245641590876828 0.45710047073305682 0 0.31479002533830769 0.47294309924184441 0 0.33573625410597768 0.47071191077640329 0 0.32245641590876828 0.45710047073305682 0 0.31479002533830769 0.47294309924184441 0 0.3069723578181176 0.44921026163567479 0 0.31479002533830769 0.47294309924184441 0 0.33573625410597768 0.47071191077640329 0 0.33128271396841408 0.5 0 0.34642182508771258 0.48585203466637861 0 0.33573625410597768 0.47071191077640329 0 0.33128271396841408 0.5 0 0.31479002533830769 0.47294309924184441 0 0.33128271396841408 0.5 0 0.30417531744442527 0.5 0 0.31479002533830769 0.47294309924184441 0 0.30417531744442527 0.5 0 0.29074220063683293 0.48758109823480927 0 0.31479002533830769 0.47294309924184441 0 0.29192961584893129 0.47074300911827521 0 0.29074220063683293 0.48758109823480927 0 0.31479002533830769 0.47294309924184441 0 0.29192961584893129 0.47074300911827521 0 0.29192961584893129 0.47074300911827521 0 0.29074220063683293 0.48758109823480927 0 0.27306856363999571 0.4842714594973539 0 0.30417531744442527 0.5 0 0.29074220063683293 0.48758109823480927 0 0.27706792092043642 0.500000000000002 0 0.27706792092043642 0.500000000000002 0 0.27306856363999571 0.4842714594973539 0 0.25513941322049821 0.48355515434954122 0 0.29074220063683293 0.48758109823480927 0 0.27706792092043642 0.500000000000002 0 0.27306856363999571 0.4842714594973539 0 0.27706792092043642 0.500000000000002 0 0.27306856363999571 0.4842714594973539 0 0.29192961584893129 0.47074300911827521 0 0.26906920635955489 0.46854291899470579 0 0.27306856363999571 0.4842714594973539 0 0.25513941322049821 0.48355515434954122 0 0.26906920635955489 0.46854291899470579 0 0.29192961584893129 0.47074300911827521 0 0.27306856363999571 0.4842714594973539 0 0.26906920635955489 0.46854291899470579 0 0.27306856363999571 0.4842714594973539 0 0.26906920635955489 0.46854291899470579 0 0.24508980140621781 0.46623513653650361 0 0.25513941322049821 0.48355515434954122 0 0.26906920635955489 0.46854291899470579 0 0.2479606543192433 0.5 0 0.27706792092043642 0.500000000000002 0 0.25513941322049821 0.48355515434954122 0 0.24508980140621781 0.46623513653650361 0 0.26906920635955489 0.46854291899470579 0 0.24508980140621781 0.46623513653650361 0 0.26234678177835441 0.44210518915783192 0 0.26906920635955489 0.46854291899470579 0 0.29192961584893129 0.47074300911827521 0 0.26906920635955489 0.46854291899470579 0 0.2825318911539082 0.44937975844880462 0 0.26234678177835441 0.44210518915783192 0 0.26906920635955489 0.46854291899470579 0 0.26234678177835441 0.44210518915783192 0 0.26906920635955489 0.46854291899470579 0 0.2825318911539082 0.44937975844880462 0 0.26234678177835441 0.44210518915783192 0 0.2825318911539082 0.44937975844880462 0 0.2735489225425754 0.42398780939214897 0 0.2825318911539082 0.44937975844880462 0 0.3069723578181176 0.44921026163567479 0 0.29424437368670248 0.43173942196487358 0 0.29192961584893129 0.47074300911827521 0 0.2825318911539082 0.44937975844880462 0 0.3069723578181176 0.44921026163567479 0 0.31479002533830769 0.47294309924184441 0 0.29192961584893129 0.47074300911827521 0 0.3069723578181176 0.44921026163567479 0 0.3069723578181176 0.44921026163567479 0 0.30967478190587899 0.43248339293908478 0 0.29424437368670248 0.43173942196487358 0 0.30967478190587899 0.43248339293908478 0 0.3045281829251868 0.41996349248923659 0 0.31949857018790712 0.42234738200601463 0 0.30967478190587899 0.43248339293908478 0 0.3045281829251868 0.41996349248923659 0 0.29424437368670248 0.43173942196487358 0 0.31221380766262308 0.41141105291454111 0 0.3045281829251868 0.41996349248923659 0 0.30175255758949709 0.40539483602959481 0 0.31221380766262308 0.41141105291454111 0 0.3045281829251868 0.41996349248923659 0 0.31949857018790712 0.42234738200601463 0 0.3045281829251868 0.41996349248923659 0 0.29116822628179151 0.41527777958226658 0 0.30175255758949709 0.40539483602959481 0 0.29116822628179151 0.41527777958226658 0 0.2735489225425754 0.42398780939214897 0 0.28009549588900451 0.40671294327225221 0 0.29116822628179151 0.41527777958226658 0 0.29046685710439091 0.40365495696152731 0 0.30175255758949709 0.40539483602959481 0 0.29116822628179151 0.41527777958226658 0 0.28009549588900451 0.40671294327225221 0 0.29046685710439091 0.40365495696152731 0 0.29116822628179151 0.41527777958226658 0 0.29424437368670248 0.43173942196487358 0 0.2735489225425754 0.42398780939214897 0 0.3045281829251868 0.41996349248923659 0 0.29116822628179151 0.41527777958226658 0 0.29424437368670248 0.43173942196487358 0 0.2825318911539082 0.44937975844880462 0 0.29424437368670248 0.43173942196487358 0 0.2735489225425754 0.42398780939214897 0 0.2735489225425754 0.42398780939214897 0 0.28009549588900451 0.40671294327225221 0 0.26594594197715632 0.40587542564026857 0 0.2735489225425754 0.42398780939214897 0 0.25562435719715348 0.41566745932095828 0 0.26594594197715632 0.40587542564026857 0 0.26234678177835441 0.44210518915783192 0 0.25562435719715348 0.41566745932095828 0 0.23929670148200641 0.42651558303428039 0 0.26234678177835441 0.44210518915783192 0 0.25562435719715348 0.41566745932095828 0 0.26234678177835441 0.44210518915783192 0 0.2735489225425754 0.42398780939214897 0 0.25562435719715348 0.41566745932095828 0 0.24890193261595259 0.38922972948408457 0 0.27155900164109531 0.39377918673189899 0 0.26817635423288699 0.37969346344739391 0 0.24890193261595259 0.38922972948408457 0 0.26817635423288699 0.37969346344739391 0 0.26082178769032438 0.36496323128775521 0 0.24890193261595259 0.38922972948408457 0 0.25562435719715348 0.41566745932095828 0 0.24890193261595259 0.38922972948408457 0 0.27155900164109531 0.39377918673189899 0 0.26594594197715632 0.40587542564026857 0 0.24890193261595259 0.38922972948408457 0 0.25562435719715348 0.41566745932095828 0 0.26594594197715632 0.40587542564026857 0 0.28009549588900451 0.40671294327225221 0 0.27155900164109531 0.39377918673189899 0 0.26594594197715632 0.40587542564026857 0 0.28009549588900451 0.40671294327225221 0 0.27155900164109531 0.39377918673189899 0 0.2841626669368148 0.39603484022980262 0 0.27155900164109531 0.39377918673189899 0 0.27917556467927279 0.38707504911542251 0 0.2841626669368148 0.39603484022980262 0 0.27917556467927279 0.38707504911542251 0 0.27737653217987568 0.3763299637903077 0 0.28641533258273322 0.38531457319514678 0 0.27155900164109531 0.39377918673189899 0 0.27917556467927279 0.38707504911542251 0 0.26817635423288699 0.37969346344739391 0 0.26817635423288699 0.37969346344739391 0 0.27737653217987568 0.3763299637903077 0 0.26995518240551242 0.36922466410125959 0 0.27917556467927279 0.38707504911542251 0 0.26817635423288699 0.37969346344739391 0 0.27737653217987568 0.3763299637903077 0 0.27917556467927279 0.38707504911542251 0 0.28749669470930389 0.39059918652862902 0 0.28641533258273322 0.38531457319514678 0 0.28749669470930389 0.39059918652862902 0 0.28641533258273322 0.38531457319514678 0 0.29321390271680048 0.38636149671614523 0 0.28641533258273322 0.38531457319514678 0 0.29321390271680048 0.38636149671614523 0 0.29155132770994241 0.38145409056705559 0 0.28749669470930389 0.39059918652862902 0 0.29321390271680048 0.38636149671614523 0 0.2951553388248469 0.39485438569372039 0 0.29321390271680048 0.38636149671614523 0 0.2951553388248469 0.39485438569372039 0 0.30172663999730548 0.38411556817588999 0 0.2951337916801352 0.37545299726164849 0 0.29155132770994241 0.38145409056705559 0 0.29028041611347422 0.37131190521640561 0 0.29650911823343812 0.38027524721939082 0 0.2951337916801352 0.37545299726164849 0 0.29155132770994241 0.38145409056705559 0 0.29321390271680048 0.38636149671614523 0 0.29650911823343812 0.38027524721939082 0 0.29155132770994241 0.38145409056705559 0 0.28009549588900451 0.40671294327225221 0 0.2841626669368148 0.39603484022980262 0 0.29046685710439091 0.40365495696152731 0 0.27917556467927279 0.38707504911542251 0 0.28749669470930389 0.39059918652862902 0 0.2841626669368148 0.39603484022980262 0 0.28749669470930389 0.39059918652862902 0 0.2841626669368148 0.39603484022980262 0 0.2951553388248469 0.39485438569372039 0 0.2841626669368148 0.39603484022980262 0 0.2951553388248469 0.39485438569372039 0 0.29046685710439091 0.40365495696152731 0 0.2951553388248469 0.39485438569372039 0 0.29046685710439091 0.40365495696152731 0 0.30175255758949709 0.40539483602959481 0 0.2951553388248469 0.39485438569372039 0 0.30416997859767031 0.39496190780794832 0 0.30172663999730548 0.38411556817588999 0 0.2951553388248469 0.39485438569372039 0 0.30175255758949709 0.40539483602959481 0 0.30416997859767031 0.39496190780794832 0 0.30416997859767031 0.39496190780794832 0 0.31194754139156228 0.39992908639018659 0 0.31058504665001713 0.38993607806902841 0 0.31221380766262308 0.41141105291454111 0 0.30175255758949709 0.40539483602959481 0 0.31194754139156228 0.39992908639018659 0 0.30175255758949709 0.40539483602959481 0 0.30416997859767031 0.39496190780794832 0 0.31194754139156228 0.39992908639018659 0 0.29650911823343812 0.38027524721939082 0 0.30172663999730548 0.38411556817588999 0 0.30091992906300691 0.3739920833762147 0 0.30172663999730548 0.38411556817588999 0 0.31077839752677883 0.37658419253607489 0 0.30091992906300691 0.3739920833762147 0 0.29650911823343812 0.38027524721939082 0 0.2951337916801352 0.37545299726164849 0 0.30091992906300691 0.3739920833762147 0 0.29321390271680048 0.38636149671614523 0 0.29650911823343812 0.38027524721939082 0 0.30172663999730548 0.38411556817588999 0 0.30416997859767031 0.39496190780794832 0 0.30172663999730548 0.38411556817588999 0 0.31058504665001713 0.38993607806902841 0 0.30172663999730548 0.38411556817588999 0 0.31058504665001713 0.38993607806902841 0 0.31077839752677883 0.37658419253607489 0 0.31077839752677883 0.37658419253607489 0 0.31867525833463911 0.38494833593070971 0 0.32306703930603953 0.37623237809600169 0 0.31058504665001713 0.38993607806902841 0 0.31867525833463911 0.38494833593070971 0 0.31878199461777879 0.39362573130725731 0 0.31058504665001713 0.38993607806902841 0 0.31077839752677883 0.37658419253607489 0 0.31867525833463911 0.38494833593070971 0 0.31867525833463911 0.38494833593070971 0 0.32306703930603953 0.37623237809600169 0 0.32934203852673438 0.38871677178939867 0 0.31867525833463911 0.38494833593070971 0 0.32934203852673438 0.38871677178939867 0 0.31878199461777879 0.39362573130725731 0 0.32306703930603953 0.37623237809600169 0 0.33555471090824662 0.37714848622012531 0 0.32934203852673438 0.38871677178939867 0 0.33555471090824662 0.37714848622012531 0 0.32934203852673438 0.38871677178939867 0 0.34865402358820241 0.38746960960344728 0 0.32934203852673438 0.38871677178939867 0 0.33838050486014071 0.40132571833470809 0 0.34865402358820241 0.38746960960344728 0 0.32934203852673438 0.38871677178939867 0 0.33838050486014071 0.40132571833470809 0 0.32336008818594092 0.40459838435696299 0 0.32934203852673438 0.38871677178939867 0 0.32336008818594092 0.40459838435696299 0 0.31878199461777879 0.39362573130725731 0 0.31194754139156228 0.39992908639018659 0 0.31058504665001713 0.38993607806902841 0 0.31878199461777879 0.39362573130725731 0 0.31221380766262308 0.41141105291454111 0 0.31194754139156228 0.39992908639018659 0 0.32336008818594092 0.40459838435696299 0 0.31194754139156228 0.39992908639018659 0 0.32336008818594092 0.40459838435696299 0 0.31878199461777879 0.39362573130725731 0 0.31221380766262308 0.41141105291454111 0 0.32336008818594092 0.40459838435696299 0 0.31949857018790712 0.42234738200601463 0 0.32336008818594092 0.40459838435696299 0 0.31949857018790712 0.42234738200601463 0 0.33335541567677851 0.41413927737501682 0 0.32313042491148092 0.43915640659962429 0 0.31949857018790712 0.42234738200601463 0 0.34011375395909899 0.42827966665244982 0 0.32313042491148092 0.43915640659962429 0 0.30967478190587899 0.43248339293908478 0 0.31949857018790712 0.42234738200601463 0 0.31949857018790712 0.42234738200601463 0 0.34011375395909899 0.42827966665244982 0 0.33335541567677851 0.41413927737501682 0 0.34011375395909899 0.42827966665244982 0 0.33335541567677851 0.41413927737501682 0 0.35251535500997389 0.4097633894025835 0 0.33838050486014071 0.40132571833470809 0 0.33335541567677851 0.41413927737501682 0 0.35251535500997389 0.4097633894025835 0 0.33838050486014071 0.40132571833470809 0 0.32336008818594092 0.40459838435696299 0 0.33335541567677851 0.41413927737501682 0 0.34011375395909899 0.42827966665244982 0 0.35251535500997389 0.4097633894025835 0 0.3591301267131588 0.42602683944016839 0 0.3672128213662551 0.44140310366938379 0 0.35041805056504127 0.44039830756831011 0 0.3591301267131588 0.42602683944016839 0 0.35041805056504127 0.44039830756831011 0 0.34011375395909899 0.42827966665244982 0 0.3591301267131588 0.42602683944016839 0 0.3672128213662551 0.44140310366938379 0 0.3591301267131588 0.42602683944016839 0 0.37786999239799629 0.42201923841731348 0 0.3591301267131588 0.42602683944016839 0 0.36674031876838431 0.41287021939491358 0 0.37786999239799629 0.42201923841731348 0 0.35251535500997389 0.4097633894025835 0 0.36674031876838431 0.41287021939491358 0 0.36672310374365391 0.3972274770167053 0 0.36674031876838431 0.41287021939491358 0 0.37714557779446961 0.40580011292323048 0 0.37786999239799629 0.42201923841731348 0 0.35251535500997389 0.4097633894025835 0 0.3591301267131588 0.42602683944016839 0 0.36674031876838431 0.41287021939491358 0 0.36674031876838431 0.41287021939491358 0 0.36672310374365391 0.3972274770167053 0 0.37714557779446961 0.40580011292323048 0 0.36672310374365391 0.3972274770167053 0 0.34865402358820241 0.38746960960344728 0 0.36927583114563117 0.37168826674887129 0 0.36672310374365391 0.3972274770167053 0 0.36927583114563117 0.37168826674887129 0 0.38594138320053972 0.39504117240748449 0 0.34865402358820241 0.38746960960344728 0 0.34769055634412588 0.36745966958429022 0 0.36927583114563117 0.37168826674887129 0 0.33555471090824662 0.37714848622012531 0 0.34865402358820241 0.38746960960344728 0 0.34769055634412588 0.36745966958429022 0 0.35251535500997389 0.4097633894025835 0 0.36672310374365391 0.3972274770167053 0 0.34865402358820241 0.38746960960344728 0 0.33838050486014071 0.40132571833470809 0 0.35251535500997389 0.4097633894025835 0 0.34865402358820241 0.38746960960344728 0 0.35261027909072251 0.34833536109025781 0 0.34769055634412588 0.36745966958429022 0 0.33944519881702218 0.35670643516570921 0 0.35261027909072251 0.34833536109025781 0 0.34769055634412588 0.36745966958429022 0 0.36927583114563117 0.37168826674887129 0 0.35261027909072251 0.34833536109025781 0 0.36927583114563117 0.37168826674887129 0 0.35261027909072251 0.34833536109025781 0 0.36927583114563117 0.37168826674887129 0 0.38014707859742553 0.358601566133181 0 0.35261027909072251 0.34833536109025781 0 0.37418757138316661 0.34003979241565702 0 0.38014707859742553 0.358601566133181 0 0.37418757138316661 0.34003979241565702 0 0.36114413796306788 0.32433110896381118 0 0.38634354889032002 0.32367976249598251 0 0.35261027909072251 0.34833536109025781 0 0.37418757138316661 0.34003979241565702 0 0.36114413796306788 0.32433110896381118 0 0.36114413796306788 0.32433110896381118 0 0.38634354889032002 0.32367976249598251 0 0.36114413796306788 0.32433110896381118 0 0.36246687595182442 0.30494518477727961 0 0.38634354889032002 0.32367976249598251 0 0.36114413796306788 0.32433110896381118 0 0.33594472703581602 0.32498245543164278 0 0.36114413796306788 0.32433110896381118 0 0.33594472703581602 0.32498245543164278 0 0.34448717235649018 0.30756264321984922 0 0.35261027909072251 0.34833536109025781 0 0.36114413796306788 0.32433110896381118 0 0.33594472703581602 0.32498245543164278 0 0.35261027909072251 0.34833536109025781 0 0.33594472703581602 0.32498245543164278 0 0.35261027909072251 0.34833536109025781 0 0.33361265820108371 0.33601463685995558 0 0.33594472703581602 0.32498245543164278 0 0.35261027909072251 0.34833536109025781 0 0.33361265820108371 0.33601463685995558 0 0.33117650937159632 0.34590223044488833 0 0.33361265820108371 0.33601463685995558 0 0.33594472703581602 0.32498245543164278 0 0.32592845192929348 0.32524135296818618 0 0.33361265820108371 0.33601463685995558 0 0.32240332357799001 0.33561178436480271 0 0.33117650937159632 0.34590223044488833 0 0.33594472703581602 0.32498245543164278 0 0.32420479997372442 0.30853167071016102 0 0.33594472703581602 0.32498245543164278 0 0.32592845192929348 0.32524135296818618 0 0.32420479997372442 0.30853167071016102 0 0.33594472703581602 0.32498245543164278 0 0.32420479997372442 0.30853167071016102 0 0.34448717235649018 0.30756264321984922 0 0.33594472703581602 0.32498245543164278 0 0.32592845192929348 0.32524135296818618 0 0.32592845192929348 0.32524135296818618 0 0.31778971146991503 0.31788997842391498 0 0.32420479997372442 0.30853167071016102 0 0.32592845192929348 0.32524135296818618 0 0.31591730865868939 0.32743152395768732 0 0.31778971146991503 0.31788997842391498 0 0.31591730865868939 0.32743152395768732 0 0.31778971146991503 0.31788997842391498 0 0.30920411140212778 0.3196886032463338 0 0.32240332357799001 0.33561178436480271 0 0.31863003654071292 0.34601962911411782 0 0.33117650937159632 0.34590223044488833 0 0.33361265820108371 0.33601463685995558 0 0.32592845192929348 0.32524135296818618 0 0.32240332357799001 0.33561178436480271 0 0.32592845192929348 0.32524135296818618 0 0.31591730865868939 0.32743152395768732 0 0.32240332357799001 0.33561178436480271 0 0.31591730865868939 0.32743152395768732 0 0.32240332357799001 0.33561178436480271 0 0.31164832743931292 0.33689503642828789 0 0.32240332357799001 0.33561178436480271 0 0.31863003654071292 0.34601962911411782 0 0.31164832743931292 0.33689503642828789 0 0.31863003654071292 0.34601962911411782 0 0.30992842843050988 0.3457112388019602 0 0.31164832743931292 0.33689503642828789 0 0.31863003654071292 0.34601962911411782 0 0.30992842843050988 0.3457112388019602 0 0.31160887743439081 0.35478490180041172 0 0.32445766980723489 0.35579424438156659 0 0.31686549990355672 0.36548826773678422 0 0.31160887743439081 0.35478490180041172 0 0.31863003654071292 0.34601962911411782 0 0.32445766980723489 0.35579424438156659 0 0.31160887743439081 0.35478490180041172 0 0.31863003654071292 0.34601962911411782 0 0.32445766980723489 0.35579424438156659 0 0.33117650937159632 0.34590223044488833 0 0.35261027909072251 0.34833536109025781 0 0.33117650937159632 0.34590223044488833 0 0.33944519881702218 0.35670643516570921 0 0.32445766980723489 0.35579424438156659 0 0.33117650937159632 0.34590223044488833 0 0.33944519881702218 0.35670643516570921 0 0.33555471090824662 0.37714848622012531 0 0.34769055634412588 0.36745966958429022 0 0.3290198967761308 0.36586400202748842 0 0.34769055634412588 0.36745966958429022 0 0.33944519881702218 0.35670643516570921 0 0.3290198967761308 0.36586400202748842 0 0.32445766980723489 0.35579424438156659 0 0.33944519881702218 0.35670643516570921 0 0.3290198967761308 0.36586400202748842 0 0.32306703930603953 0.37623237809600169 0 0.33555471090824662 0.37714848622012531 0 0.3290198967761308 0.36586400202748842 0 0.32306703930603953 0.37623237809600169 0 0.3290198967761308 0.36586400202748842 0 0.31686549990355672 0.36548826773678422 0 0.32445766980723489 0.35579424438156659 0 0.3290198967761308 0.36586400202748842 0 0.31686549990355672 0.36548826773678422 0 0.31077839752677883 0.37658419253607489 0 0.32306703930603953 0.37623237809600169 0 0.31686549990355672 0.36548826773678422 0 0.31077839752677883 0.37658419253607489 0 0.30653952356419251 0.36486132392814918 0 0.30091992906300691 0.3739920833762147 0 0.31077839752677883 0.37658419253607489 0 0.31686549990355672 0.36548826773678422 0 0.30653952356419251 0.36486132392814918 0 0.31686549990355672 0.36548826773678422 0 0.30653952356419251 0.36486132392814918 0 0.31160887743439081 0.35478490180041172 0 0.30653952356419251 0.36486132392814918 0 0.29956039950038399 0.36055845947794762 0 0.29968882481084308 0.36620473963642819 0 0.30653952356419251 0.36486132392814918 0 0.29956039950038399 0.36055845947794762 0 0.30450437459886343 0.35739179545954242 0 0.29956039950038399 0.36055845947794762 0 0.29968882481084308 0.36620473963642819 0 0.2946843591870788 0.36349444767638139 0 0.29968882481084308 0.36620473963642819 0 0.30091992906300691 0.3739920833762147 0 0.29515321138997108 0.36891281366618561 0 0.30653952356419251 0.36486132392814918 0 0.29968882481084308 0.36620473963642819 0 0.30091992906300691 0.3739920833762147 0 0.2951337916801352 0.37545299726164849 0 0.30091992906300691 0.3739920833762147 0 0.29515321138997108 0.36891281366618561 0 0.30992842843050988 0.3457112388019602 0 0.31160887743439081 0.35478490180041172 0 0.30300584901730271 0.34938636887413438 0 0.30992842843050988 0.3457112388019602 0 0.30300584901730271 0.34938636887413438 0 0.30284961949963451 0.34180688944884569 0 0.31160887743439081 0.35478490180041172 0 0.30450437459886343 0.35739179545954242 0 0.30300584901730271 0.34938636887413438 0 0.30653952356419251 0.36486132392814918 0 0.31160887743439081 0.35478490180041172 0 0.30450437459886343 0.35739179545954242 0 0.30450437459886343 0.35739179545954242 0 0.29772286606791931 0.35422336501427332 0 0.30300584901730271 0.34938636887413438 0 0.29956039950038399 0.36055845947794762 0 0.30450437459886343 0.35739179545954242 0 0.29772286606791931 0.35422336501427332 0 0.29772286606791931 0.35422336501427332 0 0.30300584901730271 0.34938636887413438 0 0.29508057650716829 0.34607515835053693 0 0.30300584901730271 0.34938636887413438 0 0.29508057650716829 0.34607515835053693 0 0.30284961949963451 0.34180688944884569 0 0.29508057650716829 0.34607515835053693 0 0.29128433478161492 0.3514692197730912 0 0.28696318970460172 0.34507386829548542 0 0.29772286606791931 0.35422336501427332 0 0.29508057650716829 0.34607515835053693 0 0.29128433478161492 0.3514692197730912 0 0.29128433478161492 0.3514692197730912 0 0.29260686737414288 0.35803349489433017 0 0.28831593146678952 0.35482697607295582 0 0.29772286606791931 0.35422336501427332 0 0.29128433478161492 0.3514692197730912 0 0.29260686737414288 0.35803349489433017 0 0.29956039950038399 0.36055845947794762 0 0.29772286606791931 0.35422336501427332 0 0.29260686737414288 0.35803349489433017 0 0.29260686737414288 0.35803349489433017 0 0.28714468874269172 0.35854684035017659 0 0.29097547274489571 0.36086700820637557 0 0.29260686737414288 0.35803349489433017 0 0.28714468874269172 0.35854684035017659 0 0.28831593146678952 0.35482697607295582 0 0.28714468874269172 0.35854684035017659 0 0.28946597567566928 0.3633932499046143 0 0.27836960746308909 0.35599853724874359 0 0.28714468874269172 0.35854684035017659 0 0.28392422607346179 0.35383006020545288 0 0.27836960746308909 0.35599853724874359 0 0.28714468874269172 0.35854684035017659 0 0.28392422607346179 0.35383006020545288 0 0.28831593146678952 0.35482697607295582 0 0.28392422607346179 0.35383006020545288 0 0.28273558166129192 0.34922596943765521 0 0.28101653893848899 0.35208327708388421 0 0.28392422607346179 0.35383006020545288 0 0.28831593146678952 0.35482697607295582 0 0.2863539578433606 0.35136140079780598 0 0.29128433478161492 0.3514692197730912 0 0.28831593146678952 0.35482697607295582 0 0.2863539578433606 0.35136140079780598 0 0.29128433478161492 0.3514692197730912 0 0.2863539578433606 0.35136140079780598 0 0.28696318970460172 0.34507386829548542 0 0.2863539578433606 0.35136140079780598 0 0.28273558166129192 0.34922596943765521 0 0.28696318970460172 0.34507386829548542 0 0.28392422607346179 0.35383006020545288 0 0.2863539578433606 0.35136140079780598 0 0.28273558166129192 0.34922596943765521 0 0.28696318970460172 0.34507386829548542 0 0.28013569367420871 0.34584772387197749 0 0.28119375649751349 0.3415044430455576 0 0.28273558166129192 0.34922596943765521 0 0.28696318970460172 0.34507386829548542 0 0.28013569367420871 0.34584772387197749 0 0.29155132770994241 0.38145409056705559 0 0.29028041611347422 0.37131190521640561 0 0.27836960746308909 0.35599853724874359 0 0.28641533258273322 0.38531457319514678 0 0.29155132770994241 0.38145409056705559 0 0.2754302243437341 0.35800137086985789 0 0.29155132770994241 0.38145409056705559 0 0.2754302243437341 0.35800137086985789 0 0.27836960746308909 0.35599853724874359 0 0.29155132770994241 0.38145409056705559 0 0.27836960746308909 0.35599853724874359 0 0.29028041611347422 0.37131190521640561 0 0.29515321138997108 0.36891281366618561 0 0.28946597567566928 0.3633932499046143 0 0.2951337916801352 0.37545299726164849 0 0.29028041611347422 0.37131190521640561 0 0.29515321138997108 0.36891281366618561 0 0.29968882481084308 0.36620473963642819 0 0.29515321138997108 0.36891281366618561 0 0.2946843591870788 0.36349444767638139 0 0.29515321138997108 0.36891281366618561 0 0.2946843591870788 0.36349444767638139 0 0.28946597567566928 0.3633932499046143 0 0.29956039950038399 0.36055845947794762 0 0.29260686737414288 0.35803349489433017 0 0.2946843591870788 0.36349444767638139 0 0.28714468874269172 0.35854684035017659 0 0.29097547274489571 0.36086700820637557 0 0.28946597567566928 0.3633932499046143 0 0.2946843591870788 0.36349444767638139 0 0.29097547274489571 0.36086700820637557 0 0.28946597567566928 0.3633932499046143 0 0.29260686737414288 0.35803349489433017 0 0.2946843591870788 0.36349444767638139 0 0.29097547274489571 0.36086700820637557 0 0.29028041611347422 0.37131190521640561 0 0.28946597567566928 0.3633932499046143 0 0.27836960746308909 0.35599853724874359 0 0.28641533258273322 0.38531457319514678 0 0.2754302243437341 0.35800137086985789 0 0.27737653217987568 0.3763299637903077 0 0.28641533258273322 0.38531457319514678 0 0.2754302243437341 0.35800137086985789 0 0.27737653217987568 0.3763299637903077 0 0.27292546410526491 0.36629585246079138 0 0.2754302243437341 0.35800137086985789 0 0.27737653217987568 0.3763299637903077 0 0.26995518240551242 0.36922466410125959 0 0.27292546410526491 0.36629585246079138 0 0.26817635423288699 0.37969346344739391 0 0.26995518240551242 0.36922466410125959 0 0.26082178769032438 0.36496323128775521 0 0.26995518240551242 0.36922466410125959 0 0.26893991749193752 0.36162741108174062 0 0.26082178769032438 0.36496323128775521 0 0.26893991749193752 0.36162741108174062 0 0.27292546410526491 0.36629585246079138 0 0.2754302243437341 0.35800137086985789 0 0.26995518240551242 0.36922466410125959 0 0.26893991749193752 0.36162741108174062 0 0.27292546410526491 0.36629585246079138 0 0.2754302243437341 0.35800137086985789 0 0.26518788721623437 0.33054298393043219 0 0.2754302243437341 0.35800137086985789 0 0.27836960746308909 0.35599853724874359 0 0.26518788721623437 0.33054298393043219 0 0.2754302243437341 0.35800137086985789 0 0.26469999689944002 0.35285812485780471 0 0.26518788721623437 0.33054298393043219 0 0.27836960746308909 0.35599853724874359 0 0.28101653893848899 0.35208327708388421 0 0.2797945401242129 0.34946851842389731 0 0.28392422607346179 0.35383006020545288 0 0.27836960746308909 0.35599853724874359 0 0.28101653893848899 0.35208327708388421 0 0.27836960746308909 0.35599853724874359 0 0.2797945401242129 0.34946851842389731 0 0.27671527888398562 0.3441870844772259 0 0.28013569367420871 0.34584772387197749 0 0.2797945401242129 0.34946851842389731 0 0.27671527888398562 0.3441870844772259 0 0.28013569367420871 0.34584772387197749 0 0.27671527888398562 0.3441870844772259 0 0.28119375649751349 0.3415044430455576 0 0.28273558166129192 0.34922596943765521 0 0.28013569367420871 0.34584772387197749 0 0.2797945401242129 0.34946851842389731 0 0.28273558166129192 0.34922596943765521 0 0.28101653893848899 0.35208327708388421 0 0.2797945401242129 0.34946851842389731 0 0.26893991749193752 0.36162741108174062 0 0.2754302243437341 0.35800137086985789 0 0.26469999689944002 0.35285812485780471 0 0.26469999689944002 0.35285812485780471 0 0.25397109136889212 0.34953950795812871 0 0.26518788721623437 0.33054298393043219 0 0.26469999689944002 0.35285812485780471 0 0.25397109136889212 0.34953950795812871 0 0.26082178769032438 0.36496323128775521 0 0.24217950803475169 0.36279199964721098 0 0.25397109136889212 0.34953950795812871 0 0.26082178769032438 0.36496323128775521 0 0.24217950803475169 0.36279199964721098 0 0.24890193261595259 0.38922972948408457 0 0.26082178769032438 0.36496323128775521 0 0.26893991749193752 0.36162741108174062 0 0.26469999689944002 0.35285812485780471 0 0.26082178769032438 0.36496323128775521 0 0.26160037477145948 0.32361504792451118 0 0.26961523156275707 0.31863310602586059 0 0.25252005129033422 0.30103787280496203 0 0.24833100513142109 0.32161764704062729 0 0.26160037477145948 0.32361504792451118 0 0.26518788721623437 0.33054298393043219 0 0.24963775202771521 0.30051372462394288 0 0.24833100513142109 0.32161764704062729 0 0.26160037477145948 0.32361504792451118 0 0.26160037477145948 0.32361504792451118 0 0.26518788721623437 0.33054298393043219 0 0.26731122343739822 0.32545953491366858 0 0.26160037477145948 0.32361504792451118 0 0.26518788721623437 0.33054298393043219 0 0.2354570834535519 0.33635426981033711 0 0.26518788721623437 0.33054298393043219 0 0.2354570834535519 0.33635426981033711 0 0.25397109136889212 0.34953950795812871 0 0.26518788721623437 0.33054298393043219 0 0.27836960746308909 0.35599853724874359 0 0.27671527888398562 0.3441870844772259 0 0.26518788721623437 0.33054298393043219 0 0.26518788721623437 0.33054298393043219 0 0.2728414001991406 0.32904700177387047 0 0.26518788721623437 0.33054298393043219 0 0.2728414001991406 0.32904700177387047 0 0.26731122343739822 0.32545953491366858 0 0.27836960746308909 0.35599853724874359 0 0.26518788721623437 0.33054298393043219 0 0.26518788721623437 0.33054298393043219 0 0.2728414001991406 0.32904700177387047 0 0.27786043041236869 0.33471626715991409 0 0.27671527888398562 0.3441870844772259 0 0.26518788721623437 0.33054298393043219 0 0.27786043041236869 0.33471626715991409 0 0.27671527888398562 0.3441870844772259 0 0.28119375649751349 0.3415044430455576 0 0.27786043041236869 0.33471626715991409 0 0.2728414001991406 0.32904700177387047 0 0.27786043041236869 0.33471626715991409 0 0.27936204924768121 0.32498307102898349 0 0.27786043041236869 0.33471626715991409 0 0.27936204924768121 0.32498307102898349 0 0.28525590824973168 0.33019860290154568 0 0.2728414001991406 0.32904700177387047 0 0.27936204924768121 0.32498307102898349 0 0.26961523156275707 0.31863310602586059 0 0.2728414001991406 0.32904700177387047 0 0.26731122343739822 0.32545953491366858 0 0.26961523156275707 0.31863310602586059 0 0.26160037477145948 0.32361504792451118 0 0.26731122343739822 0.32545953491366858 0 0.26961523156275707 0.31863310602586059 0 0.27936204924768121 0.32498307102898349 0 0.26961523156275707 0.31863310602586059 0 0.28133089707177739 0.31565660162935461 0 0.26961523156275707 0.31863310602586059 0 0.28133089707177739 0.31565660162935461 0 0.27162220014601168 0.30819847959926649 0 0.28133089707177739 0.31565660162935461 0 0.28926842799031183 0.32164684668335553 0 0.29289622389348391 0.31173450207074938 0 0.27936204924768121 0.32498307102898349 0 0.28926842799031183 0.32164684668335553 0 0.28525590824973168 0.33019860290154568 0 0.27936204924768121 0.32498307102898349 0 0.28133089707177739 0.31565660162935461 0 0.28926842799031183 0.32164684668335553 0 0.28926842799031183 0.32164684668335553 0 0.29270679870612148 0.33133919612790758 0 0.29864702146159328 0.32643954785611667 0 0.28926842799031183 0.32164684668335553 0 0.28525590824973168 0.33019860290154568 0 0.29270679870612148 0.33133919612790758 0 0.28926842799031183 0.32164684668335553 0 0.30057412006284873 0.3182848580649148 0 0.29864702146159328 0.32643954785611667 0 0.28926842799031183 0.32164684668335553 0 0.30057412006284873 0.3182848580649148 0 0.29289622389348391 0.31173450207074938 0 0.28696318970460172 0.34507386829548542 0 0.28119375649751349 0.3415044430455576 0 0.28563489893157912 0.33697664508827291 0 0.28696318970460172 0.34507386829548542 0 0.28563489893157912 0.33697664508827291 0 0.29440715639490739 0.33866623850310912 0 0.28119375649751349 0.3415044430455576 0 0.27786043041236869 0.33471626715991409 0 0.28563489893157912 0.33697664508827291 0 0.28563489893157912 0.33697664508827291 0 0.28525590824973168 0.33019860290154568 0 0.29270679870612148 0.33133919612790758 0 0.27786043041236869 0.33471626715991409 0 0.28563489893157912 0.33697664508827291 0 0.28525590824973168 0.33019860290154568 0 0.29270679870612148 0.33133919612790758 0 0.29440715639490739 0.33866623850310912 0 0.30302737920860612 0.33410729573504611 0 0.28563489893157912 0.33697664508827291 0 0.29270679870612148 0.33133919612790758 0 0.29440715639490739 0.33866623850310912 0 0.29508057650716829 0.34607515835053693 0 0.28696318970460172 0.34507386829548542 0 0.29440715639490739 0.33866623850310912 0 0.29508057650716829 0.34607515835053693 0 0.29440715639490739 0.33866623850310912 0 0.30284961949963451 0.34180688944884569 0 0.29440715639490739 0.33866623850310912 0 0.30284961949963451 0.34180688944884569 0 0.30302737920860612 0.33410729573504611 0 0.29270679870612148 0.33133919612790758 0 0.30302737920860612 0.33410729573504611 0 0.29864702146159328 0.32643954785611667 0 0.30302737920860612 0.33410729573504611 0 0.29864702146159328 0.32643954785611667 0 0.30648676239126638 0.32698903389663531 0 0.30302737920860612 0.33410729573504611 0 0.31164832743931292 0.33689503642828789 0 0.30648676239126638 0.32698903389663531 0 0.31591730865868939 0.32743152395768732 0 0.31164832743931292 0.33689503642828789 0 0.30648676239126638 0.32698903389663531 0 0.30284961949963451 0.34180688944884569 0 0.30302737920860612 0.33410729573504611 0 0.31164832743931292 0.33689503642828789 0 0.30992842843050988 0.3457112388019602 0 0.30284961949963451 0.34180688944884569 0 0.31164832743931292 0.33689503642828789 0 0.30057412006284873 0.3182848580649148 0 0.3075048900192453 0.30846754722968978 0 0.29289622389348391 0.31173450207074938 0 0.30057412006284873 0.3182848580649148 0 0.29864702146159328 0.32643954785611667 0 0.30648676239126638 0.32698903389663531 0 0.30057412006284873 0.3182848580649148 0 0.30648676239126638 0.32698903389663531 0 0.30920411140212778 0.3196886032463338 0 0.31591730865868939 0.32743152395768732 0 0.30648676239126638 0.32698903389663531 0 0.30920411140212778 0.3196886032463338 0 0.30057412006284873 0.3182848580649148 0 0.30920411140212778 0.3196886032463338 0 0.3075048900192453 0.30846754722968978 0 0.31778971146991503 0.31788997842391498 0 0.30920411140212778 0.3196886032463338 0 0.3075048900192453 0.30846754722968978 0 0.3075048900192453 0.30846754722968978 0 0.29694347339530303 0.29848366127231912 0 0.31246487291163488 0.29208088598867771 0 0.3075048900192453 0.30846754722968978 0 0.29694347339530303 0.29848366127231912 0 0.29289622389348391 0.31173450207074938 0 0.31246487291163488 0.29208088598867771 0 0.29888580149873889 0.28140566667868477 0 0.31966717048778492 0.28020807462702291 0 0.29694347339530303 0.29848366127231912 0 0.31246487291163488 0.29208088598867771 0 0.29888580149873889 0.28140566667868477 0 0.29694347339530303 0.29848366127231912 0 0.29888580149873889 0.28140566667868477 0 0.28532215262680061 0.29218967158653381 0 0.29888580149873889 0.28140566667868477 0 0.28532215262680061 0.29218967158653381 0 0.27597263544757811 0.27926985653850322 0 0.29694347339530303 0.29848366127231912 0 0.29289622389348391 0.31173450207074938 0 0.28421062956037713 0.3046253325656294 0 0.29694347339530303 0.29848366127231912 0 0.28532215262680061 0.29218967158653381 0 0.28421062956037713 0.3046253325656294 0 0.28133089707177739 0.31565660162935461 0 0.29289622389348391 0.31173450207074938 0 0.28421062956037713 0.3046253325656294 0 0.28133089707177739 0.31565660162935461 0 0.28421062956037713 0.3046253325656294 0 0.27162220014601168 0.30819847959926649 0 0.28421062956037713 0.3046253325656294 0 0.27162220014601168 0.30819847959926649 0 0.27073357959762612 0.29469717476731772 0 0.28532215262680061 0.29218967158653381 0 0.28421062956037713 0.3046253325656294 0 0.27073357959762612 0.29469717476731772 0 0.27073357959762612 0.29469717476731772 0 0.25964825064670849 0.2811944406245902 0 0.27597263544757811 0.27926985653850322 0 0.28532215262680061 0.29218967158653381 0 0.27073357959762612 0.29469717476731772 0 0.27597263544757811 0.27926985653850322 0 0.2434397278092077 0.27846069768541332 0 0.25252005129033422 0.30103787280496203 0 0.25964825064670849 0.2811944406245902 0 0.27073357959762612 0.29469717476731772 0 0.25252005129033422 0.30103787280496203 0 0.25964825064670849 0.2811944406245902 0 0.24963775202771521 0.30051372462394288 0 0.26160037477145948 0.32361504792451118 0 0.26160037477145948 0.32361504792451118 0 0.25252005129033422 0.30103787280496203 0 0.24963775202771521 0.30051372462394288 0 0.26160037477145948 0.32361504792451118 0 0.25252005129033422 0.30103787280496203 0 0.27162220014601168 0.30819847959926649 0 0.27073357959762612 0.29469717476731772 0 0.25252005129033422 0.30103787280496203 0 0.26961523156275707 0.31863310602586059 0 0.27162220014601168 0.30819847959926649 0 0.25252005129033422 0.30103787280496203 0 0.26005695654466249 0.26476207857526007 0 0.25877170878786238 0.25302463852503437 0 0.26784118605052742 0.25766384122118591 0 0.26005695654466249 0.26476207857526007 0 0.26877199542094288 0.271185286046489 0 0.26784118605052742 0.25766384122118591 0 0.24763005152173001 0.25910176257370959 0 0.26005695654466249 0.26476207857526007 0 0.25877170878786238 0.25302463852503437 0 0.26005695654466249 0.26476207857526007 0 0.25964825064670849 0.2811944406245902 0 0.26877199542094288 0.271185286046489 0 0.2434397278092077 0.27846069768541332 0 0.26005695654466249 0.26476207857526007 0 0.25964825064670849 0.2811944406245902 0 0.2434397278092077 0.27846069768541332 0 0.24763005152173001 0.25910176257370959 0 0.26005695654466249 0.26476207857526007 0 0.25964825064670849 0.2811944406245902 0 0.26877199542094288 0.271185286046489 0 0.27597263544757811 0.27926985653850322 0 0.26877199542094288 0.271185286046489 0 0.27597263544757811 0.27926985653850322 0 0.27647749418933931 0.26389562134405542 0 0.27597263544757811 0.27926985653850322 0 0.27647749418933931 0.26389562134405542 0 0.28921799240021828 0.26815650339571012 0 0.27647749418933931 0.26389562134405542 0 0.27542464597538868 0.25681776053554017 0 0.28272693040926428 0.25881526167589219 0 0.27647749418933931 0.26389562134405542 0 0.26784118605052742 0.25766384122118591 0 0.27542464597538868 0.25681776053554017 0 0.26877199542094288 0.271185286046489 0 0.27647749418933931 0.26389562134405542 0 0.26784118605052742 0.25766384122118591 0 0.26784118605052742 0.25766384122118591 0 0.27542464597538868 0.25681776053554017 0 0.27283394916361492 0.24742619336605559 0 0.25877170878786238 0.25302463852503437 0 0.26784118605052742 0.25766384122118591 0 0.27283394916361492 0.24742619336605559 0 0.27542464597538868 0.25681776053554017 0 0.28272693040926428 0.25881526167589219 0 0.27283394916361492 0.24742619336605559 0 0.28272693040926428 0.25881526167589219 0 0.29968057031776052 0.25778022973809978 0 0.27283394916361492 0.24742619336605559 0 0.28272693040926428 0.25881526167589219 0 0.28921799240021828 0.26815650339571012 0 0.29968057031776052 0.25778022973809978 0 0.29968057031776052 0.25778022973809978 0 0.27283394916361492 0.24742619336605559 0 0.29968057031776052 0.25778022973809978 0 0.27283394916361492 0.24742619336605559 0 0.3016365876598241 0.24719201463661561 0 0.27647749418933931 0.26389562134405542 0 0.28272693040926428 0.25881526167589219 0 0.28921799240021828 0.26815650339571012 0 0.28921799240021828 0.26815650339571012 0 0.29917140266547992 0.2696271248040239 0 0.29968057031776052 0.25778022973809978 0 0.29888580149873889 0.28140566667868477 0 0.27597263544757811 0.27926985653850322 0 0.28921799240021828 0.26815650339571012 0 0.29888580149873889 0.28140566667868477 0 0.28921799240021828 0.26815650339571012 0 0.29917140266547992 0.2696271248040239 0 0.30890124644520212 0.27116609940360098 0 0.29968057031776052 0.25778022973809978 0 0.32652719147190618 0.26813426611014402 0 0.29888580149873889 0.28140566667868477 0 0.30890124644520212 0.27116609940360098 0 0.31966717048778492 0.28020807462702291 0 0.29888580149873889 0.28140566667868477 0 0.29917140266547992 0.2696271248040239 0 0.30890124644520212 0.27116609940360098 0 0.29917140266547992 0.2696271248040239 0 0.30890124644520212 0.27116609940360098 0 0.29968057031776052 0.25778022973809978 0 0.29968057031776052 0.25778022973809978 0 0.31432639173362298 0.2563396134856944 0 0.3016365876598241 0.24719201463661561 0 0.29968057031776052 0.25778022973809978 0 0.32652719147190618 0.26813426611014402 0 0.29968057031776052 0.25778022973809978 0 0.31432639173362298 0.2563396134856944 0 0.32652719147190618 0.26813426611014402 0 0.31432639173362298 0.2563396134856944 0 0.32946121748500129 0.25225194345791829 0 0.3016365876598241 0.24719201463661561 0 0.31432639173362298 0.2563396134856944 0 0.32946121748500129 0.25225194345791829 0 0.32652719147190618 0.26813426611014402 0 0.32946121748500129 0.25225194345791829 0 0.35728584731017871 0.25731187227922109 0 0.32946121748500129 0.25225194345791829 0 0.33854302537622011 0.27351786473126699 0 0.35728584731017871 0.25731187227922109 0 0.32946121748500129 0.25225194345791829 0 0.33854302537622011 0.27351786473126699 0 0.32652719147190618 0.26813426611014402 0 0.33854302537622011 0.27351786473126699 0 0.32652719147190618 0.26813426611014402 0 0.31966717048778492 0.28020807462702291 0 0.30890124644520212 0.27116609940360098 0 0.32652719147190618 0.26813426611014402 0 0.31966717048778492 0.28020807462702291 0 0.31246487291163488 0.29208088598867771 0 0.31966717048778492 0.28020807462702291 0 0.33172871425663403 0.29269405324557379 0 0.31778971146991503 0.31788997842391498 0 0.3075048900192453 0.30846754722968978 0 0.32420479997372442 0.30853167071016102 0 0.31246487291163488 0.29208088598867771 0 0.32420479997372442 0.30853167071016102 0 0.31246487291163488 0.29208088598867771 0 0.32420479997372442 0.30853167071016102 0 0.33172871425663403 0.29269405324557379 0 0.3075048900192453 0.30846754722968978 0 0.31246487291163488 0.29208088598867771 0 0.32420479997372442 0.30853167071016102 0 0.32420479997372442 0.30853167071016102 0 0.33172871425663403 0.29269405324557379 0 0.34448717235649018 0.30756264321984922 0 0.33854302537622011 0.27351786473126699 0 0.31966717048778492 0.28020807462702291 0 0.33172871425663403 0.29269405324557379 0 0.33172871425663403 0.29269405324557379 0 0.3503635169770366 0.28966006865463678 0 0.34448717235649018 0.30756264321984922 0 0.33854302537622011 0.27351786473126699 0 0.33172871425663403 0.29269405324557379 0 0.3503635169770366 0.28966006865463678 0 0.3503635169770366 0.28966006865463678 0 0.34448717235649018 0.30756264321984922 0 0.36246687595182442 0.30494518477727961 0 0.36114413796306788 0.32433110896381118 0 0.34448717235649018 0.30756264321984922 0 0.36246687595182442 0.30494518477727961 0 0.36246687595182442 0.30494518477727961 0 0.37008896088821891 0.27907488192658342 0 0.38127772340545701 0.29855436992749679 0 0.3503635169770366 0.28966006865463678 0 0.36246687595182442 0.30494518477727961 0 0.37008896088821891 0.27907488192658342 0 0.37008896088821891 0.27907488192658342 0 0.35728584731017871 0.25731187227922109 0 0.35441181453934328 0.27463334472066592 0 0.37008896088821891 0.27907488192658342 0 0.35728584731017871 0.25731187227922109 0 0.38511047713535562 0.2623718011005241 0 0.35728584731017871 0.25731187227922109 0 0.38511047713535562 0.2623718011005241 0 0.37293454716760283 0.2396311516560117 0 0.35728584731017871 0.25731187227922109 0 0.38511047713535562 0.2623718011005241 0 0.33854302537622011 0.27351786473126699 0 0.3503635169770366 0.28966006865463678 0 0.35441181453934328 0.27463334472066592 0 0.33854302537622011 0.27351786473126699 0 0.35728584731017871 0.25731187227922109 0 0.35441181453934328 0.27463334472066592 0 0.3503635169770366 0.28966006865463678 0 0.37008896088821891 0.27907488192658342 0 0.35441181453934328 0.27463334472066592 0 0.4059739891301799 0.26616584566893298 0 0.38511047713535562 0.2623718011005241 0 0.39575362435311728 0.2822497143692822 0 0.4059739891301799 0.26616584566893298 0 0.39575362435311728 0.2822497143692822 0 0.41466985898722469 0.28617745239982811 0 0.4059739891301799 0.26616584566893298 0 0.38511047713535562 0.2623718011005241 0 0.39933451681408499 0.24222051247515669 0 0.4059739891301799 0.26616584566893298 0 0.38511047713535562 0.2623718011005241 0 0.38511047713535562 0.2623718011005241 0 0.37293454716760283 0.2396311516560117 0 0.37008896088821891 0.27907488192658342 0 0.38511047713535562 0.2623718011005241 0 0.39575362435311728 0.2822497143692822 0 0.38511047713535562 0.2623718011005241 0 0.39575362435311728 0.2822497143692822 0 0.37008896088821891 0.27907488192658342 0 0.38127772340545701 0.29855436992749679 0 0.39575362435311728 0.2822497143692822 0 0.38127772340545701 0.29855436992749679 0 0.39341545683502421 0.31015448597301559 0 0.38634354889032002 0.32367976249598251 0 0.38127772340545701 0.29855436992749679 0 0.38634354889032002 0.32367976249598251 0 0.36246687595182442 0.30494518477727961 0 0.38127772340545701 0.29855436992749679 0 0.38634354889032002 0.32367976249598251 0 0.38127772340545701 0.29855436992749679 0 0.39341545683502421 0.31015448597301559 0 0.40639677157087911 0.30212762763804019 0 0.39341545683502421 0.31015448597301559 0 0.40639677157087911 0.30212762763804019 0 0.4081981699382346 0.3139513768470385 0 0.39575362435311728 0.2822497143692822 0 0.40639677157087911 0.30212762763804019 0 0.38127772340545701 0.29855436992749679 0 0.39575362435311728 0.2822497143692822 0 0.40639677157087911 0.30212762763804019 0 0.39575362435311728 0.2822497143692822 0 0.41466985898722469 0.28617745239982811 0 0.40639677157087911 0.30212762763804019 0 0.41466985898722469 0.28617745239982811 0 0.40639677157087911 0.30212762763804019 0 0.42063747895650733 0.30228076741981708 0 0.40639677157087911 0.30212762763804019 0 0.417039918788641 0.32200554090679828 0 0.40639677157087911 0.30212762763804019 0 0.42063747895650733 0.30228076741981708 0 0.41590325438833858 0.31571238371771643 0 0.42063747895650733 0.30228076741981708 0 0.43554340190627211 0.31006971119553528 0 0.43241978878766019 0.29428086906555412 0 0.42063747895650733 0.30228076741981708 0 0.43554340190627211 0.31006971119553528 0 0.41590325438833858 0.31571238371771643 0 0.43241978878766019 0.29428086906555412 0 0.42683750112500368 0.26995989023734401 0 0.43795337608323548 0.28151673092589807 0 0.41466985898722469 0.28617745239982811 0 0.43241978878766019 0.29428086906555412 0 0.42683750112500368 0.26995989023734401 0 0.43241978878766019 0.29428086906555412 0 0.42683750112500368 0.26995989023734401 0 0.41466985898722469 0.28617745239982811 0 0.42063747895650733 0.30228076741981708 0 0.43241978878766019 0.29428086906555412 0 0.4059739891301799 0.26616584566893298 0 0.42683750112500368 0.26995989023734401 0 0.4059739891301799 0.26616584566893298 0 0.41466985898722469 0.28617745239982811 0 0.42683750112500368 0.26995989023734401 0 0.4059739891301799 0.26616584566893298 0 0.42683750112500368 0.26995989023734401 0 0.42092918023873821 0.24421844589255121 0 0.4059739891301799 0.26616584566893298 0 0.39933451681408499 0.24222051247515669 0 0.42092918023873821 0.24421844589255121 0 0.42683750112500368 0.26995989023734401 0 0.44089414042045799 0.25771217685885472 0 0.42092918023873821 0.24421844589255121 0 0.42683750112500368 0.26995989023734401 0 0.42092918023873821 0.24421844589255121 0 0.44089414042045799 0.25771217685885472 0 0.45301423403414209 0.26007999789895508 0 0.4569230610569987 0.24819013429900669 0 0.44089414042045799 0.25771217685885472 0 0.45301423403414209 0.26007999789895508 0 0.44973892600361531 0.27412453072026172 0 0.42683750112500368 0.26995989023734401 0 0.44089414042045799 0.25771217685885472 0 0.44973892600361531 0.27412453072026172 0 0.42683750112500368 0.26995989023734401 0 0.44973892600361531 0.27412453072026172 0 0.43795337608323548 0.28151673092589807 0 0.42683750112500368 0.26995989023734401 0 0.44973892600361531 0.27412453072026172 0 0.44973892600361531 0.27412453072026172 0 0.46478170596961249 0.26323965275109401 0 0.47264035088222628 0.27828917120318131 0 0.44973892600361531 0.27412453072026172 0 0.47264035088222628 0.27828917120318131 0 0.44973892600361531 0.27412453072026172 0 0.47264035088222628 0.27828917120318131 0 0.46226850420995219 0.28814127863090738 0 0.45301423403414209 0.26007999789895508 0 0.44973892600361531 0.27412453072026172 0 0.46478170596961249 0.26323965275109401 0 0.46478170596961249 0.26323965275109401 0 0.47264035088222628 0.27828917120318131 0 0.46478170596961249 0.26323965275109401 0 0.4569230610569987 0.24819013429900669 0 0.45301423403414209 0.26007999789895508 0 0.46478170596961249 0.26323965275109401 0 0.4569230610569987 0.24819013429900669 0 0.46478170596961249 0.26323965275109401 0 0.46750550623703407 0.25349570762290419 0 0.47341939214644252 0.26170481890296848 0 0.46478170596961249 0.26323965275109401 0 0.46750550623703407 0.25349570762290419 0 0.4569230610569987 0.24819013429900669 0 0.47341939214644252 0.26170481890296848 0 0.48489893488970792 0.25686202981026901 0 0.47278153852907701 0.24486280325581439 0 0.46750550623703407 0.25349570762290419 0 0.47341939214644252 0.26170481890296848 0 0.47278153852907701 0.24486280325581439 0 0.47341939214644252 0.26170481890296848 0 0.47278153852907701 0.24486280325581439 0 0.47341939214644252 0.26170481890296848 0 0.48000757765913032 0.26759533659828072 0 0.48489893488970792 0.25686202981026901 0 0.47341939214644252 0.26170481890296848 0 0.47405724576380859 0.27854683455012252 0 0.48000757765913032 0.26759533659828072 0 0.47341939214644252 0.26170481890296848 0 0.47264035088222628 0.27828917120318131 0 0.47405724576380859 0.27854683455012252 0 0.46478170596961249 0.26323965275109401 0 0.47341939214644252 0.26170481890296848 0 0.47264035088222628 0.27828917120318131 0 0.47405724576380859 0.27854683455012252 0 0.47415752390174082 0.28119459874267072 0 0.50000000000001354 0.28326454295050368 0 0.47341939214644252 0.26170481890296848 0 0.47405724576380859 0.27854683455012252 0 0.47264035088222628 0.27828917120318131 0 0.47405724576380859 0.27854683455012252 0 0.47405724576380859 0.27854683455012252 0 0.47415752390174082 0.28119459874267072 0 0.47264035088222628 0.27828917120318131 0 0.47405724576380859 0.27854683455012252 0 0.47415752390174082 0.28119459874267072 0 0.47264035088222628 0.27828917120318131 0 0.47415752390174082 0.28119459874267072 0 0.47405724576380859 0.27854683455012252 0 0.48000757765913032 0.26759533659828072 0 0.48909471086131839 0.26954423778064313 0 0.47405724576380859 0.27854683455012252 0 0.50000000000001354 0.28326454295050368 0 0.47405724576380859 0.27854683455012252 0 0.48909471086131839 0.26954423778064313 0 0.50000000000001354 0.28326454295050368 0 0.48909471086131839 0.26954423778064313 0 0.5 0.25553121794514477 0 0.50000000000001354 0.28326454295050368 0 0.5 0.25553121794514477 0 0.48489893488970792 0.25686202981026901 0 0.48903365503734891 0.24299047468837701 0 0.48909471086131839 0.26954423778064313 0 0.5 0.25553121794514477 0 0.48489893488970792 0.25686202981026901 0 0.48000757765913032 0.26759533659828072 0 0.48909471086131839 0.26954423778064313 0 0.48489893488970792 0.25686202981026901 0 0.48223131843763373 0.29665613456690521 0 0.49274985611107969 0.31679941989990179 0 0.48223131843763373 0.29665613456690521 0 0.49274985611107969 0.31679941989990179 0 0.48532411314893581 0.31403081790115361 0 0.49298554246438231 0.30475618362627349 0 0.48223131843763373 0.29665613456690521 0 0.49274985611107969 0.31679941989990179 0 0.49298554246438231 0.30475618362627349 0 0.4969609953088156 0.2924242547978898 0 0.5 0.31314492524039728 0 0.49298554246438231 0.30475618362627349 0 0.4969609953088156 0.2924242547978898 0 0.48223131843763373 0.29665613456690521 0 0.49298554246438231 0.30475618362627349 0 0.49274985611107969 0.31679941989990179 0 0.5 0.31314492524039728 0 0.4969609953088156 0.2924242547978898 0 0.50000000000001354 0.28326454295050368 0 0.5 0.31314492524039728 0 0.47415752390174082 0.28119459874267072 0 0.4969609953088156 0.2924242547978898 0 0.50000000000001354 0.28326454295050368 0 0.47415752390174082 0.28119459874267072 0 0.4969609953088156 0.2924242547978898 0 0.48223131843763373 0.29665613456690521 0 0.4969609953088156 0.2924242547978898 0 0.48223131843763373 0.29665613456690521 0 0.47415752390174082 0.28119459874267072 0 0.47482369694213911 0.29878436615117387 0 0.47415752390174082 0.28119459874267072 0 0.47482369694213911 0.29878436615117387 0 0.46226850420995219 0.28814127863090738 0 0.47415752390174082 0.28119459874267072 0 0.48223131843763373 0.29665613456690521 0 0.47482369694213911 0.29878436615117387 0 0.47415752390174082 0.28119459874267072 0 0.48223131843763373 0.29665613456690521 0 0.47264035088222628 0.27828917120318131 0 0.47415752390174082 0.28119459874267072 0 0.46226850420995219 0.28814127863090738 0 0.48223131843763373 0.29665613456690521 0 0.48022688714188239 0.30485617861310249 0 0.48532411314893581 0.31403081790115361 0 0.47482369694213911 0.29878436615117387 0 0.4785284200388214 0.30995339583317788 0 0.47567910166728178 0.32137064515506791 0 0.47482369694213911 0.29878436615117387 0 0.46683928615616721 0.31034493157342358 0 0.47567910166728178 0.32137064515506791 0 0.47482369694213911 0.29878436615117387 0 0.47567910166728178 0.32137064515506791 0 0.47482369694213911 0.29878436615117387 0 0.48022688714188239 0.30485617861310249 0 0.4785284200388214 0.30995339583317788 0 0.48223131843763373 0.29665613456690521 0 0.47482369694213911 0.29878436615117387 0 0.48022688714188239 0.30485617861310249 0 0.48223131843763373 0.29665613456690521 0 0.47482369694213911 0.29878436615117387 0 0.48022688714188239 0.30485617861310249 0 0.4785284200388214 0.30995339583317788 0 0.48532411314893581 0.31403081790115361 0 0.47482369694213911 0.29878436615117387 0 0.46683928615616721 0.31034493157342358 0 0.45518354942420552 0.3044270386733543 0 0.47482369694213911 0.29878436615117387 0 0.45518354942420552 0.3044270386733543 0 0.46683928615616721 0.31034493157342358 0 0.45518354942420552 0.3044270386733543 0 0.46090063033065398 0.31457074158430443 0 0.47482369694213911 0.29878436615117387 0 0.45518354942420552 0.3044270386733543 0 0.46226850420995219 0.28814127863090738 0 0.45518354942420552 0.3044270386733543 0 0.46226850420995219 0.28814127863090738 0 0.44650245416143669 0.29205179777212908 0 0.44973892600361531 0.27412453072026172 0 0.46226850420995219 0.28814127863090738 0 0.44650245416143669 0.29205179777212908 0 0.44973892600361531 0.27412453072026172 0 0.44650245416143669 0.29205179777212908 0 0.43795337608323548 0.28151673092589807 0 0.43241978878766019 0.29428086906555412 0 0.44650245416143669 0.29205179777212908 0 0.43795337608323548 0.28151673092589807 0 0.43554340190627211 0.31006971119553528 0 0.45518354942420552 0.3044270386733543 0 0.44650245416143669 0.29205179777212908 0 0.43554340190627211 0.31006971119553528 0 0.43241978878766019 0.29428086906555412 0 0.44650245416143669 0.29205179777212908 0 0.43554340190627211 0.31006971119553528 0 0.45518354942420552 0.3044270386733543 0 0.44590058407496119 0.32214035093537202 0 0.43554340190627211 0.31006971119553528 0 0.45518354942420552 0.3044270386733543 0 0.44438162939182968 0.33527616080122319 0 0.43941431748234389 0.34697694962204328 0 0.43138153093963261 0.33684778794266318 0 0.44438162939182968 0.33527616080122319 0 0.43138153093963261 0.33684778794266318 0 0.43736796180383269 0.33070162376080392 0 0.44590058407496119 0.32214035093537202 0 0.44438162939182968 0.33527616080122319 0 0.43736796180383269 0.33070162376080392 0 0.44590058407496119 0.32214035093537202 0 0.44438162939182968 0.33527616080122319 0 0.45938090137280319 0.33331169935871768 0 0.44438162939182968 0.33527616080122319 0 0.45466128638888681 0.34537342559846479 0 0.43941431748234389 0.34697694962204328 0 0.44438162939182968 0.33527616080122319 0 0.45938090137280319 0.33331169935871768 0 0.45466128638888681 0.34537342559846479 0 0.45938090137280319 0.33331169935871768 0 0.47648750655815691 0.34271593104932652 0 0.45466128638888681 0.34537342559846479 0 0.45518354942420552 0.3044270386733543 0 0.44590058407496119 0.32214035093537202 0 0.46090063033065398 0.31457074158430443 0 0.44590058407496119 0.32214035093537202 0 0.47567910166728178 0.32137064515506791 0 0.44590058407496119 0.32214035093537202 0 0.45938090137280319 0.33331169935871768 0 0.47567910166728178 0.32137064515506791 0 0.44590058407496119 0.32214035093537202 0 0.46090063033065398 0.31457074158430443 0 0.47567910166728178 0.32137064515506791 0 0.46683928615616721 0.31034493157342358 0 0.46090063033065398 0.31457074158430443 0 0.47567910166728178 0.32137064515506791 0 0.4785284200388214 0.30995339583317788 0 0.48037384835626529 0.31664076505113292 0 0.47567910166728178 0.32137064515506791 0 0.48037384835626529 0.31664076505113292 0 0.48196375857002199 0.32120820131513239 0 0.47567910166728178 0.32137064515506791 0 0.48037384835626529 0.31664076505113292 0 0.48196375857002199 0.32120820131513239 0 0.48532411314893581 0.31403081790115361 0 0.4785284200388214 0.30995339583317788 0 0.48037384835626529 0.31664076505113292 0 0.48532411314893581 0.31403081790115361 0 0.48196375857002199 0.32120820131513239 0 0.48271443300740718 0.32966898805558448 0 0.48700966075600671 0.32276244140519528 0 0.48196375857002199 0.32120820131513239 0 0.47567910166728178 0.32137064515506791 0 0.48271443300740718 0.32966898805558448 0 0.48196375857002199 0.32120820131513239 0 0.47567910166728178 0.32137064515506791 0 0.47567910166728178 0.32137064515506791 0 0.47648750655815691 0.34271593104932652 0 0.47567910166728178 0.32137064515506791 0 0.47648750655815691 0.34271593104932652 0 0.48271443300740718 0.32966898805558448 0 0.45938090137280319 0.33331169935871768 0 0.47567910166728178 0.32137064515506791 0 0.47648750655815691 0.34271593104932652 0 0.47648750655815691 0.34271593104932652 0 0.48271443300740718 0.32966898805558448 0 0.49227852706914571 0.3310448133387906 0 0.47648750655815691 0.34271593104932652 0 0.5 0.34302530753029081 0 0.49227852706914571 0.3310448133387906 0 0.5 0.34302530753029081 0 0.49227852706914571 0.3310448133387906 0 0.5 0.31314492524039728 0 0.49227852706914571 0.3310448133387906 0 0.49274985611107969 0.31679941989990179 0 0.5 0.31314492524039728 0 0.48196375857002199 0.32120820131513239 0 0.48532411314893581 0.31403081790115361 0 0.48700966075600671 0.32276244140519528 0 0.49274985611107969 0.31679941989990179 0 0.48532411314893581 0.31403081790115361 0 0.48700966075600671 0.32276244140519528 0 0.48271443300740718 0.32966898805558448 0 0.49227852706914571 0.3310448133387906 0 0.48700966075600671 0.32276244140519528 0 0.49227852706914571 0.3310448133387906 0 0.49274985611107969 0.31679941989990179 0 0.48700966075600671 0.32276244140519528 0 0.5 0.37290568982018429 0 0.48906820236105919 0.3579654986752378 0 0.48477613844387402 0.38021688004838439 0 0.47648750655815691 0.34271593104932652 0 0.5 0.34302530753029081 0 0.48906820236105919 0.3579654986752378 0 0.5 0.34302530753029081 0 0.5 0.37290568982018429 0 0.48906820236105919 0.3579654986752378 0 0.47648750655815691 0.34271593104932652 0 0.4736556537454587 0.3678330253399309 0 0.4628011452372443 0.35721885356897543 0 0.47648750655815691 0.34271593104932652 0 0.48906820236105919 0.3579654986752378 0 0.4736556537454587 0.3678330253399309 0 0.48906820236105919 0.3579654986752378 0 0.4736556537454587 0.3678330253399309 0 0.48477613844387402 0.38021688004838439 0 0.4736556537454587 0.3678330253399309 0 0.45151374504626951 0.36758660991241321 0 0.46980882541715813 0.38208294099771128 0 0.4736556537454587 0.3678330253399309 0 0.4628011452372443 0.35721885356897543 0 0.45151374504626951 0.36758660991241321 0 0.47648750655815691 0.34271593104932652 0 0.4628011452372443 0.35721885356897543 0 0.45466128638888681 0.34537342559846479 0 0.4628011452372443 0.35721885356897543 0 0.45466128638888681 0.34537342559846479 0 0.45151374504626951 0.36758660991241321 0 0.43941431748234389 0.34697694962204328 0 0.45151374504626951 0.36758660991241321 0 0.43248649325656402 0.35912170041613489 0 0.45466128638888681 0.34537342559846479 0 0.43941431748234389 0.34697694962204328 0 0.45151374504626951 0.36758660991241321 0 0.45151374504626951 0.36758660991241321 0 0.4343808670510142 0.37207818795490849 0 0.43248649325656402 0.35912170041613489 0 0.4343808670510142 0.37207818795490849 0 0.41565945607251759 0.36236511110304392 0 0.42235721568131929 0.38220686924127689 0 0.4343808670510142 0.37207818795490849 0 0.41565945607251759 0.36236511110304392 0 0.43248649325656402 0.35912170041613489 0 0.41565945607251759 0.36236511110304392 0 0.40683499004542412 0.37566900985645529 0 0.42235721568131929 0.38220686924127689 0 0.41565945607251759 0.36236511110304392 0 0.42423344021441339 0.3469403641650044 0 0.40881868850316022 0.34319093436892228 0 0.41565945607251759 0.36236511110304392 0 0.40881868850316022 0.34319093436892228 0 0.40255325820206211 0.35440744329028528 0 0.41565945607251759 0.36236511110304392 0 0.42423344021441339 0.3469403641650044 0 0.43248649325656402 0.35912170041613489 0 0.43941431748234389 0.34697694962204328 0 0.42423344021441339 0.3469403641650044 0 0.43248649325656402 0.35912170041613489 0 0.43941431748234389 0.34697694962204328 0 0.42423344021441339 0.3469403641650044 0 0.43138153093963261 0.33684778794266318 0 0.43138153093963261 0.33684778794266318 0 0.43736796180383269 0.33070162376080392 0 0.42780810280890752 0.32854219536395729 0 0.43138153093963261 0.33684778794266318 0 0.42780810280890752 0.32854219536395729 0 0.41974391964010321 0.33544292333485398 0 0.42780810280890752 0.32854219536395729 0 0.41816216709540432 0.32913892271221878 0 0.41974391964010321 0.33544292333485398 0 0.42423344021441339 0.3469403641650044 0 0.43138153093963261 0.33684778794266318 0 0.41974391964010321 0.33544292333485398 0 0.44590058407496119 0.32214035093537202 0 0.417039918788641 0.32200554090679828 0 0.43554340190627211 0.31006971119553528 0 0.42610184512817068 0.31856760869421968 0 0.41590325438833858 0.31571238371771643 0 0.44590058407496119 0.32214035093537202 0 0.42610184512817068 0.31856760869421968 0 0.417039918788641 0.32200554090679828 0 0.44590058407496119 0.32214035093537202 0 0.42780810280890752 0.32854219536395729 0 0.417039918788641 0.32200554090679828 0 0.44590058407496119 0.32214035093537202 0 0.43736796180383269 0.33070162376080392 0 0.42780810280890752 0.32854219536395729 0 0.43554340190627211 0.31006971119553528 0 0.41590325438833858 0.31571238371771643 0 0.43554340190627211 0.31006971119553528 0 0.44590058407496119 0.32214035093537202 0 0.42610184512817068 0.31856760869421968 0 0.40639677157087911 0.30212762763804019 0 0.417039918788641 0.32200554090679828 0 0.4081981699382346 0.3139513768470385 0 0.40639677157087911 0.30212762763804019 0 0.41590325438833858 0.31571238371771643 0 0.417039918788641 0.32200554090679828 0 0.42610184512817068 0.31856760869421968 0 0.41590325438833858 0.31571238371771643 0 0.417039918788641 0.32200554090679828 0 0.417039918788641 0.32200554090679828 0 0.41816216709540432 0.32913892271221878 0 0.41176425843116088 0.33156610519561941 0 0.42780810280890752 0.32854219536395729 0 0.417039918788641 0.32200554090679828 0 0.41816216709540432 0.32913892271221878 0 0.42423344021441339 0.3469403641650044 0 0.41974391964010321 0.33544292333485398 0 0.40881868850316022 0.34319093436892228 0 0.41816216709540432 0.32913892271221878 0 0.41974391964010321 0.33544292333485398 0 0.41176425843116088 0.33156610519561941 0 0.417039918788641 0.32200554090679828 0 0.41176425843116088 0.33156610519561941 0 0.40171431040203109 0.33103781916521291 0 0.41176425843116088 0.33156610519561941 0 0.40881868850316022 0.34319093436892228 0 0.40171431040203109 0.33103781916521291 0 0.41974391964010321 0.33544292333485398 0 0.41176425843116088 0.33156610519561941 0 0.40881868850316022 0.34319093436892228 0 0.40171431040203109 0.33103781916521291 0 0.38634354889032002 0.32367976249598251 0 0.39069281237429682 0.34525116339505252 0 0.40881868850316022 0.34319093436892228 0 0.40171431040203109 0.33103781916521291 0 0.39069281237429682 0.34525116339505252 0 0.417039918788641 0.32200554090679828 0 0.40171431040203109 0.33103781916521291 0 0.38634354889032002 0.32367976249598251 0 0.417039918788641 0.32200554090679828 0 0.4081981699382346 0.3139513768470385 0 0.38634354889032002 0.32367976249598251 0 0.39341545683502421 0.31015448597301559 0 0.4081981699382346 0.3139513768470385 0 0.38634354889032002 0.32367976249598251 0 0.417039918788641 0.32200554090679828 0 0.38634354889032002 0.32367976249598251 0 0.38634354889032002 0.32367976249598251 0 0.39069281237429682 0.34525116339505252 0 0.37418757138316661 0.34003979241565702 0 0.38634354889032002 0.32367976249598251 0 0.39069281237429682 0.34525116339505252 0 0.37418757138316661 0.34003979241565702 0 0.38014707859742553 0.358601566133181 0 0.39069281237429682 0.34525116339505252 0 0.38014707859742553 0.358601566133181 0 0.39504207585827378 0.36682256429412252 0 0.39069281237429682 0.34525116339505252 0 0.36927583114563117 0.37168826674887129 0 0.38014707859742553 0.358601566133181 0 0.3861818138235471 0.37714139125663793 0 0.38014707859742553 0.358601566133181 0 0.39504207585827378 0.36682256429412252 0 0.3861818138235471 0.37714139125663793 0 0.41565945607251759 0.36236511110304392 0 0.39504207585827378 0.36682256429412252 0 0.40683499004542412 0.37566900985645529 0 0.41565945607251759 0.36236511110304392 0 0.39504207585827378 0.36682256429412252 0 0.40255325820206211 0.35440744329028528 0 0.39504207585827378 0.36682256429412252 0 0.40255325820206211 0.35440744329028528 0 0.39069281237429682 0.34525116339505252 0 0.40881868850316022 0.34319093436892228 0 0.40255325820206211 0.35440744329028528 0 0.39069281237429682 0.34525116339505252 0 0.39504207585827378 0.36682256429412252 0 0.39069281237429682 0.34525116339505252 0 0.3993913393422508 0.38839396519319253 0 0.39020643165102042 0.40750290438779102 0 0.40342788129008578 0.41136751416027151 0 0.3993913393422508 0.38839396519319253 0 0.40342788129008578 0.41136751416027151 0 0.41247484703898341 0.39668929567888889 0 0.3993913393422508 0.38839396519319253 0 0.38594138320053972 0.39504117240748449 0 0.39020643165102042 0.40750290438779102 0 0.39504207585827378 0.36682256429412252 0 0.3993913393422508 0.38839396519319253 0 0.40683499004542412 0.37566900985645529 0 0.39504207585827378 0.36682256429412252 0 0.3993913393422508 0.38839396519319253 0 0.39504207585827378 0.36682256429412252 0 0.3993913393422508 0.38839396519319253 0 0.3861818138235471 0.37714139125663793 0 0.3993913393422508 0.38839396519319253 0 0.41247484703898341 0.39668929567888889 0 0.40683499004542412 0.37566900985645529 0 0.36927583114563117 0.37168826674887129 0 0.38594138320053972 0.39504117240748449 0 0.3993913393422508 0.38839396519319253 0 0.3861818138235471 0.37714139125663793 0 0.38594138320053972 0.39504117240748449 0 0.36927583114563117 0.37168826674887129 0 0.3861818138235471 0.37714139125663793 0 0.38594138320053972 0.39504117240748449 0 0.36672310374365391 0.3972274770167053 0 0.38594138320053972 0.39504117240748449 0 0.37714557779446961 0.40580011292323048 0 0.38594138320053972 0.39504117240748449 0 0.37714557779446961 0.40580011292323048 0 0.39020643165102042 0.40750290438779102 0 0.37714557779446961 0.40580011292323048 0 0.39020643165102042 0.40750290438779102 0 0.37786999239799629 0.42201923841731348 0 0.39020643165102042 0.40750290438779102 0 0.37786999239799629 0.42201923841731348 0 0.39620875860206523 0.42610388639599522 0 0.3672128213662551 0.44140310366938379 0 0.37786999239799629 0.42201923841731348 0 0.38861509636247821 0.44175005125570632 0 0.37786999239799629 0.42201923841731348 0 0.39620875860206523 0.42610388639599522 0 0.38861509636247821 0.44175005125570632 0 0.39620875860206523 0.42610388639599522 0 0.40342788129008578 0.41136751416027151 0 0.4165515890159211 0.43106581875832262 0 0.39020643165102042 0.40750290438779102 0 0.39620875860206523 0.42610388639599522 0 0.40342788129008578 0.41136751416027151 0 0.40342788129008578 0.41136751416027151 0 0.4194649070479346 0.41075775866906961 0 0.4165515890159211 0.43106581875832262 0 0.40342788129008578 0.41136751416027151 0 0.4194649070479346 0.41075775866906961 0 0.41247484703898341 0.39668929567888889 0 0.39620875860206523 0.42610388639599522 0 0.4165515890159211 0.43106581875832262 0 0.40679533173472487 0.44514780784289609 0 0.4165515890159211 0.43106581875832262 0 0.44107028692003247 0.43153611533185032 0 0.4165515890159211 0.43106581875832262 0 0.43527838440837918 0.41507327228856877 0 0.44107028692003247 0.43153611533185032 0 0.4194649070479346 0.41075775866906961 0 0.4165515890159211 0.43106581875832262 0 0.43527838440837918 0.41507327228856877 0 0.4194649070479346 0.41075775866906961 0 0.43527838440837918 0.41507327228856877 0 0.42844040697821201 0.39890611008127758 0 0.43527838440837918 0.41507327228856877 0 0.42844040697821201 0.39890611008127758 0 0.44356544647064411 0.40084295107477419 0 0.42844040697821201 0.39890611008127758 0 0.43978627658039499 0.38550810048347522 0 0.44356544647064411 0.40084295107477419 0 0.4194649070479346 0.41075775866906961 0 0.42844040697821201 0.39890611008127758 0 0.41247484703898341 0.39668929567888889 0 0.42844040697821201 0.39890611008127758 0 0.41247484703898341 0.39668929567888889 0 0.42235721568131929 0.38220686924127689 0 0.41247484703898341 0.39668929567888889 0 0.40683499004542412 0.37566900985645529 0 0.42235721568131929 0.38220686924127689 0 0.4343808670510142 0.37207818795490849 0 0.42235721568131929 0.38220686924127689 0 0.43978627658039499 0.38550810048347522 0 0.42844040697821201 0.39890611008127758 0 0.42235721568131929 0.38220686924127689 0 0.43978627658039499 0.38550810048347522 0 0.45151374504626951 0.36758660991241321 0 0.4343808670510142 0.37207818795490849 0 0.43978627658039499 0.38550810048347522 0 0.45151374504626951 0.36758660991241321 0 0.43978627658039499 0.38550810048347522 0 0.45722528454721961 0.3906654768237981 0 0.43978627658039499 0.38550810048347522 0 0.44356544647064411 0.40084295107477419 0 0.45722528454721961 0.3906654768237981 0 0.44356544647064411 0.40084295107477419 0 0.45722528454721961 0.3906654768237981 0 0.45594545333092312 0.41337501331873322 0 0.45722528454721961 0.3906654768237981 0 0.47568108772685191 0.39367102650606373 0 0.46881626912638691 0.40427363304328218 0 0.45722528454721961 0.3906654768237981 0 0.46881626912638691 0.40427363304328218 0 0.45594545333092312 0.41337501331873322 0 0.45151374504626951 0.36758660991241321 0 0.45722528454721961 0.3906654768237981 0 0.46980882541715813 0.38208294099771128 0 0.45722528454721961 0.3906654768237981 0 0.46980882541715813 0.38208294099771128 0 0.47568108772685191 0.39367102650606373 0 0.4736556537454587 0.3678330253399309 0 0.46980882541715813 0.38208294099771128 0 0.48477613844387402 0.38021688004838439 0 0.47568108772685191 0.39367102650606373 0 0.48702766555901961 0.39491075051184021 0 0.48477613844387402 0.38021688004838439 0 0.46980882541715813 0.38208294099771128 0 0.47568108772685191 0.39367102650606373 0 0.48477613844387402 0.38021688004838439 0 0.47568108772685191 0.39367102650606373 0 0.46881626912638691 0.40427363304328218 0 0.48151606592710777 0.40452093291302588 0 0.47568108772685191 0.39367102650606373 0 0.48151606592710777 0.40452093291302588 0 0.48702766555901961 0.39491075051184021 0 0.48702766555901961 0.39491075051184021 0 0.49874079622209128 0.38660437256818281 0 0.49442423947517328 0.40954054052354433 0 0.5 0.40278607211007789 0 0.49874079622209128 0.38660437256818281 0 0.49442423947517328 0.40954054052354433 0 0.49874079622209128 0.38660437256818281 0 0.49442423947517328 0.40954054052354433 0 0.48151606592710777 0.40452093291302588 0 0.48702766555901961 0.39491075051184021 0 0.49442423947517328 0.40954054052354433 0 0.5 0.37290568982018429 0 0.5 0.40278607211007789 0 0.49874079622209128 0.38660437256818281 0 0.5 0.37290568982018429 0 0.49874079622209128 0.38660437256818281 0 0.48477613844387402 0.38021688004838439 0 0.48702766555901961 0.39491075051184021 0 0.49874079622209128 0.38660437256818281 0 0.48477613844387402 0.38021688004838439 0 0.49010768272825528 0.43247670847890568 0 0.49999999999999839 0.43266645439997159 0 0.49442423947517328 0.40954054052354433 0 0.49010768272825528 0.43247670847890568 0 0.49999999999999839 0.43266645439997159 0 0.5 0.40278607211007789 0 0.49999999999999839 0.43266645439997159 0 0.49442423947517328 0.40954054052354433 0 0.49010768272825528 0.43247670847890568 0 0.49442423947517328 0.40954054052354433 0 0.47768739680387268 0.41777805257305989 0 0.48151606592710777 0.40452093291302588 0 0.49442423947517328 0.40954054052354433 0 0.47768739680387268 0.41777805257305989 0 0.49010768272825528 0.43247670847890568 0 0.49442423947517328 0.40954054052354433 0 0.46881626912638691 0.40427363304328218 0 0.48151606592710777 0.40452093291302588 0 0.47768739680387268 0.41777805257305989 0 0.49010768272825528 0.43247670847890568 0 0.47768739680387268 0.41777805257305989 0 0.4655889848241439 0.43200641190537797 0 0.49010768272825528 0.43247670847890568 0 0.4655889848241439 0.43200641190537797 0 0.47536631759922843 0.44556886167195853 0 0.49010768272825528 0.43247670847890568 0 0.4655889848241439 0.43200641190537797 0 0.4655889848241439 0.43200641190537797 0 0.44107028692003247 0.43153611533185032 0 0.4655889848241439 0.43200641190537797 0 0.45594545333092312 0.41337501331873322 0 0.44107028692003247 0.43153611533185032 0 0.4655889848241439 0.43200641190537797 0 0.44107028692003247 0.43153611533185032 0 0.4606865760628292 0.44801704672434101 0 0.47768739680387268 0.41777805257305989 0 0.4655889848241439 0.43200641190537797 0 0.45594545333092312 0.41337501331873322 0 0.46881626912638691 0.40427363304328218 0 0.47768739680387268 0.41777805257305989 0 0.45594545333092312 0.41337501331873322 0 0.43527838440837918 0.41507327228856877 0 0.45594545333092312 0.41337501331873322 0 0.44107028692003247 0.43153611533185032 0 0.43527838440837918 0.41507327228856877 0 0.44356544647064411 0.40084295107477419 0 0.45594545333092312 0.41337501331873322 0 0.49999999999999839 0.43266645439997159 0 0.48505572566105232 0.45932045051458531 0 0.5 0.5 0 0.44107028692003247 0.43153611533185032 0 0.44376664188615123 0.45979150936037488 0 0.4606865760628292 0.44801704672434101 0 0.44376664188615123 0.45979150936037488 0 0.46112241578244989 0.46478661640483648 0 0.45121200239437631 0.4807671998253365 0 0.44376664188615123 0.45979150936037488 0 0.46112241578244989 0.46478661640483648 0 0.4606865760628292 0.44801704672434101 0 0.46112241578244989 0.46478661640483648 0 0.4606865760628292 0.44801704672434101 0 0.47539261871986088 0.45602369073658289 0 0.4655889848241439 0.43200641190537797 0 0.4606865760628292 0.44801704672434101 0 0.47536631759922843 0.44556886167195853 0 0.49010768272825528 0.43247670847890568 0 0.47536631759922843 0.44556886167195853 0 0.48505572566105232 0.45932045051458531 0 0.4606865760628292 0.44801704672434101 0 0.47536631759922843 0.44556886167195853 0 0.47539261871986088 0.45602369073658289 0 0.47539261871986088 0.45602369073658289 0 0.47110615765410929 0.47801184536829172 0 0.47539261871986088 0.45602369073658289 0 0.48505572566105232 0.45932045051458531 0 0.47110615765410929 0.47801184536829172 0 0.46112241578244989 0.46478661640483648 0 0.47539261871986088 0.45602369073658289 0 0.47110615765410929 0.47801184536829172 0 0.47536631759922843 0.44556886167195853 0 0.47539261871986088 0.45602369073658289 0 0.48505572566105232 0.45932045051458531 0 0.49010768272825528 0.43247670847890568 0 0.48505572566105232 0.45932045051458531 0 0.49010768272825528 0.43247670847890568 0 0.49999999999999839 0.43266645439997159 0 0.48505572566105232 0.45932045051458531 0 0.48505572566105232 0.45932045051458531 0 0.5 0.5 0 0.48000376859384941 0.48616419255026477 0 0.5 0.5 0 0.48000376859384941 0.48616419255026477 0 0.46681969658835759 0.50000000000000044 0 0.48505572566105232 0.45932045051458531 0 0.47110615765410929 0.47801184536829172 0 0.48000376859384941 0.48616419255026477 0 0.48505572566105232 0.45932045051458531 0 0.48000376859384941 0.48616419255026477 0 0.47110615765410929 0.47801184536829172 0 0.46681969658835759 0.50000000000000044 0 0.47110615765410929 0.47801184536829172 0 0.48000376859384941 0.48616419255026477 0 0.46681969658835759 0.50000000000000044 0 0.47110615765410929 0.47801184536829172 0 0.46681969658835759 0.50000000000000044 0 0.45121200239437631 0.4807671998253365 0 0.46112241578244989 0.46478661640483648 0 0.47110615765410929 0.47801184536829172 0 0.45121200239437631 0.4807671998253365 0 0.44376664188615123 0.45979150936037488 0 0.45121200239437631 0.4807671998253365 0 0.42408561830569141 0.47732830779616442 0 0.46681969658835759 0.50000000000000044 0 0.45121200239437631 0.4807671998253365 0 0.43971230006436901 0.5 0 0.45121200239437631 0.4807671998253365 0 0.43971230006436901 0.5 0 0.42408561830569141 0.47732830779616442 0 0.43971230006436901 0.5 0 0.41260490354038032 0.5 0 0.42408561830569141 0.47732830779616442 0 0.41260490354038032 0.5 0 0.42408561830569141 0.47732830779616442 0 0.40044085355502113 0.48368683573266119 0 0.42408561830569141 0.47732830779616442 0 0.40050545668784993 0.46242548604636152 0 0.40044085355502113 0.48368683573266119 0 0.44376664188615123 0.45979150936037488 0 0.42408561830569141 0.47732830779616442 0 0.42267709028742451 0.45339185591380432 0 0.44107028692003247 0.43153611533185032 0 0.44376664188615123 0.45979150936037488 0 0.42267709028742451 0.45339185591380432 0 0.4165515890159211 0.43106581875832262 0 0.44107028692003247 0.43153611533185032 0 0.42267709028742451 0.45339185591380432 0 0.4165515890159211 0.43106581875832262 0 0.42267709028742451 0.45339185591380432 0 0.40679533173472487 0.44514780784289609 0 0.42408561830569141 0.47732830779616442 0 0.42267709028742451 0.45339185591380432 0 0.40050545668784993 0.46242548604636152 0 0.42267709028742451 0.45339185591380432 0 0.40679533173472487 0.44514780784289609 0 0.40050545668784993 0.46242548604636152 0 0.40679533173472487 0.44514780784289609 0 0.40050545668784993 0.46242548604636152 0 0.38861509636247821 0.44175005125570632 0 0.39620875860206523 0.42610388639599522 0 0.40679533173472487 0.44514780784289609 0 0.38861509636247821 0.44175005125570632 0 0.3672128213662551 0.44140310366938379 0 0.38861509636247821 0.44175005125570632 0 0.37565915938479377 0.45849116020829678 0 0.40050545668784993 0.46242548604636152 0 0.37565915938479377 0.45849116020829678 0 0.37951078222479251 0.47868038482078018 0 0.40050545668784993 0.46242548604636152 0 0.38861509636247821 0.44175005125570632 0 0.37565915938479377 0.45849116020829678 0 0.37951078222479251 0.47868038482078018 0 0.38549750701639152 0.5 0 0.40044085355502113 0.48368683573266119 0 0.41260490354038032 0.5 0 0.38549750701639152 0.5 0 0.40044085355502113 0.48368683573266119 0 0.40050545668784993 0.46242548604636152 0 0.37951078222479251 0.47868038482078018 0 0.40044085355502113 0.48368683573266119 0 0.3285700774521132 0.069227507684709172 0 0.34376262838779448 0.090160381808613591 0 0.3285700774521132 0.069227507684709172 0 0.34376262838779448 0.090160381808613591 0 0.3570119940846016 0.07655140493877155 0 0.3285700774521132 0.069227507684709172 0 0.31851483003181857 0.089032350953859848 0 0.34376262838779448 0.090160381808613591 0 0.3285700774521132 0.069227507684709172 0 0.31851483003181857 0.089032350953859848 0 0.30262144479489489 0.063472250579192202 0 0.31851483003181857 0.089032350953859848 0 0.32257158209111758 0.11034462767622299 0 0.33741607394213652 0.1036774965936159 0 0.31851483003181857 0.089032350953859848 0 0.32257158209111758 0.11034462767622299 0 0.29867863108980142 0.1045573716884185 0 0.32257158209111758 0.11034462767622299 0 0.32933038512457441 0.1245201253257071 0 0.3207185438207466 0.1263919595033525 0 0.32257158209111758 0.11034462767622299 0 0.31156748461804079 0.12537242366950921 0 0.3207185438207466 0.1263919595033525 0 0.32933038512457441 0.1245201253257071 0 0.34646453309243358 0.11613188366402739 0 0.34441400131097022 0.1288917011053414 0 0.32257158209111758 0.11034462767622299 0 0.33741607394213652 0.1036774965936159 0 0.34646453309243358 0.11613188366402739 0 0.32257158209111758 0.11034462767622299 0 0.34646453309243358 0.11613188366402739 0 0.32257158209111758 0.11034462767622299 0 0.32933038512457441 0.1245201253257071 0 0.34646453309243358 0.11613188366402739 0 0.31851483003181857 0.089032350953859848 0 0.33741607394213652 0.1036774965936159 0 0.34376262838779448 0.090160381808613591 0 0.35895517932347593 0.111093255932518 0 0.36286728541875429 0.096218484345557367 0 0.34376262838779448 0.090160381808613591 0 0.33741607394213652 0.1036774965936159 0 0.35895517932347593 0.111093255932518 0 0.34376262838779448 0.090160381808613591 0 0.35895517932347593 0.111093255932518 0 0.34376262838779448 0.090160381808613591 0 0.34646453309243358 0.11613188366402739 0 0.35895517932347593 0.111093255932518 0 0.37035748409374952 0.12191913965183331 0 0.34646453309243358 0.11613188366402739 0 0.37035748409374952 0.12191913965183331 0 0.33741607394213652 0.1036774965936159 0 0.34646453309243358 0.11613188366402739 0 0.35895517932347593 0.111093255932518 0 0.34646453309243358 0.11613188366402739 0 0.37035748409374952 0.12191913965183331 0 0.34441400131097022 0.1288917011053414 0 0.35895517932347593 0.111093255932518 0 0.36901916600157941 0.1100142775002767 0 0.37035748409374952 0.12191913965183331 0 0.36901916600157941 0.1100142775002767 0 0.37035748409374952 0.12191913965183331 0 0.37815432920295677 0.1109533992790251 0 0.37035748409374952 0.12191913965183331 0 0.37511757494472903 0.123072110010257 0 0.37035748409374952 0.12191913965183331 0 0.37169283910029199 0.12815165521797289 0 0.37511757494472903 0.123072110010257 0 0.36286728541875429 0.096218484345557367 0 0.37455144446510141 0.10193275935197101 0 0.37400882161871279 0.083619613235024759 0 0.35895517932347593 0.111093255932518 0 0.36901916600157941 0.1100142775002767 0 0.36286728541875429 0.096218484345557367 0 0.36901916600157941 0.1100142775002767 0 0.36286728541875429 0.096218484345557367 0 0.37455144446510141 0.10193275935197101 0 0.36901916600157941 0.1100142775002767 0 0.37455144446510141 0.10193275935197101 0 0.37815432920295677 0.1109533992790251 0 0.36286728541875429 0.096218484345557367 0 0.37400882161871279 0.083619613235024759 0 0.3570119940846016 0.07655140493877155 0 0.36286728541875429 0.096218484345557367 0 0.34376262838779448 0.090160381808613591 0 0.3570119940846016 0.07655140493877155 0 0.3285700774521132 0.069227507684709172 0 0.3570119940846016 0.07655140493877155 0 0.3540274811898364 0.057481719132925622 0 0.37400882161871279 0.083619613235024759 0 0.3570119940846016 0.07655140493877155 0 0.37883567044039879 0.062600723425798879 0 0.3570119940846016 0.07655140493877155 0 0.3540274811898364 0.057481719132925622 0 0.37883567044039879 0.062600723425798879 0 0.36884998715724038 0.048654936693666287 0 0.3540274811898364 0.057481719132925622 0 0.37883567044039879 0.062600723425798879 0 0.36884998715724038 0.048654936693666287 0 0.36096242836060388 0.032492650360987897 0 0.3540274811898364 0.057481719132925622 0 0.36884998715724038 0.048654936693666287 0 0.36096242836060388 0.032492650360987897 0 0.38366251926208489 0.041581833616573027 0 0.36096242836060388 0.032492650360987897 0 0.3540274811898364 0.057481719132925622 0 0.33343548863743699 0.044422356914628619 0 0.36096242836060388 0.032492650360987897 0 0.34150772405548108 0.025325389551572871 0 0.33343548863743699 0.044422356914628619 0 0.36096242836060388 0.032492650360987897 0 0.33343548863743699 0.044422356914628619 0 0.36934971840039982 0.01412264887454192 0 0.38120377069012762 0.010554394007073271 0 0.36845156083710567 -0.0060515153414843056 0 0.36934971840039982 0.01412264887454192 0 0.35188933009005469 0.012921367503740049 0 0.36845156083710567 -0.0060515153414843056 0 0.36096242836060388 0.032492650360987897 0 0.38848936808377088 0.020562943807347231 0 0.36096242836060388 0.032492650360987897 0 0.36934971840039982 0.01412264887454192 0 0.35188933009005469 0.012921367503740049 0 0.36096242836060388 0.032492650360987897 0 0.36934971840039982 0.01412264887454192 0 0.38848936808377088 0.020562943807347231 0 0.36096242836060388 0.032492650360987897 0 0.35188933009005469 0.012921367503740049 0 0.34150772405548108 0.025325389551572871 0 0.35188933009005469 0.012921367503740049 0 0.36845156083710567 -0.0060515153414843056 0 0.34114057903213352 -0.00099436838624600288 0 0.32992396985460443 0.01263339996306794 0 0.31382959722716158 0.0040627785689932028 0 0.34114057903213352 -0.00099436838624600288 0 0.35188933009005469 0.012921367503740049 0 0.32992396985460443 0.01263339996306794 0 0.34114057903213352 -0.00099436838624600288 0 0.32992396985460443 0.01263339996306794 0 0.34150772405548108 0.025325389551572871 0 0.32077834005703848 0.02927741351548363 0 0.35188933009005469 0.012921367503740049 0 0.32992396985460443 0.01263339996306794 0 0.34150772405548108 0.025325389551572871 0 0.32992396985460443 0.01263339996306794 0 0.32077834005703848 0.02927741351548363 0 0.31391214704691389 0.015516024244919061 0 0.32992396985460443 0.01263339996306794 0 0.31391214704691389 0.015516024244919061 0 0.31382959722716158 0.0040627785689932028 0 0.31382959722716158 0.0040627785689932028 0 0.34183048761771712 -0.0039986291523161147 0 0.31382959722716158 0.0040627785689932028 0 0.34114057903213352 -0.00099436838624600288 0 0.31382959722716158 0.0040627785689932028 0 0.30752965714041391 0.0058765203804442539 0 0.32194573769061952 -0.0077676308935595512 0 0.3285700774521132 0.069227507684709172 0 0.3540274811898364 0.057481719132925622 0 0.33343548863743699 0.044422356914628619 0 0.34150772405548108 0.025325389551572871 0 0.32077834005703848 0.02927741351548363 0 0.33343548863743699 0.044422356914628619 0 0.32077834005703848 0.02927741351548363 0 0.33343548863743699 0.044422356914628619 0 0.31337752651643169 0.04829463356080467 0 0.3285700774521132 0.069227507684709172 0 0.31337752651643169 0.04829463356080467 0 0.3285700774521132 0.069227507684709172 0 0.33343548863743699 0.044422356914628619 0 0.31337752651643169 0.04829463356080467 0 0.3285700774521132 0.069227507684709172 0 0.31337752651643169 0.04829463356080467 0 0.30262144479489489 0.063472250579192202 0 0.31337752651643169 0.04829463356080467 0 0.29190445549758398 0.041801895735158197 0 0.30262144479489489 0.063472250579192202 0 0.31337752651643169 0.04829463356080467 0 0.29818497558074802 0.027361759436901809 0 0.31337752651643169 0.04829463356080467 0 0.29190445549758398 0.041801895735158197 0 0.29818497558074802 0.027361759436901809 0 0.32077834005703848 0.02927741351548363 0 0.31337752651643169 0.04829463356080467 0 0.29818497558074802 0.027361759436901809 0 0.29190445549758398 0.041801895735158197 0 0.29818497558074802 0.027361759436901809 0 0.28149235485467722 0.028426230672526639 0 0.29190445549758398 0.041801895735158197 0 0.28562393541442521 0.056242032033416753 0 0.26921605588191849 0.040519794607793452 0 0.29190445549758398 0.041801895735158197 0 0.29818497558074802 0.027361759436901809 0 0.29190445549758398 0.041801895735158197 0 0.28562393541442521 0.056242032033416753 0 0.29190445549758398 0.041801895735158197 0 0.28562393541442521 0.056242032033416753 0 0.30262144479489489 0.063472250579192202 0 0.2978295874258669 0.0070254842464454832 0 0.30752965714041391 0.0058765203804442539 0 0.2978295874258669 0.0070254842464454832 0 0.30752965714041391 0.0058765203804442539 0 0.29396858594285019 -0.001032612778502764 0 0.31382959722716158 0.0040627785689932028 0 0.30752965714041391 0.0058765203804442539 0 0.31391214704691389 0.015516024244919061 0 0.30752965714041391 0.0058765203804442539 0 0.30398999522707459 0.014014891057021139 0 0.30752965714041391 0.0058765203804442539 0 0.30398999522707459 0.014014891057021139 0 0.31391214704691389 0.015516024244919061 0 0.31382959722716158 0.0040627785689932028 0 0.30752965714041391 0.0058765203804442539 0 0.2978295874258669 0.0070254842464454832 0 0.30752965714041391 0.0058765203804442539 0 0.30398999522707459 0.014014891057021139 0 0.2978295874258669 0.0070254842464454832 0 0.30398999522707459 0.014014891057021139 0 0.31391214704691389 0.015516024244919061 0 0.30398999522707459 0.014014891057021139 0 0.29818497558074802 0.027361759436901809 0 0.32077834005703848 0.02927741351548363 0 0.31391214704691389 0.015516024244919061 0 0.29818497558074802 0.027361759436901809 0 0.30398999522707459 0.014014891057021139 0 0.29818497558074802 0.027361759436901809 0 0.30398999522707459 0.014014891057021139 0 0.29818497558074802 0.027361759436901809 0 0.28690172397702512 0.011815266518820099 0 0.29818497558074802 0.027361759436901809 0 0.28149235485467722 0.028426230672526639 0 0.28690172397702512 0.011815266518820099 0 0.29818497558074802 0.027361759436901809 0 0.28690172397702512 0.011815266518820099 0 0.28690172397702512 0.011815266518820099 0 0.28687677889875068 0.001725005618485562 0 0.27267603034966698 -0.0077854348569651906 0 0.2978295874258669 0.0070254842464454832 0 0.30398999522707459 0.014014891057021139 0 0.28690172397702512 0.011815266518820099 0 0.2978295874258669 0.0070254842464454832 0 0.28690172397702512 0.011815266518820099 0 0.29376575238797509 0.0077779804816672602 0 0.2978295874258669 0.0070254842464454832 0 0.28690172397702512 0.011815266518820099 0 0.2978295874258669 0.0070254842464454832 0 0.28687677889875068 0.001725005618485562 0 0.29376575238797509 0.0077779804816672602 0 0.28690172397702512 0.011815266518820099 0 0.28687677889875068 0.001725005618485562 0 0.29376575238797509 0.0077779804816672602 0 0.2978295874258669 0.0070254842464454832 0 0.29376575238797509 0.0077779804816672602 0 0.28690172397702512 0.011815266518820099 0 0.26939274767164711 0.0040745279013861191 0 0.27267603034966698 -0.0077854348569651906 0 0.28690172397702512 0.011815266518820099 0 0.26440570944936082 0.018291830038140541 0 0.28690172397702512 0.011815266518820099 0 0.26939274767164711 0.0040745279013861191 0 0.26440570944936082 0.018291830038140541 0 0.28690172397702512 0.011815266518820099 0 0.27267603034966698 -0.0077854348569651906 0 0.28149235485467722 0.028426230672526639 0 0.26440570944936082 0.018291830038140541 0 0.26921605588191849 0.040519794607793452 0 0.28149235485467722 0.028426230672526639 0 0.28690172397702512 0.011815266518820099 0 0.26440570944936082 0.018291830038140541 0 0.24190969492169709 0.024768393557462999 0 0.26440570944936082 0.018291830038140541 0 0.2485551203034157 0.0102848256948572 0 0.24190969492169709 0.024768393557462999 0 0.26440570944936082 0.018291830038140541 0 0.24190969492169709 0.024768393557462999 0 0.26440570944936082 0.018291830038140541 0 0.25291178968964928 0.037547667281027097 0 0.2485551203034157 0.0102848256948572 0 0.26440570944936082 0.018291830038140541 0 0.25894279220913391 0.003459445712386486 0 0.26939274767164711 0.0040745279013861191 0 0.26440570944936082 0.018291830038140541 0 0.25894279220913391 0.003459445712386486 0 0.2485551203034157 0.0102848256948572 0 0.25894279220913391 0.003459445712386486 0 0.2479891295484222 -0.0022684572774312019 0 0.26939274767164711 0.0040745279013861191 0 0.25894279220913391 0.003459445712386486 0 0.26317147738524183 -0.0038637327990410169 0 0.28562393541442521 0.056242032033416753 0 0.27026274557325353 0.056119745337220257 0 0.26921605588191849 0.040519794607793452 0 0.28562393541442521 0.056242032033416753 0 0.27026274557325353 0.056119745337220257 0 0.27167623587568768 0.070814912161459326 0 0.29190445549758398 0.041801895735158197 0 0.28149235485467722 0.028426230672526639 0 0.26921605588191849 0.040519794607793452 0 0.26921605588191849 0.040519794607793452 0 0.25291178968964928 0.037547667281027097 0 0.25425538404847059 0.057624927133231481 0 0.26440570944936082 0.018291830038140541 0 0.26921605588191849 0.040519794607793452 0 0.25291178968964928 0.037547667281027097 0 0.27026274557325353 0.056119745337220257 0 0.26921605588191849 0.040519794607793452 0 0.25425538404847059 0.057624927133231481 0 0.27026274557325353 0.056119745337220257 0 0.25425538404847059 0.057624927133231481 0 0.27167623587568768 0.070814912161459326 0 0.25425538404847059 0.057624927133231481 0 0.27167623587568768 0.070814912161459326 0 0.25282536794073712 0.073272794188635415 0 0.26618138576237349 0.084067315497028519 0 0.27167623587568768 0.070814912161459326 0 0.25425538404847059 0.057624927133231481 0 0.25282536794073712 0.073272794188635415 0 0.27167623587568768 0.070814912161459326 0 0.25089272908716931 0.092982859712809007 0 0.26618138576237349 0.084067315497028519 0 0.27478568008848531 0.098770115700614086 0 0.25282536794073712 0.073272794188635415 0 0.25089272908716931 0.092982859712809007 0 0.26618138576237349 0.084067315497028519 0 0.26618138576237349 0.084067315497028519 0 0.28181267844286689 0.084890460016538952 0 0.27478568008848531 0.098770115700614086 0 0.26618138576237349 0.084067315497028519 0 0.27167623587568768 0.070814912161459326 0 0.28181267844286689 0.084890460016538952 0 0.27167623587568768 0.070814912161459326 0 0.2870451550563029 0.071072764848292863 0 0.28181267844286689 0.084890460016538952 0 0.2870451550563029 0.071072764848292863 0 0.29673814540623761 0.08207029957157172 0 0.30262144479489489 0.063472250579192202 0 0.28562393541442521 0.056242032033416753 0 0.2870451550563029 0.071072764848292863 0 0.30262144479489489 0.063472250579192202 0 0.28562393541442521 0.056242032033416753 0 0.27167623587568768 0.070814912161459326 0 0.2870451550563029 0.071072764848292863 0 0.2870451550563029 0.071072764848292863 0 0.28181267844286689 0.084890460016538952 0 0.29673814540623761 0.08207029957157172 0 0.28181267844286689 0.084890460016538952 0 0.29673814540623761 0.08207029957157172 0 0.29867863108980142 0.1045573716884185 0 0.31851483003181857 0.089032350953859848 0 0.29673814540623761 0.08207029957157172 0 0.30262144479489489 0.063472250579192202 0 0.31851483003181857 0.089032350953859848 0 0.29673814540623761 0.08207029957157172 0 0.29867863108980142 0.1045573716884185 0 0.2991284260398443 0.1226428311133997 0 0.29867863108980142 0.1045573716884185 0 0.31156748461804079 0.12537242366950921 0 0.32257158209111758 0.11034462767622299 0 0.29867863108980142 0.1045573716884185 0 0.31156748461804079 0.12537242366950921 0 0.32257158209111758 0.11034462767622299 0 0.29867863108980142 0.1045573716884185 0 0.29867863108980142 0.1045573716884185 0 0.27478568008848531 0.098770115700614086 0 0.29867863108980142 0.1045573716884185 0 0.27783009132198788 0.1122622341296569 0 0.27478568008848531 0.098770115700614086 0 0.28181267844286689 0.084890460016538952 0 0.29867863108980142 0.1045573716884185 0 0.27478568008848531 0.098770115700614086 0 0.2991284260398443 0.1226428311133997 0 0.29867863108980142 0.1045573716884185 0 0.28707615928971691 0.1208096883177448 0 0.29867863108980142 0.1045573716884185 0 0.28707615928971691 0.1208096883177448 0 0.27783009132198788 0.1122622341296569 0 0.2991284260398443 0.1226428311133997 0 0.28707615928971691 0.1208096883177448 0 0.29671346303214241 0.12961196471325551 0 0.26302281242735981 0.111198171579071 0 0.27515289576754948 0.1294134834453334 0 0.28707615928971691 0.1208096883177448 0 0.27783009132198788 0.1122622341296569 0 0.27515289576754948 0.1294134834453334 0 0.27783009132198788 0.1122622341296569 0 0.26302281242735981 0.111198171579071 0 0.27515289576754948 0.1294134834453334 0 0.26302281242735981 0.111198171579071 0 0.26007351669183237 0.1253037732749688 0 0.27515289576754948 0.1294134834453334 0 0.27783009132198788 0.1122622341296569 0 0.27478568008848531 0.098770115700614086 0 0.26302281242735981 0.111198171579071 0 0.25089272908716931 0.092982859712809007 0 0.26302281242735981 0.111198171579071 0 0.2496952397761337 0.1160329650041991 0 0.25089272908716931 0.092982859712809007 0 0.26302281242735981 0.111198171579071 0 0.25089272908716931 0.092982859712809007 0 0.27478568008848531 0.098770115700614086 0 0.26302281242735981 0.111198171579071 0 0.25089272908716931 0.092982859712809007 0 0.27478568008848531 0.098770115700614086 0 0.2471064899150823 0.133463067737116 0 0.2496952397761337 0.1160329650041991 0 0.26007351669183237 0.1253037732749688 0 0.2496952397761337 0.1160329650041991 0 0.26302281242735981 0.111198171579071 0 0.26007351669183237 0.1253037732749688 0 0.2471064899150823 0.133463067737116 0 0.26212056590251792 0.13860634342131159 0 0.25227113898158787 0.14916335431643429 0 0.2471064899150823 0.133463067737116 0 0.26212056590251792 0.13860634342131159 0 0.26007351669183237 0.1253037732749688 0 0.27515289576754948 0.1294134834453334 0 0.28728297910773942 0.14762879531159581 0 0.27515289576754948 0.1294134834453334 0 0.27408945104382287 0.14431330872834849 0 0.28728297910773942 0.14762879531159581 0 0.26212056590251792 0.13860634342131159 0 0.26007351669183237 0.1253037732749688 0 0.27515289576754948 0.1294134834453334 0 0.26212056590251792 0.13860634342131159 0 0.27515289576754948 0.1294134834453334 0 0.27408945104382287 0.14431330872834849 0 0.27408945104382287 0.14431330872834849 0 0.27716137478162928 0.15889869399298601 0 0.28728297910773942 0.14762879531159581 0 0.26212056590251792 0.13860634342131159 0 0.27408945104382287 0.14431330872834849 0 0.26493391480523859 0.14953421755469451 0 0.27408945104382287 0.14431330872834849 0 0.26493391480523859 0.14953421755469451 0 0.27716137478162928 0.15889869399298601 0 0.26493391480523859 0.14953421755469451 0 0.25227113898158787 0.14916335431643429 0 0.25784869618064837 0.16117632967822779 0 0.26212056590251792 0.13860634342131159 0 0.26493391480523859 0.14953421755469451 0 0.25227113898158787 0.14916335431643429 0 0.24342118736862761 0.16410875332904781 0 0.25227113898158787 0.14916335431643429 0 0.25784869618064837 0.16117632967822779 0 0.24342118736862761 0.16410875332904781 0 0.25784869618064837 0.16117632967822779 0 0.25421457754785548 0.17528354573505059 0 0.25784869618064837 0.16117632967822779 0 0.25421457754785548 0.17528354573505059 0 0.26798999978846311 0.16999528723303189 0 0.25421457754785548 0.17528354573505059 0 0.26688833639653942 0.18474270353269559 0 0.25113643024109478 0.19094495075723769 0 0.25421457754785548 0.17528354573505059 0 0.26688833639653942 0.18474270353269559 0 0.26798999978846311 0.16999528723303189 0 0.26688833639653942 0.18474270353269559 0 0.27899922157627788 0.1740987885831469 0 0.26798999978846311 0.16999528723303189 0 0.26688833639653942 0.18474270353269559 0 0.27899922157627788 0.1740987885831469 0 0.28165513110548479 0.1855437801635878 0 0.25784869618064837 0.16117632967822779 0 0.26798999978846311 0.16999528723303189 0 0.27716137478162928 0.15889869399298601 0 0.26493391480523859 0.14953421755469451 0 0.25784869618064837 0.16117632967822779 0 0.27716137478162928 0.15889869399298601 0 0.27899922157627788 0.1740987885831469 0 0.26798999978846311 0.16999528723303189 0 0.27716137478162928 0.15889869399298601 0 0.27716137478162928 0.15889869399298601 0 0.28838527260411961 0.16768800255462621 0 0.29642958482603432 0.1586868689393966 0 0.27899922157627788 0.1740987885831469 0 0.27716137478162928 0.15889869399298601 0 0.28838527260411961 0.16768800255462621 0 0.28838527260411961 0.16768800255462621 0 0.29642958482603432 0.1586868689393966 0 0.2990812202460017 0.16972771789266669 0 0.28165513110548479 0.1855437801635878 0 0.29057456817046978 0.17841330338653549 0 0.29442149412013968 0.19018242885082931 0 0.27899922157627788 0.1740987885831469 0 0.28165513110548479 0.1855437801635878 0 0.29057456817046978 0.17841330338653549 0 0.27899922157627788 0.1740987885831469 0 0.28838527260411961 0.16768800255462621 0 0.29057456817046978 0.17841330338653549 0 0.28838527260411961 0.16768800255462621 0 0.29057456817046978 0.17841330338653549 0 0.2990812202460017 0.16972771789266669 0 0.29057456817046978 0.17841330338653549 0 0.30085032626191438 0.18018504882584371 0 0.2990812202460017 0.16972771789266669 0 0.29057456817046978 0.17841330338653549 0 0.30085032626191438 0.18018504882584371 0 0.29442149412013968 0.19018242885082931 0 0.30085032626191438 0.18018504882584371 0 0.29442149412013968 0.19018242885082931 0 0.3080553032197017 0.1887293017033026 0 0.30085032626191438 0.18018504882584371 0 0.31056514142368619 0.1744383831500049 0 0.2990812202460017 0.16972771789266669 0 0.30085032626191438 0.18018504882584371 0 0.31056514142368619 0.1744383831500049 0 0.3080553032197017 0.1887293017033026 0 0.29642958482603432 0.1586868689393966 0 0.30747502192119819 0.16230778928688711 0 0.30151933753066762 0.14970454816787401 0 0.29642958482603432 0.1586868689393966 0 0.2990812202460017 0.16972771789266669 0 0.30747502192119819 0.16230778928688711 0 0.31056514142368619 0.1744383831500049 0 0.2990812202460017 0.16972771789266669 0 0.30747502192119819 0.16230778928688711 0 0.30747502192119819 0.16230778928688711 0 0.30151933753066762 0.14970454816787401 0 0.3129765302581462 0.1494710021231663 0 0.30151933753066762 0.14970454816787401 0 0.29882590938581222 0.14264553562683399 0 0.30718649112507979 0.14443915855455869 0 0.30151933753066762 0.14970454816787401 0 0.30718649112507979 0.14443915855455869 0 0.3129765302581462 0.1494710021231663 0 0.29882590938581222 0.14264553562683399 0 0.30718649112507979 0.14443915855455869 0 0.31229822968882548 0.13781435906697939 0 0.30718649112507979 0.14443915855455869 0 0.31229822968882548 0.13781435906697939 0 0.3129765302581462 0.1494710021231663 0 0.31229822968882548 0.13781435906697939 0 0.28502845800881449 0.13413009067030229 0 0.31229822968882548 0.13781435906697939 0 0.29671346303214241 0.12961196471325551 0 0.28502845800881449 0.13413009067030229 0 0.29882590938581222 0.14264553562683399 0 0.31229822968882548 0.13781435906697939 0 0.28502845800881449 0.13413009067030229 0 0.2991284260398443 0.1226428311133997 0 0.31156748461804079 0.12537242366950921 0 0.30438347209902411 0.12928289016934871 0 0.31229822968882548 0.13781435906697939 0 0.31156748461804079 0.12537242366950921 0 0.30438347209902411 0.12928289016934871 0 0.31229822968882548 0.13781435906697939 0 0.30438347209902411 0.12928289016934871 0 0.29671346303214241 0.12961196471325551 0 0.2991284260398443 0.1226428311133997 0 0.30438347209902411 0.12928289016934871 0 0.29671346303214241 0.12961196471325551 0 0.27515289576754948 0.1294134834453334 0 0.28502845800881449 0.13413009067030229 0 0.28728297910773942 0.14762879531159581 0 0.28707615928971691 0.1208096883177448 0 0.29671346303214241 0.12961196471325551 0 0.28502845800881449 0.13413009067030229 0 0.28707615928971691 0.1208096883177448 0 0.27515289576754948 0.1294134834453334 0 0.28502845800881449 0.13413009067030229 0 0.27716137478162928 0.15889869399298601 0 0.29642958482603432 0.1586868689393966 0 0.28728297910773942 0.14762879531159581 0 0.29642958482603432 0.1586868689393966 0 0.30151933753066762 0.14970454816787401 0 0.28728297910773942 0.14762879531159581 0 0.30151933753066762 0.14970454816787401 0 0.29882590938581222 0.14264553562683399 0 0.28728297910773942 0.14762879531159581 0 0.29882590938581222 0.14264553562683399 0 0.28502845800881449 0.13413009067030229 0 0.28728297910773942 0.14762879531159581 0 0.2459873280094696 0.23707215699401071 0 0.27381195783464701 0.24213208581531279 0 0.2459873280094696 0.23707215699401071 0 0.27381195783464701 0.24213208581531279 0 0.27283394916361492 0.24742619336605559 0 0.2459873280094696 0.23707215699401071 0 0.27283394916361492 0.24742619336605559 0 0.2459873280094696 0.23707215699401071 0 0.25877170878786238 0.25302463852503437 0 0.27283394916361492 0.24742619336605559 0 0.2459873280094696 0.23707215699401071 0 0.24763005152173001 0.25910176257370959 0 0.25877170878786238 0.25302463852503437 0 0.24332195560292991 0.2175119837032847 0 0.2459873280094696 0.23707215699401071 0 0.26947725056793032 0.22188821543332771 0 0.2459873280094696 0.23707215699401071 0 0.27381195783464701 0.24213208581531279 0 0.26947725056793032 0.22188821543332771 0 0.24332195560292991 0.2175119837032847 0 0.26947725056793032 0.22188821543332771 0 0.27381195783464701 0.24213208581531279 0 0.26947725056793032 0.22188821543332771 0 0.29563254553293061 0.22626444716337071 0 0.26947725056793032 0.22188821543332771 0 0.26383894902510108 0.20488334565775601 0 0.28252807440433819 0.20448568929014271 0 0.24828008483854189 0.20295934428596721 0 0.24332195560292991 0.2175119837032847 0 0.26383894902510108 0.20488334565775601 0 0.24332195560292991 0.2175119837032847 0 0.26947725056793032 0.22188821543332771 0 0.26383894902510108 0.20488334565775601 0 0.26688833639653942 0.18474270353269559 0 0.26383894902510108 0.20488334565775601 0 0.25113643024109478 0.19094495075723769 0 0.24828008483854189 0.20295934428596721 0 0.26383894902510108 0.20488334565775601 0 0.25113643024109478 0.19094495075723769 0 0.26688833639653942 0.18474270353269559 0 0.26383894902510108 0.20488334565775601 0 0.27369942293731819 0.19569303942008121 0 0.26383894902510108 0.20488334565775601 0 0.27369942293731819 0.19569303942008121 0 0.28252807440433819 0.20448568929014271 0 0.28165513110548479 0.1855437801635878 0 0.27369942293731819 0.19569303942008121 0 0.28252807440433819 0.20448568929014271 0 0.26688833639653942 0.18474270353269559 0 0.28165513110548479 0.1855437801635878 0 0.27369942293731819 0.19569303942008121 0 0.28165513110548479 0.1855437801635878 0 0.29442149412013968 0.19018242885082931 0 0.28252807440433819 0.20448568929014271 0 0.29442149412013968 0.19018242885082931 0 0.30168066081365352 0.2029210297493958 0 0.28252807440433819 0.20448568929014271 0 0.29442149412013968 0.19018242885082931 0 0.3080553032197017 0.1887293017033026 0 0.30168066081365352 0.2029210297493958 0 0.3080553032197017 0.1887293017033026 0 0.30168066081365352 0.2029210297493958 0 0.31674655555173881 0.19902842766084339 0 0.30168066081365352 0.2029210297493958 0 0.29563254553293061 0.22626444716337071 0 0.31377845179643721 0.21458276756770189 0 0.30168066081365352 0.2029210297493958 0 0.31377845179643721 0.21458276756770189 0 0.31674655555173881 0.19902842766084339 0 0.30168066081365352 0.2029210297493958 0 0.28252807440433819 0.20448568929014271 0 0.29563254553293061 0.22626444716337071 0 0.26947725056793032 0.22188821543332771 0 0.28252807440433819 0.20448568929014271 0 0.29563254553293061 0.22626444716337071 0 0.26947725056793032 0.22188821543332771 0 0.29563254553293061 0.22626444716337071 0 0.29563254553293061 0.22626444716337071 0 0.3217878404979308 0.23064067889341369 0 0.31377845179643721 0.21458276756770189 0 0.29563254553293061 0.22626444716337071 0 0.3217878404979308 0.23064067889341369 0 0.29563254553293061 0.22626444716337071 0 0.3016365876598241 0.24719201463661561 0 0.3217878404979308 0.23064067889341369 0 0.27381195783464701 0.24213208581531279 0 0.29563254553293061 0.22626444716337071 0 0.3016365876598241 0.24719201463661561 0 0.27381195783464701 0.24213208581531279 0 0.3016365876598241 0.24719201463661561 0 0.27381195783464701 0.24213208581531279 0 0.27283394916361492 0.24742619336605559 0 0.3016365876598241 0.24719201463661561 0 0.32946121748500129 0.25225194345791829 0 0.3217878404979308 0.23064067889341369 0 0.34556910970536658 0.23921390462248199 0 0.32946121748500129 0.25225194345791829 0 0.3016365876598241 0.24719201463661561 0 0.3217878404979308 0.23064067889341369 0 0.32946121748500129 0.25225194345791829 0 0.3016365876598241 0.24719201463661561 0 0.3217878404979308 0.23064067889341369 0 0.33460182177363001 0.21999966289075409 0 0.31377845179643721 0.21458276756770189 0 0.3217878404979308 0.23064067889341369 0 0.33460182177363001 0.21999966289075409 0 0.34556910970536658 0.23921390462248199 0 0.33460182177363001 0.21999966289075409 0 0.3278776259658665 0.2076214509036243 0 0.34419695055865512 0.20542025302645439 0 0.33460182177363001 0.21999966289075409 0 0.31377845179643721 0.21458276756770189 0 0.3278776259658665 0.2076214509036243 0 0.31377845179643721 0.21458276756770189 0 0.3278776259658665 0.2076214509036243 0 0.31674655555173881 0.19902842766084339 0 0.3278776259658665 0.2076214509036243 0 0.31674655555173881 0.19902842766084339 0 0.32893527636844411 0.194937601908272 0 0.3080553032197017 0.1887293017033026 0 0.31674655555173881 0.19902842766084339 0 0.32122387935841612 0.1836610840160959 0 0.31674655555173881 0.19902842766084339 0 0.32893527636844411 0.194937601908272 0 0.32122387935841612 0.1836610840160959 0 0.32893527636844411 0.194937601908272 0 0.34419695055865512 0.20542025302645439 0 0.33967484433078321 0.18584068278097349 0 0.32893527636844411 0.194937601908272 0 0.32122387935841612 0.1836610840160959 0 0.33967484433078321 0.18584068278097349 0 0.3278776259658665 0.2076214509036243 0 0.32893527636844411 0.194937601908272 0 0.34419695055865512 0.20542025302645439 0 0.35368837148756882 0.19334260062126429 0 0.34419695055865512 0.20542025302645439 0 0.33967484433078321 0.18584068278097349 0 0.35368837148756882 0.19334260062126429 0 0.36735815001373812 0.20351917688449569 0 0.34419695055865512 0.20542025302645439 0 0.36735815001373812 0.20351917688449569 0 0.36699199379966768 0.18628457072029089 0 0.38367398474104891 0.18179268717308689 0 0.35368837148756882 0.19334260062126429 0 0.36735815001373812 0.20351917688449569 0 0.36699199379966768 0.18628457072029089 0 0.36735815001373812 0.20351917688449569 0 0.35440095211752448 0.2225189223308488 0 0.37280151553833601 0.22024831863616021 0 0.36735815001373812 0.20351917688449569 0 0.37280151553833601 0.22024831863616021 0 0.38406378734192298 0.20777210545990279 0 0.36735815001373812 0.20351917688449569 0 0.34419695055865512 0.20542025302645439 0 0.35440095211752448 0.2225189223308488 0 0.33460182177363001 0.21999966289075409 0 0.34419695055865512 0.20542025302645439 0 0.35440095211752448 0.2225189223308488 0 0.35440095211752448 0.2225189223308488 0 0.37293454716760283 0.2396311516560117 0 0.34556910970536658 0.23921390462248199 0 0.33460182177363001 0.21999966289075409 0 0.35440095211752448 0.2225189223308488 0 0.34556910970536658 0.23921390462248199 0 0.35440095211752448 0.2225189223308488 0 0.37280151553833601 0.22024831863616021 0 0.37293454716760283 0.2396311516560117 0 0.32946121748500129 0.25225194345791829 0 0.35728584731017871 0.25731187227922109 0 0.34556910970536658 0.23921390462248199 0 0.35728584731017871 0.25731187227922109 0 0.37293454716760283 0.2396311516560117 0 0.34556910970536658 0.23921390462248199 0 0.33789665254535572 0.15537308983460499 0 0.33956800136883641 0.14149862746365649 0 0.32484504322689201 0.150618498474763 0 0.33789665254535572 0.15537308983460499 0 0.32484504322689201 0.150618498474763 0 0.32925575641373173 0.1625602653078303 0 0.33789665254535572 0.15537308983460499 0 0.33956800136883641 0.14149862746365649 0 0.35085012880757988 0.15547460686614431 0 0.31847051852819058 0.13586426255884801 0 0.34441400131097022 0.1288917011053414 0 0.32933038512457441 0.1245201253257071 0 0.31847051852819058 0.13586426255884801 0 0.34441400131097022 0.1288917011053414 0 0.33956800136883641 0.14149862746365649 0 0.31847051852819058 0.13586426255884801 0 0.34441400131097022 0.1288917011053414 0 0.31229822968882548 0.13781435906697939 0 0.33956800136883641 0.14149862746365649 0 0.31229822968882548 0.13781435906697939 0 0.33956800136883641 0.14149862746365649 0 0.31847051852819058 0.13586426255884801 0 0.32933038512457441 0.1245201253257071 0 0.3207185438207466 0.1263919595033525 0 0.31847051852819058 0.13586426255884801 0 0.31156748461804079 0.12537242366950921 0 0.3207185438207466 0.1263919595033525 0 0.31847051852819058 0.13586426255884801 0 0.31229822968882548 0.13781435906697939 0 0.31156748461804079 0.12537242366950921 0 0.31847051852819058 0.13586426255884801 0 0.31229822968882548 0.13781435906697939 0 0.33956800136883641 0.14149862746365649 0 0.32484504322689201 0.150618498474763 0 0.31229822968882548 0.13781435906697939 0 0.32484504322689201 0.150618498474763 0 0.3129765302581462 0.1494710021231663 0 0.32484504322689201 0.150618498474763 0 0.3129765302581462 0.1494710021231663 0 0.31772009751989111 0.15842714336302041 0 0.30747502192119819 0.16230778928688711 0 0.3129765302581462 0.1494710021231663 0 0.31772009751989111 0.15842714336302041 0 0.30747502192119819 0.16230778928688711 0 0.31772009751989111 0.15842714336302041 0 0.32080742045079952 0.16866520015094741 0 0.31056514142368619 0.1744383831500049 0 0.30747502192119819 0.16230778928688711 0 0.32080742045079952 0.16866520015094741 0 0.32080742045079952 0.16866520015094741 0 0.33131907253280629 0.1738795647946571 0 0.32925575641373173 0.1625602653078303 0 0.32484504322689201 0.150618498474763 0 0.31772009751989111 0.15842714336302041 0 0.32925575641373173 0.1625602653078303 0 0.31772009751989111 0.15842714336302041 0 0.32080742045079952 0.16866520015094741 0 0.32925575641373173 0.1625602653078303 0 0.31056514142368619 0.1744383831500049 0 0.3080553032197017 0.1887293017033026 0 0.32122387935841612 0.1836610840160959 0 0.31056514142368619 0.1744383831500049 0 0.32080742045079952 0.16866520015094741 0 0.32122387935841612 0.1836610840160959 0 0.32080742045079952 0.16866520015094741 0 0.32122387935841612 0.1836610840160959 0 0.33131907253280629 0.1738795647946571 0 0.33131907253280629 0.1738795647946571 0 0.33967484433078321 0.18584068278097349 0 0.34294625220664587 0.1683980952289891 0 0.32122387935841612 0.1836610840160959 0 0.33131907253280629 0.1738795647946571 0 0.33967484433078321 0.18584068278097349 0 0.33131907253280629 0.1738795647946571 0 0.32925575641373173 0.1625602653078303 0 0.34294625220664587 0.1683980952289891 0 0.33789665254535572 0.15537308983460499 0 0.32925575641373173 0.1625602653078303 0 0.34294625220664587 0.1683980952289891 0 0.34294625220664587 0.1683980952289891 0 0.35531914635495271 0.16562513299740311 0 0.35085012880757988 0.15547460686614431 0 0.33789665254535572 0.15537308983460499 0 0.34294625220664587 0.1683980952289891 0 0.35085012880757988 0.15547460686614431 0 0.34294625220664587 0.1683980952289891 0 0.35531914635495271 0.16562513299740311 0 0.35387202203434698 0.17803066266241011 0 0.35531914635495271 0.16562513299740311 0 0.35387202203434698 0.17803066266241011 0 0.36550295271590683 0.1690726970215666 0 0.35531914635495271 0.16562513299740311 0 0.36342437601028388 0.15714960320790561 0 0.35085012880757988 0.15547460686614431 0 0.33967484433078321 0.18584068278097349 0 0.34294625220664587 0.1683980952289891 0 0.35387202203434698 0.17803066266241011 0 0.35368837148756882 0.19334260062126429 0 0.33967484433078321 0.18584068278097349 0 0.35387202203434698 0.17803066266241011 0 0.35368837148756882 0.19334260062126429 0 0.35387202203434698 0.17803066266241011 0 0.36699199379966768 0.18628457072029089 0 0.37486327834919952 0.17324080595030389 0 0.36699199379966768 0.18628457072029089 0 0.36550295271590683 0.1690726970215666 0 0.35387202203434698 0.17803066266241011 0 0.36699199379966768 0.18628457072029089 0 0.36550295271590683 0.1690726970215666 0 0.36342437601028388 0.15714960320790561 0 0.36550295271590683 0.1690726970215666 0 0.38328418214017468 0.15581326888627101 0 0.37486327834919952 0.17324080595030389 0 0.36550295271590683 0.1690726970215666 0 0.38328418214017468 0.15581326888627101 0 0.35531914635495271 0.16562513299740311 0 0.36342437601028388 0.15714960320790561 0 0.36550295271590683 0.1690726970215666 0 0.36342437601028388 0.15714960320790561 0 0.36683777304884752 0.14518289586033359 0 0.38328418214017468 0.15581326888627101 0 0.36342437601028388 0.15714960320790561 0 0.36683777304884752 0.14518289586033359 0 0.35085012880757988 0.15547460686614431 0 0.33956800136883641 0.14149862746365649 0 0.36683777304884752 0.14518289586033359 0 0.33956800136883641 0.14149862746365649 0 0.36683777304884752 0.14518289586033359 0 0.35085012880757988 0.15547460686614431 0 0.37035748409374952 0.12191913965183331 0 0.34441400131097022 0.1288917011053414 0 0.33956800136883641 0.14149862746365649 0 0.34441400131097022 0.1288917011053414 0 0.35985245571789548 0.13256521397634091 0 0.37035748409374952 0.12191913965183331 0 0.34441400131097022 0.1288917011053414 0 0.35985245571789548 0.13256521397634091 0 0.33956800136883641 0.14149862746365649 0 0.36683777304884752 0.14518289586033359 0 0.35985245571789548 0.13256521397634091 0 0.36683777304884752 0.14518289586033359 0 0.37024230120578611 0.13336796185197819 0 0.3828943795393005 0.1298338505994551 0 0.36683777304884752 0.14518289586033359 0 0.35985245571789548 0.13256521397634091 0 0.37024230120578611 0.13336796185197819 0 0.35985245571789548 0.13256521397634091 0 0.37024230120578611 0.13336796185197819 0 0.37169283910029199 0.12815165521797289 0 0.37024230120578611 0.13336796185197819 0 0.37169283910029199 0.12815165521797289 0 0.3828943795393005 0.1298338505994551 0 0.37035748409374952 0.12191913965183331 0 0.35985245571789548 0.13256521397634091 0 0.37169283910029199 0.12815165521797289 0 0.37169283910029199 0.12815165521797289 0 0.3828943795393005 0.1298338505994551 0 0.37511757494472903 0.123072110010257 0 0.3828943795393005 0.1298338505994551 0 0.39816792615439378 0.12760480203569169 0 0.39443703245191569 0.14316330482662179 0 0.39816792615439378 0.12760480203569169 0 0.39443703245191569 0.14316330482662179 0 0.40813897635800228 0.13879757292358971 0 0.40355831469332321 0.14905262061052801 0 0.39443703245191569 0.14316330482662179 0 0.39831584160420508 0.1589856433255693 0 0.39443703245191569 0.14316330482662179 0 0.38328418214017468 0.15581326888627101 0 0.39831584160420508 0.1589856433255693 0 0.40355831469332321 0.14905262061052801 0 0.39831584160420508 0.1589856433255693 0 0.41313230378900101 0.1549252007201132 0 0.40355831469332321 0.14905262061052801 0 0.39443703245191569 0.14316330482662179 0 0.40813897635800228 0.13879757292358971 0 0.3828943795393005 0.1298338505994551 0 0.39443703245191569 0.14316330482662179 0 0.38328418214017468 0.15581326888627101 0 0.36683777304884752 0.14518289586033359 0 0.3828943795393005 0.1298338505994551 0 0.38328418214017468 0.15581326888627101 0 0.3828943795393005 0.1298338505994551 0 0.38328418214017468 0.15581326888627101 0 0.38328418214017468 0.15581326888627101 0 0.38367398474104891 0.18179268717308689 0 0.37486327834919952 0.17324080595030389 0 0.38328418214017468 0.15581326888627101 0 0.38367398474104891 0.18179268717308689 0 0.38328418214017468 0.15581326888627101 0 0.38367398474104891 0.18179268717308689 0 0.39626047774709761 0.17356948839180519 0 0.37486327834919952 0.17324080595030389 0 0.36699199379966768 0.18628457072029089 0 0.38367398474104891 0.18179268717308689 0 0.38367398474104891 0.18179268717308689 0 0.39626047774709761 0.17356948839180519 0 0.39402839101454218 0.18926537882500041 0 0.41201559310989622 0.1717711692121752 0 0.39402839101454218 0.18926537882500041 0 0.40911253846621609 0.1927355572029634 0 0.41201559310989622 0.1717711692121752 0 0.39402839101454218 0.18926537882500041 0 0.39626047774709761 0.17356948839180519 0 0.41201559310989622 0.1717711692121752 0 0.39402839101454218 0.18926537882500041 0 0.38328418214017468 0.15581326888627101 0 0.39626047774709761 0.17356948839180519 0 0.39831584160420508 0.1589856433255693 0 0.39626047774709761 0.17356948839180519 0 0.39831584160420508 0.1589856433255693 0 0.41201559310989622 0.1717711692121752 0 0.39831584160420508 0.1589856433255693 0 0.41201559310989622 0.1717711692121752 0 0.41313230378900101 0.1549252007201132 0 0.41201559310989622 0.1717711692121752 0 0.43000279520525009 0.1542769595993502 0 0.41201559310989622 0.1717711692121752 0 0.43000279520525009 0.1542769595993502 0 0.41313230378900101 0.1549252007201132 0 0.41201559310989622 0.1717711692121752 0 0.42496471626184562 0.18478050847474101 0 0.40911253846621609 0.1927355572029634 0 0.42496471626184562 0.18478050847474101 0 0.42886790669691233 0.1683305758749721 0 0.44390934378202151 0.1869955505783234 0 0.41201559310989622 0.1717711692121752 0 0.42496471626184562 0.18478050847474101 0 0.42886790669691233 0.1683305758749721 0 0.42886790669691233 0.1683305758749721 0 0.44390934378202151 0.1869955505783234 0 0.41201559310989622 0.1717711692121752 0 0.42886790669691233 0.1683305758749721 0 0.43000279520525009 0.1542769595993502 0 0.42886790669691233 0.1683305758749721 0 0.43000279520525009 0.1542769595993502 0 0.44221599041969212 0.16183818438693329 0 0.43000279520525009 0.1542769595993502 0 0.42332430940078591 0.1392784445062823 0 0.4479899973006039 0.1367827499865252 0 0.43000279520525009 0.1542769595993502 0 0.42332430940078591 0.1392784445062823 0 0.41313230378900101 0.1549252007201132 0 0.429848517254516 0.1255917524949702 0 0.42332430940078591 0.1392784445062823 0 0.41384889774502859 0.12525543762671809 0 0.429848517254516 0.1255917524949702 0 0.42332430940078591 0.1392784445062823 0 0.4479899973006039 0.1367827499865252 0 0.39816792615439378 0.12760480203569169 0 0.41384889774502859 0.12525543762671809 0 0.40813897635800228 0.13879757292358971 0 0.42332430940078591 0.1392784445062823 0 0.41384889774502859 0.12525543762671809 0 0.40813897635800228 0.13879757292358971 0 0.40355831469332321 0.14905262061052801 0 0.40813897635800228 0.13879757292358971 0 0.41313230378900101 0.1549252007201132 0 0.42332430940078591 0.1392784445062823 0 0.40813897635800228 0.13879757292358971 0 0.41313230378900101 0.1549252007201132 0 0.38511047713535562 0.2623718011005241 0 0.37293454716760283 0.2396311516560117 0 0.39933451681408499 0.24222051247515669 0 0.37293454716760283 0.2396311516560117 0 0.39933451681408499 0.24222051247515669 0 0.39045396999845727 0.2225958518425987 0 0.37280151553833601 0.22024831863616021 0 0.37293454716760283 0.2396311516560117 0 0.39045396999845727 0.2225958518425987 0 0.39933451681408499 0.24222051247515669 0 0.39045396999845727 0.2225958518425987 0 0.41502085935247712 0.2184770015477572 0 0.39045396999845727 0.2225958518425987 0 0.39965272480706299 0.2061417744041574 0 0.38406378734192298 0.20777210545990279 0 0.39045396999845727 0.2225958518425987 0 0.39965272480706299 0.2061417744041574 0 0.41502085935247712 0.2184770015477572 0 0.37280151553833601 0.22024831863616021 0 0.39045396999845727 0.2225958518425987 0 0.38406378734192298 0.20777210545990279 0 0.36735815001373812 0.20351917688449569 0 0.38367398474104891 0.18179268717308689 0 0.38406378734192298 0.20777210545990279 0 0.38367398474104891 0.18179268717308689 0 0.38406378734192298 0.20777210545990279 0 0.38367398474104891 0.18179268717308689 0 0.38406378734192298 0.20777210545990279 0 0.39402839101454218 0.18926537882500041 0 0.39965272480706299 0.2061417744041574 0 0.38406378734192298 0.20777210545990279 0 0.39402839101454218 0.18926537882500041 0 0.39965272480706299 0.2061417744041574 0 0.39402839101454218 0.18926537882500041 0 0.40911253846621609 0.1927355572029634 0 0.42496471626184562 0.18478050847474101 0 0.40911253846621609 0.1927355572029634 0 0.43133039545531981 0.20312972213906441 0 0.42496471626184562 0.18478050847474101 0 0.43133039545531981 0.20312972213906441 0 0.44390934378202151 0.1869955505783234 0 0.43133039545531981 0.20312972213906441 0 0.41502085935247712 0.2184770015477572 0 0.43839838412078092 0.2247149777195776 0 0.40911253846621609 0.1927355572029634 0 0.41502085935247712 0.2184770015477572 0 0.40911253846621609 0.1927355572029634 0 0.43133039545531981 0.20312972213906441 0 0.41502085935247712 0.2184770015477572 0 0.39965272480706299 0.2061417744041574 0 0.40911253846621609 0.1927355572029634 0 0.41502085935247712 0.2184770015477572 0 0.41502085935247712 0.2184770015477572 0 0.42092918023873821 0.24421844589255121 0 0.41502085935247712 0.2184770015477572 0 0.42092918023873821 0.24421844589255121 0 0.43839838412078092 0.2247149777195776 0 0.42092918023873821 0.24421844589255121 0 0.44272868649399699 0.2414724783298311 0 0.43839838412078092 0.2247149777195776 0 0.44089414042045799 0.25771217685885472 0 0.42092918023873821 0.24421844589255121 0 0.44272868649399699 0.2414724783298311 0 0.39933451681408499 0.24222051247515669 0 0.41502085935247712 0.2184770015477572 0 0.42092918023873821 0.24421844589255121 0 0.46750550623703407 0.25349570762290419 0 0.4569230610569987 0.24819013429900669 0 0.47278153852907701 0.24486280325581439 0 0.4569230610569987 0.24819013429900669 0 0.45723446189795819 0.23161380727854039 0 0.47278153852907701 0.24486280325581439 0 0.4569230610569987 0.24819013429900669 0 0.44272868649399699 0.2414724783298311 0 0.45723446189795819 0.23161380727854039 0 0.44089414042045799 0.25771217685885472 0 0.4569230610569987 0.24819013429900669 0 0.44272868649399699 0.2414724783298311 0 0.43839838412078092 0.2247149777195776 0 0.45723446189795819 0.23161380727854039 0 0.45895078086713059 0.20566052528167461 0 0.44272868649399699 0.2414724783298311 0 0.43839838412078092 0.2247149777195776 0 0.45723446189795819 0.23161380727854039 0 0.45723446189795819 0.23161380727854039 0 0.47399221795223978 0.22432549998502579 0 0.47278153852907701 0.24486280325581439 0 0.45723446189795819 0.23161380727854039 0 0.45895078086713059 0.20566052528167461 0 0.47399221795223978 0.22432549998502579 0 0.45895078086713059 0.20566052528167461 0 0.47399221795223978 0.22432549998502579 0 0.43133039545531981 0.20312972213906441 0 0.43839838412078092 0.2247149777195776 0 0.45895078086713059 0.20566052528167461 0 0.43133039545531981 0.20312972213906441 0 0.45895078086713059 0.20566052528167461 0 0.44390934378202151 0.1869955505783234 0 0.45895078086713059 0.20566052528167461 0 0.44390934378202151 0.1869955505783234 0 0.45895078086713059 0.20566052528167461 0 0.44390934378202151 0.1869955505783234 0 0.47471792995388828 0.18435875067661631 0 0.45895078086713059 0.20566052528167461 0 0.47967819324703809 0.2043502093285503 0 0.47471792995388828 0.18435875067661631 0 0.5 0.20006456793442701 0 0.47967819324703809 0.2043502093285503 0 0.47471792995388828 0.18435875067661631 0 0.5 0.20006456793442701 0 0.48813206750880261 0.21755351138133391 0 0.47967819324703809 0.2043502093285503 0 0.5 0.20006456793442701 0 0.48813206750880261 0.21755351138133391 0 0.5 0.22779789293978581 0 0.45895078086713059 0.20566052528167461 0 0.47967819324703809 0.2043502093285503 0 0.47399221795223978 0.22432549998502579 0 0.48813206750880261 0.21755351138133391 0 0.47967819324703809 0.2043502093285503 0 0.47399221795223978 0.22432549998502579 0 0.48813206750880261 0.21755351138133391 0 0.47399221795223978 0.22432549998502579 0 0.48903365503734891 0.24299047468837701 0 0.47399221795223978 0.22432549998502579 0 0.48903365503734891 0.24299047468837701 0 0.48813206750880261 0.21755351138133391 0 0.5 0.22779789293978581 0 0.48903365503734891 0.24299047468837701 0 0.5 0.25553121794514477 0 0.5 0.22779789293978581 0 0.48903365503734891 0.24299047468837701 0 0.48489893488970792 0.25686202981026901 0 0.48903365503734891 0.24299047468837701 0 0.47278153852907701 0.24486280325581439 0 0.47399221795223978 0.22432549998502579 0 0.48903365503734891 0.24299047468837701 0 0.47278153852907701 0.24486280325581439 0 0.4479899973006039 0.1367827499865252 0 0.46030990911367259 0.16280508589549539 0 0.47332178232586258 0.14483424446409521 0 0.4479899973006039 0.1367827499865252 0 0.47332178232586258 0.14483424446409521 0 0.46597719939595772 0.11928854037370019 0 0.4479899973006039 0.1367827499865252 0 0.46597719939595772 0.11928854037370019 0 0.429848517254516 0.1255917524949702 0 0.4479899973006039 0.1367827499865252 0 0.44441253831551758 0.1138689947079024 0 0.43000279520525009 0.1542769595993502 0 0.4479899973006039 0.1367827499865252 0 0.44221599041969212 0.16183818438693329 0 0.43000279520525009 0.1542769595993502 0 0.4479899973006039 0.1367827499865252 0 0.4479899973006039 0.1367827499865252 0 0.44221599041969212 0.16183818438693329 0 0.46030990911367259 0.16280508589549539 0 0.44221599041969212 0.16183818438693329 0 0.44390934378202151 0.1869955505783234 0 0.46030990911367259 0.16280508589549539 0 0.42886790669691233 0.1683305758749721 0 0.44221599041969212 0.16183818438693329 0 0.44390934378202151 0.1869955505783234 0 0.44390934378202151 0.1869955505783234 0 0.46030990911367259 0.16280508589549539 0 0.47471792995388828 0.18435875067661631 0 0.46030990911367259 0.16280508589549539 0 0.48162298028441808 0.16304382698580119 0 0.47332178232586258 0.14483424446409521 0 0.46030990911367259 0.16280508589549539 0 0.48162298028441808 0.16304382698580119 0 0.47471792995388828 0.18435875067661631 0 0.5 0.20006456793442701 0 0.47471792995388828 0.18435875067661631 0 0.5 0.17233124292906801 0 0.48162298028441808 0.16304382698580119 0 0.47471792995388828 0.18435875067661631 0 0.5 0.17233124292906801 0 0.48162298028441808 0.16304382698580119 0 0.5 0.17233124292906801 0 0.5 0.14459791792370899 0 0.48162298028441808 0.16304382698580119 0 0.5 0.14459791792370899 0 0.47332178232586258 0.14483424446409521 0 0.47332178232586258 0.14483424446409521 0 0.48369720064842647 0.1280225697211729 0 0.46597719939595772 0.11928854037370019 0 0.5 0.14459791792370899 0 0.48369720064842647 0.1280225697211729 0 0.5 0.1168645929183502 0 0.5 0.14459791792370899 0 0.47332178232586258 0.14483424446409521 0 0.48369720064842647 0.1280225697211729 0 0.48369720064842647 0.1280225697211729 0 0.5 0.1168645929183502 0 0.47911227232856668 0.09907818001940101 0 0.5 0.1168645929183502 0 0.47911227232856668 0.09907818001940101 0 0.5 0.089131267912991197 0 0.48369720064842647 0.1280225697211729 0 0.47911227232856668 0.09907818001940101 0 0.46597719939595772 0.11928854037370019 0 0.48592231416185638 0.0752646054103117 0 0.5 0.089131267912991197 0 0.5 0.06139794290763223 0 0.47911227232856668 0.09907818001940101 0 0.48592231416185638 0.0752646054103117 0 0.5 0.089131267912991197 0 0.47911227232856668 0.09907818001940101 0 0.48592231416185638 0.0752646054103117 0 0.46599422920766509 0.071585542922595516 0 0.48592231416185638 0.0752646054103117 0 0.46599422920766509 0.071585542922595516 0 0.47969083044660421 0.050503904472553283 0 0.47911227232856668 0.09907818001940101 0 0.46599422920766509 0.071585542922595516 0 0.45660210543223351 0.096238293732025512 0 0.46599422920766509 0.071585542922595516 0 0.44319262383460789 0.070531660330671375 0 0.45660210543223351 0.096238293732025512 0 0.44319262383460789 0.070531660330671375 0 0.45660210543223351 0.096238293732025512 0 0.43559540491542181 0.095634413362833848 0 0.46597719939595772 0.11928854037370019 0 0.45660210543223351 0.096238293732025512 0 0.44441253831551758 0.1138689947079024 0 0.47911227232856668 0.09907818001940101 0 0.46597719939595772 0.11928854037370019 0 0.45660210543223351 0.096238293732025512 0 0.45660210543223351 0.096238293732025512 0 0.44441253831551758 0.1138689947079024 0 0.43559540491542181 0.095634413362833848 0 0.4479899973006039 0.1367827499865252 0 0.46597719939595772 0.11928854037370019 0 0.44441253831551758 0.1138689947079024 0 0.429848517254516 0.1255917524949702 0 0.44441253831551758 0.1138689947079024 0 0.42416274095453271 0.1101558860989641 0 0.429848517254516 0.1255917524949702 0 0.41384889774502859 0.12525543762671809 0 0.42416274095453271 0.1101558860989641 0 0.41384889774502859 0.12525543762671809 0 0.42416274095453271 0.1101558860989641 0 0.40716605829359193 0.1120264799895512 0 0.39816792615439378 0.12760480203569169 0 0.41384889774502859 0.12525543762671809 0 0.40716605829359193 0.1120264799895512 0 0.40716605829359193 0.1120264799895512 0 0.41525133388600899 0.093407911538609431 0 0.39656535672550852 0.092974877928873267 0 0.42416274095453271 0.1101558860989641 0 0.40716605829359193 0.1120264799895512 0 0.41525133388600899 0.093407911538609431 0 0.42416274095453271 0.1101558860989641 0 0.43559540491542181 0.095634413362833848 0 0.41525133388600899 0.093407911538609431 0 0.44441253831551758 0.1138689947079024 0 0.42416274095453271 0.1101558860989641 0 0.43559540491542181 0.095634413362833848 0 0.43559540491542181 0.095634413362833848 0 0.4195547633014628 0.073570994746074828 0 0.41525133388600899 0.093407911538609431 0 0.43559540491542181 0.095634413362833848 0 0.4195547633014628 0.073570994746074828 0 0.44319262383460789 0.070531660330671375 0 0.43559540491542181 0.095634413362833848 0 0.4195547633014628 0.073570994746074828 0 0.44319262383460789 0.070531660330671375 0 0.4195547633014628 0.073570994746074828 0 0.42728191937221521 0.050914286525162993 0 0.4195547633014628 0.073570994746074828 0 0.39780951386322527 0.071813900777571313 0 0.40351412168750378 0.051507576129315842 0 0.4195547633014628 0.073570994746074828 0 0.40351412168750378 0.051507576129315842 0 0.4195547633014628 0.073570994746074828 0 0.41525133388600899 0.093407911538609431 0 0.39780951386322527 0.071813900777571313 0 0.41525133388600899 0.093407911538609431 0 0.39656535672550852 0.092974877928873267 0 0.39780951386322527 0.071813900777571313 0 0.37400882161871279 0.083619613235024759 0 0.37883567044039879 0.062600723425798879 0 0.39780951386322527 0.071813900777571313 0 0.37883567044039879 0.062600723425798879 0 0.3909554563133032 0.056876008487314757 0 0.37400882161871279 0.083619613235024759 0 0.39780951386322527 0.071813900777571313 0 0.37883567044039879 0.062600723425798879 0 0.37400882161871279 0.083619613235024759 0 0.39656535672550852 0.092974877928873267 0 0.38808178026068268 0.10392801007035141 0 0.37400882161871279 0.083619613235024759 0 0.39656535672550852 0.092974877928873267 0 0.39780951386322527 0.071813900777571313 0 0.37455144446510141 0.10193275935197101 0 0.37400882161871279 0.083619613235024759 0 0.38808178026068268 0.10392801007035141 0 0.37455144446510141 0.10193275935197101 0 0.38808178026068268 0.10392801007035141 0 0.37815432920295677 0.1109533992790251 0 0.37035748409374952 0.12191913965183331 0 0.38876177119367089 0.116972809820693 0 0.37035748409374952 0.12191913965183331 0 0.37511757494472903 0.123072110010257 0 0.38876177119367089 0.116972809820693 0 0.37035748409374952 0.12191913965183331 0 0.37815432920295677 0.1109533992790251 0 0.38876177119367089 0.116972809820693 0 0.3828943795393005 0.1298338505994551 0 0.37511757494472903 0.123072110010257 0 0.38876177119367089 0.116972809820693 0 0.3828943795393005 0.1298338505994551 0 0.39816792615439378 0.12760480203569169 0 0.38876177119367089 0.116972809820693 0 0.38808178026068268 0.10392801007035141 0 0.37815432920295677 0.1109533992790251 0 0.38876177119367089 0.116972809820693 0 0.40716605829359193 0.1120264799895512 0 0.38876177119367089 0.116972809820693 0 0.39816792615439378 0.12760480203569169 0 0.40716605829359193 0.1120264799895512 0 0.38876177119367089 0.116972809820693 0 0.40716605829359193 0.1120264799895512 0 0.38808178026068268 0.10392801007035141 0 0.38876177119367089 0.116972809820693 0 0.40716605829359193 0.1120264799895512 0 0.39656535672550852 0.092974877928873267 0 0.38808178026068268 0.10392801007035141 0 0.39895333728429933 0.027539300906755181 0 0.38848936808377088 0.020562943807347231 0 0.4122691541308795 0.010257189796790951 0 0.39895333728429933 0.027539300906755181 0 0.38848936808377088 0.020562943807347231 0 0.38747348007354487 0.029444157512556919 0 0.39212595536292472 0.0047271407553128551 0 0.4122691541308795 0.010257189796790951 0 0.40542454288086849 -0.004070234290400764 0 0.38848936808377088 0.020562943807347231 0 0.4122691541308795 0.010257189796790951 0 0.39212595536292472 0.0047271407553128551 0 0.38848936808377088 0.020562943807347231 0 0.4122691541308795 0.010257189796790951 0 0.39212595536292472 0.0047271407553128551 0 0.38120377069012762 0.010554394007073271 0 0.36845156083710567 -0.0060515153414843056 0 0.36934971840039982 0.01412264887454192 0 0.38120377069012762 0.010554394007073271 0 0.38848936808377088 0.020562943807347231 0 0.39212595536292472 0.0047271407553128551 0 0.38120377069012762 0.010554394007073271 0 0.38848936808377088 0.020562943807347231 0 0.39212595536292472 0.0047271407553128551 0 0.38848936808377088 0.020562943807347231 0 0.38848936808377088 0.020562943807347231 0 0.38747348007354487 0.029444157512556919 0 0.38366251926208489 0.041581833616573027 0 0.38848936808377088 0.020562943807347231 0 0.38366251926208489 0.041581833616573027 0 0.36096242836060388 0.032492650360987897 0 0.38848936808377088 0.020562943807347231 0 0.38366251926208489 0.041581833616573027 0 0.37883567044039879 0.062600723425798879 0 0.38366251926208489 0.041581833616573027 0 0.3909554563133032 0.056876008487314757 0 0.37883567044039879 0.062600723425798879 0 0.38366251926208489 0.041581833616573027 0 0.36884998715724038 0.048654936693666287 0 0.37883567044039879 0.062600723425798879 0 0.38366251926208489 0.041581833616573027 0 0.38366251926208489 0.041581833616573027 0 0.40351412168750378 0.051507576129315842 0 0.3909554563133032 0.056876008487314757 0 0.39780951386322527 0.071813900777571313 0 0.40351412168750378 0.051507576129315842 0 0.3909554563133032 0.056876008487314757 0 0.38747348007354487 0.029444157512556919 0 0.40351412168750378 0.051507576129315842 0 0.39895333728429933 0.027539300906755181 0 0.40351412168750378 0.051507576129315842 0 0.40867742594100492 0.02913313449165824 0 0.39895333728429933 0.027539300906755181 0 0.38747348007354487 0.029444157512556919 0 0.40351412168750378 0.051507576129315842 0 0.38747348007354487 0.029444157512556919 0 0.38366251926208489 0.041581833616573027 0 0.40351412168750378 0.051507576129315842 0 0.40351412168750378 0.051507576129315842 0 0.41712069737947322 0.039684074088297272 0 0.40867742594100492 0.02913313449165824 0 0.41712069737947322 0.039684074088297272 0 0.42900932251716922 0.027181299207052031 0 0.40867742594100492 0.02913313449165824 0 0.40351412168750378 0.051507576129315842 0 0.41712069737947322 0.039684074088297272 0 0.42728191937221521 0.050914286525162993 0 0.4195547633014628 0.073570994746074828 0 0.40351412168750378 0.051507576129315842 0 0.42728191937221521 0.050914286525162993 0 0.41712069737947322 0.039684074088297272 0 0.42728191937221521 0.050914286525162993 0 0.42900932251716922 0.027181299207052031 0 0.42728191937221521 0.050914286525162993 0 0.42900932251716922 0.027181299207052031 0 0.45357816737839107 0.043281393992262968 0 0.42900932251716922 0.027181299207052031 0 0.40867742594100492 0.02913313449165824 0 0.4122691541308795 0.010257189796790951 0 0.39895333728429933 0.027539300906755181 0 0.40867742594100492 0.02913313449165824 0 0.4122691541308795 0.010257189796790951 0 0.4122691541308795 0.010257189796790951 0 0.42733427856619571 -0.0085863840744332814 0 0.43604894017798812 -4.8564213765240817e-05 0 0.42900932251716922 0.027181299207052031 0 0.4122691541308795 0.010257189796790951 0 0.43604894017798812 -4.8564213765240817e-05 0 0.4122691541308795 0.010257189796790951 0 0.43604894017798812 -4.8564213765240817e-05 0 0.45021491583924189 0.016350560368503721 0 0.45982872622509668 -0.01035431822432146 0 0.43604894017798812 -4.8564213765240817e-05 0 0.42900932251716922 0.027181299207052031 0 0.45021491583924189 0.016350560368503721 0 0.43604894017798812 -4.8564213765240817e-05 0 0.42900932251716922 0.027181299207052031 0 0.45021491583924189 0.016350560368503721 0 0.45357816737839107 0.043281393992262968 0 0.45021491583924189 0.016350560368503721 0 0.45357816737839107 0.043281393992262968 0 0.47265027193171238 0.017829323700243871 0 0.45021491583924189 0.016350560368503721 0 0.47265027193171238 0.017829323700243871 0 0.45982872622509668 -0.01035431822432146 0 0.45357816737839107 0.043281393992262968 0 0.47969083044660421 0.050503904472553283 0 0.47265027193171238 0.017829323700243871 0 0.44319262383460789 0.070531660330671375 0 0.42728191937221521 0.050914286525162993 0 0.45357816737839107 0.043281393992262968 0 0.46599422920766509 0.071585542922595516 0 0.44319262383460789 0.070531660330671375 0 0.45357816737839107 0.043281393992262968 0 0.46599422920766509 0.071585542922595516 0 0.45357816737839107 0.043281393992262968 0 0.47969083044660421 0.050503904472553283 0 0.47969083044660421 0.050503904472553283 0 0.5 0.033664617902273368 0 0.47265027193171238 0.017829323700243871 0 0.48592231416185638 0.0752646054103117 0 0.47969083044660421 0.050503904472553283 0 0.5 0.06139794290763223 0 0.47969083044660421 0.050503904472553283 0 0.5 0.033664617902273368 0 0.5 0.06139794290763223 0 0.5 0.033664617902273368 0 0.47265027193171238 0.017829323700243871 0 0.5 0.0059312928969145204 0 0.47265027193171238 0.017829323700243871 0 0.5 0.0059312928969145204 0 0.48261795830076532 -0.0084137270416950408 0 0.5 0.0059312928969145204 0 0.48261795830076532 -0.0084137270416950408 0 0.5 -0.021802032108444391 0 0.47265027193171238 0.017829323700243871 0 0.48261795830076532 -0.0084137270416950408 0 0.45982872622509668 -0.01035431822432146 0 0.48261795830076532 -0.0084137270416950408 0 0.48385521188952352 -0.03103713942335571 0 0.45982872622509668 -0.01035431822432146 0 0.48385521188952352 -0.03103713942335571 0 0.46768790053651399 -0.040232759786602873 0 0.45982872622509668 -0.01035431822432146 0 0.48261795830076532 -0.0084137270416950408 0 0.48385521188952352 -0.03103713942335571 0 0.5 -0.021802032108444391 0 0.48385521188952352 -0.03103713942335571 0 0.49518245524492172 -0.045789595090724652 0 0.49482530481253351 -0.04804557135493729 0 0.5 -0.021802032108444391 0 0.49518245524492172 -0.045789595090724652 0 0.49999999999998263 -0.049535357113803247 0 0.48385521188952352 -0.03103713942335571 0 0.5 -0.021802032108444391 0 0.49518245524492172 -0.045789595090724652 0 0.49482530481253351 -0.04804557135493729 0 0.47636674367150789 -0.060588545727567042 0 0.49016972248203172 -0.07745302065780417 0 0.49999999999998263 -0.049535357113803247 0 0.49482530481253351 -0.04804557135493729 0 0.49016972248203172 -0.07745302065780417 0 0.49999999999998263 -0.049535357113803247 0 0.49482530481253351 -0.04804557135493729 0 0.49518245524492172 -0.045789595090724652 0 0.49999999999998263 -0.049535357113803247 0 0.49482530481253351 -0.04804557135493729 0 0.49518245524492172 -0.045789595090724652 0 0.49482530481253351 -0.04804557135493729 0 0.49482530481253351 -0.04804557135493729 0 0.47636674367150789 -0.060588545727567042 0 0.46768790053651399 -0.040232759786602873 0 0.49482530481253351 -0.04804557135493729 0 0.46768790053651399 -0.040232759786602873 0 0.48385521188952352 -0.03103713942335571 0 0.49482530481253351 -0.04804557135493729 0 0.46768790053651399 -0.040232759786602873 0 0.46768790053651399 -0.040232759786602873 0 0.44055049626049481 -0.03241994821826754 0 0.47636674367150789 -0.060588545727567042 0 0.46768790053651399 -0.040232759786602873 0 0.44971823816913109 -0.058611894661768998 0 0.46768790053651399 -0.040232759786602873 0 0.44971823816913109 -0.058611894661768998 0 0.44055049626049481 -0.03241994821826754 0 0.44971823816913109 -0.058611894661768998 0 0.44055049626049481 -0.03241994821826754 0 0.42776585910878662 -0.047462582859365887 0 0.44055049626049481 -0.03241994821826754 0 0.43862233638968018 -0.01433991032473066 0 0.45982872622509668 -0.01035431822432146 0 0.45982872622509668 -0.01035431822432146 0 0.43604894017798812 -4.8564213765240817e-05 0 0.43862233638968018 -0.01433991032473066 0 0.45982872622509668 -0.01035431822432146 0 0.43604894017798812 -4.8564213765240817e-05 0 0.46768790053651399 -0.040232759786602873 0 0.44055049626049481 -0.03241994821826754 0 0.45982872622509668 -0.01035431822432146 0 0.47499259514944292 -0.1202547269832886 0 0.48551414015152222 -0.10686046996066979 0 0.48085855782101261 -0.13626791926353529 0 0.47418157221881441 -0.11112465676427991 0 0.47528951870947961 -0.09927779745641295 0 0.46093003486481321 -0.11810563265674839 0 0.48551414015152222 -0.10686046996066979 0 0.48085855782101261 -0.13626791926353529 0 0.47499259514944292 -0.1202547269832886 0 0.46093003486481321 -0.11810563265674839 0 0.47239045088042492 -0.13005034139104371 0 0.47499259514944292 -0.1202547269832886 0 0.47418157221881441 -0.11112465676427991 0 0.46093003486481321 -0.11810563265674839 0 0.47499259514944292 -0.1202547269832886 0 0.47418157221881441 -0.11112465676427991 0 0.48551414015152222 -0.10686046996066979 0 0.48986304781109291 -0.1242692167884092 0 0.49384429699065369 -0.1173080088948287 0 0.48551414015152222 -0.10686046996066979 0 0.48986304781109291 -0.1242692167884092 0 0.48551414015152222 -0.10686046996066979 0 0.48085855782101261 -0.13626791926353529 0 0.49384429699065369 -0.1173080088948287 0 0.5 -0.1051480109548549 0 0.5 -0.13295433787538069 0 0.48986304781109291 -0.1242692167884092 0 0.49384429699065369 -0.1173080088948287 0 0.5 -0.13295433787538069 0 0.49384429699065369 -0.1173080088948287 0 0.48551414015152222 -0.10686046996066979 0 0.5 -0.1051480109548549 0 0.48551414015152222 -0.10686046996066979 0 0.5 -0.1051480109548549 0 0.49016972248203172 -0.07745302065780417 0 0.48551414015152222 -0.10686046996066979 0 0.47528951870947961 -0.09927779745641295 0 0.4786949329242487 -0.090297096352784045 0 0.47418157221881441 -0.11112465676427991 0 0.48551414015152222 -0.10686046996066979 0 0.47528951870947961 -0.09927779745641295 0 0.47494193394216588 -0.078729965701305249 0 0.4786949329242487 -0.090297096352784045 0 0.46755934933604398 -0.089164227987728051 0 0.47528951870947961 -0.09927779745641295 0 0.4786949329242487 -0.090297096352784045 0 0.46755934933604398 -0.089164227987728051 0 0.47494193394216588 -0.078729965701305249 0 0.4786949329242487 -0.090297096352784045 0 0.49016972248203172 -0.07745302065780417 0 0.48551414015152222 -0.10686046996066979 0 0.49016972248203172 -0.07745302065780417 0 0.5 -0.1051480109548549 0 0.49016972248203172 -0.07745302065780417 0 0.5 -0.077341684034329061 0 0.48551414015152222 -0.10686046996066979 0 0.4786949329242487 -0.090297096352784045 0 0.49016972248203172 -0.07745302065780417 0 0.49999999999998263 -0.049535357113803247 0 0.49016972248203172 -0.07745302065780417 0 0.5 -0.077341684034329061 0 0.49482530481253351 -0.04804557135493729 0 0.49016972248203172 -0.07745302065780417 0 0.47636674367150789 -0.060588545727567042 0 0.47494193394216588 -0.078729965701305249 0 0.49016972248203172 -0.07745302065780417 0 0.47636674367150789 -0.060588545727567042 0 0.47494193394216588 -0.078729965701305249 0 0.4592808493329405 -0.078369632624057675 0 0.47636674367150789 -0.060588545727567042 0 0.44971823816913109 -0.058611894661768998 0 0.4592808493329405 -0.078369632624057675 0 0.47636674367150789 -0.060588545727567042 0 0.4592808493329405 -0.078369632624057675 0 0.44971823816913109 -0.058611894661768998 0 0.44126951216661869 -0.079236189142810429 0 0.42731029070553322 -0.068277018127587574 0 0.44971823816913109 -0.058611894661768998 0 0.44126951216661869 -0.079236189142810429 0 0.4592808493329405 -0.078369632624057675 0 0.4592808493329405 -0.078369632624057675 0 0.44219495499437311 -0.096150719520548239 0 0.44126951216661869 -0.079236189142810429 0 0.4592808493329405 -0.078369632624057675 0 0.44219495499437311 -0.096150719520548239 0 0.47494193394216588 -0.078729965701305249 0 0.4592808493329405 -0.078369632624057675 0 0.46755934933604398 -0.089164227987728051 0 0.4592808493329405 -0.078369632624057675 0 0.46755934933604398 -0.089164227987728051 0 0.44219495499437311 -0.096150719520548239 0 0.46755934933604398 -0.089164227987728051 0 0.46093003486481321 -0.11810563265674839 0 0.46755934933604398 -0.089164227987728051 0 0.44219495499437311 -0.096150719520548239 0 0.46093003486481321 -0.11810563265674839 0 0.47528951870947961 -0.09927779745641295 0 0.46755934933604398 -0.089164227987728051 0 0.46093003486481321 -0.11810563265674839 0 0.441730170532879 -0.1159420230490274 0 0.46093003486481321 -0.11810563265674839 0 0.44582693855797939 -0.1311402400572215 0 0.44219495499437311 -0.096150719520548239 0 0.441730170532879 -0.1159420230490274 0 0.46093003486481321 -0.11810563265674839 0 0.42510906065580589 -0.11393180641703871 0 0.40802316631723889 -0.13171289331352951 0 0.40725115801851319 -0.1169919833964142 0 0.42510906065580589 -0.11393180641703871 0 0.40802316631723889 -0.13171289331352951 0 0.40725115801851319 -0.1169919833964142 0 0.42510906065580589 -0.11393180641703871 0 0.4147200547274239 -0.1079547067436207 0 0.40725115801851319 -0.1169919833964142 0 0.4147200547274239 -0.1079547067436207 0 0.40692444267373179 -0.1088204768843429 0 0.441730170532879 -0.1159420230490274 0 0.42510906065580589 -0.11393180641703871 0 0.43087782981676859 -0.131879285754128 0 0.44219495499437311 -0.096150719520548239 0 0.42510906065580589 -0.11393180641703871 0 0.44219495499437311 -0.096150719520548239 0 0.441730170532879 -0.1159420230490274 0 0.42510906065580589 -0.11393180641703871 0 0.44219495499437311 -0.096150719520548239 0 0.42510906065580589 -0.11393180641703871 0 0.4234909377050316 -0.092737982748798881 0 0.42510906065580589 -0.11393180641703871 0 0.4147200547274239 -0.1079547067436207 0 0.4234909377050316 -0.092737982748798881 0 0.4147200547274239 -0.1079547067436207 0 0.40904120664506322 -0.09935874077938342 0 0.4234909377050316 -0.092737982748798881 0 0.4147200547274239 -0.1079547067436207 0 0.40692444267373179 -0.1088204768843429 0 0.40904120664506322 -0.09935874077938342 0 0.40904120664506322 -0.09935874077938342 0 0.4234909377050316 -0.092737982748798881 0 0.40226126486411301 -0.082186696628613137 0 0.4234909377050316 -0.092737982748798881 0 0.42731029070553322 -0.068277018127587574 0 0.40226126486411301 -0.082186696628613137 0 0.44126951216661869 -0.079236189142810429 0 0.4234909377050316 -0.092737982748798881 0 0.42731029070553322 -0.068277018127587574 0 0.44126951216661869 -0.079236189142810429 0 0.44219495499437311 -0.096150719520548239 0 0.4234909377050316 -0.092737982748798881 0 0.42731029070553322 -0.068277018127587574 0 0.40226126486411301 -0.082186696628613137 0 0.40783717842429862 -0.053396916639273179 0 0.40226126486411301 -0.082186696628613137 0 0.40783717842429862 -0.053396916639273179 0 0.38429333219820472 -0.067131704106828338 0 0.40226126486411301 -0.082186696628613137 0 0.40783717842429862 -0.053396916639273179 0 0.38429333219820472 -0.067131704106828338 0 0.38199460798391838 -0.085246791459625215 0 0.40226126486411301 -0.082186696628613137 0 0.38199460798391838 -0.085246791459625215 0 0.40226126486411301 -0.082186696628613137 0 0.39106825526090561 -0.1007030293946076 0 0.40226126486411301 -0.082186696628613137 0 0.39106825526090561 -0.1007030293946076 0 0.39668535130392929 -0.1109764766179535 0 0.40904120664506322 -0.09935874077938342 0 0.40226126486411301 -0.082186696628613137 0 0.39668535130392929 -0.1109764766179535 0 0.40226126486411301 -0.082186696628613137 0 0.39668535130392929 -0.1109764766179535 0 0.40692444267373179 -0.1088204768843429 0 0.40904120664506322 -0.09935874077938342 0 0.39668535130392929 -0.1109764766179535 0 0.39106825526090561 -0.1007030293946076 0 0.39668535130392929 -0.1109764766179535 0 0.39106825526090561 -0.1007030293946076 0 0.3799934613124491 -0.1141351934829782 0 0.39668535130392929 -0.1109764766179535 0 0.38199460798391838 -0.085246791459625215 0 0.39106825526090561 -0.1007030293946076 0 0.37706007999693841 -0.1011775095245466 0 0.39106825526090561 -0.1007030293946076 0 0.37706007999693841 -0.1011775095245466 0 0.3799934613124491 -0.1141351934829782 0 0.3799934613124491 -0.1141351934829782 0 0.39668535130392929 -0.1109764766179535 0 0.3932705088567644 -0.1286081277708763 0 0.3799934613124491 -0.1141351934829782 0 0.37104303648388809 -0.1272612894930944 0 0.3932705088567644 -0.1286081277708763 0 0.40224748518751269 -0.1211494002184121 0 0.3932705088567644 -0.1286081277708763 0 0.39668535130392929 -0.1109764766179535 0 0.3932705088567644 -0.1286081277708763 0 0.39668535130392929 -0.1109764766179535 0 0.40224748518751269 -0.1211494002184121 0 0.3932705088567644 -0.1286081277708763 0 0.40725115801851319 -0.1169919833964142 0 0.39668535130392929 -0.1109764766179535 0 0.40224748518751269 -0.1211494002184121 0 0.39668535130392929 -0.1109764766179535 0 0.40224748518751269 -0.1211494002184121 0 0.40725115801851319 -0.1169919833964142 0 0.40692444267373179 -0.1088204768843429 0 0.39668535130392929 -0.1109764766179535 0 0.40725115801851319 -0.1169919833964142 0 0.40224748518751269 -0.1211494002184121 0 0.40725115801851319 -0.1169919833964142 0 0.40224748518751269 -0.1211494002184121 0 0.40802316631723889 -0.13171289331352951 0 0.42156842614681772 -0.015954947998216139 0 0.41341309198447568 -0.024607136649931451 0 0.42934924071862562 -0.02029033689286578 0 0.41341309198447568 -0.024607136649931451 0 0.41617709331797431 -0.010335934375633319 0 0.42156842614681772 -0.015954947998216139 0 0.41341309198447568 -0.024607136649931451 0 0.41617709331797431 -0.010335934375633319 0 0.41341309198447568 -0.024607136649931451 0 0.40231254689356027 -0.037392070823486202 0 0.40309603266908228 -0.02802239201193971 0 0.41341309198447568 -0.024607136649931451 0 0.41078796895048542 -0.01389090533175278 0 0.39783226839882679 -0.020121444594939791 0 0.41341309198447568 -0.024607136649931451 0 0.41078796895048542 -0.01389090533175278 0 0.41617709331797431 -0.010335934375633319 0 0.41078796895048542 -0.01389090533175278 0 0.41617709331797431 -0.010335934375633319 0 0.40542454288086849 -0.004070234290400764 0 0.4122691541308795 0.010257189796790951 0 0.41617709331797431 -0.010335934375633319 0 0.40542454288086849 -0.004070234290400764 0 0.4122691541308795 0.010257189796790951 0 0.41617709331797431 -0.010335934375633319 0 0.42733427856619571 -0.0085863840744332814 0 0.42156842614681772 -0.015954947998216139 0 0.41617709331797431 -0.010335934375633319 0 0.42733427856619571 -0.0085863840744332814 0 0.42156842614681772 -0.015954947998216139 0 0.42733427856619571 -0.0085863840744332814 0 0.42934924071862562 -0.02029033689286578 0 0.43862233638968018 -0.01433991032473066 0 0.42733427856619571 -0.0085863840744332814 0 0.43604894017798812 -4.8564213765240817e-05 0 0.43862233638968018 -0.01433991032473066 0 0.42733427856619571 -0.0085863840744332814 0 0.42934924071862562 -0.02029033689286578 0 0.44055049626049481 -0.03241994821826754 0 0.43862233638968018 -0.01433991032473066 0 0.42934924071862562 -0.02029033689286578 0 0.44055049626049481 -0.03241994821826754 0 0.41341309198447568 -0.024607136649931451 0 0.42934924071862562 -0.02029033689286578 0 0.44055049626049481 -0.03241994821826754 0 0.41341309198447568 -0.024607136649931451 0 0.44055049626049481 -0.03241994821826754 0 0.41341309198447568 -0.024607136649931451 0 0.42776585910878662 -0.047462582859365887 0 0.44971823816913109 -0.058611894661768998 0 0.42731029070553322 -0.068277018127587574 0 0.42776585910878662 -0.047462582859365887 0 0.42731029070553322 -0.068277018127587574 0 0.42776585910878662 -0.047462582859365887 0 0.40783717842429862 -0.053396916639273179 0 0.41341309198447568 -0.024607136649931451 0 0.42776585910878662 -0.047462582859365887 0 0.40783717842429862 -0.053396916639273179 0 0.41341309198447568 -0.024607136649931451 0 0.40783717842429862 -0.053396916639273179 0 0.40231254689356027 -0.037392070823486202 0 0.41341309198447568 -0.024607136649931451 0 0.40783717842429862 -0.053396916639273179 0 0.40231254689356027 -0.037392070823486202 0 0.3981973431289102 -0.028872790202489229 0 0.40309603266908228 -0.02802239201193971 0 0.40231254689356027 -0.037392070823486202 0 0.38732801778773829 -0.04651698367670077 0 0.38934459454031273 -0.029067224222560958 0 0.40783717842429862 -0.053396916639273179 0 0.40231254689356027 -0.037392070823486202 0 0.38732801778773829 -0.04651698367670077 0 0.40231254689356027 -0.037392070823486202 0 0.38934459454031273 -0.029067224222560958 0 0.3981973431289102 -0.028872790202489229 0 0.38429333219820472 -0.067131704106828338 0 0.40783717842429862 -0.053396916639273179 0 0.38732801778773829 -0.04651698367670077 0 0.38429333219820472 -0.067131704106828338 0 0.38732801778773829 -0.04651698367670077 0 0.37042415964797237 -0.053058901563766692 0 0.38732801778773829 -0.04651698367670077 0 0.37068698927403948 -0.035605583580554698 0 0.37042415964797237 -0.053058901563766692 0 0.38732801778773829 -0.04651698367670077 0 0.38934459454031273 -0.029067224222560958 0 0.37068698927403948 -0.035605583580554698 0 0.38934459454031273 -0.029067224222560958 0 0.36983137800827248 -0.01206003687362641 0 0.37068698927403948 -0.035605583580554698 0 0.38934459454031273 -0.029067224222560958 0 0.39783226839882679 -0.020121444594939791 0 0.36983137800827248 -0.01206003687362641 0 0.39783226839882679 -0.020121444594939791 0 0.36983137800827248 -0.01206003687362641 0 0.38934459454031273 -0.029067224222560958 0 0.3981973431289102 -0.028872790202489229 0 0.39783226839882679 -0.020121444594939791 0 0.41341309198447568 -0.024607136649931451 0 0.39783226839882679 -0.020121444594939791 0 0.41341309198447568 -0.024607136649931451 0 0.39783226839882679 -0.020121444594939791 0 0.40309603266908228 -0.02802239201193971 0 0.3981973431289102 -0.028872790202489229 0 0.39783226839882679 -0.020121444594939791 0 0.40309603266908228 -0.02802239201193971 0 0.39212595536292472 0.0047271407553128551 0 0.39576254264207811 -0.011108662296721609 0 0.39212595536292472 0.0047271407553128551 0 0.40542454288086849 -0.004070234290400764 0 0.39576254264207811 -0.011108662296721609 0 0.41078796895048542 -0.01389090533175278 0 0.39783226839882679 -0.020121444594939791 0 0.39576254264207811 -0.011108662296721609 0 0.41078796895048542 -0.01389090533175278 0 0.39576254264207811 -0.011108662296721609 0 0.41078796895048542 -0.01389090533175278 0 0.40542454288086849 -0.004070234290400764 0 0.39576254264207811 -0.011108662296721609 0 0.39783226839882679 -0.020121444594939791 0 0.39576254264207811 -0.011108662296721609 0 0.39576254264207811 -0.011108662296721609 0 0.36983137800827248 -0.01206003687362641 0 0.36845156083710567 -0.0060515153414843056 0 0.39576254264207811 -0.011108662296721609 0 0.36845156083710567 -0.0060515153414843056 0 0.39212595536292472 0.0047271407553128551 0 0.39576254264207811 -0.011108662296721609 0 0.36845156083710567 -0.0060515153414843056 0 0.39783226839882679 -0.020121444594939791 0 0.39576254264207811 -0.011108662296721609 0 0.36983137800827248 -0.01206003687362641 0 0.36983137800827248 -0.01206003687362641 0 0.36845156083710567 -0.0060515153414843056 0 0.34183048761771712 -0.0039986291523161147 0 0.36983137800827248 -0.01206003687362641 0 0.35223914962217417 -0.02278106829858554 0 0.37068698927403948 -0.035605583580554698 0 0.36983137800827248 -0.01206003687362641 0 0.35223914962217417 -0.02278106829858554 0 0.34183048761771712 -0.0039986291523161147 0 0.36983137800827248 -0.01206003687362641 0 0.34183048761771712 -0.0039986291523161147 0 0.36845156083710567 -0.0060515153414843056 0 0.34114057903213352 -0.00099436838624600288 0 0.36845156083710567 -0.0060515153414843056 0 0.34183048761771712 -0.0039986291523161147 0 0.34114057903213352 -0.00099436838624600288 0 0.35223914962217417 -0.02278106829858554 0 0.34183048761771712 -0.0039986291523161147 0 0.33977780877024261 -0.017668132193127541 0 0.31382959722716158 0.0040627785689932028 0 0.34183048761771712 -0.0039986291523161147 0 0.34114057903213352 -0.00099436838624600288 0 0.34183048761771712 -0.0039986291523161147 0 0.33574973546384762 -0.01167659105592548 0 0.32194573769061952 -0.0077676308935595512 0 0.34183048761771712 -0.0039986291523161147 0 0.33574973546384762 -0.01167659105592548 0 0.33977780877024261 -0.017668132193127541 0 0.35223914962217417 -0.02278106829858554 0 0.33977780877024261 -0.017668132193127541 0 0.33879793226643329 -0.029417681387060649 0 0.33574973546384762 -0.01167659105592548 0 0.3302717388810405 -0.020466691071749941 0 0.3196214637881436 -0.021924893160697439 0 0.33977780877024261 -0.017668132193127541 0 0.33879793226643329 -0.029417681387060649 0 0.3302717388810405 -0.020466691071749941 0 0.33879793226643329 -0.029417681387060649 0 0.32862271298124018 -0.028919582591936679 0 0.3302717388810405 -0.020466691071749941 0 0.33574973546384762 -0.01167659105592548 0 0.33977780877024261 -0.017668132193127541 0 0.3302717388810405 -0.020466691071749941 0 0.3302717388810405 -0.020466691071749941 0 0.32526768976560849 -0.02407540610795475 0 0.3196214637881436 -0.021924893160697439 0 0.33574973546384762 -0.01167659105592548 0 0.3196214637881436 -0.021924893160697439 0 0.32862271298124018 -0.028919582591936679 0 0.3302717388810405 -0.020466691071749941 0 0.32526768976560849 -0.02407540610795475 0 0.32862271298124018 -0.028919582591936679 0 0.32095671603858011 -0.024994897592425049 0 0.3231679364015333 -0.033306441836977792 0 0.32862271298124018 -0.028919582591936679 0 0.32526768976560849 -0.02407540610795475 0 0.32095671603858011 -0.024994897592425049 0 0.32526768976560849 -0.02407540610795475 0 0.32095671603858011 -0.024994897592425049 0 0.3196214637881436 -0.021924893160697439 0 0.32095671603858011 -0.024994897592425049 0 0.3196214637881436 -0.021924893160697439 0 0.31660160940309118 -0.035871797032442469 0 0.32095671603858011 -0.024994897592425049 0 0.3196214637881436 -0.021924893160697439 0 0.33574973546384762 -0.01167659105592548 0 0.3196214637881436 -0.021924893160697439 0 0.32194573769061952 -0.0077676308935595512 0 0.30752965714041391 0.0058765203804442539 0 0.3196214637881436 -0.021924893160697439 0 0.32194573769061952 -0.0077676308935595512 0 0.31382959722716158 0.0040627785689932028 0 0.34183048761771712 -0.0039986291523161147 0 0.32194573769061952 -0.0077676308935595512 0 0.30752965714041391 0.0058765203804442539 0 0.3196214637881436 -0.021924893160697439 0 0.31292981148517318 -0.054457989835630861 0 0.33951515654934239 -0.057829064589421393 0 0.331762206516936 -0.074199649102278678 0 0.31292981148517318 -0.054457989835630861 0 0.32943454752299528 -0.042779626289088678 0 0.31292981148517318 -0.054457989835630861 0 0.32943454752299528 -0.042779626289088678 0 0.33951515654934239 -0.057829064589421393 0 0.31292981148517318 -0.054457989835630861 0 0.31660160940309118 -0.035871797032442469 0 0.32943454752299528 -0.042779626289088678 0 0.32095671603858011 -0.024994897592425049 0 0.31660160940309118 -0.035871797032442469 0 0.3231679364015333 -0.033306441836977792 0 0.32862271298124018 -0.028919582591936679 0 0.3231679364015333 -0.033306441836977792 0 0.32943454752299528 -0.042779626289088678 0 0.31660160940309118 -0.035871797032442469 0 0.3231679364015333 -0.033306441836977792 0 0.32943454752299528 -0.042779626289088678 0 0.33879793226643329 -0.029417681387060649 0 0.32943454752299528 -0.042779626289088678 0 0.35178468962230941 -0.045374559850196158 0 0.33879793226643329 -0.029417681387060649 0 0.32862271298124018 -0.028919582591936679 0 0.32943454752299528 -0.042779626289088678 0 0.32943454752299528 -0.042779626289088678 0 0.33951515654934239 -0.057829064589421393 0 0.35178468962230941 -0.045374559850196158 0 0.33951515654934239 -0.057829064589421393 0 0.35178468962230941 -0.045374559850196158 0 0.35802776935757019 -0.070665676604553529 0 0.35223914962217417 -0.02278106829858554 0 0.35178468962230941 -0.045374559850196158 0 0.37068698927403948 -0.035605583580554698 0 0.35223914962217417 -0.02278106829858554 0 0.33879793226643329 -0.029417681387060649 0 0.35178468962230941 -0.045374559850196158 0 0.35178468962230941 -0.045374559850196158 0 0.37068698927403948 -0.035605583580554698 0 0.37042415964797237 -0.053058901563766692 0 0.35178468962230941 -0.045374559850196158 0 0.37042415964797237 -0.053058901563766692 0 0.35802776935757019 -0.070665676604553529 0 0.38429333219820472 -0.067131704106828338 0 0.38199460798391838 -0.085246791459625215 0 0.35802776935757019 -0.070665676604553529 0 0.38429333219820472 -0.067131704106828338 0 0.37042415964797237 -0.053058901563766692 0 0.35802776935757019 -0.070665676604553529 0 0.38429333219820472 -0.067131704106828338 0 0.35802776935757019 -0.070665676604553529 0 0.38199460798391838 -0.085246791459625215 0 0.36577500316168848 -0.093055365242956031 0 0.35802776935757019 -0.070665676604553529 0 0.38199460798391838 -0.085246791459625215 0 0.37706007999693841 -0.1011775095245466 0 0.36577500316168848 -0.093055365242956031 0 0.35802776935757019 -0.070665676604553529 0 0.34487393367809682 -0.095216741312257352 0 0.331762206516936 -0.074199649102278678 0 0.36577500316168848 -0.093055365242956031 0 0.35802776935757019 -0.070665676604553529 0 0.34487393367809682 -0.095216741312257352 0 0.35802776935757019 -0.070665676604553529 0 0.331762206516936 -0.074199649102278678 0 0.3799934613124491 -0.1141351934829782 0 0.36192545204167298 -0.11208328153174781 0 0.37104303648388809 -0.1272612894930944 0 0.36192545204167298 -0.11208328153174781 0 0.35551888896884759 -0.1297027680154724 0 0.37104303648388809 -0.1272612894930944 0 0.37706007999693841 -0.1011775095245466 0 0.3799934613124491 -0.1141351934829782 0 0.36192545204167298 -0.11208328153174781 0 0.37706007999693841 -0.1011775095245466 0 0.36577500316168848 -0.093055365242956031 0 0.36192545204167298 -0.11208328153174781 0 0.36192545204167298 -0.11208328153174781 0 0.34487393367809682 -0.095216741312257352 0 0.34014121552940491 -0.1203166258242544 0 0.36577500316168848 -0.093055365242956031 0 0.36192545204167298 -0.11208328153174781 0 0.34487393367809682 -0.095216741312257352 0 0.36192545204167298 -0.11208328153174781 0 0.34014121552940491 -0.1203166258242544 0 0.35551888896884759 -0.1297027680154724 0 0.34014121552940491 -0.1203166258242544 0 0.32517348349888747 -0.118580130041643 0 0.32373683991627678 -0.1342707635111336 0 0.34014121552940491 -0.1203166258242544 0 0.32895182275083351 -0.1060869523066566 0 0.32517348349888747 -0.118580130041643 0 0.34487393367809682 -0.095216741312257352 0 0.34014121552940491 -0.1203166258242544 0 0.32895182275083351 -0.1060869523066566 0 0.34487393367809682 -0.095216741312257352 0 0.32895182275083351 -0.1060869523066566 0 0.32681031061177879 -0.089772122834636051 0 0.32895182275083351 -0.1060869523066566 0 0.31743464692623941 -0.099981704590172707 0 0.32681031061177879 -0.089772122834636051 0 0.31743464692623941 -0.099981704590172707 0 0.31638799147784608 -0.1118713826410174 0 0.30885616350321549 -0.1072846913931271 0 0.32895182275083351 -0.1060869523066566 0 0.31743464692623941 -0.099981704590172707 0 0.31638799147784608 -0.1118713826410174 0 0.32895182275083351 -0.1060869523066566 0 0.31638799147784608 -0.1118713826410174 0 0.32517348349888747 -0.118580130041643 0 0.31638799147784608 -0.1118713826410174 0 0.31399575267335023 -0.12250180558336519 0 0.30853123694459123 -0.1170064061326217 0 0.31638799147784608 -0.1118713826410174 0 0.31399575267335023 -0.12250180558336519 0 0.32517348349888747 -0.118580130041643 0 0.33951515654934239 -0.057829064589421393 0 0.35802776935757019 -0.070665676604553529 0 0.331762206516936 -0.074199649102278678 0 0.34487393367809682 -0.095216741312257352 0 0.331762206516936 -0.074199649102278678 0 0.32681031061177879 -0.089772122834636051 0 0.32681031061177879 -0.089772122834636051 0 0.30549664367630158 -0.077733621600003855 0 0.31220284993755582 -0.090742102146006851 0 0.331762206516936 -0.074199649102278678 0 0.32681031061177879 -0.089772122834636051 0 0.30549664367630158 -0.077733621600003855 0 0.31743464692623941 -0.099981704590172707 0 0.32681031061177879 -0.089772122834636051 0 0.31220284993755582 -0.090742102146006851 0 0.31292981148517318 -0.054457989835630861 0 0.331762206516936 -0.074199649102278678 0 0.30549664367630158 -0.077733621600003855 0 0.331762206516936 -0.074199649102278678 0 0.30549664367630158 -0.077733621600003855 0 0.31292981148517318 -0.054457989835630861 0 0.30549664367630158 -0.077733621600003855 0 0.29642507544735103 -0.06613635338217283 0 0.30549664367630158 -0.077733621600003855 0 0.29743178973804058 -0.092817056036521225 0 0.29642507544735103 -0.06613635338217283 0 0.29743178973804058 -0.092817056036521225 0 0.29642507544735103 -0.06613635338217283 0 0.31220284993755582 -0.090742102146006851 0 0.30524841693787119 -0.089877123387424693 0 0.30586238439958702 -0.098215713767166868 0 0.30549664367630158 -0.077733621600003855 0 0.31220284993755582 -0.090742102146006851 0 0.30524841693787119 -0.089877123387424693 0 0.30524841693787119 -0.089877123387424693 0 0.29743178973804058 -0.092817056036521225 0 0.30586238439958702 -0.098215713767166868 0 0.30549664367630158 -0.077733621600003855 0 0.30524841693787119 -0.089877123387424693 0 0.29743178973804058 -0.092817056036521225 0 0.29430385704143641 -0.093334685648855456 0 0.28333646668855839 -0.1038254721913715 0 0.27844545300264117 -0.078858311907156253 0 0.29743178973804058 -0.092817056036521225 0 0.29430385704143641 -0.093334685648855456 0 0.29347904805936648 -0.068220893163732282 0 0.29430385704143641 -0.093334685648855456 0 0.29347904805936648 -0.068220893163732282 0 0.27844545300264117 -0.078858311907156253 0 0.29430385704143641 -0.093334685648855456 0 0.29347904805936648 -0.068220893163732282 0 0.29743178973804058 -0.092817056036521225 0 0.29642507544735103 -0.06613635338217283 0 0.29347904805936648 -0.068220893163732282 0 0.28521560802072671 -0.062721316040594208 0 0.29347904805936648 -0.068220893163732282 0 0.27844545300264117 -0.078858311907156253 0 0.29347904805936648 -0.068220893163732282 0 0.27844545300264117 -0.078858311907156253 0 0.29642507544735103 -0.06613635338217283 0 0.29347904805936648 -0.068220893163732282 0 0.29301224914481439 -0.054007794946804598 0 0.29642507544735103 -0.06613635338217283 0 0.29347904805936648 -0.068220893163732282 0 0.29743178973804058 -0.092817056036521225 0 0.29843850402873079 -0.11949775869086959 0 0.29512866602350563 -0.1184484781339787 0 0.29843850402873079 -0.11949775869086959 0 0.29512866602350563 -0.1184484781339787 0 0.30010147488007238 -0.1276093355582181 0 0.29843850402873079 -0.11949775869086959 0 0.30554459793957989 -0.1238630007756472 0 0.30853123694459123 -0.1170064061326217 0 0.29843850402873079 -0.11949775869086959 0 0.30554459793957989 -0.1238630007756472 0 0.30010147488007238 -0.1276093355582181 0 0.31399575267335023 -0.12250180558336519 0 0.30554459793957989 -0.1238630007756472 0 0.30853123694459123 -0.1170064061326217 0 0.29843850402873079 -0.11949775869086959 0 0.30853123694459123 -0.1170064061326217 0 0.30885616350321549 -0.1072846913931271 0 0.31638799147784608 -0.1118713826410174 0 0.30853123694459123 -0.1170064061326217 0 0.30885616350321549 -0.1072846913931271 0 0.29843850402873079 -0.11949775869086959 0 0.30885616350321549 -0.1072846913931271 0 0.30586238439958702 -0.098215713767166868 0 0.29743178973804058 -0.092817056036521225 0 0.29843850402873079 -0.11949775869086959 0 0.30586238439958702 -0.098215713767166868 0 0.29743178973804058 -0.092817056036521225 0 0.29843850402873079 -0.11949775869086959 0 0.31743464692623941 -0.099981704590172707 0 0.30885616350321549 -0.1072846913931271 0 0.30586238439958702 -0.098215713767166868 0 0.31743464692623941 -0.099981704590172707 0 0.31220284993755582 -0.090742102146006851 0 0.30586238439958702 -0.098215713767166868 0 0.29430385704143641 -0.093334685648855456 0 0.29512866602350563 -0.1184484781339787 0 0.29430385704143641 -0.093334685648855456 0 0.28333646668855839 -0.1038254721913715 0 0.29512866602350563 -0.1184484781339787 0 0.29743178973804058 -0.092817056036521225 0 0.29430385704143641 -0.093334685648855456 0 0.29512866602350563 -0.1184484781339787 0 0.28333646668855839 -0.1038254721913715 0 0.29512866602350563 -0.1184484781339787 0 0.28822748037447399 -0.12879263247558709 0 0.28333646668855839 -0.1038254721913715 0 0.28822748037447399 -0.12879263247558709 0 0.26621118532108262 -0.1119181791838486 0 0.25741251913389712 -0.1305951081492244 0 0.28822748037447399 -0.12879263247558709 0 0.28333646668855839 -0.1038254721913715 0 0.26621118532108262 -0.1119181791838486 0 0.28822748037447399 -0.12879263247558709 0 0.28333646668855839 -0.1038254721913715 0 0.26621118532108262 -0.1119181791838486 0 0.26565518081306061 -0.08790840808238623 0 0.26621118532108262 -0.1119181791838486 0 0.25154255280112903 -0.1006059983499779 0 0.24954668948061209 -0.11284283178631641 0 0.26621118532108262 -0.1119181791838486 0 0.25154255280112903 -0.1006059983499779 0 0.26565518081306061 -0.08790840808238623 0 0.26621118532108262 -0.1119181791838486 0 0.25741251913389712 -0.1305951081492244 0 0.24954668948061209 -0.11284283178631641 0 0.27844545300264117 -0.078858311907156253 0 0.2741393958395883 -0.056877179510702792 0 0.28007443442101287 -0.061799103716356343 0 0.27844545300264117 -0.078858311907156253 0 0.2741393958395883 -0.056877179510702792 0 0.26628957168076178 -0.070692469674316694 0 0.27844545300264117 -0.078858311907156253 0 0.2741393958395883 -0.056877179510702792 0 0.28521560802072671 -0.062721316040594208 0 0.27844545300264117 -0.078858311907156253 0 0.28007443442101287 -0.061799103716356343 0 0.26628957168076178 -0.070692469674316694 0 0.27844545300264117 -0.078858311907156253 0 0.26565518081306061 -0.08790840808238623 0 0.28333646668855839 -0.1038254721913715 0 0.27844545300264117 -0.078858311907156253 0 0.26565518081306061 -0.08790840808238623 0 0.28333646668855839 -0.1038254721913715 0 0.27844545300264117 -0.078858311907156253 0 0.27844545300264117 -0.078858311907156253 0 0.26565518081306061 -0.08790840808238623 0 0.25154255280112903 -0.1006059983499779 0 0.25664035233608162 -0.078361863555500011 0 0.24390890644978661 -0.075150332687283522 0 0.25154255280112903 -0.1006059983499779 0 0.26565518081306061 -0.08790840808238623 0 0.25664035233608162 -0.078361863555500011 0 0.26628957168076178 -0.070692469674316694 0 0.26565518081306061 -0.08790840808238623 0 0.25664035233608162 -0.078361863555500011 0 0.25664035233608162 -0.078361863555500011 0 0.25256726729664603 -0.064532785491330763 0 0.24390890644978661 -0.075150332687283522 0 0.26628957168076178 -0.070692469674316694 0 0.25256726729664603 -0.064532785491330763 0 0.2741393958395883 -0.056877179510702792 0 0.26628957168076178 -0.070692469674316694 0 0.25664035233608162 -0.078361863555500011 0 0.25256726729664603 -0.064532785491330763 0 0.25256726729664603 -0.064532785491330763 0 0.25164978009717781 -0.053061021673298493 0 0.24617004458672351 -0.058202332164817121 0 0.25256726729664603 -0.064532785491330763 0 0.26131371929964131 -0.050907379716302707 0 0.27395317434556299 -0.0509436520349522 0 0.25256726729664603 -0.064532785491330763 0 0.25164978009717781 -0.053061021673298493 0 0.26131371929964131 -0.050907379716302707 0 0.25256726729664603 -0.064532785491330763 0 0.27395317434556299 -0.0509436520349522 0 0.25164978009717781 -0.053061021673298493 0 0.26131371929964131 -0.050907379716302707 0 0.2539732262079259 -0.044675773385505282 0 0.26131371929964131 -0.050907379716302707 0 0.26227784506780882 -0.045421506107560787 0 0.2539732262079259 -0.044675773385505282 0 0.26131371929964131 -0.050907379716302707 0 0.26742863268251632 -0.045985676557136583 0 0.26227784506780882 -0.045421506107560787 0 0.25256726729664603 -0.064532785491330763 0 0.27395317434556299 -0.0509436520349522 0 0.2741393958395883 -0.056877179510702792 0 0.26131371929964131 -0.050907379716302707 0 0.27395317434556299 -0.0509436520349522 0 0.26742863268251632 -0.045985676557136583 0 0.27395317434556299 -0.0509436520349522 0 0.2741393958395883 -0.056877179510702792 0 0.28351618772518777 -0.053458991616202503 0 0.2741393958395883 -0.056877179510702792 0 0.28007443442101287 -0.061799103716356343 0 0.28351618772518777 -0.053458991616202503 0 0.2807394014679111 -0.038000872253349499 0 0.27361436003936901 -0.034999677146069851 0 0.27240238673917438 -0.042113497984529957 0 0.2807394014679111 -0.038000872253349499 0 0.27361436003936901 -0.034999677146069851 0 0.28248009054126683 -0.027824818882371601 0 0.27395317434556299 -0.0509436520349522 0 0.2807394014679111 -0.038000872253349499 0 0.27240238673917438 -0.042113497984529957 0 0.27395317434556299 -0.0509436520349522 0 0.27240238673917438 -0.042113497984529957 0 0.26742863268251632 -0.045985676557136583 0 0.27361436003936901 -0.034999677146069851 0 0.27240238673917438 -0.042113497984529957 0 0.26639580208115188 -0.040117194771298603 0 0.27240238673917438 -0.042113497984529957 0 0.26742863268251632 -0.045985676557136583 0 0.26639580208115188 -0.040117194771298603 0 0.27361436003936901 -0.034999677146069851 0 0.26639580208115188 -0.040117194771298603 0 0.26859201328057281 -0.027442020841521631 0 0.2539732262079259 -0.044675773385505282 0 0.25845033672230949 -0.02738613623275089 0 0.26859201328057281 -0.027442020841521631 0 0.2539732262079259 -0.044675773385505282 0 0.25845033672230949 -0.02738613623275089 0 0.24422464309495209 -0.046986837608536558 0 0.25845033672230949 -0.02738613623275089 0 0.24422464309495209 -0.046986837608536558 0 0.26639580208115188 -0.040117194771298603 0 0.2539732262079259 -0.044675773385505282 0 0.26859201328057281 -0.027442020841521631 0 0.2539732262079259 -0.044675773385505282 0 0.26859201328057281 -0.027442020841521631 0 0.26639580208115188 -0.040117194771298603 0 0.26227784506780882 -0.045421506107560787 0 0.2539732262079259 -0.044675773385505282 0 0.26742863268251632 -0.045985676557136583 0 0.26639580208115188 -0.040117194771298603 0 0.26227784506780882 -0.045421506107560787 0 0.25013504981522988 -0.025019616072594848 0 0.25845033672230949 -0.02738613623275089 0 0.24524507923365879 -0.0330622213940093 0 0.25845033672230949 -0.02738613623275089 0 0.27267603034966698 -0.0077854348569651906 0 0.25845033672230949 -0.02738613623275089 0 0.25886508985187012 -0.013172853544477199 0 0.27267603034966698 -0.0077854348569651906 0 0.25013504981522988 -0.025019616072594848 0 0.25247407830029878 -0.019873092178793648 0 0.25845033672230949 -0.02738613623275089 0 0.25247407830029878 -0.019873092178793648 0 0.25845033672230949 -0.02738613623275089 0 0.25886508985187012 -0.013172853544477199 0 0.25598072684389089 -0.0058943492075353007 0 0.25006914023697918 -0.01208141302270524 0 0.2479891295484222 -0.0022684572774312019 0 0.25894279220913391 0.003459445712386486 0 0.25598072684389089 -0.0058943492075353007 0 0.2479891295484222 -0.0022684572774312019 0 0.25598072684389089 -0.0058943492075353007 0 0.25006914023697918 -0.01208141302270524 0 0.25886508985187012 -0.013172853544477199 0 0.25247407830029878 -0.019873092178793648 0 0.25006914023697918 -0.01208141302270524 0 0.25886508985187012 -0.013172853544477199 0 0.25886508985187012 -0.013172853544477199 0 0.26317147738524183 -0.0038637327990410169 0 0.27267603034966698 -0.0077854348569651906 0 0.25598072684389089 -0.0058943492075353007 0 0.25886508985187012 -0.013172853544477199 0 0.26317147738524183 -0.0038637327990410169 0 0.25894279220913391 0.003459445712386486 0 0.25598072684389089 -0.0058943492075353007 0 0.26317147738524183 -0.0038637327990410169 0 0.27267603034966698 -0.0077854348569651906 0 0.26859201328057281 -0.027442020841521631 0 0.28321080035321983 -0.010208268297538009 0 0.26939274767164711 0.0040745279013861191 0 0.26317147738524183 -0.0038637327990410169 0 0.27267603034966698 -0.0077854348569651906 0 0.28687677889875068 0.001725005618485562 0 0.27267603034966698 -0.0077854348569651906 0 0.28321080035321983 -0.010208268297538009 0 0.26859201328057281 -0.027442020841521631 0 0.28321080035321983 -0.010208268297538009 0 0.25845033672230949 -0.02738613623275089 0 0.27267603034966698 -0.0077854348569651906 0 0.26859201328057281 -0.027442020841521631 0 0.26859201328057281 -0.027442020841521631 0 0.28248009054126683 -0.027824818882371601 0 0.28321080035321983 -0.010208268297538009 0 0.27361436003936901 -0.034999677146069851 0 0.26859201328057281 -0.027442020841521631 0 0.28248009054126683 -0.027824818882371601 0 0.29465383366866438 -0.01919356567853802 0 0.28248009054126683 -0.027824818882371601 0 0.29533908139447967 -0.037354518578573179 0 0.29465383366866438 -0.01919356567853802 0 0.28248009054126683 -0.027824818882371601 0 0.28321080035321983 -0.010208268297538009 0 0.29465383366866438 -0.01919356567853802 0 0.29533908139447967 -0.037354518578573179 0 0.2978295874258669 0.0070254842464454832 0 0.28321080035321983 -0.010208268297538009 0 0.29396858594285019 -0.001032612778502764 0 0.2978295874258669 0.0070254842464454832 0 0.28687677889875068 0.001725005618485562 0 0.28321080035321983 -0.010208268297538009 0 0.29465383366866438 -0.01919356567853802 0 0.28321080035321983 -0.010208268297538009 0 0.29396858594285019 -0.001032612778502764 0 0.2978295874258669 0.0070254842464454832 0 0.28321080035321983 -0.010208268297538009 0 0.29465383366866438 -0.01919356567853802 0 0.29396858594285019 -0.001032612778502764 0 0.30752965714041391 0.0058765203804442539 0 0.29465383366866438 -0.01919356567853802 0 0.29396858594285019 -0.001032612778502764 0 0.30752965714041391 0.0058765203804442539 0 0.3196214637881436 -0.021924893160697439 0 0.29465383366866438 -0.01919356567853802 0 0.3196214637881436 -0.021924893160697439 0 0.29465383366866438 -0.01919356567853802 0 0.29533908139447967 -0.037354518578573179 0 0.3196214637881436 -0.021924893160697439 0 0.29533908139447967 -0.037354518578573179 0 0.3196214637881436 -0.021924893160697439 0 0.31660160940309118 -0.035871797032442469 0 0.29533908139447967 -0.037354518578573179 0 0.31292981148517318 -0.054457989835630861 0 0.31660160940309118 -0.035871797032442469 0 0.29533908139447967 -0.037354518578573179 0 0.31292981148517318 -0.054457989835630861 0 0.29642507544735103 -0.06613635338217283 0 0.31292981148517318 -0.054457989835630861 0 0.29642507544735103 -0.06613635338217283 0 0.29533908139447967 -0.037354518578573179 0 0.29642507544735103 -0.06613635338217283 0 0.29301224914481439 -0.054007794946804598 0 0.29533908139447967 -0.037354518578573179 0 0.27395317434556299 -0.0509436520349522 0 0.28351618772518777 -0.053458991616202503 0 0.29533908139447967 -0.037354518578573179 0 0.29301224914481439 -0.054007794946804598 0 0.28351618772518777 -0.053458991616202503 0 0.29533908139447967 -0.037354518578573179 0 0.29642507544735103 -0.06613635338217283 0 0.29533908139447967 -0.037354518578573179 0 0.29347904805936648 -0.068220893163732282 0 0.29301224914481439 -0.054007794946804598 0 0.28521560802072671 -0.062721316040594208 0 0.29347904805936648 -0.068220893163732282 0 0.29301224914481439 -0.054007794946804598 0 0.28521560802072671 -0.062721316040594208 0 0.29301224914481439 -0.054007794946804598 0 0.28351618772518777 -0.053458991616202503 0 0.28521560802072671 -0.062721316040594208 0 0.28007443442101287 -0.061799103716356343 0 0.28351618772518777 -0.053458991616202503 0 0.27395317434556299 -0.0509436520349522 0 0.29533908139447967 -0.037354518578573179 0 0.27395317434556299 -0.0509436520349522 0 0.2807394014679111 -0.038000872253349499 0 0.29533908139447967 -0.037354518578573179 0 0.2807394014679111 -0.038000872253349499 0 0.28248009054126683 -0.027824818882371601 0 0.29533908139447967 -0.037354518578573179 0 0.30290052143222262 -0.20369411332823331 0 0.28158405213751547 -0.22140539282722879 0 0.30290052143222262 -0.20369411332823331 0 0.28158405213751547 -0.22140539282722879 0 0.27747759048209231 -0.20168759245952969 0 0.28632476970011178 -0.18938030831719929 0 0.30290052143222262 -0.20369411332823331 0 0.2980095077463053 -0.17872695304401809 0 0.28632476970011178 -0.18938030831719929 0 0.30290052143222262 -0.20369411332823331 0 0.27747759048209231 -0.20168759245952969 0 0.30290052143222262 -0.20369411332823331 0 0.2980095077463053 -0.17872695304401809 0 0.32549301828835953 -0.18492261693889581 0 0.30290052143222262 -0.20369411332823331 0 0.2980095077463053 -0.17872695304401809 0 0.30290052143222262 -0.20369411332823331 0 0.30715254712033069 -0.22539943122446929 0 0.28158405213751547 -0.22140539282722879 0 0.30290052143222262 -0.20369411332823331 0 0.30715254712033069 -0.22539943122446929 0 0.30290052143222262 -0.20369411332823331 0 0.30715254712033069 -0.22539943122446929 0 0.32148368101975677 -0.2112815477794289 0 0.31140457280844042 -0.24710474912070499 0 0.29234931722919649 -0.23956849287787771 0 0.29718577407036301 -0.25519814195989071 0 0.30715254712033069 -0.22539943122446929 0 0.31140457280844042 -0.24710474912070499 0 0.29234931722919649 -0.23956849287787771 0 0.30715254712033069 -0.22539943122446929 0 0.31140457280844042 -0.24710474912070499 0 0.29234931722919649 -0.23956849287787771 0 0.27362138757170362 -0.2426007269765893 0 0.28009493911397709 -0.25531812806766069 0 0.29234931722919649 -0.23956849287787771 0 0.28158405213751547 -0.22140539282722879 0 0.27362138757170362 -0.2426007269765893 0 0.30715254712033069 -0.22539943122446929 0 0.29234931722919649 -0.23956849287787771 0 0.28158405213751547 -0.22140539282722879 0 0.28158405213751547 -0.22140539282722879 0 0.26621460642996558 -0.23052855599088379 0 0.27362138757170362 -0.2426007269765893 0 0.28158405213751547 -0.22140539282722879 0 0.26621460642996558 -0.23052855599088379 0 0.26307381511529532 -0.2143756044194241 0 0.26621460642996558 -0.23052855599088379 0 0.27362138757170362 -0.2426007269765893 0 0.26034160768121078 -0.2422716922893062 0 0.27362138757170362 -0.2426007269765893 0 0.26034160768121078 -0.2422716922893062 0 0.26515279713901752 -0.25474276698909742 0 0.26034160768121078 -0.2422716922893062 0 0.26515279713901752 -0.25474276698909742 0 0.25575058308532189 -0.25269357128633052 0 0.26034160768121078 -0.2422716922893062 0 0.25134951441318748 -0.22920843539767929 0 0.2499607574480687 -0.24385609709525671 0 0.25575058308532189 -0.25269357128633052 0 0.2462907050713771 -0.25204034373521428 0 0.2499607574480687 -0.24385609709525671 0 0.26034160768121078 -0.2422716922893062 0 0.25575058308532189 -0.25269357128633052 0 0.2499607574480687 -0.24385609709525671 0 0.26621460642996558 -0.23052855599088379 0 0.25134951441318748 -0.22920843539767929 0 0.26307381511529532 -0.2143756044194241 0 0.26621460642996558 -0.23052855599088379 0 0.26034160768121078 -0.2422716922893062 0 0.25134951441318748 -0.22920843539767929 0 0.25134951441318748 -0.22920843539767929 0 0.26307381511529532 -0.2143756044194241 0 0.24314545538918961 -0.20571013864437751 0 0.26307381511529532 -0.2143756044194241 0 0.2593871514889205 -0.19799184377322379 0 0.24314545538918961 -0.20571013864437751 0 0.26307381511529532 -0.2143756044194241 0 0.27747759048209231 -0.20168759245952969 0 0.2593871514889205 -0.19799184377322379 0 0.28158405213751547 -0.22140539282722879 0 0.26307381511529532 -0.2143756044194241 0 0.27747759048209231 -0.20168759245952969 0 0.27747759048209231 -0.20168759245952969 0 0.2593871514889205 -0.19799184377322379 0 0.269221803856454 -0.185599514949991 0 0.28632476970011178 -0.18938030831719929 0 0.27747759048209231 -0.20168759245952969 0 0.269221803856454 -0.185599514949991 0 0.2593871514889205 -0.19799184377322379 0 0.269221803856454 -0.185599514949991 0 0.2437278363918948 -0.18195096812212239 0 0.260919387449559 -0.16579352929295721 0 0.269221803856454 -0.185599514949991 0 0.2437278363918948 -0.18195096812212239 0 0.260919387449559 -0.16579352929295721 0 0.28401442498348639 -0.17719336780422379 0 0.260919387449559 -0.16579352929295721 0 0.27757308642867828 -0.16101723958663619 0 0.28401442498348639 -0.17719336780422379 0 0.260919387449559 -0.16579352929295721 0 0.27757308642867828 -0.16101723958663619 0 0.27224003922127837 -0.1473222684895614 0 0.260919387449559 -0.16579352929295721 0 0.269221803856454 -0.185599514949991 0 0.28401442498348639 -0.17719336780422379 0 0.28632476970011178 -0.18938030831719929 0 0.269221803856454 -0.185599514949991 0 0.28401442498348639 -0.17719336780422379 0 0.260919387449559 -0.16579352929295721 0 0.25452239946831973 -0.14829655140993131 0 0.27224003922127837 -0.1473222684895614 0 0.260919387449559 -0.16579352929295721 0 0.25452239946831973 -0.14829655140993131 0 0.23782434991563151 -0.15439369078169049 0 0.25741251913389712 -0.1305951081492244 0 0.25452239946831973 -0.14829655140993131 0 0.27224003922127837 -0.1473222684895614 0 0.27757308642867828 -0.16101723958663619 0 0.27224003922127837 -0.1473222684895614 0 0.2931184940603897 -0.15375979275980259 0 0.25741251913389712 -0.1305951081492244 0 0.27224003922127837 -0.1473222684895614 0 0.28822748037447399 -0.12879263247558709 0 0.29512866602350563 -0.1184484781339787 0 0.2959534750055749 -0.1435622706191019 0 0.29512866602350563 -0.1184484781339787 0 0.28822748037447399 -0.12879263247558709 0 0.2959534750055749 -0.1435622706191019 0 0.2959534750055749 -0.1435622706191019 0 0.2931184940603897 -0.15375979275980259 0 0.29606782433269818 -0.16881524064208181 0 0.28822748037447399 -0.12879263247558709 0 0.2959534750055749 -0.1435622706191019 0 0.2931184940603897 -0.15375979275980259 0 0.28822748037447399 -0.12879263247558709 0 0.2931184940603897 -0.15375979275980259 0 0.27224003922127837 -0.1473222684895614 0 0.28822748037447399 -0.12879263247558709 0 0.2931184940603897 -0.15375979275980259 0 0.2959534750055749 -0.1435622706191019 0 0.29606782433269818 -0.16881524064208181 0 0.2959534750055749 -0.1435622706191019 0 0.30786991093933941 -0.1327242262548293 0 0.31334084787329858 -0.14560100496875439 0 0.2959534750055749 -0.1435622706191019 0 0.30589655906226038 -0.156608858018214 0 0.31334084787329858 -0.14560100496875439 0 0.30589655906226038 -0.156608858018214 0 0.31666093946419188 -0.15748088094218049 0 0.31334084787329858 -0.14560100496875439 0 0.29512866602350563 -0.1184484781339787 0 0.2959534750055749 -0.1435622706191019 0 0.30010147488007238 -0.1276093355582181 0 0.2959534750055749 -0.1435622706191019 0 0.30786991093933941 -0.1327242262548293 0 0.30010147488007238 -0.1276093355582181 0 0.31399575267335023 -0.12250180558336519 0 0.30554459793957989 -0.1238630007756472 0 0.30786991093933941 -0.1327242262548293 0 0.30554459793957989 -0.1238630007756472 0 0.30786991093933941 -0.1327242262548293 0 0.30010147488007238 -0.1276093355582181 0 0.28401442498348639 -0.17719336780422379 0 0.29606782433269818 -0.16881524064208181 0 0.2980095077463053 -0.17872695304401809 0 0.28632476970011178 -0.18938030831719929 0 0.28401442498348639 -0.17719336780422379 0 0.2980095077463053 -0.17872695304401809 0 0.27757308642867828 -0.16101723958663619 0 0.2931184940603897 -0.15375979275980259 0 0.28401442498348639 -0.17719336780422379 0 0.2931184940603897 -0.15375979275980259 0 0.28401442498348639 -0.17719336780422379 0 0.29606782433269818 -0.16881524064208181 0 0.2931184940603897 -0.15375979275980259 0 0.29606782433269818 -0.16881524064208181 0 0.29606782433269818 -0.16881524064208181 0 0.30589655906226038 -0.156608858018214 0 0.31145366373618227 -0.1686264437044486 0 0.2959534750055749 -0.1435622706191019 0 0.29606782433269818 -0.16881524064208181 0 0.30589655906226038 -0.156608858018214 0 0.30589655906226038 -0.156608858018214 0 0.31145366373618227 -0.1686264437044486 0 0.31666093946419188 -0.15748088094218049 0 0.31145366373618227 -0.1686264437044486 0 0.2980095077463053 -0.17872695304401809 0 0.32549301828835953 -0.18492261693889581 0 0.29606782433269818 -0.16881524064208181 0 0.31145366373618227 -0.1686264437044486 0 0.2980095077463053 -0.17872695304401809 0 0.29606782433269818 -0.16881524064208181 0 0.2980095077463053 -0.17872695304401809 0 0.31145366373618227 -0.1686264437044486 0 0.32549301828835953 -0.18492261693889581 0 0.32738776678709508 -0.16545123116759969 0 0.31145366373618227 -0.1686264437044486 0 0.32738776678709508 -0.16545123116759969 0 0.31666093946419188 -0.15748088094218049 0 0.32738776678709508 -0.16545123116759969 0 0.31666093946419188 -0.15748088094218049 0 0.32968898845727718 -0.1497650634196834 0 0.32738776678709508 -0.16545123116759969 0 0.32968898845727718 -0.1497650634196834 0 0.34808551514449421 -0.1661511205495555 0 0.32549301828835953 -0.18492261693889581 0 0.32738776678709508 -0.16545123116759969 0 0.34808551514449421 -0.1661511205495555 0 0.32549301828835953 -0.18492261693889581 0 0.34808551514449421 -0.1661511205495555 0 0.32549301828835953 -0.18492261693889581 0 0.34808551514449421 -0.1661511205495555 0 0.34521429895780248 -0.1968392362703156 0 0.30786991093933941 -0.1327242262548293 0 0.32373683991627678 -0.1342707635111336 0 0.31334084787329858 -0.14560100496875439 0 0.31399575267335023 -0.12250180558336519 0 0.32517348349888747 -0.118580130041643 0 0.32373683991627678 -0.1342707635111336 0 0.31399575267335023 -0.12250180558336519 0 0.30786991093933941 -0.1327242262548293 0 0.32373683991627678 -0.1342707635111336 0 0.32373683991627678 -0.1342707635111336 0 0.31334084787329858 -0.14560100496875439 0 0.32968898845727718 -0.1497650634196834 0 0.31666093946419188 -0.15748088094218049 0 0.31334084787329858 -0.14560100496875439 0 0.32968898845727718 -0.1497650634196834 0 0.32373683991627678 -0.1342707635111336 0 0.32968898845727718 -0.1497650634196834 0 0.34485783347551252 -0.1433779188078016 0 0.32968898845727718 -0.1497650634196834 0 0.34485783347551252 -0.1433779188078016 0 0.34808551514449421 -0.1661511205495555 0 0.34014121552940491 -0.1203166258242544 0 0.32373683991627678 -0.1342707635111336 0 0.34485783347551252 -0.1433779188078016 0 0.34014121552940491 -0.1203166258242544 0 0.35551888896884759 -0.1297027680154724 0 0.34485783347551252 -0.1433779188078016 0 0.35551888896884759 -0.1297027680154724 0 0.34485783347551252 -0.1433779188078016 0 0.37067801200062889 -0.1473796241602153 0 0.34485783347551252 -0.1433779188078016 0 0.37067801200062889 -0.1473796241602153 0 0.34808551514449421 -0.1661511205495555 0 0.35551888896884759 -0.1297027680154724 0 0.37067801200062889 -0.1473796241602153 0 0.37104303648388809 -0.1272612894930944 0 0.34808551514449421 -0.1661511205495555 0 0.36752808638216261 -0.17990459429682831 0 0.34521429895780248 -0.1968392362703156 0 0.34808551514449421 -0.1661511205495555 0 0.37072349948513561 -0.1630779710757761 0 0.36752808638216261 -0.17990459429682831 0 0.37067801200062889 -0.1473796241602153 0 0.34808551514449421 -0.1661511205495555 0 0.37072349948513561 -0.1630779710757761 0 0.37067801200062889 -0.1473796241602153 0 0.34808551514449421 -0.1661511205495555 0 0.37072349948513561 -0.1630779710757761 0 0.36752808638216261 -0.17990459429682831 0 0.38565700028273392 -0.16791849986101029 0 0.36752808638216261 -0.17990459429682831 0 0.36890805570422369 -0.19954003101511669 0 0.34521429895780248 -0.1968392362703156 0 0.36752808638216261 -0.17990459429682831 0 0.36890805570422369 -0.19954003101511669 0 0.38551481473406651 -0.18910273675150999 0 0.36890805570422369 -0.19954003101511669 0 0.35851964138810982 -0.2171827375251118 0 0.37645297458065691 -0.21353851220024839 0 0.35851964138810982 -0.2171827375251118 0 0.34521429895780248 -0.1968392362703156 0 0.33865146772119931 -0.2184974665014994 0 0.36890805570422369 -0.19954003101511669 0 0.35851964138810982 -0.2171827375251118 0 0.34521429895780248 -0.1968392362703156 0 0.32549301828835953 -0.18492261693889581 0 0.34521429895780248 -0.1968392362703156 0 0.32148368101975677 -0.2112815477794289 0 0.34521429895780248 -0.1968392362703156 0 0.33865146772119931 -0.2184974665014994 0 0.32148368101975677 -0.2112815477794289 0 0.30290052143222262 -0.20369411332823331 0 0.32549301828835953 -0.18492261693889581 0 0.32148368101975677 -0.2112815477794289 0 0.30290052143222262 -0.20369411332823331 0 0.32549301828835953 -0.18492261693889581 0 0.31140457280844042 -0.24710474912070499 0 0.32841487832378857 -0.23419691532036521 0 0.32909477526671738 -0.25319804842994992 0 0.30715254712033069 -0.22539943122446929 0 0.31140457280844042 -0.24710474912070499 0 0.32841487832378857 -0.23419691532036521 0 0.30715254712033069 -0.22539943122446929 0 0.32148368101975677 -0.2112815477794289 0 0.32841487832378857 -0.23419691532036521 0 0.33865146772119931 -0.2184974665014994 0 0.32841487832378857 -0.23419691532036521 0 0.34678876975393269 -0.23153157971564481 0 0.33865146772119931 -0.2184974665014994 0 0.32148368101975677 -0.2112815477794289 0 0.32841487832378857 -0.23419691532036521 0 0.32841487832378857 -0.23419691532036521 0 0.34542116247921317 -0.24786541093840589 0 0.32909477526671738 -0.25319804842994992 0 0.32841487832378857 -0.23419691532036521 0 0.34542116247921317 -0.24786541093840589 0 0.34678876975393269 -0.23153157971564481 0 0.34542116247921317 -0.24786541093840589 0 0.36282952759798831 -0.23490181410806829 0 0.36211004630048071 -0.25874315800932568 0 0.34542116247921317 -0.24786541093840589 0 0.34678876975393269 -0.23153157971564481 0 0.36282952759798831 -0.23490181410806829 0 0.35851964138810982 -0.2171827375251118 0 0.33865146772119931 -0.2184974665014994 0 0.34678876975393269 -0.23153157971564481 0 0.35851964138810982 -0.2171827375251118 0 0.34678876975393269 -0.23153157971564481 0 0.36282952759798831 -0.23490181410806829 0 0.35851964138810982 -0.2171827375251118 0 0.37179579398026102 -0.22561915142401329 0 0.36282952759798831 -0.23490181410806829 0 0.35851964138810982 -0.2171827375251118 0 0.37179579398026102 -0.22561915142401329 0 0.37645297458065691 -0.21353851220024839 0 0.37179579398026102 -0.22561915142401329 0 0.36282952759798831 -0.23490181410806829 0 0.37754581309809132 -0.23651361028518689 0 0.36282952759798831 -0.23490181410806829 0 0.36876625398544938 -0.24898888889403961 0 0.36211004630048071 -0.25874315800932568 0 0.36282952759798831 -0.23490181410806829 0 0.36211004630048071 -0.25874315800932568 0 0.36282952759798831 -0.23490181410806829 0 0.36876625398544938 -0.24898888889403961 0 0.37754581309809132 -0.23651361028518689 0 0.37754581309809132 -0.23651361028518689 0 0.39300219267510322 -0.23842714914515989 0 0.3871149211879113 -0.25548270742864421 0 0.39300219267510322 -0.23842714914515989 0 0.3871149211879113 -0.25548270742864421 0 0.40207495352916539 -0.25113417058953519 0 0.39300219267510322 -0.23842714914515989 0 0.40723458142941671 -0.23497076085713389 0 0.40207495352916539 -0.25113417058953519 0 0.39851670543712209 -0.2244771902628257 0 0.41039622944065363 -0.2185270516157129 0 0.40723458142941671 -0.23497076085713389 0 0.39300219267510322 -0.23842714914515989 0 0.39851670543712209 -0.2244771902628257 0 0.40723458142941671 -0.23497076085713389 0 0.39300219267510322 -0.23842714914515989 0 0.39851670543712209 -0.2244771902628257 0 0.38505811203634721 -0.22522643630241351 0 0.39851670543712209 -0.2244771902628257 0 0.38505811203634721 -0.22522643630241351 0 0.39303519244684892 -0.21278300449704671 0 0.37754581309809132 -0.23651361028518689 0 0.39300219267510322 -0.23842714914515989 0 0.38505811203634721 -0.22522643630241351 0 0.37179579398026102 -0.22561915142401329 0 0.37754581309809132 -0.23651361028518689 0 0.38505811203634721 -0.22522643630241351 0 0.37179579398026102 -0.22561915142401329 0 0.38505811203634721 -0.22522643630241351 0 0.37645297458065691 -0.21353851220024839 0 0.38505811203634721 -0.22522643630241351 0 0.37645297458065691 -0.21353851220024839 0 0.39303519244684892 -0.21278300449704671 0 0.36890805570422369 -0.19954003101511669 0 0.37645297458065691 -0.21353851220024839 0 0.38544293285627962 -0.20314808770867229 0 0.37645297458065691 -0.21353851220024839 0 0.38544293285627962 -0.20314808770867229 0 0.39303519244684892 -0.21278300449704671 0 0.36890805570422369 -0.19954003101511669 0 0.38544293285627962 -0.20314808770867229 0 0.38551481473406651 -0.18910273675150999 0 0.38544293285627962 -0.20314808770867229 0 0.38551481473406651 -0.18910273675150999 0 0.40330362681560211 -0.20077615407943949 0 0.38551481473406651 -0.18910273675150999 0 0.40330362681560211 -0.20077615407943949 0 0.39995041381356911 -0.1868338584648204 0 0.40330362681560211 -0.20077615407943949 0 0.4125958117473455 -0.19170302267586259 0 0.39995041381356911 -0.1868338584648204 0 0.40330362681560211 -0.20077615407943949 0 0.39303519244684892 -0.21278300449704671 0 0.41039622944065363 -0.2185270516157129 0 0.38544293285627962 -0.20314808770867229 0 0.40330362681560211 -0.20077615407943949 0 0.39303519244684892 -0.21278300449704671 0 0.39851670543712209 -0.2244771902628257 0 0.39303519244684892 -0.21278300449704671 0 0.41039622944065363 -0.2185270516157129 0 0.40330362681560211 -0.20077615407943949 0 0.41039622944065363 -0.2185270516157129 0 0.42189732607146729 -0.20211324892629831 0 0.41039622944065363 -0.2185270516157129 0 0.42189732607146729 -0.20211324892629831 0 0.42790605200351661 -0.22140108800821251 0 0.40330362681560211 -0.20077615407943949 0 0.4125958117473455 -0.19170302267586259 0 0.42189732607146729 -0.20211324892629831 0 0.4125958117473455 -0.19170302267586259 0 0.42189732607146729 -0.20211324892629831 0 0.42233780496578233 -0.18319904235883591 0 0.42189732607146729 -0.20211324892629831 0 0.43389642119060762 -0.191962199940241 0 0.42233780496578233 -0.18319904235883591 0 0.42189732607146729 -0.20211324892629831 0 0.43389642119060762 -0.191962199940241 0 0.43723926749718739 -0.20471492206911249 0 0.43723926749718739 -0.20471492206911249 0 0.42790605200351661 -0.22140108800821251 0 0.44233814121790038 -0.22173902575952509 0 0.42189732607146729 -0.20211324892629831 0 0.43723926749718739 -0.20471492206911249 0 0.42790605200351661 -0.22140108800821251 0 0.43048550082884018 -0.24614270293406881 0 0.44233814121790038 -0.22173902575952509 0 0.42790605200351661 -0.22140108800821251 0 0.43048550082884018 -0.24614270293406881 0 0.44233814121790038 -0.22173902575952509 0 0.42790605200351661 -0.22140108800821251 0 0.43048550082884018 -0.24614270293406881 0 0.42088007225406548 -0.23367140350055049 0 0.43048550082884018 -0.24614270293406881 0 0.44582088554477811 -0.24525862245079941 0 0.43357426810421817 -0.25015303326672972 0 0.43048550082884018 -0.24614270293406881 0 0.42846035594967069 -0.25031232086228522 0 0.43357426810421817 -0.25015303326672972 0 0.43048550082884018 -0.24614270293406881 0 0.43357426810421817 -0.25015303326672972 0 0.43048550082884018 -0.24614270293406881 0 0.418537335240391 -0.2435876000290193 0 0.42846035594967069 -0.25031232086228522 0 0.43048550082884018 -0.24614270293406881 0 0.42846035594967069 -0.25031232086228522 0 0.43048550082884018 -0.24614270293406881 0 0.42088007225406548 -0.23367140350055049 0 0.43048550082884018 -0.24614270293406881 0 0.418537335240391 -0.2435876000290193 0 0.42088007225406548 -0.23367140350055049 0 0.418537335240391 -0.2435876000290193 0 0.40723458142941671 -0.23497076085713389 0 0.42088007225406548 -0.23367140350055049 0 0.418537335240391 -0.2435876000290193 0 0.40723458142941671 -0.23497076085713389 0 0.40207495352916539 -0.25113417058953519 0 0.418537335240391 -0.2435876000290193 0 0.40207495352916539 -0.25113417058953519 0 0.42846035594967069 -0.25031232086228522 0 0.41039622944065363 -0.2185270516157129 0 0.40723458142941671 -0.23497076085713389 0 0.42088007225406548 -0.23367140350055049 0 0.41039622944065363 -0.2185270516157129 0 0.42790605200351661 -0.22140108800821251 0 0.42088007225406548 -0.23367140350055049 0 0.3932705088567644 -0.1286081277708763 0 0.38946375456974969 -0.1482633138159434 0 0.40032650034539519 -0.13972272199131119 0 0.3932705088567644 -0.1286081277708763 0 0.38946375456974969 -0.1482633138159434 0 0.40224748518751269 -0.1211494002184121 0 0.40802316631723889 -0.13171289331352951 0 0.40224748518751269 -0.1211494002184121 0 0.40096691517672778 -0.13029828582353201 0 0.3932705088567644 -0.1286081277708763 0 0.40224748518751269 -0.1211494002184121 0 0.40096691517672778 -0.13029828582353201 0 0.40802316631723889 -0.13171289331352951 0 0.40096691517672778 -0.13029828582353201 0 0.40032650034539519 -0.13972272199131119 0 0.40802316631723889 -0.13171289331352951 0 0.40032650034539519 -0.13972272199131119 0 0.40802316631723889 -0.13171289331352951 0 0.40096691517672778 -0.13029828582353201 0 0.40032650034539519 -0.13972272199131119 0 0.3932705088567644 -0.1286081277708763 0 0.37067801200062889 -0.1473796241602153 0 0.37104303648388809 -0.1272612894930944 0 0.3932705088567644 -0.1286081277708763 0 0.37067801200062889 -0.1473796241602153 0 0.3932705088567644 -0.1286081277708763 0 0.37067801200062889 -0.1473796241602153 0 0.37072349948513561 -0.1630779710757761 0 0.38946375456974969 -0.1482633138159434 0 0.37067801200062889 -0.1473796241602153 0 0.3932705088567644 -0.1286081277708763 0 0.38946375456974969 -0.1482633138159434 0 0.40032650034539519 -0.13972272199131119 0 0.38946375456974969 -0.1482633138159434 0 0.40103769468862932 -0.15735650722112959 0 0.38946375456974969 -0.1482633138159434 0 0.40103769468862932 -0.15735650722112959 0 0.38565700028273392 -0.16791849986101029 0 0.40103769468862932 -0.15735650722112959 0 0.38565700028273392 -0.16791849986101029 0 0.40804365254297231 -0.17415516972609171 0 0.37072349948513561 -0.1630779710757761 0 0.38946375456974969 -0.1482633138159434 0 0.38565700028273392 -0.16791849986101029 0 0.38946375456974969 -0.1482633138159434 0 0.38565700028273392 -0.16791849986101029 0 0.38551481473406651 -0.18910273675150999 0 0.38565700028273392 -0.16791849986101029 0 0.39995041381356911 -0.1868338584648204 0 0.36752808638216261 -0.17990459429682831 0 0.38551481473406651 -0.18910273675150999 0 0.38565700028273392 -0.16791849986101029 0 0.38565700028273392 -0.16791849986101029 0 0.39995041381356911 -0.1868338584648204 0 0.40804365254297231 -0.17415516972609171 0 0.4125958117473455 -0.19170302267586259 0 0.40804365254297231 -0.17415516972609171 0 0.42233780496578233 -0.18319904235883591 0 0.4125958117473455 -0.19170302267586259 0 0.39995041381356911 -0.1868338584648204 0 0.40804365254297231 -0.17415516972609171 0 0.42233780496578233 -0.18319904235883591 0 0.43537196508735049 -0.18173276810905351 0 0.42169756570229522 -0.15672283071129131 0 0.43389642119060762 -0.191962199940241 0 0.42233780496578233 -0.18319904235883591 0 0.43537196508735049 -0.18173276810905351 0 0.43537196508735049 -0.18173276810905351 0 0.42169756570229522 -0.15672283071129131 0 0.43537196508735049 -0.18173276810905351 0 0.42169756570229522 -0.15672283071129131 0 0.44011919579772352 -0.15902857640534751 0 0.40804365254297231 -0.17415516972609171 0 0.42233780496578233 -0.18319904235883591 0 0.42169756570229522 -0.15672283071129131 0 0.40103769468862932 -0.15735650722112959 0 0.40804365254297231 -0.17415516972609171 0 0.42169756570229522 -0.15672283071129131 0 0.40032650034539519 -0.13972272199131119 0 0.40103769468862932 -0.15735650722112959 0 0.42169756570229522 -0.15672283071129131 0 0.42169756570229522 -0.15672283071129131 0 0.40802316631723889 -0.13171289331352951 0 0.40032650034539519 -0.13972272199131119 0 0.42169756570229522 -0.15672283071129131 0 0.40802316631723889 -0.13171289331352951 0 0.42169756570229522 -0.15672283071129131 0 0.43087782981676859 -0.131879285754128 0 0.44052259681213413 -0.14512254840888281 0 0.42169756570229522 -0.15672283071129131 0 0.44052259681213413 -0.14512254840888281 0 0.44011919579772352 -0.15902857640534751 0 0.42510906065580589 -0.11393180641703871 0 0.43087782981676859 -0.131879285754128 0 0.40802316631723889 -0.13171289331352951 0 0.42169756570229522 -0.15672283071129131 0 0.43087782981676859 -0.131879285754128 0 0.40802316631723889 -0.13171289331352951 0 0.46093003486481321 -0.11810563265674839 0 0.46623847963083442 -0.1374076686568538 0 0.47239045088042492 -0.13005034139104371 0 0.46093003486481321 -0.11810563265674839 0 0.45430072039358249 -0.1470470373257684 0 0.46093003486481321 -0.11810563265674839 0 0.46623847963083442 -0.1374076686568538 0 0.45430072039358249 -0.1470470373257684 0 0.46093003486481321 -0.11810563265674839 0 0.44582693855797939 -0.1311402400572215 0 0.45430072039358249 -0.1470470373257684 0 0.441730170532879 -0.1159420230490274 0 0.43087782981676859 -0.131879285754128 0 0.44582693855797939 -0.1311402400572215 0 0.43087782981676859 -0.131879285754128 0 0.44582693855797939 -0.1311402400572215 0 0.44052259681213413 -0.14512254840888281 0 0.44582693855797939 -0.1311402400572215 0 0.44052259681213413 -0.14512254840888281 0 0.45430072039358249 -0.1470470373257684 0 0.44052259681213413 -0.14512254840888281 0 0.45430072039358249 -0.1470470373257684 0 0.44011919579772352 -0.15902857640534751 0 0.46623847963083442 -0.1374076686568538 0 0.45430072039358249 -0.1470470373257684 0 0.46795215833203208 -0.14958538313512479 0 0.45430072039358249 -0.1470470373257684 0 0.46795215833203208 -0.14958538313512479 0 0.46249654728105127 -0.15875526896169859 0 0.46249654728105127 -0.15875526896169859 0 0.44767140592235177 -0.17598844199478861 0 0.4590637049386419 -0.17656280063954849 0 0.46795215833203208 -0.14958538313512479 0 0.46765797362325351 -0.16960743348544691 0 0.46249654728105127 -0.15875526896169859 0 0.46765797362325351 -0.16960743348544691 0 0.46249654728105127 -0.15875526896169859 0 0.4590637049386419 -0.17656280063954849 0 0.45430072039358249 -0.1470470373257684 0 0.46249654728105127 -0.15875526896169859 0 0.44767140592235177 -0.17598844199478861 0 0.46249654728105127 -0.15875526896169859 0 0.4590637049386419 -0.17656280063954849 0 0.45430072039358249 -0.1470470373257684 0 0.44011919579772352 -0.15902857640534751 0 0.44767140592235177 -0.17598844199478861 0 0.45430072039358249 -0.1470470373257684 0 0.44767140592235177 -0.17598844199478861 0 0.44767140592235177 -0.17598844199478861 0 0.45131049953134228 -0.18433764364674099 0 0.4590637049386419 -0.17656280063954849 0 0.43537196508735049 -0.18173276810905351 0 0.44011919579772352 -0.15902857640534751 0 0.44767140592235177 -0.17598844199478861 0 0.43389642119060762 -0.191962199940241 0 0.43537196508735049 -0.18173276810905351 0 0.44405046135624082 -0.18412940313962539 0 0.43537196508735049 -0.18173276810905351 0 0.44767140592235177 -0.17598844199478861 0 0.44405046135624082 -0.18412940313962539 0 0.44405046135624082 -0.18412940313962539 0 0.45131049953134228 -0.18433764364674099 0 0.4501360628432447 -0.19063724014234421 0 0.44767140592235177 -0.17598844199478861 0 0.44405046135624082 -0.18412940313962539 0 0.45131049953134228 -0.18433764364674099 0 0.46765797362325351 -0.16960743348544691 0 0.4590637049386419 -0.17656280063954849 0 0.45563086259623248 -0.19437033231739831 0 0.4590637049386419 -0.17656280063954849 0 0.45563086259623248 -0.19437033231739831 0 0.46765797362325351 -0.16960743348544691 0 0.45563086259623248 -0.19437033231739831 0 0.46765797362325351 -0.16960743348544691 0 0.46817453342310178 -0.17984984725849121 0 0.45563086259623248 -0.19437033231739831 0 0.45131049953134228 -0.18433764364674099 0 0.4590637049386419 -0.17656280063954849 0 0.45563086259623248 -0.19437033231739831 0 0.46817453342310178 -0.17984984725849121 0 0.47868008644015098 -0.18364062408913809 0 0.4864423059537345 -0.17561039486471769 0 0.46817453342310178 -0.17984984725849121 0 0.47868008644015098 -0.18364062408913809 0 0.47427671796452459 -0.19390449174425081 0 0.4864423059537345 -0.17561039486471769 0 0.5 -0.16076066479590659 0 0.5 -0.1885669917164324 0 0.47868008644015098 -0.18364062408913809 0 0.4864423059537345 -0.17561039486471769 0 0.5 -0.1885669917164324 0 0.4864423059537345 -0.17561039486471769 0 0.5 -0.16076066479590659 0 0.4874204893839118 -0.1629257968797283 0 0.5 -0.16076066479590659 0 0.4874204893839118 -0.1629257968797283 0 0.48836632050416018 -0.15319142364385391 0 0.46765797362325351 -0.16960743348544691 0 0.47968508465027437 -0.14484453465349531 0 0.46817453342310178 -0.17984984725849121 0 0.4864423059537345 -0.17561039486471769 0 0.47621222687475862 -0.15989320835224299 0 0.46765797362325351 -0.16960743348544691 0 0.46817453342310178 -0.17984984725849121 0 0.47621222687475862 -0.15989320835224299 0 0.4864423059537345 -0.17561039486471769 0 0.4874204893839118 -0.1629257968797283 0 0.47621222687475862 -0.15989320835224299 0 0.46817453342310178 -0.17984984725849121 0 0.47621222687475862 -0.15989320835224299 0 0.4874204893839118 -0.1629257968797283 0 0.47621222687475862 -0.15989320835224299 0 0.48836632050416018 -0.15319142364385391 0 0.46765797362325351 -0.16960743348544691 0 0.47621222687475862 -0.15989320835224299 0 0.47968508465027437 -0.14484453465349531 0 0.47621222687475862 -0.15989320835224299 0 0.48424992032641551 -0.13993656944599481 0 0.47621222687475862 -0.15989320835224299 0 0.48836632050416018 -0.15319142364385391 0 0.48424992032641551 -0.13993656944599481 0 0.46795215833203208 -0.14958538313512479 0 0.46765797362325351 -0.16960743348544691 0 0.47968508465027437 -0.14484453465349531 0 0.47621222687475862 -0.15989320835224299 0 0.47968508465027437 -0.14484453465349531 0 0.48424992032641551 -0.13993656944599481 0 0.46623847963083442 -0.1374076686568538 0 0.46795215833203208 -0.14958538313512479 0 0.47424994269801352 -0.1397372940967013 0 0.46795215833203208 -0.14958538313512479 0 0.47968508465027437 -0.14484453465349531 0 0.47424994269801352 -0.1397372940967013 0 0.47968508465027437 -0.14484453465349531 0 0.47994759956173211 -0.14051186616834291 0 0.47424994269801352 -0.1397372940967013 0 0.47968508465027437 -0.14484453465349531 0 0.48424992032641551 -0.13993656944599481 0 0.47994759956173211 -0.14051186616834291 0 0.5 -0.16076066479590659 0 0.48836632050416018 -0.15319142364385391 0 0.5 -0.13295433787538069 0 0.48836632050416018 -0.15319142364385391 0 0.5 -0.13295433787538069 0 0.48424992032641551 -0.13993656944599481 0 0.48916266477234061 -0.13224727383335569 0 0.48085855782101261 -0.13626791926353529 0 0.48424992032641551 -0.13993656944599481 0 0.5 -0.13295433787538069 0 0.48916266477234061 -0.13224727383335569 0 0.48424992032641551 -0.13993656944599481 0 0.48986304781109291 -0.1242692167884092 0 0.5 -0.13295433787538069 0 0.48916266477234061 -0.13224727383335569 0 0.48986304781109291 -0.1242692167884092 0 0.48916266477234061 -0.13224727383335569 0 0.48085855782101261 -0.13626791926353529 0 0.47499259514944292 -0.1202547269832886 0 0.48085855782101261 -0.13626791926353529 0 0.47239045088042492 -0.13005034139104371 0 0.48085855782101261 -0.13626791926353529 0 0.48424992032641551 -0.13993656944599481 0 0.47994759956173211 -0.14051186616834291 0 0.48085855782101261 -0.13626791926353529 0 0.47994759956173211 -0.14051186616834291 0 0.47424994269801352 -0.1397372940967013 0 0.48085855782101261 -0.13626791926353529 0 0.47424994269801352 -0.1397372940967013 0 0.47239045088042492 -0.13005034139104371 0 0.46623847963083442 -0.1374076686568538 0 0.47424994269801352 -0.1397372940967013 0 0.47239045088042492 -0.13005034139104371 0 0.45735248248792831 -0.2263504469462593 0 0.45606595353113982 -0.2348942090935259 0 0.45040787416373163 -0.22146407059246401 0 0.4593659812364308 -0.22004368230368379 0 0.45735248248792831 -0.2263504469462593 0 0.45040787416373163 -0.22146407059246401 0 0.4593659812364308 -0.22004368230368379 0 0.45735248248792831 -0.2263504469462593 0 0.47005683011064803 -0.22590290220369119 0 0.4593659812364308 -0.22004368230368379 0 0.46586242272604061 -0.21273545752659301 0 0.47005683011064803 -0.22590290220369119 0 0.45735248248792831 -0.2263504469462593 0 0.45606595353113982 -0.2348942090935259 0 0.47005683011064803 -0.22590290220369119 0 0.46661169077989217 -0.2415165845456661 0 0.45606595353113982 -0.2348942090935259 0 0.47005683011064803 -0.22590290220369119 0 0.46661169077989217 -0.2415165845456661 0 0.45571617873614662 -0.24946335937342859 0 0.47785808936807489 -0.24877368548012899 0 0.45571617873614662 -0.24946335937342859 0 0.47785808936807489 -0.24877368548012899 0 0.46661169077989217 -0.2415165845456661 0 0.45518121600666411 -0.24259067484840299 0 0.45571617873614662 -0.24946335937342859 0 0.46661169077989217 -0.2415165845456661 0 0.45518121600666411 -0.24259067484840299 0 0.45606595353113982 -0.2348942090935259 0 0.45571617873614662 -0.24946335937342859 0 0.43357426810421817 -0.25015303326672972 0 0.43048550082884018 -0.24614270293406881 0 0.44582088554477811 -0.24525862245079941 0 0.44233814121790038 -0.22173902575952509 0 0.45571617873614662 -0.24946335937342859 0 0.44582088554477811 -0.24525862245079941 0 0.43357426810421817 -0.25015303326672972 0 0.45518121600666411 -0.24259067484840299 0 0.45606595353113982 -0.2348942090935259 0 0.44582088554477811 -0.24525862245079941 0 0.45518121600666411 -0.24259067484840299 0 0.45571617873614662 -0.24946335937342859 0 0.44582088554477811 -0.24525862245079941 0 0.44582088554477811 -0.24525862245079941 0 0.44233814121790038 -0.22173902575952509 0 0.45040787416373163 -0.22146407059246401 0 0.44582088554477811 -0.24525862245079941 0 0.45040787416373163 -0.22146407059246401 0 0.45606595353113982 -0.2348942090935259 0 0.44582088554477811 -0.24525862245079941 0 0.45040787416373163 -0.22146407059246401 0 0.43723926749718739 -0.20471492206911249 0 0.44233814121790038 -0.22173902575952509 0 0.45499486278268447 -0.1976695187341285 0 0.45040787416373163 -0.22146407059246401 0 0.45499486278268447 -0.1976695187341285 0 0.44233814121790038 -0.22173902575952509 0 0.45040787416373163 -0.22146407059246401 0 0.45499486278268447 -0.1976695187341285 0 0.44233814121790038 -0.22173902575952509 0 0.45499486278268447 -0.1976695187341285 0 0.43723926749718739 -0.20471492206911249 0 0.44395992212319679 -0.19308347956624619 0 0.45499486278268447 -0.1976695187341285 0 0.43389642119060762 -0.191962199940241 0 0.44405046135624082 -0.18412940313962539 0 0.44395992212319679 -0.19308347956624619 0 0.43389642119060762 -0.191962199940241 0 0.43723926749718739 -0.20471492206911249 0 0.44395992212319679 -0.19308347956624619 0 0.44395992212319679 -0.19308347956624619 0 0.45499486278268447 -0.1976695187341285 0 0.45131049953134228 -0.18433764364674099 0 0.4501360628432447 -0.19063724014234421 0 0.45563086259623248 -0.19437033231739831 0 0.44395992212319679 -0.19308347956624619 0 0.4501360628432447 -0.19063724014234421 0 0.45499486278268447 -0.1976695187341285 0 0.44405046135624082 -0.18412940313962539 0 0.44395992212319679 -0.19308347956624619 0 0.4501360628432447 -0.19063724014234421 0 0.46817453342310178 -0.17984984725849121 0 0.46013683997144489 -0.19980648616473931 0 0.47427671796452459 -0.19390449174425081 0 0.46817453342310178 -0.17984984725849121 0 0.46013683997144489 -0.19980648616473931 0 0.46817453342310178 -0.17984984725849121 0 0.45563086259623248 -0.19437033231739831 0 0.46013683997144489 -0.19980648616473931 0 0.4501360628432447 -0.19063724014234421 0 0.45563086259623248 -0.19437033231739831 0 0.45499486278268447 -0.1976695187341285 0 0.45499486278268447 -0.1976695187341285 0 0.46013683997144489 -0.19980648616473931 0 0.45563086259623248 -0.19437033231739831 0 0.45499486278268447 -0.1976695187341285 0 0.45563086259623248 -0.19437033231739831 0 0.45499486278268447 -0.1976695187341285 0 0.46013683997144489 -0.19980648616473931 0 0.46013683997144489 -0.19980648616473931 0 0.46586242272604061 -0.21273545752659301 0 0.48006841998572208 -0.20808990240084899 0 0.45040787416373163 -0.22146407059246401 0 0.45499486278268447 -0.1976695187341285 0 0.4548395438527213 -0.21295904373074681 0 0.4593659812364308 -0.22004368230368379 0 0.45040787416373163 -0.22146407059246401 0 0.4548395438527213 -0.21295904373074681 0 0.4593659812364308 -0.22004368230368379 0 0.4548395438527213 -0.21295904373074681 0 0.46586242272604061 -0.21273545752659301 0 0.46013683997144489 -0.19980648616473931 0 0.4548395438527213 -0.21295904373074681 0 0.45499486278268447 -0.1976695187341285 0 0.46013683997144489 -0.19980648616473931 0 0.4548395438527213 -0.21295904373074681 0 0.46013683997144489 -0.19980648616473931 0 0.4548395438527213 -0.21295904373074681 0 0.46586242272604061 -0.21273545752659301 0 0.46013683997144489 -0.19980648616473931 0 0.48006841998572208 -0.20808990240084899 0 0.46586242272604061 -0.21273545752659301 0 0.48006841998572208 -0.20808990240084899 0 0.47005683011064803 -0.22590290220369119 0 0.46013683997144489 -0.19980648616473931 0 0.48006841998572208 -0.20808990240084899 0 0.47427671796452459 -0.19390449174425081 0 0.47868008644015098 -0.18364062408913809 0 0.47427671796452459 -0.19390449174425081 0 0.5 -0.1885669917164324 0 0.48006841998572208 -0.20808990240084899 0 0.47427671796452459 -0.19390449174425081 0 0.5 -0.1885669917164324 0 0.48006841998572208 -0.20808990240084899 0 0.5 -0.1885669917164324 0 0.49999999999999961 -0.21637331863695819 0 0.48006841998572208 -0.20808990240084899 0 0.49999999999999961 -0.21637331863695819 0 0.48006841998572208 -0.20808990240084899 0 0.49999999999999961 -0.21637331863695819 0 0.4862545149737133 -0.22430099187442659 0 0.49999999999999961 -0.21637331863695819 0 0.5 -0.2322286651118938 0 0.4862545149737133 -0.22430099187442659 0 0.5 -0.2322286651118938 0 0.4862545149737133 -0.22430099187442659 0 0.48731543898686108 -0.23834171508702701 0 0.4862545149737133 -0.22430099187442659 0 0.47005683011064803 -0.22590290220369119 0 0.48731543898686108 -0.23834171508702701 0 0.48006841998572208 -0.20808990240084899 0 0.4862545149737133 -0.22430099187442659 0 0.47005683011064803 -0.22590290220369119 0 0.46661169077989217 -0.2415165845456661 0 0.47005683011064803 -0.22590290220369119 0 0.48731543898686108 -0.23834171508702701 0 0.46661169077989217 -0.2415165845456661 0 0.47785808936807489 -0.24877368548012899 0 0.48731543898686108 -0.23834171508702701 0 0.47785808936807489 -0.24877368548012899 0 0.50000000000000333 -0.24808401158682941 0 0.48731543898686108 -0.23834171508702701 0 0.5 -0.2322286651118938 0 0.50000000000000333 -0.24808401158682941 0 0.48731543898686108 -0.23834171508702701 0 0.47785808936807489 -0.24877368548012899 0 0.50000000000000333 -0.24808401158682941 0 0.50000000000000333 -0.24808401158682941 0 0.48656724266228879 -0.26126228076250718 0 0.5 -0.26842994380811291 0 0.47785808936807489 -0.24877368548012899 0 0.50000000000000333 -0.24808401158682941 0 0.48656724266228879 -0.26126228076250718 0 0.5 -0.26842994380811291 0 0.48208681399926079 -0.27581357356502773 0 0.50000000000000111 -0.28877587602939642 0 0.48656724266228879 -0.26126228076250718 0 0.5 -0.26842994380811291 0 0.48208681399926079 -0.27581357356502773 0 0.48208681399926079 -0.27581357356502773 0 0.46068671901070851 -0.28535474144655731 0 0.48208681399926079 -0.27581357356502773 0 0.46768981413575761 -0.2649492641288182 0 0.46068671901070851 -0.28535474144655731 0 0.48656724266228879 -0.26126228076250718 0 0.48208681399926079 -0.27581357356502773 0 0.46768981413575761 -0.2649492641288182 0 0.47785808936807489 -0.24877368548012899 0 0.48656724266228879 -0.26126228076250718 0 0.46768981413575761 -0.2649492641288182 0 0.45571617873614662 -0.24946335937342859 0 0.47785808936807489 -0.24877368548012899 0 0.46768981413575761 -0.2649492641288182 0 0.45571617873614662 -0.24946335937342859 0 0.46768981413575761 -0.2649492641288182 0 0.44713049355746243 -0.26775388735664418 0 0.46768981413575761 -0.2649492641288182 0 0.44713049355746243 -0.26775388735664418 0 0.46068671901070851 -0.28535474144655731 0 0.44713049355746243 -0.26775388735664418 0 0.46068671901070851 -0.28535474144655731 0 0.45571617873614662 -0.24946335937342859 0 0.44713049355746243 -0.26775388735664418 0 0.43357426810421817 -0.25015303326672972 0 0.44713049355746243 -0.26775388735664418 0 0.43357426810421817 -0.25015303326672972 0 0.43808872290812301 -0.29542998993102848 0 0.44582747314286902 -0.31276753443956201 0 0.43031487288344161 -0.31703067604683871 0 0.43808872290812301 -0.29542998993102848 0 0.45932525709009708 -0.30194153040829069 0 0.44582747314286902 -0.31276753443956201 0 0.43808872290812301 -0.29542998993102848 0 0.46068671901070851 -0.28535474144655731 0 0.45932525709009708 -0.30194153040829069 0 0.43808872290812301 -0.29542998993102848 0 0.46068671901070851 -0.28535474144655731 0 0.44713049355746243 -0.26775388735664418 0 0.43808872290812301 -0.29542998993102848 0 0.46068671901070851 -0.28535474144655731 0 0.46068671901070851 -0.28535474144655731 0 0.47654280981399377 -0.30594164756046982 0 0.46068671901070851 -0.28535474144655731 0 0.45932525709009708 -0.30194153040829069 0 0.47654280981399377 -0.30594164756046982 0 0.45932525709009708 -0.30194153040829069 0 0.46020140703816609 -0.31790014661013011 0 0.44582747314286902 -0.31276753443956201 0 0.47654280981399377 -0.30594164756046982 0 0.46020140703816609 -0.31790014661013011 0 0.45932525709009708 -0.30194153040829069 0 0.47654280981399377 -0.30594164756046982 0 0.46020140703816609 -0.31790014661013011 0 0.47654280981399377 -0.30594164756046982 0 0.48452590656705868 -0.31630657706248883 0 0.48208681399926079 -0.27581357356502773 0 0.46068671901070851 -0.28535474144655731 0 0.47654280981399377 -0.30594164756046982 0 0.48208681399926079 -0.27581357356502773 0 0.47654280981399377 -0.30594164756046982 0 0.50000000000000111 -0.28877587602939642 0 0.50000000000000111 -0.28877587602939642 0 0.5 -0.31627016595707702 0 0.48452590656705868 -0.31630657706248883 0 0.47654280981399377 -0.30594164756046982 0 0.50000000000000111 -0.28877587602939642 0 0.47654280981399377 -0.30594164756046982 0 0.50000000000000111 -0.28877587602939642 0 0.48452590656705868 -0.31630657706248883 0 0.5 -0.31627016595707702 0 0.48452590656705868 -0.31630657706248883 0 0.4798244965011923 -0.33203805400226027 0 0.5 -0.31627016595707702 0 0.4798244965011923 -0.33203805400226027 0 0.5 -0.34376445588475768 0 0.4798244965011923 -0.33203805400226027 0 0.46847105179670839 -0.34389899480205388 0 0.46020140703816609 -0.31790014661013011 0 0.47654280981399377 -0.30594164756046982 0 0.47527365498010271 -0.31804660630883719 0 0.46020140703816609 -0.31790014661013011 0 0.48452590656705868 -0.31630657706248883 0 0.4798244965011923 -0.33203805400226027 0 0.47527365498010271 -0.31804660630883719 0 0.4798244965011923 -0.33203805400226027 0 0.47527365498010271 -0.31804660630883719 0 0.46020140703816609 -0.31790014661013011 0 0.47654280981399377 -0.30594164756046982 0 0.48452590656705868 -0.31630657706248883 0 0.47527365498010271 -0.31804660630883719 0 0.49999999999999711 -0.37125874581243851 0 0.48806042456369142 -0.35612155968098341 0 0.47674069655525092 -0.3698978429939776 0 0.4798244965011923 -0.33203805400226027 0 0.48806042456369142 -0.35612155968098341 0 0.5 -0.34376445588475768 0 0.49999999999999711 -0.37125874581243851 0 0.48806042456369142 -0.35612155968098341 0 0.5 -0.34376445588475768 0 0.4798244965011923 -0.33203805400226027 0 0.48806042456369142 -0.35612155968098341 0 0.46847105179670839 -0.34389899480205388 0 0.48806042456369142 -0.35612155968098341 0 0.47674069655525092 -0.3698978429939776 0 0.46847105179670839 -0.34389899480205388 0 0.47674069655525092 -0.3698978429939776 0 0.46847105179670839 -0.34389899480205388 0 0.47674069655525092 -0.3698978429939776 0 0.45392603783110008 -0.37108838658624999 0 0.46847105179670839 -0.34389899480205388 0 0.45392603783110008 -0.37108838658624999 0 0.46847105179670839 -0.34389899480205388 0 0.44672977628043381 -0.35017364189741718 0 0.45392603783110008 -0.37108838658624999 0 0.44672977628043381 -0.35017364189741718 0 0.42785183481717409 -0.36595316276467199 0 0.45392603783110008 -0.37108838658624999 0 0.42785183481717409 -0.36595316276467199 0 0.43242581624588322 -0.38730115333965082 0 0.46847105179670839 -0.34389899480205388 0 0.46020140703816609 -0.31790014661013011 0 0.46847105179670839 -0.34389899480205388 0 0.46020140703816609 -0.31790014661013011 0 0.45431986664039198 -0.33607192194780172 0 0.46847105179670839 -0.34389899480205388 0 0.44672977628043381 -0.35017364189741718 0 0.45431986664039198 -0.33607192194780172 0 0.44672977628043381 -0.35017364189741718 0 0.44127539957872802 -0.33175003730325792 0 0.42823689835664952 -0.34636857782623809 0 0.44672977628043381 -0.35017364189741718 0 0.45431986664039198 -0.33607192194780172 0 0.44127539957872802 -0.33175003730325792 0 0.46020140703816609 -0.31790014661013011 0 0.45431986664039198 -0.33607192194780172 0 0.44127539957872802 -0.33175003730325792 0 0.44127539957872802 -0.33175003730325792 0 0.44582747314286902 -0.31276753443956201 0 0.43031487288344161 -0.31703067604683871 0 0.46020140703816609 -0.31790014661013011 0 0.44127539957872802 -0.33175003730325792 0 0.46020140703816609 -0.31790014661013011 0 0.44127539957872802 -0.33175003730325792 0 0.44582747314286902 -0.31276753443956201 0 0.44127539957872802 -0.33175003730325792 0 0.43031487288344161 -0.31703067604683871 0 0.41707429101309201 -0.3297381436533145 0 0.44127539957872802 -0.33175003730325792 0 0.41707429101309201 -0.3297381436533145 0 0.42823689835664952 -0.34636857782623809 0 0.41707429101309201 -0.3297381436533145 0 0.42823689835664952 -0.34636857782623809 0 0.40866613474490449 -0.35252068697126149 0 0.41707429101309201 -0.3297381436533145 0 0.39289273070295128 -0.31558048689996993 0 0.41549072680553711 -0.30550523841549909 0 0.43031487288344161 -0.31703067604683871 0 0.41707429101309201 -0.3297381436533145 0 0.41549072680553711 -0.30550523841549909 0 0.44672977628043381 -0.35017364189741718 0 0.42785183481717409 -0.36595316276467199 0 0.42823689835664952 -0.34636857782623809 0 0.42785183481717409 -0.36595316276467199 0 0.40866613474490449 -0.35252068697126149 0 0.42785183481717409 -0.36595316276467199 0 0.42823689835664952 -0.34636857782623809 0 0.40866613474490449 -0.35252068697126149 0 0.42785183481717409 -0.36595316276467199 0 0.4111933065081313 -0.36805982019164402 0 0.41287057948892703 -0.38518927514730122 0 0.42785183481717409 -0.36595316276467199 0 0.40866613474490449 -0.35252068697126149 0 0.4111933065081313 -0.36805982019164402 0 0.39290052262193498 -0.35565000096393579 0 0.38249634533461108 -0.36797477098799591 0 0.39650622041158878 -0.3765742856902482 0 0.4111933065081313 -0.36805982019164402 0 0.39290052262193498 -0.35565000096393579 0 0.39650622041158878 -0.3765742856902482 0 0.40866613474490449 -0.35252068697126149 0 0.39290052262193498 -0.35565000096393579 0 0.38948043467263488 -0.33908821117785082 0 0.40866613474490449 -0.35252068697126149 0 0.38948043467263488 -0.33908821117785082 0 0.40866613474490449 -0.35252068697126149 0 0.4111933065081313 -0.36805982019164402 0 0.39290052262193498 -0.35565000096393579 0 0.39290052262193498 -0.35565000096393579 0 0.37818146540529818 -0.34934783795600571 0 0.38249634533461108 -0.36797477098799591 0 0.39290052262193498 -0.35565000096393579 0 0.37818146540529818 -0.34934783795600571 0 0.38948043467263488 -0.33908821117785082 0 0.37818146540529818 -0.34934783795600571 0 0.38249634533461108 -0.36797477098799591 0 0.37305712147220338 -0.36102055586376819 0 0.41707429101309201 -0.3297381436533145 0 0.40866613474490449 -0.35252068697126149 0 0.38948043467263488 -0.33908821117785082 0 0.41707429101309201 -0.3297381436533145 0 0.39289273070295128 -0.31558048689996993 0 0.38948043467263488 -0.33908821117785082 0 0.37818146540529818 -0.34934783795600571 0 0.38948043467263488 -0.33908821117785082 0 0.37212478857772979 -0.33864880005647208 0 0.38948043467263488 -0.33908821117785082 0 0.37029473460036533 -0.32565573538444043 0 0.38948043467263488 -0.33908821117785082 0 0.37029473460036533 -0.32565573538444043 0 0.37212478857772979 -0.33864880005647208 0 0.39289273070295128 -0.31558048689996993 0 0.38064079273778262 -0.31288188218018531 0 0.37029473460036533 -0.32565573538444043 0 0.39289273070295128 -0.31558048689996993 0 0.37029473460036533 -0.32565573538444043 0 0.39289273070295128 -0.31558048689996993 0 0.38948043467263488 -0.33908821117785082 0 0.37029473460036533 -0.32565573538444043 0 0.38064079273778262 -0.31288188218018531 0 0.37804720550635529 -0.30651687721429538 0 0.38870969627640167 -0.30439929484627132 0 0.38064079273778262 -0.31288188218018531 0 0.37804720550635529 -0.30651687721429538 0 0.37325959660283969 -0.31225701655594912 0 0.37804720550635529 -0.30651687721429538 0 0.38032829646105881 -0.29636137241382532 0 0.36761344479238373 -0.29508033606196837 0 0.37804720550635529 -0.30651687721429538 0 0.38870969627640167 -0.30439929484627132 0 0.38032829646105881 -0.29636137241382532 0 0.38870969627640167 -0.30439929484627132 0 0.3879772147484597 -0.29176707856862888 0 0.38032829646105881 -0.29636137241382532 0 0.39289273070295128 -0.31558048689996993 0 0.38064079273778262 -0.31288188218018531 0 0.38870969627640167 -0.30439929484627132 0 0.39289273070295128 -0.31558048689996993 0 0.39985527598894161 -0.30920798579428682 0 0.41549072680553711 -0.30550523841549909 0 0.39985527598894161 -0.30920798579428682 0 0.39681295496079538 -0.29611275996065012 0 0.40939030264251791 -0.28957609748361951 0 0.39985527598894161 -0.30920798579428682 0 0.40939030264251791 -0.28957609748361951 0 0.39289273070295128 -0.31558048689996993 0 0.41549072680553711 -0.30550523841549909 0 0.39289273070295128 -0.31558048689996993 0 0.38870969627640167 -0.30439929484627132 0 0.39985527598894161 -0.30920798579428682 0 0.38870969627640167 -0.30439929484627132 0 0.39681295496079538 -0.29611275996065012 0 0.3879772147484597 -0.29176707856862888 0 0.38870969627640167 -0.30439929484627132 0 0.39985527598894161 -0.30920798579428682 0 0.39681295496079538 -0.29611275996065012 0 0.39922652050867191 -0.28295197323892363 0 0.39681295496079538 -0.29611275996065012 0 0.40939030264251791 -0.28957609748361951 0 0.39922652050867191 -0.28295197323892363 0 0.39681295496079538 -0.29611275996065012 0 0.3879772147484597 -0.29176707856862888 0 0.39922652050867191 -0.28295197323892363 0 0.3879772147484597 -0.29176707856862888 0 0.38840358504398731 -0.28029486931936831 0 0.3879772147484597 -0.29176707856862888 0 0.37929392098169401 -0.28404327537796259 0 0.38840358504398731 -0.28029486931936831 0 0.38032829646105881 -0.29636137241382532 0 0.37929392098169401 -0.28404327537796259 0 0.36761344479238373 -0.29508033606196837 0 0.3879772147484597 -0.29176707856862888 0 0.38032829646105881 -0.29636137241382532 0 0.37929392098169401 -0.28404327537796259 0 0.37929392098169401 -0.28404327537796259 0 0.38326599173650672 -0.27147868498013239 0 0.3725796289452375 -0.26579697317357759 0 0.37929392098169401 -0.28404327537796259 0 0.38326599173650672 -0.27147868498013239 0 0.38840358504398731 -0.28029486931936831 0 0.38326599173650672 -0.27147868498013239 0 0.38840358504398731 -0.28029486931936831 0 0.39544519547575041 -0.26880031542545191 0 0.37754581309809132 -0.23651361028518689 0 0.3725796289452375 -0.26579697317357759 0 0.37754581309809132 -0.23651361028518689 0 0.3871149211879113 -0.25548270742864421 0 0.3725796289452375 -0.26579697317357759 0 0.38326599173650672 -0.27147868498013239 0 0.3871149211879113 -0.25548270742864421 0 0.39544519547575041 -0.26880031542545191 0 0.38326599173650672 -0.27147868498013239 0 0.3871149211879113 -0.25548270742864421 0 0.3725796289452375 -0.26579697317357759 0 0.3871149211879113 -0.25548270742864421 0 0.40207495352916539 -0.25113417058953519 0 0.39544519547575041 -0.26880031542545191 0 0.40207495352916539 -0.25113417058953519 0 0.39544519547575041 -0.26880031542545191 0 0.41892532929609411 -0.26994420917295231 0 0.39922652050867191 -0.28295197323892363 0 0.39544519547575041 -0.26880031542545191 0 0.41892532929609411 -0.26994420917295231 0 0.39922652050867191 -0.28295197323892363 0 0.38840358504398731 -0.28029486931936831 0 0.39544519547575041 -0.26880031542545191 0 0.41892532929609411 -0.26994420917295231 0 0.40939030264251791 -0.28957609748361951 0 0.41892532929609411 -0.26994420917295231 0 0.42674472615619141 -0.28201696019190231 0 0.40939030264251791 -0.28957609748361951 0 0.39922652050867191 -0.28295197323892363 0 0.41892532929609411 -0.26994420917295231 0 0.40939030264251791 -0.28957609748361951 0 0.40207495352916539 -0.25113417058953519 0 0.41892532929609411 -0.26994420917295231 0 0.42846035594967069 -0.25031232086228522 0 0.40207495352916539 -0.25113417058953519 0 0.42846035594967069 -0.25031232086228522 0 0.44713049355746243 -0.26775388735664418 0 0.4314427817274139 -0.26389233879167029 0 0.43357426810421817 -0.25015303326672972 0 0.41892532929609411 -0.26994420917295231 0 0.42846035594967069 -0.25031232086228522 0 0.41892532929609411 -0.26994420917295231 0 0.42846035594967069 -0.25031232086228522 0 0.4314427817274139 -0.26389233879167029 0 0.42846035594967069 -0.25031232086228522 0 0.4314427817274139 -0.26389233879167029 0 0.43357426810421817 -0.25015303326672972 0 0.42846035594967069 -0.25031232086228522 0 0.43357426810421817 -0.25015303326672972 0 0.41892532929609411 -0.26994420917295231 0 0.4314427817274139 -0.26389233879167029 0 0.42674472615619141 -0.28201696019190231 0 0.44713049355746243 -0.26775388735664418 0 0.4314427817274139 -0.26389233879167029 0 0.42674472615619141 -0.28201696019190231 0 0.43808872290812301 -0.29542998993102848 0 0.42674472615619141 -0.28201696019190231 0 0.41549072680553711 -0.30550523841549909 0 0.44713049355746243 -0.26775388735664418 0 0.43808872290812301 -0.29542998993102848 0 0.42674472615619141 -0.28201696019190231 0 0.43808872290812301 -0.29542998993102848 0 0.43031487288344161 -0.31703067604683871 0 0.41549072680553711 -0.30550523841549909 0 0.43808872290812301 -0.29542998993102848 0 0.41549072680553711 -0.30550523841549909 0 0.39985527598894161 -0.30920798579428682 0 0.41549072680553711 -0.30550523841549909 0 0.40939030264251791 -0.28957609748361951 0 0.42674472615619141 -0.28201696019190231 0 0.41549072680553711 -0.30550523841549909 0 0.40939030264251791 -0.28957609748361951 0 0.43773802119989941 -0.49999999999999978 0 0.45890943729545802 -0.4823892052391901 0 0.4796611806106722 -0.48718440019654963 0 0.43773802119989941 -0.49999999999999978 0 0.44535189907423273 -0.48425652050154361 0 0.43773802119989941 -0.49999999999999978 0 0.44535189907423273 -0.48425652050154361 0 0.45890943729545802 -0.4823892052391901 0 0.43920548674920379 -0.47249175324936749 0 0.44535189907423273 -0.48425652050154361 0 0.45296577694856682 -0.46851304100308783 0 0.43920548674920379 -0.47249175324936749 0 0.44535189907423273 -0.48425652050154361 0 0.42866409193048188 -0.47676758270227471 0 0.44535189907423273 -0.48425652050154361 0 0.45589009982111051 -0.4775459799915327 0 0.45296577694856682 -0.46851304100308783 0 0.44535189907423273 -0.48425652050154361 0 0.45296577694856682 -0.46851304100308783 0 0.45589009982111051 -0.4775459799915327 0 0.45890943729545802 -0.4823892052391901 0 0.46145872075250199 -0.4714816097570898 0 0.44535189907423273 -0.48425652050154361 0 0.45589009982111051 -0.4775459799915327 0 0.45890943729545802 -0.4823892052391901 0 0.45890943729545802 -0.4823892052391901 0 0.46145872075250199 -0.4714816097570898 0 0.47563876839417468 -0.4748936591889994 0 0.46145872075250199 -0.4714816097570898 0 0.45296577694856682 -0.46851304100308783 0 0.45589009982111051 -0.4775459799915327 0 0.46145872075250199 -0.4714816097570898 0 0.45296577694856682 -0.46851304100308783 0 0.43773802119989941 -0.49999999999999978 0 0.4796611806106722 -0.48718440019654963 0 0.5 -0.5 0 0.4796611806106722 -0.48718440019654963 0 0.5 -0.5 0 0.5 -0.47026069904804169 0 0.5 -0.47026069904804169 0 0.47563876839417468 -0.4748936591889994 0 0.47905351322328699 -0.46315238170412548 0 0.4796611806106722 -0.48718440019654963 0 0.5 -0.47026069904804169 0 0.47563876839417468 -0.4748936591889994 0 0.46145872075250199 -0.4714816097570898 0 0.47563876839417468 -0.4748936591889994 0 0.47905351322328699 -0.46315238170412548 0 0.45890943729545802 -0.4823892052391901 0 0.4796611806106722 -0.48718440019654963 0 0.47563876839417468 -0.4748936591889994 0 0.47905351322328699 -0.46315238170412548 0 0.45899603635761982 -0.45604406436020939 0 0.47905351322328699 -0.46315238170412548 0 0.4788951805990147 -0.44564391983896778 0 0.45899603635761982 -0.45604406436020939 0 0.5 -0.47026069904804169 0 0.47905351322328699 -0.46315238170412548 0 0.5 -0.44373220895607401 0 0.5 -0.47026069904804169 0 0.47905351322328699 -0.46315238170412548 0 0.5 -0.44373220895607401 0 0.4788951805990147 -0.44564391983896778 0 0.48552804520920678 -0.42799216931292611 0 0.47905351322328699 -0.46315238170412548 0 0.5 -0.44373220895607401 0 0.4788951805990147 -0.44564391983896778 0 0.4788951805990147 -0.44564391983896778 0 0.45899603635761982 -0.45604406436020939 0 0.46924702726821282 -0.43484773472326599 0 0.45899603635761982 -0.45604406436020939 0 0.46924702726821282 -0.43484773472326599 0 0.45899603635761982 -0.45604406436020939 0 0.44838303037477362 -0.43447900987216292 0 0.46924702726821282 -0.43484773472326599 0 0.46145872075250199 -0.4714816097570898 0 0.47905351322328699 -0.46315238170412548 0 0.45899603635761982 -0.45604406436020939 0 0.46145872075250199 -0.4714816097570898 0 0.45899603635761982 -0.45604406436020939 0 0.45296577694856682 -0.46851304100308783 0 0.45899603635761982 -0.45604406436020939 0 0.45296577694856682 -0.46851304100308783 0 0.44562172027540892 -0.45801600689332289 0 0.45296577694856682 -0.46851304100308783 0 0.42984017904353489 -0.46042986879056458 0 0.43920548674920379 -0.47249175324936749 0 0.45296577694856682 -0.46851304100308783 0 0.42984017904353489 -0.46042986879056458 0 0.44562172027540892 -0.45801600689332289 0 0.43764883001816302 -0.44847867026387339 0 0.42984017904353489 -0.46042986879056458 0 0.45899603635761982 -0.45604406436020939 0 0.44562172027540892 -0.45801600689332289 0 0.45296577694856682 -0.46851304100308783 0 0.45296577694856682 -0.46851304100308783 0 0.42984017904353489 -0.46042986879056458 0 0.45899603635761982 -0.45604406436020939 0 0.44562172027540892 -0.45801600689332289 0 0.43764883001816302 -0.44847867026387339 0 0.45899603635761982 -0.45604406436020939 0 0.43764883001816302 -0.44847867026387339 0 0.44838303037477362 -0.43447900987216292 0 0.43764883001816302 -0.44847867026387339 0 0.44838303037477362 -0.43447900987216292 0 0.43199803478474752 -0.43480066315574151 0 0.45899603635761982 -0.45604406436020939 0 0.43764883001816302 -0.44847867026387339 0 0.44838303037477362 -0.43447900987216292 0 0.43524810038533429 -0.42324892749070769 0 0.43199803478474752 -0.43480066315574151 0 0.44838303037477362 -0.43447900987216292 0 0.45481320319103757 -0.41743251132042969 0 0.43524810038533429 -0.42324892749070769 0 0.45481320319103757 -0.41743251132042969 0 0.43477646914432833 -0.40550992295969079 0 0.43524810038533429 -0.42324892749070769 0 0.45481320319103757 -0.41743251132042969 0 0.46680969583490778 -0.41274858841526157 0 0.46924702726821282 -0.43484773472326599 0 0.45481320319103757 -0.41743251132042969 0 0.46680969583490778 -0.41274858841526157 0 0.46697148891275431 -0.40002921638500172 0 0.44838303037477362 -0.43447900987216292 0 0.45481320319103757 -0.41743251132042969 0 0.46924702726821282 -0.43484773472326599 0 0.5 -0.44373220895607401 0 0.48552804520920678 -0.42799216931292611 0 0.5 -0.40208557795999961 0 0.46924702726821282 -0.43484773472326599 0 0.48552804520920678 -0.42799216931292611 0 0.47949801817880677 -0.41365140508632309 0 0.4788951805990147 -0.44564391983896778 0 0.46924702726821282 -0.43484773472326599 0 0.48552804520920678 -0.42799216931292611 0 0.46924702726821282 -0.43484773472326599 0 0.47949801817880677 -0.41365140508632309 0 0.48552804520920678 -0.42799216931292611 0 0.47949801817880677 -0.41365140508632309 0 0.5 -0.40208557795999961 0 0.46680969583490778 -0.41274858841526157 0 0.46924702726821282 -0.43484773472326599 0 0.47949801817880677 -0.41365140508632309 0 0.46680969583490778 -0.41274858841526157 0 0.47949801817880677 -0.41365140508632309 0 0.47485796399023311 -0.40328323013715978 0 0.47949801817880677 -0.41365140508632309 0 0.47485796399023311 -0.40328323013715978 0 0.48501034131379339 -0.39589669118590137 0 0.46680969583490778 -0.41274858841526157 0 0.47485796399023311 -0.40328323013715978 0 0.46697148891275431 -0.40002921638500172 0 0.47485796399023311 -0.40328323013715978 0 0.47548297721973709 -0.39513831255209197 0 0.46697148891275431 -0.40002921638500172 0 0.47548297721973709 -0.39513831255209197 0 0.47310568845609052 -0.38536867418522291 0 0.46697148891275431 -0.40002921638500172 0 0.47548297721973709 -0.39513831255209197 0 0.48501034131379339 -0.39589669118590137 0 0.47310568845609052 -0.38536867418522291 0 0.47485796399023311 -0.40328323013715978 0 0.47548297721973709 -0.39513831255209197 0 0.48501034131379339 -0.39589669118590137 0 0.47949801817880677 -0.41365140508632309 0 0.48974900908940078 -0.39245507544938019 0 0.47949801817880677 -0.41365140508632309 0 0.5 -0.40208557795999961 0 0.48974900908940078 -0.39245507544938019 0 0.47949801817880677 -0.41365140508632309 0 0.48974900908940078 -0.39245507544938019 0 0.48501034131379339 -0.39589669118590137 0 0.49999999999999711 -0.37125874581243851 0 0.5 -0.40208557795999961 0 0.48974900908940078 -0.39245507544938019 0 0.49999999999999711 -0.37125874581243851 0 0.47674069655525092 -0.3698978429939776 0 0.48974900908940078 -0.39245507544938019 0 0.49999999999999711 -0.37125874581243851 0 0.48974900908940078 -0.39245507544938019 0 0.47674069655525092 -0.3698978429939776 0 0.48501034131379339 -0.39589669118590137 0 0.47310568845609052 -0.38536867418522291 0 0.47674069655525092 -0.3698978429939776 0 0.48974900908940078 -0.39245507544938019 0 0.48501034131379339 -0.39589669118590137 0 0.47674069655525092 -0.3698978429939776 0 0.48501034131379339 -0.39589669118590137 0 0.45392603783110008 -0.37108838658624999 0 0.47310568845609052 -0.38536867418522291 0 0.45155556879862868 -0.3944603689424081 0 0.47674069655525092 -0.3698978429939776 0 0.45392603783110008 -0.37108838658624999 0 0.47310568845609052 -0.38536867418522291 0 0.45481320319103757 -0.41743251132042969 0 0.46697148891275431 -0.40002921638500172 0 0.45155556879862868 -0.3944603689424081 0 0.47310568845609052 -0.38536867418522291 0 0.46697148891275431 -0.40002921638500172 0 0.45155556879862868 -0.3944603689424081 0 0.45481320319103757 -0.41743251132042969 0 0.45155556879862868 -0.3944603689424081 0 0.43477646914432833 -0.40550992295969079 0 0.45155556879862868 -0.3944603689424081 0 0.43242581624588322 -0.38730115333965082 0 0.43477646914432833 -0.40550992295969079 0 0.45392603783110008 -0.37108838658624999 0 0.45155556879862868 -0.3944603689424081 0 0.43242581624588322 -0.38730115333965082 0 0.42785183481717409 -0.36595316276467199 0 0.43242581624588322 -0.38730115333965082 0 0.41287057948892703 -0.38518927514730122 0 0.43242581624588322 -0.38730115333965082 0 0.43477646914432833 -0.40550992295969079 0 0.41749483707519452 -0.40538692165420498 0 0.43242581624588322 -0.38730115333965082 0 0.41749483707519452 -0.40538692165420498 0 0.41287057948892703 -0.38518927514730122 0 0.41749483707519452 -0.40538692165420498 0 0.41287057948892703 -0.38518927514730122 0 0.40336078828097621 -0.40362515372992341 0 0.4111933065081313 -0.36805982019164402 0 0.41287057948892703 -0.38518927514730122 0 0.39650622041158878 -0.3765742856902482 0 0.41287057948892703 -0.38518927514730122 0 0.39650622041158878 -0.3765742856902482 0 0.39372170841196569 -0.3925803949292499 0 0.38249634533461108 -0.36797477098799591 0 0.39650622041158878 -0.3765742856902482 0 0.37900977316023637 -0.39091548517495972 0 0.39650622041158878 -0.3765742856902482 0 0.37900977316023637 -0.39091548517495972 0 0.39372170841196569 -0.3925803949292499 0 0.38249634533461108 -0.36797477098799591 0 0.37900977316023637 -0.39091548517495972 0 0.36724772315424481 -0.38247146420994571 0 0.37900977316023637 -0.39091548517495972 0 0.39372170841196569 -0.3925803949292499 0 0.37842665921942997 -0.40887405987875969 0 0.37900977316023637 -0.39091548517495972 0 0.37842665921942997 -0.40887405987875969 0 0.36824105802713031 -0.4000969440192842 0 0.39372170841196569 -0.3925803949292499 0 0.39194747191700757 -0.41402513481906722 0 0.37842665921942997 -0.40887405987875969 0 0.41287057948892703 -0.38518927514730122 0 0.39372170841196569 -0.3925803949292499 0 0.40336078828097621 -0.40362515372992341 0 0.39372170841196569 -0.3925803949292499 0 0.40336078828097621 -0.40362515372992341 0 0.39194747191700757 -0.41402513481906722 0 0.40336078828097621 -0.40362515372992341 0 0.39194747191700757 -0.41402513481906722 0 0.41036500379586138 -0.42217021861448573 0 0.39194747191700757 -0.41402513481906722 0 0.37842665921942997 -0.40887405987875969 0 0.3754845505291648 -0.42231636227288599 0 0.39194747191700757 -0.41402513481906722 0 0.38276612650569841 -0.43173139982273478 0 0.39495441733924969 -0.43334788207120151 0 0.39194747191700757 -0.41402513481906722 0 0.3754845505291648 -0.42231636227288599 0 0.38276612650569841 -0.43173139982273478 0 0.38276612650569841 -0.43173139982273478 0 0.39495441733924969 -0.43334788207120151 0 0.38358898323347101 -0.44426352436551808 0 0.39495441733924969 -0.43334788207120151 0 0.41630162367870638 -0.44091327616753739 0 0.39194747191700757 -0.41402513481906722 0 0.39495441733924969 -0.43334788207120151 0 0.41036500379586138 -0.42217021861448573 0 0.41036500379586138 -0.42217021861448573 0 0.42295569064062533 -0.42699492369753778 0 0.41630162367870638 -0.44091327616753739 0 0.39495441733924969 -0.43334788207120151 0 0.41036500379586138 -0.42217021861448573 0 0.41630162367870638 -0.44091327616753739 0 0.41749483707519452 -0.40538692165420498 0 0.40336078828097621 -0.40362515372992341 0 0.41036500379586138 -0.42217021861448573 0 0.41749483707519452 -0.40538692165420498 0 0.41036500379586138 -0.42217021861448573 0 0.42458756094721539 -0.41613405657310448 0 0.41036500379586138 -0.42217021861448573 0 0.42458756094721539 -0.41613405657310448 0 0.42295569064062533 -0.42699492369753778 0 0.43477646914432833 -0.40550992295969079 0 0.41749483707519452 -0.40538692165420498 0 0.42458756094721539 -0.41613405657310448 0 0.43477646914432833 -0.40550992295969079 0 0.42458756094721539 -0.41613405657310448 0 0.43524810038533429 -0.42324892749070769 0 0.43199803478474752 -0.43480066315574151 0 0.42295569064062533 -0.42699492369753778 0 0.41630162367870638 -0.44091327616753739 0 0.43524810038533429 -0.42324892749070769 0 0.43199803478474752 -0.43480066315574151 0 0.42295569064062533 -0.42699492369753778 0 0.42458756094721539 -0.41613405657310448 0 0.43524810038533429 -0.42324892749070769 0 0.42295569064062533 -0.42699492369753778 0 0.43764883001816302 -0.44847867026387339 0 0.41630162367870638 -0.44091327616753739 0 0.43764883001816302 -0.44847867026387339 0 0.42984017904353489 -0.46042986879056458 0 0.41630162367870638 -0.44091327616753739 0 0.43764883001816302 -0.44847867026387339 0 0.43199803478474752 -0.43480066315574151 0 0.41630162367870638 -0.44091327616753739 0 0.42984017904353489 -0.46042986879056458 0 0.41583716859034447 -0.46620520778226737 0 0.42866409193048188 -0.47676758270227471 0 0.42984017904353489 -0.46042986879056458 0 0.4067145811385029 -0.45234669657804139 0 0.42984017904353489 -0.46042986879056458 0 0.41583716859034447 -0.46620520778226737 0 0.4067145811385029 -0.45234669657804139 0 0.41583716859034447 -0.46620520778226737 0 0.4067145811385029 -0.45234669657804139 0 0.40148396946935899 -0.46677367853588281 0 0.42984017904353489 -0.46042986879056458 0 0.4067145811385029 -0.45234669657804139 0 0.41630162367870638 -0.44091327616753739 0 0.4067145811385029 -0.45234669657804139 0 0.38358898323347101 -0.44426352436551808 0 0.39182712026942329 -0.45690385307896481 0 0.39495441733924969 -0.43334788207120151 0 0.4067145811385029 -0.45234669657804139 0 0.41630162367870638 -0.44091327616753739 0 0.39495441733924969 -0.43334788207120151 0 0.4067145811385029 -0.45234669657804139 0 0.38358898323347101 -0.44426352436551808 0 0.4067145811385029 -0.45234669657804139 0 0.38358898323347101 -0.44426352436551808 0 0.38358898323347101 -0.44426352436551808 0 0.37514595674159079 -0.45476526552439389 0 0.39182712026942329 -0.45690385307896481 0 0.38276612650569841 -0.43173139982273478 0 0.38358898323347101 -0.44426352436551808 0 0.36596817218281208 -0.43846752572535042 0 0.37514595674159079 -0.45476526552439389 0 0.38538716437757631 -0.46842775420537441 0 0.39182712026942329 -0.45690385307896481 0 0.37514595674159079 -0.45476526552439389 0 0.38538716437757631 -0.46842775420537441 0 0.37212180294075042 -0.46808428500039262 0 0.38538716437757631 -0.46842775420537441 0 0.39182712026942329 -0.45690385307896481 0 0.40148396946935899 -0.46677367853588281 0 0.4067145811385029 -0.45234669657804139 0 0.39182712026942329 -0.45690385307896481 0 0.40148396946935899 -0.46677367853588281 0 0.39434508200087892 -0.48168095957978257 0 0.4057717135424021 -0.48929931529832937 0 0.41138522724611992 -0.47610642689805982 0 0.38538716437757631 -0.46842775420537441 0 0.40148396946935899 -0.46677367853588281 0 0.39434508200087892 -0.48168095957978257 0 0.40148396946935899 -0.46677367853588281 0 0.39434508200087892 -0.48168095957978257 0 0.41138522724611992 -0.47610642689805982 0 0.38538716437757631 -0.46842775420537441 0 0.39434508200087892 -0.48168095957978257 0 0.37586822855092661 -0.48439202442808083 0 0.38538716437757631 -0.46842775420537441 0 0.37586822855092661 -0.48439202442808083 0 0.37212180294075042 -0.46808428500039262 0 0.39434508200087892 -0.48168095957978257 0 0.37586822855092661 -0.48439202442808083 0 0.39289039342582149 -0.5 0 0.37586822855092661 -0.48439202442808083 0 0.39289039342582149 -0.5 0 0.3704665795387827 -0.49999999999999961 0 0.39434508200087892 -0.48168095957978257 0 0.39289039342582149 -0.5 0 0.4057717135424021 -0.48929931529832937 0 0.39289039342582149 -0.5 0 0.4057717135424021 -0.48929931529832937 0 0.41531420731286051 -0.5 0 0.4057717135424021 -0.48929931529832937 0 0.41138522724611992 -0.47610642689805982 0 0.425256426736628 -0.48969697811313823 0 0.4057717135424021 -0.48929931529832937 0 0.41531420731286051 -0.5 0 0.425256426736628 -0.48969697811313823 0 0.41583716859034447 -0.46620520778226737 0 0.41138522724611992 -0.47610642689805982 0 0.42866409193048188 -0.47676758270227471 0 0.41138522724611992 -0.47610642689805982 0 0.42866409193048188 -0.47676758270227471 0 0.425256426736628 -0.48969697811313823 0 0.41583716859034447 -0.46620520778226737 0 0.40148396946935899 -0.46677367853588281 0 0.41138522724611992 -0.47610642689805982 0 0.44535189907423273 -0.48425652050154361 0 0.42866409193048188 -0.47676758270227471 0 0.425256426736628 -0.48969697811313823 0 0.43920548674920379 -0.47249175324936749 0 0.42984017904353489 -0.46042986879056458 0 0.42866409193048188 -0.47676758270227471 0 0.43773802119989941 -0.49999999999999978 0 0.44535189907423273 -0.48425652050154361 0 0.425256426736628 -0.48969697811313823 0 0.43773802119989941 -0.49999999999999978 0 0.41531420731286051 -0.5 0 0.425256426736628 -0.48969697811313823 0 0.32577547594680167 -0.48549728563522948 0 0.313100747974287 -0.5 0 0.34178366375653479 -0.5 0 0.32577547594680167 -0.48549728563522948 0 0.33309118936964399 -0.46704031311580291 0 0.30810638268294871 -0.47012115952174682 0 0.353331436476917 -0.48488928282810861 0 0.33309118936964399 -0.46704031311580291 0 0.32577547594680167 -0.48549728563522948 0 0.353331436476917 -0.48488928282810861 0 0.33309118936964399 -0.46704031311580291 0 0.32577547594680167 -0.48549728563522948 0 0.353331436476917 -0.48488928282810861 0 0.32577547594680167 -0.48549728563522948 0 0.34178366375653479 -0.5 0 0.353331436476917 -0.48488928282810861 0 0.34178366375653479 -0.5 0 0.353331436476917 -0.48488928282810861 0 0.3704665795387827 -0.49999999999999961 0 0.353331436476917 -0.48488928282810861 0 0.3704665795387827 -0.49999999999999961 0 0.37586822855092661 -0.48439202442808083 0 0.353331436476917 -0.48488928282810861 0 0.37586822855092661 -0.48439202442808083 0 0.353331436476917 -0.48488928282810861 0 0.3704665795387827 -0.49999999999999961 0 0.37586822855092661 -0.48439202442808083 0 0.353331436476917 -0.48488928282810861 0 0.36174609683149922 -0.47333229839911978 0 0.37586822855092661 -0.48439202442808083 0 0.36174609683149922 -0.47333229839911978 0 0.37212180294075042 -0.46808428500039262 0 0.353331436476917 -0.48488928282810861 0 0.3511187368843669 -0.46644655109408317 0 0.33309118936964399 -0.46704031311580291 0 0.353331436476917 -0.48488928282810861 0 0.36174609683149922 -0.47333229839911978 0 0.3511187368843669 -0.46644655109408317 0 0.3511187368843669 -0.46644655109408317 0 0.34821094164401439 -0.44963138573543099 0 0.33309118936964399 -0.46704031311580291 0 0.3511187368843669 -0.46644655109408317 0 0.36000734278227892 -0.4581682973830864 0 0.34821094164401439 -0.44963138573543099 0 0.36174609683149922 -0.47333229839911978 0 0.3511187368843669 -0.46644655109408317 0 0.36000734278227892 -0.4581682973830864 0 0.36174609683149922 -0.47333229839911978 0 0.36000734278227892 -0.4581682973830864 0 0.37212180294075042 -0.46808428500039262 0 0.37514595674159079 -0.45476526552439389 0 0.36000734278227892 -0.4581682973830864 0 0.37212180294075042 -0.46808428500039262 0 0.38358898323347101 -0.44426352436551808 0 0.37514595674159079 -0.45476526552439389 0 0.36596817218281208 -0.43846752572535042 0 0.37514595674159079 -0.45476526552439389 0 0.36000734278227892 -0.4581682973830864 0 0.36596817218281208 -0.43846752572535042 0 0.36596817218281208 -0.43846752572535042 0 0.34821094164401439 -0.44963138573543099 0 0.34622956703096991 -0.43300533851794337 0 0.36000734278227892 -0.4581682973830864 0 0.36596817218281208 -0.43846752572535042 0 0.34821094164401439 -0.44963138573543099 0 0.34821094164401439 -0.44963138573543099 0 0.33295970409203041 -0.44505156475946112 0 0.34622956703096991 -0.43300533851794337 0 0.34821094164401439 -0.44963138573543099 0 0.33295970409203041 -0.44505156475946112 0 0.33309118936964399 -0.46704031311580291 0 0.33295970409203041 -0.44505156475946112 0 0.33309118936964399 -0.46704031311580291 0 0.31285094226236981 -0.44919134340349842 0 0.33309118936964399 -0.46704031311580291 0 0.31285094226236981 -0.44919134340349842 0 0.33309118936964399 -0.46704031311580291 0 0.31285094226236981 -0.44919134340349842 0 0.30810638268294871 -0.47012115952174682 0 0.33295970409203041 -0.44505156475946112 0 0.31285094226236981 -0.44919134340349842 0 0.32443481461114221 -0.42819348402864749 0 0.31285094226236981 -0.44919134340349842 0 0.32443481461114221 -0.42819348402864749 0 0.30716585811758268 -0.42152601893676211 0 0.32443481461114221 -0.42819348402864749 0 0.3377381929345476 -0.41993594981441068 0 0.31826237910007699 -0.40611857650776678 0 0.32443481461114221 -0.42819348402864749 0 0.31826237910007699 -0.40611857650776678 0 0.30716585811758268 -0.42152601893676211 0 0.3377381929345476 -0.41993594981441068 0 0.33955155732169001 -0.40481801647484189 0 0.31826237910007699 -0.40611857650776678 0 0.32443481461114221 -0.42819348402864749 0 0.3377381929345476 -0.41993594981441068 0 0.34622956703096991 -0.43300533851794337 0 0.33295970409203041 -0.44505156475946112 0 0.32443481461114221 -0.42819348402864749 0 0.34622956703096991 -0.43300533851794337 0 0.3377381929345476 -0.41993594981441068 0 0.34622956703096991 -0.43300533851794337 0 0.35818280584871282 -0.41603879828427831 0 0.36596817218281208 -0.43846752572535042 0 0.34622956703096991 -0.43300533851794337 0 0.35818280584871282 -0.41603879828427831 0 0.3754845505291648 -0.42231636227288599 0 0.36596817218281208 -0.43846752572535042 0 0.35818280584871282 -0.41603879828427831 0 0.3754845505291648 -0.42231636227288599 0 0.38276612650569841 -0.43173139982273478 0 0.36596817218281208 -0.43846752572535042 0 0.37842665921942997 -0.40887405987875969 0 0.3754845505291648 -0.42231636227288599 0 0.35818280584871282 -0.41603879828427831 0 0.37842665921942997 -0.40887405987875969 0 0.35818280584871282 -0.41603879828427831 0 0.36824105802713031 -0.4000969440192842 0 0.3377381929345476 -0.41993594981441068 0 0.35818280584871282 -0.41603879828427831 0 0.33955155732169001 -0.40481801647484189 0 0.35818280584871282 -0.41603879828427831 0 0.35120943534252291 -0.3914849644630724 0 0.33955155732169001 -0.40481801647484189 0 0.35818280584871282 -0.41603879828427831 0 0.35120943534252291 -0.3914849644630724 0 0.36824105802713031 -0.4000969440192842 0 0.37900977316023637 -0.39091548517495972 0 0.36824105802713031 -0.4000969440192842 0 0.36724772315424481 -0.38247146420994571 0 0.35120943534252291 -0.3914849644630724 0 0.36824105802713031 -0.4000969440192842 0 0.36724772315424481 -0.38247146420994571 0 0.36724772315424481 -0.38247146420994571 0 0.3553956415560332 -0.375446985373177 0 0.36664078794155069 -0.36853845970684512 0 0.35120943534252291 -0.3914849644630724 0 0.3553956415560332 -0.375446985373177 0 0.34024068493209042 -0.37145909403295352 0 0.35120943534252291 -0.3914849644630724 0 0.36724772315424481 -0.38247146420994571 0 0.3553956415560332 -0.375446985373177 0 0.35120943534252291 -0.3914849644630724 0 0.33045907805143321 -0.38798152631774108 0 0.34024068493209042 -0.37145909403295352 0 0.33045907805143321 -0.38798152631774108 0 0.34024068493209042 -0.37145909403295352 0 0.32473595581008968 -0.36877041147622941 0 0.33045907805143321 -0.38798152631774108 0 0.33955155732169001 -0.40481801647484189 0 0.31826237910007699 -0.40611857650776678 0 0.35120943534252291 -0.3914849644630724 0 0.33045907805143321 -0.38798152631774108 0 0.33955155732169001 -0.40481801647484189 0 0.33045907805143321 -0.38798152631774108 0 0.31826237910007699 -0.40611857650776678 0 0.30852465471842783 -0.38296478278532459 0 0.33045907805143321 -0.38798152631774108 0 0.30852465471842783 -0.38296478278532459 0 0.32473595581008968 -0.36877041147622941 0 0.30852465471842783 -0.38296478278532459 0 0.30157177088572762 -0.39984768184154418 0 0.28524522637625171 -0.38748256695808048 0 0.31826237910007699 -0.40611857650776678 0 0.30852465471842783 -0.38296478278532459 0 0.30157177088572762 -0.39984768184154418 0 0.30157177088572762 -0.39984768184154418 0 0.28524522637625171 -0.38748256695808048 0 0.28909827497095891 -0.41314244090476959 0 0.30852465471842783 -0.38296478278532459 0 0.28524522637625171 -0.38748256695808048 0 0.29576167506738288 -0.36584798696867898 0 0.28524522637625171 -0.38748256695808048 0 0.26194523537769671 -0.38343407302417171 0 0.27628411724202862 -0.36524783617958329 0 0.26194523537769671 -0.38343407302417171 0 0.2677956642119742 -0.40840362680373948 0 0.24730388124056729 -0.40448370284608931 0 0.28524522637625171 -0.38748256695808048 0 0.26194523537769671 -0.38343407302417171 0 0.2677956642119742 -0.40840362680373948 0 0.28524522637625171 -0.38748256695808048 0 0.2677956642119742 -0.40840362680373948 0 0.28909827497095891 -0.41314244090476959 0 0.2677956642119742 -0.40840362680373948 0 0.27472650047210662 -0.43131219108599711 0 0.28909827497095891 -0.41314244090476959 0 0.2677956642119742 -0.40840362680373948 0 0.24845486683426421 -0.43056678600332871 0 0.24730388124056729 -0.40448370284608931 0 0.2677956642119742 -0.40840362680373948 0 0.27472650047210662 -0.43131219108599711 0 0.24845486683426421 -0.43056678600332871 0 0.27472650047210662 -0.43131219108599711 0 0.26710508502781599 -0.44926171113960661 0 0.24845486683426421 -0.43056678600332871 0 0.27472650047210662 -0.43131219108599711 0 0.29418269027227539 -0.43431919247607059 0 0.28909827497095891 -0.41314244090476959 0 0.29418269027227539 -0.43431919247607059 0 0.28909827497095891 -0.41314244090476959 0 0.30716585811758268 -0.42152601893676211 0 0.31826237910007699 -0.40611857650776678 0 0.30157177088572762 -0.39984768184154418 0 0.30716585811758268 -0.42152601893676211 0 0.30157177088572762 -0.39984768184154418 0 0.28909827497095891 -0.41314244090476959 0 0.30716585811758268 -0.42152601893676211 0 0.31285094226236981 -0.44919134340349842 0 0.29418269027227539 -0.43431919247607059 0 0.30716585811758268 -0.42152601893676211 0 0.31285094226236981 -0.44919134340349842 0 0.29418269027227539 -0.43431919247607059 0 0.28597809560131299 -0.4567624239266439 0 0.31285094226236981 -0.44919134340349842 0 0.28597809560131299 -0.4567624239266439 0 0.30810638268294871 -0.47012115952174682 0 0.28597809560131299 -0.4567624239266439 0 0.27356505094757272 -0.46654042127887851 0 0.28658471780149791 -0.47429793876749549 0 0.28597809560131299 -0.4567624239266439 0 0.28658471780149791 -0.47429793876749549 0 0.30810638268294871 -0.47012115952174682 0 0.27472650047210662 -0.43131219108599711 0 0.29418269027227539 -0.43431919247607059 0 0.28597809560131299 -0.4567624239266439 0 0.27472650047210662 -0.43131219108599711 0 0.28597809560131299 -0.4567624239266439 0 0.26710508502781599 -0.44926171113960661 0 0.26710508502781599 -0.44926171113960661 0 0.25055382002994903 -0.45112655962101422 0 0.24845486683426421 -0.43056678600332871 0 0.25055382002994903 -0.45112655962101422 0 0.25749380142066591 -0.46566674131117769 0 0.24452211955108941 -0.47321082899062988 0 0.26710508502781599 -0.44926171113960661 0 0.25055382002994903 -0.45112655962101422 0 0.25749380142066591 -0.46566674131117769 0 0.26710508502781599 -0.44926171113960661 0 0.25749380142066591 -0.46566674131117769 0 0.27356505094757272 -0.46654042127887851 0 0.28597809560131299 -0.4567624239266439 0 0.26710508502781599 -0.44926171113960661 0 0.27356505094757272 -0.46654042127887851 0 0.25749380142066591 -0.46566674131117769 0 0.27356505094757272 -0.46654042127887851 0 0.27066355488657068 -0.48671329124946883 0 0.27356505094757272 -0.46654042127887851 0 0.27066355488657068 -0.48671329124946883 0 0.28658471780149791 -0.47429793876749549 0 0.27066355488657068 -0.48671329124946883 0 0.24310759435645521 -0.48732129405658853 0 0.24452211955108941 -0.47321082899062988 0 0.25749380142066591 -0.46566674131117769 0 0.27066355488657068 -0.48671329124946883 0 0.24452211955108941 -0.47321082899062988 0 0.25573491640979129 -0.5 0 0.27066355488657068 -0.48671329124946883 0 0.24310759435645521 -0.48732129405658853 0 0.27066355488657068 -0.48671329124946883 0 0.24310759435645521 -0.48732129405658853 0 0.25573491640979129 -0.5 0 0.27066355488657068 -0.48671329124946883 0 0.2844178321920392 -0.5 0 0.27066355488657068 -0.48671329124946883 0 0.2844178321920392 -0.5 0 0.29821951541668618 -0.48610528844234918 0 0.27066355488657068 -0.48671329124946883 0 0.29821951541668618 -0.48610528844234918 0 0.27066355488657068 -0.48671329124946883 0 0.28658471780149791 -0.47429793876749549 0 0.29821951541668618 -0.48610528844234918 0 0.28658471780149791 -0.47429793876749549 0 0.30810638268294871 -0.47012115952174682 0 0.29821951541668618 -0.48610528844234918 0 0.32577547594680167 -0.48549728563522948 0 0.30810638268294871 -0.47012115952174682 0 0.29821951541668618 -0.48610528844234918 0 0.313100747974287 -0.5 0 0.2844178321920392 -0.5 0 0.29821951541668618 -0.48610528844234918 0 0.32577547594680167 -0.48549728563522948 0 0.29821951541668618 -0.48610528844234918 0 0.32577547594680167 -0.48549728563522948 0 0.313100747974287 -0.5 0 0.29821951541668618 -0.48610528844234918 0 0.330274064289036 -0.28402767586280209 0 0.34332234684577362 -0.29793808318023329 0 0.34457666422559302 -0.26801309975333321 0 0.330274064289036 -0.28402767586280209 0 0.34332234684577362 -0.29793808318023329 0 0.32977293544345387 -0.30596193421111573 0 0.34332234684577362 -0.29793808318023329 0 0.32977293544345387 -0.30596193421111573 0 0.34206802946595682 -0.32786306660713371 0 0.31744302567780058 -0.29875438106107682 0 0.32081511337912821 -0.31891284763754968 0 0.29956219729229971 -0.30996262866796498 0 0.32977293544345387 -0.30596193421111573 0 0.31744302567780058 -0.29875438106107682 0 0.32081511337912821 -0.31891284763754968 0 0.31744302567780058 -0.29875438106107682 0 0.315203972569992 -0.28599406388836862 0 0.30893165249025939 -0.29458973757352408 0 0.330274064289036 -0.28402767586280209 0 0.32977293544345387 -0.30596193421111573 0 0.31744302567780058 -0.29875438106107682 0 0.330274064289036 -0.28402767586280209 0 0.31744302567780058 -0.29875438106107682 0 0.315203972569992 -0.28599406388836862 0 0.31616400359283131 -0.27140021809428472 0 0.31565659849655159 -0.26881006701694032 0 0.34457666422559302 -0.26801309975333321 0 0.31616400359283131 -0.27140021809428472 0 0.31565659849655159 -0.26881006701694032 0 0.330274064289036 -0.28402767586280209 0 0.315203972569992 -0.28599406388836862 0 0.31616400359283131 -0.27140021809428472 0 0.31140457280844042 -0.24710474912070499 0 0.31565659849655159 -0.26881006701694032 0 0.31140457280844042 -0.24710474912070499 0 0.31565659849655159 -0.26881006701694032 0 0.32909477526671738 -0.25319804842994992 0 0.34542116247921317 -0.24786541093840589 0 0.32909477526671738 -0.25319804842994992 0 0.34457666422559302 -0.26801309975333321 0 0.31565659849655159 -0.26881006701694032 0 0.32909477526671738 -0.25319804842994992 0 0.34457666422559302 -0.26801309975333321 0 0.31565659849655159 -0.26881006701694032 0 0.34457666422559302 -0.26801309975333321 0 0.330274064289036 -0.28402767586280209 0 0.31616400359283131 -0.27140021809428472 0 0.34457666422559302 -0.26801309975333321 0 0.35327842571551671 -0.2677733001931194 0 0.36211004630048071 -0.25874315800932568 0 0.36139056500297317 -0.28258450191058321 0 0.34457666422559302 -0.26801309975333321 0 0.35327842571551671 -0.2677733001931194 0 0.36139056500297317 -0.28258450191058321 0 0.34457666422559302 -0.26801309975333321 0 0.35327842571551671 -0.2677733001931194 0 0.34542116247921317 -0.24786541093840589 0 0.35327842571551671 -0.2677733001931194 0 0.36211004630048071 -0.25874315800932568 0 0.34542116247921317 -0.24786541093840589 0 0.34457666422559302 -0.26801309975333321 0 0.34542116247921317 -0.24786541093840589 0 0.34457666422559302 -0.26801309975333321 0 0.35327842571551671 -0.2677733001931194 0 0.36876625398544938 -0.24898888889403961 0 0.37754581309809132 -0.23651361028518689 0 0.3725796289452375 -0.26579697317357759 0 0.36876625398544938 -0.24898888889403961 0 0.36211004630048071 -0.25874315800932568 0 0.3725796289452375 -0.26579697317357759 0 0.36211004630048071 -0.25874315800932568 0 0.36139056500297317 -0.28258450191058321 0 0.36211004630048071 -0.25874315800932568 0 0.3725796289452375 -0.26579697317357759 0 0.36139056500297317 -0.28258450191058321 0 0.3725796289452375 -0.26579697317357759 0 0.36761344479238373 -0.29508033606196837 0 0.3725796289452375 -0.26579697317357759 0 0.36139056500297317 -0.28258450191058321 0 0.36761344479238373 -0.29508033606196837 0 0.36139056500297317 -0.28258450191058321 0 0.36067108370546558 -0.30642584581184062 0 0.36139056500297317 -0.28258450191058321 0 0.36761344479238373 -0.29508033606196837 0 0.36067108370546558 -0.30642584581184062 0 0.37929392098169401 -0.28404327537796259 0 0.3725796289452375 -0.26579697317357759 0 0.36761344479238373 -0.29508033606196837 0 0.34332234684577362 -0.29793808318023329 0 0.36139056500297317 -0.28258450191058321 0 0.36067108370546558 -0.30642584581184062 0 0.34332234684577362 -0.29793808318023329 0 0.34457666422559302 -0.26801309975333321 0 0.34332234684577362 -0.29793808318023329 0 0.34457666422559302 -0.26801309975333321 0 0.36139056500297317 -0.28258450191058321 0 0.34332234684577362 -0.29793808318023329 0 0.36067108370546558 -0.30642584581184062 0 0.35385294866325562 -0.31815161708919842 0 0.37804720550635529 -0.30651687721429538 0 0.36761344479238373 -0.29508033606196837 0 0.37325959660283969 -0.31225701655594912 0 0.36761344479238373 -0.29508033606196837 0 0.37325959660283969 -0.31225701655594912 0 0.36522996683296982 -0.32210974174446261 0 0.36761344479238373 -0.29508033606196837 0 0.3626472606395299 -0.32436369895035932 0 0.36761344479238373 -0.29508033606196837 0 0.36067108370546558 -0.30642584581184062 0 0.3626472606395299 -0.32436369895035932 0 0.36067108370546558 -0.30642584581184062 0 0.35995160240795782 -0.33026718971309799 0 0.37325959660283969 -0.31225701655594912 0 0.36522996683296982 -0.32210974174446261 0 0.37029473460036533 -0.32565573538444043 0 0.36761344479238373 -0.29508033606196837 0 0.3626472606395299 -0.32436369895035932 0 0.36522996683296982 -0.32210974174446261 0 0.36067108370546558 -0.30642584581184062 0 0.3626472606395299 -0.32436369895035932 0 0.35995160240795782 -0.33026718971309799 0 0.38064079273778262 -0.31288188218018531 0 0.37325959660283969 -0.31225701655594912 0 0.37029473460036533 -0.32565573538444043 0 0.3626472606395299 -0.32436369895035932 0 0.37029473460036533 -0.32565573538444043 0 0.35995160240795782 -0.33026718971309799 0 0.37029473460036533 -0.32565573538444043 0 0.35995160240795782 -0.33026718971309799 0 0.3626472606395299 -0.32436369895035932 0 0.36522996683296982 -0.32210974174446261 0 0.37029473460036533 -0.32565573538444043 0 0.36522996683296982 -0.32210974174446261 0 0.37029473460036533 -0.32565573538444043 0 0.35995160240795782 -0.33026718971309799 0 0.35941557651728179 -0.34802939929915899 0 0.37029473460036533 -0.32565573538444043 0 0.37212478857772979 -0.33864880005647208 0 0.35995160240795782 -0.33026718971309799 0 0.3654326502107581 -0.34245967622864359 0 0.35995160240795782 -0.33026718971309799 0 0.35941557651728179 -0.34802939929915899 0 0.37212478857772979 -0.33864880005647208 0 0.3654326502107581 -0.34245967622864359 0 0.37040156667629781 -0.34671437794913718 0 0.37212478857772979 -0.33864880005647208 0 0.3654326502107581 -0.34245967622864359 0 0.35995160240795782 -0.33026718971309799 0 0.35995160240795782 -0.33026718971309799 0 0.35941557651728179 -0.34802939929915899 0 0.34162477060798069 -0.33843815246039383 0 0.35941557651728179 -0.34802939929915899 0 0.34146637893605181 -0.3422169952266676 0 0.34162477060798069 -0.33843815246039383 0 0.35995160240795782 -0.33026718971309799 0 0.34162477060798069 -0.33843815246039383 0 0.35995160240795782 -0.33026718971309799 0 0.34764647170350632 -0.33021231032179682 0 0.34162477060798069 -0.33843815246039383 0 0.35995160240795782 -0.33026718971309799 0 0.34764647170350632 -0.33021231032179682 0 0.35274785573456591 -0.3260756163463463 0 0.34764647170350632 -0.33021231032179682 0 0.34206802946595682 -0.32786306660713371 0 0.34162477060798069 -0.33843815246039383 0 0.34764647170350632 -0.33021231032179682 0 0.34206802946595682 -0.32786306660713371 0 0.35385294866325562 -0.31815161708919842 0 0.35274785573456591 -0.3260756163463463 0 0.34206802946595682 -0.32786306660713371 0 0.34764647170350632 -0.33021231032179682 0 0.35274785573456591 -0.3260756163463463 0 0.34206802946595682 -0.32786306660713371 0 0.34332234684577362 -0.29793808318023329 0 0.35385294866325562 -0.31815161708919842 0 0.34206802946595682 -0.32786306660713371 0 0.36067108370546558 -0.30642584581184062 0 0.35995160240795782 -0.33026718971309799 0 0.35385294866325562 -0.31815161708919842 0 0.35995160240795782 -0.33026718971309799 0 0.35385294866325562 -0.31815161708919842 0 0.35274785573456591 -0.3260756163463463 0 0.38249634533461108 -0.36797477098799591 0 0.36724772315424481 -0.38247146420994571 0 0.36664078794155069 -0.36853845970684512 0 0.38249634533461108 -0.36797477098799591 0 0.36664078794155069 -0.36853845970684512 0 0.37305712147220338 -0.36102055586376819 0 0.3553956415560332 -0.375446985373177 0 0.36664078794155069 -0.36853845970684512 0 0.35901533294662008 -0.36129221050145399 0 0.36664078794155069 -0.36853845970684512 0 0.37305712147220338 -0.36102055586376819 0 0.36517854466496658 -0.35714892472411869 0 0.36664078794155069 -0.36853845970684512 0 0.36517854466496658 -0.35714892472411869 0 0.35901533294662008 -0.36129221050145399 0 0.36517854466496658 -0.35714892472411869 0 0.35941557651728179 -0.34802939929915899 0 0.35901533294662008 -0.36129221050145399 0 0.36517854466496658 -0.35714892472411869 0 0.36469303305047901 -0.34973837317986511 0 0.35941557651728179 -0.34802939929915899 0 0.36517854466496658 -0.35714892472411869 0 0.37030234625384911 -0.35279401393457888 0 0.36469303305047901 -0.34973837317986511 0 0.37818146540529818 -0.34934783795600571 0 0.37305712147220338 -0.36102055586376819 0 0.37030234625384911 -0.35279401393457888 0 0.37305712147220338 -0.36102055586376819 0 0.36517854466496658 -0.35714892472411869 0 0.37030234625384911 -0.35279401393457888 0 0.37818146540529818 -0.34934783795600571 0 0.37212478857772979 -0.33864880005647208 0 0.37040156667629781 -0.34671437794913718 0 0.37818146540529818 -0.34934783795600571 0 0.37030234625384911 -0.35279401393457888 0 0.37040156667629781 -0.34671437794913718 0 0.37030234625384911 -0.35279401393457888 0 0.37040156667629781 -0.34671437794913718 0 0.36469303305047901 -0.34973837317986511 0 0.3654326502107581 -0.34245967622864359 0 0.37040156667629781 -0.34671437794913718 0 0.36469303305047901 -0.34973837317986511 0 0.36469303305047901 -0.34973837317986511 0 0.35941557651728179 -0.34802939929915899 0 0.3654326502107581 -0.34245967622864359 0 0.36469303305047901 -0.34973837317986511 0 0.35941557651728179 -0.34802939929915899 0 0.35003449333301101 -0.35574942476505861 0 0.34024068493209042 -0.37145909403295352 0 0.34146637893605181 -0.3422169952266676 0 0.35941557651728179 -0.34802939929915899 0 0.35003449333301101 -0.35574942476505861 0 0.34146637893605181 -0.3422169952266676 0 0.35941557651728179 -0.34802939929915899 0 0.34146637893605181 -0.3422169952266676 0 0.35941557651728179 -0.34802939929915899 0 0.35901533294662008 -0.36129221050145399 0 0.35941557651728179 -0.34802939929915899 0 0.35003449333301101 -0.35574942476505861 0 0.35901533294662008 -0.36129221050145399 0 0.35003449333301101 -0.35574942476505861 0 0.35901533294662008 -0.36129221050145399 0 0.34024068493209042 -0.37145909403295352 0 0.3553956415560332 -0.375446985373177 0 0.35901533294662008 -0.36129221050145399 0 0.34024068493209042 -0.37145909403295352 0 0.34024068493209042 -0.37145909403295352 0 0.33264239376833749 -0.35548373211026962 0 0.32473595581008968 -0.36877041147622941 0 0.34024068493209042 -0.37145909403295352 0 0.33264239376833749 -0.35548373211026962 0 0.34146637893605181 -0.3422169952266676 0 0.34024068493209042 -0.37145909403295352 0 0.34146637893605181 -0.3422169952266676 0 0.33264239376833749 -0.35548373211026962 0 0.32969677432389999 -0.34883746930945858 0 0.32350037713642671 -0.3535383953733186 0 0.33264239376833749 -0.35548373211026962 0 0.33484083241944268 -0.34588391539316982 0 0.34146637893605181 -0.3422169952266676 0 0.33264239376833749 -0.35548373211026962 0 0.33484083241944268 -0.34588391539316982 0 0.32969677432389999 -0.34883746930945858 0 0.33484083241944268 -0.34588391539316982 0 0.32969677432389999 -0.34883746930945858 0 0.33080291213000951 -0.34437854531234752 0 0.32969677432389999 -0.34883746930945858 0 0.33080291213000951 -0.34437854531234752 0 0.32576759743036687 -0.34544500479448842 0 0.32576759743036687 -0.34544500479448842 0 0.32008489300350967 -0.34478001059398899 0 0.32350037713642671 -0.3535383953733186 0 0.32969677432389999 -0.34883746930945858 0 0.32576759743036687 -0.34544500479448842 0 0.32350037713642671 -0.3535383953733186 0 0.32576759743036687 -0.34544500479448842 0 0.32008489300350967 -0.34478001059398899 0 0.3230261242077439 -0.3426129045732173 0 0.32008489300350967 -0.34478001059398899 0 0.31455300750316167 -0.34989325112993808 0 0.32350037713642671 -0.3535383953733186 0 0.32008489300350967 -0.34478001059398899 0 0.31455300750316167 -0.34989325112993808 0 0.31278358272303802 -0.34129775444127147 0 0.31455300750316167 -0.34989325112993808 0 0.32350037713642671 -0.3535383953733186 0 0.31266700858965563 -0.36105898834543543 0 0.33264239376833749 -0.35548373211026962 0 0.32350037713642671 -0.3535383953733186 0 0.32473595581008968 -0.36877041147622941 0 0.30852465471842783 -0.38296478278532459 0 0.31266700858965563 -0.36105898834543543 0 0.32473595581008968 -0.36877041147622941 0 0.32350037713642671 -0.3535383953733186 0 0.31266700858965563 -0.36105898834543543 0 0.32473595581008968 -0.36877041147622941 0 0.34332234684577362 -0.29793808318023329 0 0.34206802946595682 -0.32786306660713371 0 0.32977293544345387 -0.30596193421111573 0 0.34206802946595682 -0.32786306660713371 0 0.32081511337912821 -0.31891284763754968 0 0.34206802946595682 -0.32786306660713371 0 0.32602109842812482 -0.32927153728442071 0 0.32081511337912821 -0.31891284763754968 0 0.34206802946595682 -0.32786306660713371 0 0.32081511337912821 -0.31891284763754968 0 0.34206802946595682 -0.32786306660713371 0 0.34162477060798069 -0.33843815246039383 0 0.33801441914131958 -0.33597980122333287 0 0.34206802946595682 -0.32786306660713371 0 0.34162477060798069 -0.33843815246039383 0 0.34206802946595682 -0.32786306660713371 0 0.33503975802439162 -0.33352730776002742 0 0.32602109842812482 -0.32927153728442071 0 0.34206802946595682 -0.32786306660713371 0 0.33801441914131958 -0.33597980122333287 0 0.33503975802439162 -0.33352730776002742 0 0.34146637893605181 -0.3422169952266676 0 0.34162477060798069 -0.33843815246039383 0 0.33664845261102122 -0.34065682884787418 0 0.34146637893605181 -0.3422169952266676 0 0.34162477060798069 -0.33843815246039383 0 0.34162477060798069 -0.33843815246039383 0 0.33801441914131958 -0.33597980122333287 0 0.33664845261102122 -0.34065682884787418 0 0.34162477060798069 -0.33843815246039383 0 0.33664845261102122 -0.34065682884787418 0 0.33801441914131958 -0.33597980122333287 0 0.33664845261102122 -0.34065682884787418 0 0.334556636173299 -0.33621284741772872 0 0.33484083241944268 -0.34588391539316982 0 0.34146637893605181 -0.3422169952266676 0 0.33664845261102122 -0.34065682884787418 0 0.34146637893605181 -0.3422169952266676 0 0.33664845261102122 -0.34065682884787418 0 0.33080291213000951 -0.34437854531234752 0 0.33664845261102122 -0.34065682884787418 0 0.32753883147517121 -0.34023469067202677 0 0.33664845261102122 -0.34065682884787418 0 0.334556636173299 -0.33621284741772872 0 0.32852391491646382 -0.33468745183968091 0 0.33484083241944268 -0.34588391539316982 0 0.33080291213000951 -0.34437854531234752 0 0.33664845261102122 -0.34065682884787418 0 0.33503975802439162 -0.33352730776002742 0 0.32852391491646382 -0.33468745183968091 0 0.32602109842812482 -0.32927153728442071 0 0.334556636173299 -0.33621284741772872 0 0.33503975802439162 -0.33352730776002742 0 0.32852391491646382 -0.33468745183968091 0 0.33801441914131958 -0.33597980122333287 0 0.334556636173299 -0.33621284741772872 0 0.33503975802439162 -0.33352730776002742 0 0.32753883147517121 -0.34023469067202677 0 0.31871317492192791 -0.33999191223236508 0 0.30992165968220392 -0.33200201743577268 0 0.32852391491646382 -0.33468745183968091 0 0.32602109842812482 -0.32927153728442071 0 0.30992165968220392 -0.33200201743577268 0 0.33664845261102122 -0.34065682884787418 0 0.32852391491646382 -0.33468745183968091 0 0.30992165968220392 -0.33200201743577268 0 0.33664845261102122 -0.34065682884787418 0 0.32753883147517121 -0.34023469067202677 0 0.30992165968220392 -0.33200201743577268 0 0.32602109842812482 -0.32927153728442071 0 0.31516553794356478 -0.32688419612254632 0 0.30992165968220392 -0.33200201743577268 0 0.33664845261102122 -0.34065682884787418 0 0.30992165968220392 -0.33200201743577268 0 0.32753883147517121 -0.34023469067202677 0 0.3230261242077439 -0.3426129045732173 0 0.31871317492192791 -0.33999191223236508 0 0.33080291213000951 -0.34437854531234752 0 0.32576759743036687 -0.34544500479448842 0 0.32753883147517121 -0.34023469067202677 0 0.32576759743036687 -0.34544500479448842 0 0.32753883147517121 -0.34023469067202677 0 0.3230261242077439 -0.3426129045732173 0 0.32008489300350967 -0.34478001059398899 0 0.3230261242077439 -0.3426129045732173 0 0.31871317492192791 -0.33999191223236508 0 0.31871317492192791 -0.33999191223236508 0 0.31278358272303802 -0.34129775444127147 0 0.30992165968220392 -0.33200201743577268 0 0.32008489300350967 -0.34478001059398899 0 0.31871317492192791 -0.33999191223236508 0 0.31278358272303802 -0.34129775444127147 0 0.32602109842812482 -0.32927153728442071 0 0.31516553794356478 -0.32688419612254632 0 0.32081511337912821 -0.31891284763754968 0 0.31516553794356478 -0.32688419612254632 0 0.32081511337912821 -0.31891284763754968 0 0.29956219729229971 -0.30996262866796498 0 0.31516553794356478 -0.32688419612254632 0 0.30992165968220392 -0.33200201743577268 0 0.29956219729229971 -0.30996262866796498 0 0.30992165968220392 -0.33200201743577268 0 0.28319486675338662 -0.32334720602367162 0 0.29956219729229971 -0.30996262866796498 0 0.32081511337912821 -0.31891284763754968 0 0.29956219729229971 -0.30996262866796498 0 0.31516553794356478 -0.32688419612254632 0 0.29956219729229971 -0.30996262866796498 0 0.31278358272303802 -0.34129775444127147 0 0.30544777269898171 -0.33968681455295602 0 0.30372917606317851 -0.34879110689567611 0 0.31278358272303802 -0.34129775444127147 0 0.30992165968220392 -0.33200201743577268 0 0.30544777269898171 -0.33968681455295602 0 0.30992165968220392 -0.33200201743577268 0 0.30544777269898171 -0.33968681455295602 0 0.29535667232750618 -0.33665637943910393 0 0.30544777269898171 -0.33968681455295602 0 0.29535667232750618 -0.33665637943910393 0 0.30372917606317851 -0.34879110689567611 0 0.30992165968220392 -0.33200201743577268 0 0.29535667232750618 -0.33665637943910393 0 0.28319486675338662 -0.32334720602367162 0 0.29535667232750618 -0.33665637943910393 0 0.28811986741475609 -0.34954264064797458 0 0.28056009198101312 -0.33712721632873971 0 0.29535667232750618 -0.33665637943910393 0 0.28319486675338662 -0.32334720602367162 0 0.28056009198101312 -0.33712721632873971 0 0.30992165968220392 -0.33200201743577268 0 0.28319486675338662 -0.32334720602367162 0 0.30852465471842783 -0.38296478278532459 0 0.31266700858965563 -0.36105898834543543 0 0.29576167506738288 -0.36584798696867898 0 0.31266700858965563 -0.36105898834543543 0 0.30372917606317851 -0.34879110689567611 0 0.29576167506738288 -0.36584798696867898 0 0.31455300750316167 -0.34989325112993808 0 0.31266700858965563 -0.36105898834543543 0 0.30372917606317851 -0.34879110689567611 0 0.31455300750316167 -0.34989325112993808 0 0.31278358272303802 -0.34129775444127147 0 0.30372917606317851 -0.34879110689567611 0 0.30372917606317851 -0.34879110689567611 0 0.28811986741475609 -0.34954264064797458 0 0.29576167506738288 -0.36584798696867898 0 0.29535667232750618 -0.33665637943910393 0 0.30372917606317851 -0.34879110689567611 0 0.28811986741475609 -0.34954264064797458 0 0.28811986741475609 -0.34954264064797458 0 0.29576167506738288 -0.36584798696867898 0 0.27628411724202862 -0.36524783617958329 0 0.28524522637625171 -0.38748256695808048 0 0.29576167506738288 -0.36584798696867898 0 0.27628411724202862 -0.36524783617958329 0 0.27628411724202862 -0.36524783617958329 0 0.26970242523906313 -0.3463930650348116 0 0.25620327224306561 -0.36049072758523892 0 0.28811986741475609 -0.34954264064797458 0 0.27628411724202862 -0.36524783617958329 0 0.26970242523906313 -0.3463930650348116 0 0.28811986741475609 -0.34954264064797458 0 0.26970242523906313 -0.3463930650348116 0 0.28056009198101312 -0.33712721632873971 0 0.26970242523906313 -0.3463930650348116 0 0.25620327224306561 -0.36049072758523892 0 0.25110761996098008 -0.33756133299550262 0 0.26194523537769671 -0.38343407302417171 0 0.27628411724202862 -0.36524783617958329 0 0.25620327224306561 -0.36049072758523892 0 0.26194523537769671 -0.38343407302417171 0 0.25620327224306561 -0.36049072758523892 0 0.2380746425401753 -0.37739124482652259 0 0.28319486675338662 -0.32334720602367162 0 0.25646807382456938 -0.31469239461157061 0 0.28319486675338662 -0.32334720602367162 0 0.25646807382456938 -0.31469239461157061 0 0.26668910057358802 -0.30550764638795852 0 0.28319486675338662 -0.32334720602367162 0 0.26642662817035351 -0.32969679049813649 0 0.25646807382456938 -0.31469239461157061 0 0.26970242523906313 -0.3463930650348116 0 0.26642662817035351 -0.32969679049813649 0 0.28056009198101312 -0.33712721632873971 0 0.28319486675338662 -0.32334720602367162 0 0.26642662817035351 -0.32969679049813649 0 0.28056009198101312 -0.33712721632873971 0 0.26970242523906313 -0.3463930650348116 0 0.26642662817035351 -0.32969679049813649 0 0.25110761996098008 -0.33756133299550262 0 0.26642662817035351 -0.32969679049813649 0 0.25110761996098008 -0.33756133299550262 0 0.25646807382456938 -0.31469239461157061 0 0.26020915296869068 -0.2933899210744732 0 0.26668910057358802 -0.30550764638795852 0 0.24613976577650579 -0.30323365481969039 0 0.25646807382456938 -0.31469239461157061 0 0.26668910057358802 -0.30550764638795852 0 0.24613976577650579 -0.30323365481969039 0 0.26020915296869068 -0.2933899210744732 0 0.25058364390229548 -0.28023087545190861 0 0.26295470628353768 -0.27026240406269297 0 0.26020915296869068 -0.2933899210744732 0 0.25058364390229548 -0.28023087545190861 0 0.24053263080688631 -0.28510356727772701 0 0.26020915296869068 -0.2933899210744732 0 0.24053263080688631 -0.28510356727772701 0 0.26020915296869068 -0.2933899210744732 0 0.28125845178791892 -0.29011251636532881 0 0.26295470628353768 -0.27026240406269297 0 0.26020915296869068 -0.2933899210744732 0 0.27988567513049512 -0.30167627487121951 0 0.28125845178791892 -0.29011251636532881 0 0.26020915296869068 -0.2933899210744732 0 0.26668910057358802 -0.30550764638795852 0 0.27988567513049512 -0.30167627487121951 0 0.26020915296869068 -0.2933899210744732 0 0.27988567513049512 -0.30167627487121951 0 0.28319486675338662 -0.32334720602367162 0 0.26668910057358802 -0.30550764638795852 0 0.27988567513049512 -0.30167627487121951 0 0.27988567513049512 -0.30167627487121951 0 0.29956219729229971 -0.30996262866796498 0 0.28125845178791892 -0.29011251636532881 0 0.29956219729229971 -0.30996262866796498 0 0.27988567513049512 -0.30167627487121951 0 0.28125845178791892 -0.29011251636532881 0 0.29956219729229971 -0.30996262866796498 0 0.28319486675338662 -0.32334720602367162 0 0.27988567513049512 -0.30167627487121951 0 0.29956219729229971 -0.30996262866796498 0 0.28125845178791892 -0.29011251636532881 0 0.30351741442094582 -0.28364787667668517 0 0.29956219729229971 -0.30996262866796498 0 0.30351741442094582 -0.28364787667668517 0 0.30893165249025939 -0.29458973757352408 0 0.29956219729229971 -0.30996262866796498 0 0.315203972569992 -0.28599406388836862 0 0.30351741442094582 -0.28364787667668517 0 0.30893165249025939 -0.29458973757352408 0 0.31744302567780058 -0.29875438106107682 0 0.30893165249025939 -0.29458973757352408 0 0.29956219729229971 -0.30996262866796498 0 0.31140457280844042 -0.24710474912070499 0 0.31565659849655159 -0.26881006701694032 0 0.29718577407036301 -0.25519814195989071 0 0.31565659849655159 -0.26881006701694032 0 0.29718577407036301 -0.25519814195989071 0 0.28930565239004458 -0.26953623553981648 0 0.31565659849655159 -0.26881006701694032 0 0.28930565239004458 -0.26953623553981648 0 0.31565659849655159 -0.26881006701694032 0 0.30351741442094582 -0.28364787667668517 0 0.28930565239004458 -0.26953623553981648 0 0.315203972569992 -0.28599406388836862 0 0.31616400359283131 -0.27140021809428472 0 0.30351741442094582 -0.28364787667668517 0 0.31616400359283131 -0.27140021809428472 0 0.31565659849655159 -0.26881006701694032 0 0.30351741442094582 -0.28364787667668517 0 0.28125845178791892 -0.29011251636532881 0 0.30351741442094582 -0.28364787667668517 0 0.28930565239004458 -0.26953623553981648 0 0.29234931722919649 -0.23956849287787771 0 0.29718577407036301 -0.25519814195989071 0 0.28009493911397709 -0.25531812806766069 0 0.29718577407036301 -0.25519814195989071 0 0.28930565239004458 -0.26953623553981648 0 0.28009493911397709 -0.25531812806766069 0 0.28009493911397709 -0.25531812806766069 0 0.26295470628353768 -0.27026240406269297 0 0.26515279713901752 -0.25474276698909742 0 0.28930565239004458 -0.26953623553981648 0 0.28009493911397709 -0.25531812806766069 0 0.26295470628353768 -0.27026240406269297 0 0.27362138757170362 -0.2426007269765893 0 0.28009493911397709 -0.25531812806766069 0 0.26515279713901752 -0.25474276698909742 0 0.28930565239004458 -0.26953623553981648 0 0.26295470628353768 -0.27026240406269297 0 0.28125845178791892 -0.29011251636532881 0 0.28930565239004458 -0.26953623553981648 0 0.26295470628353768 -0.27026240406269297 0 0.28125845178791892 -0.29011251636532881 0 0.26295470628353768 -0.27026240406269297 0 0.26295470628353768 -0.27026240406269297 0 0.25920525151110962 -0.26619618175379239 0 0.2333624491378041 -0.27107789530058801 0 0.26295470628353768 -0.27026240406269297 0 0.25920525151110962 -0.26619618175379239 0 0.26515279713901752 -0.25474276698909742 0 0.25909559454287789 -0.26033526294480458 0 0.25575058308532189 -0.25269357128633052 0 0.26295470628353768 -0.27026240406269297 0 0.25920525151110962 -0.26619618175379239 0 0.25909559454287789 -0.26033526294480458 0 0.26295470628353768 -0.27026240406269297 0 0.26515279713901752 -0.25474276698909742 0 0.25909559454287789 -0.26033526294480458 0 0.25920525151110962 -0.26619618175379239 0 0.25909559454287789 -0.26033526294480458 0 0.2525593813984649 -0.26013433662011259 0 0.2525593813984649 -0.26013433662011259 0 0.25575058308532189 -0.25269357128633052 0 0.2462907050713771 -0.25204034373521428 0 0.25909559454287789 -0.26033526294480458 0 0.2525593813984649 -0.26013433662011259 0 0.25575058308532189 -0.25269357128633052 0 0.2525593813984649 -0.26013433662011259 0 0.2372713891187809 -0.25677075628574592 0 0.2333624491378041 -0.27107789530058801 0 0.2525593813984649 -0.26013433662011259 0 0.2462907050713771 -0.25204034373521428 0 0.2372713891187809 -0.25677075628574592 0 0.2525593813984649 -0.26013433662011259 0 0.2372713891187809 -0.25677075628574592 0 0.2462907050713771 -0.25204034373521428 0 0.2372713891187809 -0.25677075628574592 0 0.2374752251495614 -0.24157268794541539 0 0.26295470628353768 -0.27026240406269297 0 0.2333624491378041 -0.27107789530058801 0 0.25058364390229548 -0.28023087545190861 0 0.2333624491378041 -0.27107789530058801 0 0.24053263080688631 -0.28510356727772701 0 0.25920525151110962 -0.26619618175379239 0 0.2525593813984649 -0.26013433662011259 0 0.2333624491378041 -0.27107789530058801 0 0.25058364390229548 -0.28023087545190861 0 0.26295470628353768 -0.27026240406269297 0 0.2333624491378041 -0.27107789530058801 0 0.2333624491378041 -0.27107789530058801 0 0.22391874229476511 -0.2824004848955064 0 0.24053263080688631 -0.28510356727772701 0 0.2333624491378041 -0.27107789530058801 0 0.22198339683909701 -0.25340717595137879 0 0.22391874229476511 -0.2824004848955064 0 0.22198339683909701 -0.25340717595137879 0 0.21277476220729311 -0.27908963951381288 0 0.22391874229476511 -0.2824004848955064 0 0.22198339683909701 -0.25340717595137879 0 0.22391874229476511 -0.2824004848955064 0 0.2372713891187809 -0.25677075628574592 0 0.2333624491378041 -0.27107789530058801 0 0.22198339683909701 -0.25340717595137879 0 0.2372713891187809 -0.25677075628574592 0 0.22198339683909701 -0.25340717595137879 0 0.2374752251495614 -0.24157268794541539 0 0.2372713891187809 -0.25677075628574592 0 0.22198339683909701 -0.25340717595137879 0 0.22198339683909701 -0.25340717595137879 0 0.19767743283581299 -0.26201501502554969 0 0.19815896102696709 -0.24816545406213189 0 0.22198339683909701 -0.25340717595137879 0 0.19815896102696709 -0.24816545406213189 0 0.22198339683909701 -0.25340717595137879 0 0.2070014623020448 -0.26844420161526761 0 0.19767743283581299 -0.26201501502554969 0 0.22198339683909701 -0.25340717595137879 0 0.21277476220729311 -0.27908963951381288 0 0.2070014623020448 -0.26844420161526761 0 0.21277476220729311 -0.27908963951381288 0 0.19627752834655959 -0.27465633278028612 0 0.20552852767052071 -0.28818040814850709 0 0.21277476220729311 -0.27908963951381288 0 0.2070014623020448 -0.26844420161526761 0 0.19627752834655959 -0.27465633278028612 0 0.2070014623020448 -0.26844420161526761 0 0.19627752834655959 -0.27465633278028612 0 0.19767743283581299 -0.26201501502554969 0 0.19627752834655959 -0.27465633278028612 0 0.19767743283581299 -0.26201501502554969 0 0.1861358052291735 -0.26379397041404468 0 0.19767743283581299 -0.26201501502554969 0 0.1861358052291735 -0.26379397041404468 0 0.19815896102696709 -0.24816545406213189 0 0.1861358052291735 -0.26379397041404468 0 0.18066177981631051 -0.25348299893649828 0 0.19815896102696709 -0.24816545406213189 0 0.20129939135720101 -0.31175464383988888 0 0.20552852767052071 -0.28818040814850709 0 0.1861316223780578 -0.30340045511113362 0 0.20552852767052071 -0.28818040814850709 0 0.18615950714984131 -0.28714944863913389 0 0.1861316223780578 -0.30340045511113362 0 0.19627752834655959 -0.27465633278028612 0 0.20552852767052071 -0.28818040814850709 0 0.18615950714984131 -0.28714944863913389 0 0.21277476220729311 -0.27908963951381288 0 0.20552852767052071 -0.28818040814850709 0 0.22391874229476511 -0.2824004848955064 0 0.20552852767052071 -0.28818040814850709 0 0.21283890344555609 -0.30228465628523993 0 0.22391874229476511 -0.2824004848955064 0 0.20129939135720101 -0.31175464383988888 0 0.20552852767052071 -0.28818040814850709 0 0.21283890344555609 -0.30228465628523993 0 0.225854087750432 -0.31139379383963389 0 0.22391874229476511 -0.2824004848955064 0 0.21283890344555609 -0.30228465628523993 0 0.225854087750432 -0.31139379383963389 0 0.22391874229476511 -0.2824004848955064 0 0.225854087750432 -0.31139379383963389 0 0.22391874229476511 -0.2824004848955064 0 0.24053263080688631 -0.28510356727772701 0 0.26020915296869068 -0.2933899210744732 0 0.24053263080688631 -0.28510356727772701 0 0.24613976577650579 -0.30323365481969039 0 0.225854087750432 -0.31139379383963389 0 0.24053263080688631 -0.28510356727772701 0 0.24613976577650579 -0.30323365481969039 0 0.225854087750432 -0.31139379383963389 0 0.24613976577650579 -0.30323365481969039 0 0.24147179610371719 -0.32145365581003182 0 0.25110761996098008 -0.33756133299550262 0 0.25646807382456938 -0.31469239461157061 0 0.24147179610371719 -0.32145365581003182 0 0.25646807382456938 -0.31469239461157061 0 0.24613976577650579 -0.30323365481969039 0 0.24147179610371719 -0.32145365581003182 0 0.25110761996098008 -0.33756133299550262 0 0.24147179610371719 -0.32145365581003182 0 0.2277894332060989 -0.3403871027837615 0 0.225854087750432 -0.31139379383963389 0 0.24147179610371719 -0.32145365581003182 0 0.2277894332060989 -0.3403871027837615 0 0.225854087750432 -0.31139379383963389 0 0.2277894332060989 -0.3403871027837615 0 0.2131017443993804 -0.32550716011161479 0 0.225854087750432 -0.31139379383963389 0 0.2277894332060989 -0.3403871027837615 0 0.25620327224306561 -0.36049072758523892 0 0.23939100935974761 -0.35412122659527612 0 0.2380746425401753 -0.37739124482652259 0 0.25110761996098008 -0.33756133299550262 0 0.2277894332060989 -0.3403871027837615 0 0.23939100935974761 -0.35412122659527612 0 0.25620327224306561 -0.36049072758523892 0 0.25110761996098008 -0.33756133299550262 0 0.23939100935974761 -0.35412122659527612 0 0.2277894332060989 -0.3403871027837615 0 0.23939100935974761 -0.35412122659527612 0 0.22160146260088931 -0.35672021721344238 0 0.2277894332060989 -0.3403871027837615 0 0.22160146260088931 -0.35672021721344238 0 0.21393580002607371 -0.34141846605291087 0 0.23939100935974761 -0.35412122659527612 0 0.22160146260088931 -0.35672021721344238 0 0.2380746425401753 -0.37739124482652259 0 0.22160146260088931 -0.35672021721344238 0 0.21646245367279571 -0.38358476595235552 0 0.22160146260088931 -0.35672021721344238 0 0.2380746425401753 -0.37739124482652259 0 0.21646245367279571 -0.38358476595235552 0 0.22160146260088931 -0.35672021721344238 0 0.19836301469614079 -0.36402790855933592 0 0.2025217842010896 -0.37807387373583923 0 0.22160146260088931 -0.35672021721344238 0 0.21646245367279571 -0.38358476595235552 0 0.2025217842010896 -0.37807387373583923 0 0.22160146260088931 -0.35672021721344238 0 0.20535211274276649 -0.35018034328080122 0 0.21393580002607371 -0.34141846605291087 0 0.22160146260088931 -0.35672021721344238 0 0.20535211274276649 -0.35018034328080122 0 0.19836301469614079 -0.36402790855933592 0 0.20535211274276649 -0.35018034328080122 0 0.19180082998577391 -0.35029167033112268 0 0.20100079568597551 -0.33875735092892167 0 0.19180082998577391 -0.35029167033112268 0 0.19836301469614079 -0.36402790855933592 0 0.18636698824462991 -0.36225910140511608 0 0.19180082998577391 -0.35029167033112268 0 0.18636698824462991 -0.36225910140511608 0 0.18448777755487131 -0.35210036546502188 0 0.20535211274276649 -0.35018034328080122 0 0.19180082998577391 -0.35029167033112268 0 0.19836301469614079 -0.36402790855933592 0 0.19836301469614079 -0.36402790855933592 0 0.19083927531350181 -0.37426462870353422 0 0.18636698824462991 -0.36225910140511608 0 0.19836301469614079 -0.36402790855933592 0 0.19083927531350181 -0.37426462870353422 0 0.2025217842010896 -0.37807387373583923 0 0.20129939135720101 -0.31175464383988888 0 0.21283890344555609 -0.30228465628523993 0 0.2131017443993804 -0.32550716011161479 0 0.21283890344555609 -0.30228465628523993 0 0.225854087750432 -0.31139379383963389 0 0.2131017443993804 -0.32550716011161479 0 0.2277894332060989 -0.3403871027837615 0 0.2131017443993804 -0.32550716011161479 0 0.21393580002607371 -0.34141846605291087 0 0.2131017443993804 -0.32550716011161479 0 0.21393580002607371 -0.34141846605291087 0 0.20100079568597551 -0.33875735092892167 0 0.20535211274276649 -0.35018034328080122 0 0.21393580002607371 -0.34141846605291087 0 0.20100079568597551 -0.33875735092892167 0 0.19180082998577391 -0.35029167033112268 0 0.20100079568597551 -0.33875735092892167 0 0.1840044286915227 -0.33601373309634508 0 0.20100079568597551 -0.33875735092892167 0 0.19352690233448341 -0.32516644492614982 0 0.1840044286915227 -0.33601373309634508 0 0.2131017443993804 -0.32550716011161479 0 0.20100079568597551 -0.33875735092892167 0 0.19352690233448341 -0.32516644492614982 0 0.20129939135720101 -0.31175464383988888 0 0.2131017443993804 -0.32550716011161479 0 0.19352690233448341 -0.32516644492614982 0 0.20129939135720101 -0.31175464383988888 0 0.19352690233448341 -0.32516644492614982 0 0.1861316223780578 -0.30340045511113362 0 0.19352690233448341 -0.32516644492614982 0 0.17526094699071121 -0.32121364916979261 0 0.1840044286915227 -0.33601373309634508 0 0.19352690233448341 -0.32516644492614982 0 0.17526094699071121 -0.32121364916979261 0 0.1861316223780578 -0.30340045511113362 0 0.17526094699071121 -0.32121364916979261 0 0.1840044286915227 -0.33601373309634508 0 0.17670370261134591 -0.35101137430815987 0 0.17526094699071121 -0.32121364916979261 0 0.16632300769682529 -0.33914532989683449 0 0.17670370261134591 -0.35101137430815987 0 0.17526094699071121 -0.32121364916979261 0 0.17670370261134591 -0.35101137430815987 0 0.16632300769682529 -0.33914532989683449 0 0.15635532043033851 -0.32762317205032648 0 0.15384528835215919 -0.34888323103730828 0 0.17526094699071121 -0.32121364916979261 0 0.16632300769682529 -0.33914532989683449 0 0.15635532043033851 -0.32762317205032648 0 0.17526094699071121 -0.32121364916979261 0 0.15635532043033851 -0.32762317205032648 0 0.16613015085753399 -0.29794196337136208 0 0.19083927531350181 -0.37426462870353422 0 0.18636698824462991 -0.36225910140511608 0 0.17814645823198061 -0.38080909944652741 0 0.17670370261134591 -0.35101137430815987 0 0.1695008882053643 -0.3539014675276998 0 0.17814645823198061 -0.38080909944652741 0 0.17670370261134591 -0.35101137430815987 0 0.17814645823198061 -0.38080909944652741 0 0.18636698824462991 -0.36225910140511608 0 0.17670370261134591 -0.35101137430815987 0 0.17814645823198061 -0.38080909944652741 0 0.18636698824462991 -0.36225910140511608 0 0.18448777755487131 -0.35210036546502188 0 0.17670370261134591 -0.35101137430815987 0 0.18448777755487131 -0.35210036546502188 0 0.18424918471087839 -0.34735428580016242 0 0.17670370261134591 -0.35101137430815987 0 0.19180082998577391 -0.35029167033112268 0 0.1840044286915227 -0.33601373309634508 0 0.18424918471087839 -0.34735428580016242 0 0.1840044286915227 -0.33601373309634508 0 0.18424918471087839 -0.34735428580016242 0 0.17670370261134591 -0.35101137430815987 0 0.19180082998577391 -0.35029167033112268 0 0.18448777755487131 -0.35210036546502188 0 0.18424918471087839 -0.34735428580016242 0 0.16632300769682529 -0.33914532989683449 0 0.1695008882053643 -0.3539014675276998 0 0.15384528835215919 -0.34888323103730828 0 0.1695008882053643 -0.3539014675276998 0 0.15622266046030589 -0.36560529067035252 0 0.15384528835215919 -0.34888323103730828 0 0.16632300769682529 -0.33914532989683449 0 0.17670370261134591 -0.35101137430815987 0 0.1695008882053643 -0.3539014675276998 0 0.1695008882053643 -0.3539014675276998 0 0.15622266046030589 -0.36560529067035252 0 0.1662516937484437 -0.37945746017663878 0 0.1695008882053643 -0.3539014675276998 0 0.17814645823198061 -0.38080909944652741 0 0.1662516937484437 -0.37945746017663878 0 0.1695008882053643 -0.3539014675276998 0 0.1662516937484437 -0.37945746017663878 0 0.15622266046030589 -0.36560529067035252 0 0.15384528835215919 -0.34888323103730828 0 0.13913284643621729 -0.36987147755796063 0 0.15622266046030589 -0.36560529067035252 0 0.13913284643621729 -0.36987147755796063 0 0.15122325216971341 -0.38057118911269922 0 0.15384528835215919 -0.34888323103730828 0 0.13913284643621729 -0.36987147755796063 0 0.1385684583736729 -0.34280877879487409 0 0.1385684583736729 -0.34280877879487409 0 0.1245186505824013 -0.36113750934922573 0 0.1203073559828662 -0.34481831064573482 0 0.13913284643621729 -0.36987147755796063 0 0.1385684583736729 -0.34280877879487409 0 0.13913284643621729 -0.36987147755796063 0 0.1385684583736729 -0.34280877879487409 0 0.1245186505824013 -0.36113750934922573 0 0.13913284643621729 -0.36987147755796063 0 0.12672469353237761 -0.38193719477194499 0 0.1245186505824013 -0.36113750934922573 0 0.15635532043033851 -0.32762317205032648 0 0.13800407031112841 -0.31574608003178772 0 0.16613015085753399 -0.29794196337136208 0 0.15635532043033851 -0.32762317205032648 0 0.15384528835215919 -0.34888323103730828 0 0.1385684583736729 -0.34280877879487409 0 0.15635532043033851 -0.32762317205032648 0 0.1385684583736729 -0.34280877879487409 0 0.13800407031112841 -0.31574608003178772 0 0.1385684583736729 -0.34280877879487409 0 0.13800407031112841 -0.31574608003178772 0 0.1385684583736729 -0.34280877879487409 0 0.1252730154641265 -0.33501756179834041 0 0.127277047630593 -0.32368123984794023 0 0.1385684583736729 -0.34280877879487409 0 0.1252730154641265 -0.33501756179834041 0 0.1203073559828662 -0.34481831064573482 0 0.13800407031112841 -0.31574608003178772 0 0.127277047630593 -0.32368123984794023 0 0.1207194796176513 -0.31206082339016011 0 0.1385684583736729 -0.34280877879487409 0 0.13800407031112841 -0.31574608003178772 0 0.127277047630593 -0.32368123984794023 0 0.13800407031112841 -0.31574608003178772 0 0.13743968224858391 -0.28868338126870119 0 0.1207194796176513 -0.31206082339016011 0 0.13800407031112841 -0.31574608003178772 0 0.13743968224858391 -0.28868338126870119 0 0.13800407031112841 -0.31574608003178772 0 0.13743968224858391 -0.28868338126870119 0 0.16613015085753399 -0.29794196337136208 0 0.13743968224858391 -0.28868338126870119 0 0.16013622185265231 -0.27370264407204231 0 0.16613015085753399 -0.29794196337136208 0 0.13743968224858391 -0.28868338126870119 0 0.13687529418603939 -0.26162068250561471 0 0.13743968224858391 -0.28868338126870119 0 0.13687529418603939 -0.26162068250561471 0 0.12122917553908071 -0.27280048239714111 0 0.13687529418603939 -0.26162068250561471 0 0.15867772839633809 -0.25707915377424612 0 0.15532271566916761 -0.23874085795770611 0 0.13687529418603939 -0.26162068250561471 0 0.16013622185265231 -0.27370264407204231 0 0.15867772839633809 -0.25707915377424612 0 0.13743968224858391 -0.28868338126870119 0 0.13687529418603939 -0.26162068250561471 0 0.16013622185265231 -0.27370264407204231 0 0.16013622185265231 -0.27370264407204231 0 0.17163424862532001 -0.26348395238230132 0 0.17866520103123101 -0.27392164610568698 0 0.16013622185265231 -0.27370264407204231 0 0.15867772839633809 -0.25707915377424612 0 0.17163424862532001 -0.26348395238230132 0 0.15867772839633809 -0.25707915377424612 0 0.17163424862532001 -0.26348395238230132 0 0.17304535898525439 -0.24904788565112909 0 0.17163424862532001 -0.26348395238230132 0 0.18066177981631051 -0.25348299893649828 0 0.17304535898525439 -0.24904788565112909 0 0.17163424862532001 -0.26348395238230132 0 0.1861358052291735 -0.26379397041404468 0 0.18066177981631051 -0.25348299893649828 0 0.19627752834655959 -0.27465633278028612 0 0.17866520103123101 -0.27392164610568698 0 0.18615950714984131 -0.28714944863913389 0 0.19627752834655959 -0.27465633278028612 0 0.1861358052291735 -0.26379397041404468 0 0.17866520103123101 -0.27392164610568698 0 0.17163424862532001 -0.26348395238230132 0 0.1861358052291735 -0.26379397041404468 0 0.17866520103123101 -0.27392164610568698 0 0.17866520103123101 -0.27392164610568698 0 0.18615950714984131 -0.28714944863913389 0 0.16613015085753399 -0.29794196337136208 0 0.18615950714984131 -0.28714944863913389 0 0.1861316223780578 -0.30340045511113362 0 0.16613015085753399 -0.29794196337136208 0 0.17526094699071121 -0.32121364916979261 0 0.1861316223780578 -0.30340045511113362 0 0.16613015085753399 -0.29794196337136208 0 0.16013622185265231 -0.27370264407204231 0 0.17866520103123101 -0.27392164610568698 0 0.16613015085753399 -0.29794196337136208 0 0.19650118937966099 -0.48458767462136337 0 0.18247472509388471 -0.47020227486163019 0 0.1839174807145193 -0.49999999999999789 0 0.19650118937966099 -0.48458767462136337 0 0.2054847406710314 -0.5 0 0.1839174807145193 -0.49999999999999789 0 0.19650118937966099 -0.48458767462136337 0 0.1995265252191368 -0.47051219141525807 0 0.18247472509388471 -0.47020227486163019 0 0.19650118937966099 -0.48458767462136337 0 0.1995265252191368 -0.47051219141525807 0 0.21142085222808771 -0.48158275099342862 0 0.1995265252191368 -0.47051219141525807 0 0.21142085222808771 -0.48158275099342862 0 0.21140626781342409 -0.46122374827882839 0 0.21142085222808771 -0.48158275099342862 0 0.23068219321441441 -0.47630316546961982 0 0.21140626781342409 -0.46122374827882839 0 0.19650118937966099 -0.48458767462136337 0 0.21142085222808771 -0.48158275099342862 0 0.2054847406710314 -0.5 0 0.21142085222808771 -0.48158275099342862 0 0.2054847406710314 -0.5 0 0.22705200062754341 -0.49999999999999972 0 0.21142085222808771 -0.48158275099342862 0 0.22705200062754341 -0.49999999999999972 0 0.23068219321441441 -0.47630316546961982 0 0.22705200062754341 -0.49999999999999972 0 0.24310759435645521 -0.48732129405658853 0 0.23068219321441441 -0.47630316546961982 0 0.22705200062754341 -0.49999999999999972 0 0.23068219321441441 -0.47630316546961982 0 0.25573491640979129 -0.5 0 0.22705200062754341 -0.49999999999999972 0 0.24310759435645521 -0.48732129405658853 0 0.24310759435645521 -0.48732129405658853 0 0.24452211955108941 -0.47321082899062988 0 0.23068219321441441 -0.47630316546961982 0 0.23068219321441441 -0.47630316546961982 0 0.23431238580128549 -0.45260633093924002 0 0.23068219321441441 -0.47630316546961982 0 0.23431238580128549 -0.45260633093924002 0 0.21140626781342409 -0.46122374827882839 0 0.24452211955108941 -0.47321082899062988 0 0.23068219321441441 -0.47630316546961982 0 0.23431238580128549 -0.45260633093924002 0 0.25055382002994903 -0.45112655962101422 0 0.24452211955108941 -0.47321082899062988 0 0.23431238580128549 -0.45260633093924002 0 0.25055382002994903 -0.45112655962101422 0 0.23431238580128549 -0.45260633093924002 0 0.24845486683426421 -0.43056678600332871 0 0.23431238580128549 -0.45260633093924002 0 0.2061844358166085 -0.43731386343018219 0 0.22816721351006641 -0.42382217308135922 0 0.23431238580128549 -0.45260633093924002 0 0.21140626781342409 -0.46122374827882839 0 0.2061844358166085 -0.43731386343018219 0 0.21140626781342409 -0.46122374827882839 0 0.1958295915806266 -0.45496450832104018 0 0.2061844358166085 -0.43731386343018219 0 0.1995265252191368 -0.47051219141525807 0 0.1958295915806266 -0.45496450832104018 0 0.18247472509388471 -0.47020227486163019 0 0.1995265252191368 -0.47051219141525807 0 0.21140626781342409 -0.46122374827882839 0 0.1958295915806266 -0.45496450832104018 0 0.1958295915806266 -0.45496450832104018 0 0.2061844358166085 -0.43731386343018219 0 0.18103196947325001 -0.44040454972326271 0 0.19189840580791451 -0.42494462472696731 0 0.2061844358166085 -0.43731386343018219 0 0.18103196947325001 -0.44040454972326271 0 0.19189840580791451 -0.42494462472696731 0 0.1954291475964339 -0.41062193775622902 0 0.2113234447447021 -0.41044931469126889 0 0.19189840580791451 -0.42494462472696731 0 0.1954291475964339 -0.41062193775622902 0 0.17958921385261531 -0.41060682458489489 0 0.19189840580791451 -0.42494462472696731 0 0.2113234447447021 -0.41044931469126889 0 0.2061844358166085 -0.43731386343018219 0 0.2113234447447021 -0.41044931469126889 0 0.2061844358166085 -0.43731386343018219 0 0.22816721351006641 -0.42382217308135922 0 0.2113234447447021 -0.41044931469126889 0 0.2061844358166085 -0.43731386343018219 0 0.23431238580128549 -0.45260633093924002 0 0.22816721351006641 -0.42382217308135922 0 0.24845486683426421 -0.43056678600332871 0 0.22816721351006641 -0.42382217308135922 0 0.24845486683426421 -0.43056678600332871 0 0.24730388124056729 -0.40448370284608931 0 0.22816721351006641 -0.42382217308135922 0 0.22802948983690591 -0.39972126622214238 0 0.24730388124056729 -0.40448370284608931 0 0.2113234447447021 -0.41044931469126889 0 0.22816721351006641 -0.42382217308135922 0 0.22802948983690591 -0.39972126622214238 0 0.22802948983690591 -0.39972126622214238 0 0.24730388124056729 -0.40448370284608931 0 0.2380746425401753 -0.37739124482652259 0 0.26194523537769671 -0.38343407302417171 0 0.24730388124056729 -0.40448370284608931 0 0.2380746425401753 -0.37739124482652259 0 0.22802948983690591 -0.39972126622214238 0 0.2380746425401753 -0.37739124482652259 0 0.21646245367279571 -0.38358476595235552 0 0.21646245367279571 -0.38358476595235552 0 0.19890552598050351 -0.3964869870217847 0 0.2025217842010896 -0.37807387373583923 0 0.2113234447447021 -0.41044931469126889 0 0.22802948983690591 -0.39972126622214238 0 0.21646245367279571 -0.38358476595235552 0 0.2113234447447021 -0.41044931469126889 0 0.21646245367279571 -0.38358476595235552 0 0.2113234447447021 -0.41044931469126889 0 0.21646245367279571 -0.38358476595235552 0 0.19890552598050351 -0.3964869870217847 0 0.1954291475964339 -0.41062193775622902 0 0.2113234447447021 -0.41044931469126889 0 0.19890552598050351 -0.3964869870217847 0 0.1954291475964339 -0.41062193775622902 0 0.19890552598050351 -0.3964869870217847 0 0.17958921385261531 -0.41060682458489489 0 0.19890552598050351 -0.3964869870217847 0 0.19000045151593811 -0.3880482826985161 0 0.17958921385261531 -0.41060682458489489 0 0.19890552598050351 -0.3964869870217847 0 0.19000045151593811 -0.3880482826985161 0 0.2025217842010896 -0.37807387373583923 0 0.19083927531350181 -0.37426462870353422 0 0.19000045151593811 -0.3880482826985161 0 0.2025217842010896 -0.37807387373583923 0 0.19083927531350181 -0.37426462870353422 0 0.19000045151593811 -0.3880482826985161 0 0.17814645823198061 -0.38080909944652741 0 0.17814645823198061 -0.38080909944652741 0 0.17958921385261531 -0.41060682458489489 0 0.19000045151593811 -0.3880482826985161 0 0.17814645823198061 -0.38080909944652741 0 0.17958921385261531 -0.41060682458489489 0 0.17814645823198061 -0.38080909944652741 0 0.17073561596382039 -0.39301209499015272 0 0.17958921385261531 -0.41060682458489489 0 0.16300249929152311 -0.40501345282557782 0 0.1662516937484437 -0.37945746017663878 0 0.1548118257048379 -0.39098754083749682 0 0.17073561596382039 -0.39301209499015272 0 0.16300249929152311 -0.40501345282557782 0 0.1662516937484437 -0.37945746017663878 0 0.17073561596382039 -0.39301209499015272 0 0.16300249929152311 -0.40501345282557782 0 0.17958921385261531 -0.41060682458489489 0 0.16300249929152311 -0.40501345282557782 0 0.1662516937484437 -0.37945746017663878 0 0.1662516937484437 -0.37945746017663878 0 0.15122325216971341 -0.38057118911269922 0 0.1548118257048379 -0.39098754083749682 0 0.17814645823198061 -0.38080909944652741 0 0.17073561596382039 -0.39301209499015272 0 0.1662516937484437 -0.37945746017663878 0 0.15622266046030589 -0.36560529067035252 0 0.1662516937484437 -0.37945746017663878 0 0.15122325216971341 -0.38057118911269922 0 0.15122325216971341 -0.38057118911269922 0 0.13969723449876181 -0.39693417632104711 0 0.1548118257048379 -0.39098754083749682 0 0.13913284643621729 -0.36987147755796063 0 0.15122325216971341 -0.38057118911269922 0 0.13969723449876181 -0.39693417632104711 0 0.13913284643621729 -0.36987147755796063 0 0.12672469353237761 -0.38193719477194499 0 0.13969723449876181 -0.39693417632104711 0 0.13913284643621729 -0.36987147755796063 0 0.13969723449876181 -0.39693417632104711 0 0.12672469353237761 -0.38193719477194499 0 0.13969723449876181 -0.39693417632104711 0 0.1219351525082772 -0.40864131998943182 0 0.16300249929152311 -0.40501345282557782 0 0.13969723449876181 -0.39693417632104711 0 0.1524997256598466 -0.41582351463554701 0 0.16300249929152311 -0.40501345282557782 0 0.13969723449876181 -0.39693417632104711 0 0.1548118257048379 -0.39098754083749682 0 0.13969723449876181 -0.39693417632104711 0 0.1524997256598466 -0.41582351463554701 0 0.14026162256130631 -0.42399687508413381 0 0.13969723449876181 -0.39693417632104711 0 0.14026162256130631 -0.42399687508413381 0 0.13969723449876181 -0.39693417632104711 0 0.14026162256130631 -0.42399687508413381 0 0.1219351525082772 -0.40864131998943182 0 0.1272554141007321 -0.42571201066291808 0 0.14026162256130631 -0.42399687508413381 0 0.1219351525082772 -0.40864131998943182 0 0.13018508541287829 -0.43658956786597553 0 0.14026162256130631 -0.42399687508413381 0 0.14082601062385081 -0.45105957384722029 0 0.13018508541287829 -0.43658956786597553 0 0.1272554141007321 -0.42571201066291808 0 0.14026162256130631 -0.42399687508413381 0 0.1524997256598466 -0.41582351463554701 0 0.14026162256130631 -0.42399687508413381 0 0.15975330483460251 -0.43056944547451692 0 0.14026162256130631 -0.42399687508413381 0 0.15975330483460251 -0.43056944547451692 0 0.14082601062385081 -0.45105957384722029 0 0.16300249929152311 -0.40501345282557782 0 0.15975330483460251 -0.43056944547451692 0 0.17958921385261531 -0.41060682458489489 0 0.16300249929152311 -0.40501345282557782 0 0.15975330483460251 -0.43056944547451692 0 0.16300249929152311 -0.40501345282557782 0 0.1524997256598466 -0.41582351463554701 0 0.15975330483460251 -0.43056944547451692 0 0.15975330483460251 -0.43056944547451692 0 0.17958921385261531 -0.41060682458489489 0 0.18103196947325001 -0.44040454972326271 0 0.17958921385261531 -0.41060682458489489 0 0.18103196947325001 -0.44040454972326271 0 0.19189840580791451 -0.42494462472696731 0 0.17958921385261531 -0.41060682458489489 0 0.18103196947325001 -0.44040454972326271 0 0.18103196947325001 -0.44040454972326271 0 0.16491961284223791 -0.45249038001545161 0 0.18247472509388471 -0.47020227486163019 0 0.18103196947325001 -0.44040454972326271 0 0.18247472509388471 -0.47020227486163019 0 0.1958295915806266 -0.45496450832104018 0 0.18103196947325001 -0.44040454972326271 0 0.18247472509388471 -0.47020227486163019 0 0.16491961284223791 -0.45249038001545161 0 0.1605120541856016 -0.47021605617062739 0 0.18247472509388471 -0.47020227486163019 0 0.15975330483460251 -0.43056944547451692 0 0.18103196947325001 -0.44040454972326271 0 0.16491961284223791 -0.45249038001545161 0 0.15975330483460251 -0.43056944547451692 0 0.16491961284223791 -0.45249038001545161 0 0.14082601062385081 -0.45105957384722029 0 0.14026162256130631 -0.42399687508413381 0 0.14082601062385081 -0.45105957384722029 0 0.14082601062385081 -0.45105957384722029 0 0.12543676829432579 -0.44683393452868708 0 0.12531186358948529 -0.45757018679138572 0 0.13018508541287829 -0.43658956786597553 0 0.14082601062385081 -0.45105957384722029 0 0.12543676829432579 -0.44683393452868708 0 0.14082601062385081 -0.45105957384722029 0 0.12842365125323091 -0.46593607888014599 0 0.13328939848609819 -0.47119455711627289 0 0.14082601062385081 -0.45105957384722029 0 0.14139039868639619 -0.47812227261030682 0 0.13328939848609819 -0.47119455711627289 0 0.12842365125323091 -0.46593607888014599 0 0.12531186358948529 -0.45757018679138572 0 0.1232316263288145 -0.46410889533344052 0 0.12842365125323091 -0.46593607888014599 0 0.1245497287119053 -0.47085317529077592 0 0.12311265484265969 -0.46777846846391841 0 0.14082601062385081 -0.45105957384722029 0 0.12842365125323091 -0.46593607888014599 0 0.12531186358948529 -0.45757018679138572 0 0.16491961284223791 -0.45249038001545161 0 0.14082601062385081 -0.45105957384722029 0 0.1605120541856016 -0.47021605617062739 0 0.14082601062385081 -0.45105957384722029 0 0.14139039868639619 -0.47812227261030682 0 0.14082601062385081 -0.45105957384722029 0 0.14139039868639619 -0.47812227261030682 0 0.1605120541856016 -0.47021605617062739 0 0.14139039868639619 -0.47812227261030682 0 0.15939735020609169 -0.48906113630515408 0 0.1605120541856016 -0.47021605617062739 0 0.14139039868639619 -0.47812227261030682 0 0.15939735020609169 -0.48906113630515408 0 0.14139039868639619 -0.47812227261030682 0 0.13328939848609819 -0.47119455711627289 0 0.13520794413867351 -0.47916570768291911 0 0.14139039868639619 -0.47812227261030682 0 0.13520794413867351 -0.47916570768291911 0 0.13309005864575499 -0.48654881223837643 0 0.13328939848609819 -0.47119455711627289 0 0.13520794413867351 -0.47916570768291911 0 0.1282166063692238 -0.47963436787526348 0 0.13520794413867351 -0.47916570768291911 0 0.1282166063692238 -0.47963436787526348 0 0.13309005864575499 -0.48654881223837643 0 0.12842365125323091 -0.46593607888014599 0 0.1275076222339897 -0.47406719287555171 0 0.1245497287119053 -0.47085317529077592 0 0.12842365125323091 -0.46593607888014599 0 0.13328939848609819 -0.47119455711627289 0 0.1275076222339897 -0.47406719287555171 0 0.13328939848609819 -0.47119455711627289 0 0.1282166063692238 -0.47963436787526348 0 0.1275076222339897 -0.47406719287555171 0 0.1282166063692238 -0.47963436787526348 0 0.1275076222339897 -0.47406719287555171 0 0.12271037357175291 -0.47562361121234281 0 0.14139039868639619 -0.47812227261030682 0 0.13309005864575499 -0.48654881223837643 0 0.1417493920694651 -0.49533619053082339 0 0.1325088383252874 -0.49999999999999689 0 0.11946717228548211 -0.4870343347309507 0 0.1325088383252874 -0.49999999999999689 0 0.13309005864575499 -0.48654881223837643 0 0.11946717228548211 -0.4870343347309507 0 0.1282166063692238 -0.47963436787526348 0 0.13309005864575499 -0.48654881223837643 0 0.11946717228548211 -0.4870343347309507 0 0.1325088383252874 -0.49999999999999689 0 0.13309005864575499 -0.48654881223837643 0 0.1417493920694651 -0.49533619053082339 0 0.1325088383252874 -0.49999999999999689 0 0.1417493920694651 -0.49533619053082339 0 0.15495657002553739 -0.5 0 0.14139039868639619 -0.47812227261030682 0 0.14937342774687271 -0.49062989986157102 0 0.15939735020609169 -0.48906113630515408 0 0.14139039868639619 -0.47812227261030682 0 0.1417493920694651 -0.49533619053082339 0 0.14139039868639619 -0.47812227261030682 0 0.1417493920694651 -0.49533619053082339 0 0.14937342774687271 -0.49062989986157102 0 0.1417493920694651 -0.49533619053082339 0 0.14937342774687271 -0.49062989986157102 0 0.15495657002553739 -0.5 0 0.14937342774687271 -0.49062989986157102 0 0.15495657002553739 -0.5 0 0.15939735020609169 -0.48906113630515408 0 0.15939735020609169 -0.48906113630515408 0 0.17467337585270831 -0.48420504396041608 0 0.1774043017257875 -0.50000000000000111 0 0.15939735020609169 -0.48906113630515408 0 0.1774043017257875 -0.50000000000000111 0 0.15495657002553739 -0.5 0 0.15939735020609169 -0.48906113630515408 0 0.1774043017257875 -0.50000000000000111 0 0.15939735020609169 -0.48906113630515408 0 0.1605120541856016 -0.47021605617062739 0 0.17467337585270831 -0.48420504396041608 0 0.1605120541856016 -0.47021605617062739 0 0.17467337585270831 -0.48420504396041608 0 0.18247472509388471 -0.47020227486163019 0 0.18247472509388471 -0.47020227486163019 0 0.1839174807145193 -0.49999999999999789 0 0.17467337585270831 -0.48420504396041608 0 0.18247472509388471 -0.47020227486163019 0 0.1839174807145193 -0.49999999999999789 0 0.17467337585270831 -0.48420504396041608 0 0.1839174807145193 -0.49999999999999789 0 0.1774043017257875 -0.50000000000000111 0 0.065949985054517032 -0.48884997455687013 0 0.080677891680827868 -0.48404188118506331 0 0.084758324792090334 -0.49999999999999989 0 0.065949985054517032 -0.48884997455687013 0 0.084758324792090334 -0.49999999999999989 0 0.055728539092515517 -0.5 0 0.065949985054517032 -0.48884997455687013 0 0.069113753880103546 -0.47032146630200872 0 0.080677891680827868 -0.48404188118506331 0 0.065949985054517032 -0.48884997455687013 0 0.069113753880103546 -0.47032146630200872 0 0.057596711449277201 -0.48334309492942701 0 0.069113753880103546 -0.47032146630200872 0 0.080677891680827868 -0.48404188118506331 0 0.088790870678748121 -0.47481427013272492 0 0.069113753880103546 -0.47032146630200872 0 0.088790870678748121 -0.47481427013272492 0 0.09506323621333454 -0.46277261346061632 0 0.080677891680827868 -0.48404188118506331 0 0.088790870678748121 -0.47481427013272492 0 0.094776523998680279 -0.48622369493371298 0 0.080677891680827868 -0.48404188118506331 0 0.084758324792090334 -0.49999999999999989 0 0.094776523998680279 -0.48622369493371298 0 0.084758324792090334 -0.49999999999999989 0 0.10099043700106421 -0.499999999999999 0 0.094776523998680279 -0.48622369493371298 0 0.084758324792090334 -0.49999999999999989 0 0.094776523998680279 -0.48622369493371298 0 0.10099043700106421 -0.499999999999999 0 0.1064255062456735 -0.47406866946190801 0 0.10099043700106421 -0.499999999999999 0 0.094776523998680279 -0.48622369493371298 0 0.1064255062456735 -0.47406866946190801 0 0.10099043700106421 -0.499999999999999 0 0.11946717228548211 -0.4870343347309507 0 0.1064255062456735 -0.47406866946190801 0 0.1325088383252874 -0.49999999999999689 0 0.1167496376631757 -0.5 0 0.11946717228548211 -0.4870343347309507 0 0.10099043700106421 -0.499999999999999 0 0.1167496376631757 -0.5 0 0.11946717228548211 -0.4870343347309507 0 0.12074084002908721 -0.47045370359981148 0 0.12271037357175291 -0.47562361121234281 0 0.11625567037499381 -0.47238364776222469 0 0.12074084002908721 -0.47045370359981148 0 0.11625567037499381 -0.47238364776222469 0 0.1192823524431306 -0.4663394170250621 0 0.12074084002908721 -0.47045370359981148 0 0.1245497287119053 -0.47085317529077592 0 0.12271037357175291 -0.47562361121234281 0 0.12074084002908721 -0.47045370359981148 0 0.1245497287119053 -0.47085317529077592 0 0.12311265484265969 -0.46777846846391841 0 0.1275076222339897 -0.47406719287555171 0 0.1245497287119053 -0.47085317529077592 0 0.12271037357175291 -0.47562361121234281 0 0.1282166063692238 -0.47963436787526348 0 0.11946717228548211 -0.4870343347309507 0 0.12271037357175291 -0.47562361121234281 0 0.11946717228548211 -0.4870343347309507 0 0.12271037357175291 -0.47562361121234281 0 0.11625567037499381 -0.47238364776222469 0 0.11946717228548211 -0.4870343347309507 0 0.1064255062456735 -0.47406866946190801 0 0.11946717228548211 -0.4870343347309507 0 0.11625567037499381 -0.47238364776222469 0 0.1064255062456735 -0.47406866946190801 0 0.11625567037499381 -0.47238364776222469 0 0.1064255062456735 -0.47406866946190801 0 0.11129693947086181 -0.46795476393154728 0 0.1064255062456735 -0.47406866946190801 0 0.10479472320527 -0.47244738986742602 0 0.1075632658294263 -0.46864028970971422 0 0.1064255062456735 -0.47406866946190801 0 0.1075632658294263 -0.46864028970971422 0 0.11129693947086181 -0.46795476393154728 0 0.088790870678748121 -0.47481427013272492 0 0.094776523998680279 -0.48622369493371298 0 0.10479472320527 -0.47244738986742602 0 0.1064255062456735 -0.47406866946190801 0 0.1075632658294263 -0.46864028970971422 0 0.088790870678748121 -0.47481427013272492 0 0.10479472320527 -0.47244738986742602 0 0.09506323621333454 -0.46277261346061632 0 0.10479472320527 -0.47244738986742602 0 0.1075632658294263 -0.46864028970971422 0 0.1064255062456735 -0.47406866946190801 0 0.10479472320527 -0.47244738986742602 0 0.094776523998680279 -0.48622369493371298 0 0.1064255062456735 -0.47406866946190801 0 0.10479472320527 -0.47244738986742602 0 0.094776523998680279 -0.48622369493371298 0 0.10479472320527 -0.47244738986742602 0 0.10479472320527 -0.47244738986742602 0 0.09506323621333454 -0.46277261346061632 0 0.1060131744550812 -0.45411466011360518 0 0.1075632658294263 -0.46864028970971422 0 0.11260152047704799 -0.44460220652757759 0 0.09506323621333454 -0.46277261346061632 0 0.10011436795704159 -0.45274002486564408 0 0.091519926973447546 -0.44626784630584138 0 0.09506323621333454 -0.46277261346061632 0 0.10386028492466159 -0.46021350167150438 0 0.09506323621333454 -0.46277261346061632 0 0.10386028492466159 -0.46021350167150438 0 0.10011436795704159 -0.45274002486564408 0 0.10386028492466159 -0.46021350167150438 0 0.1060131744550812 -0.45411466011360518 0 0.10011436795704159 -0.45274002486564408 0 0.10386028492466159 -0.46021350167150438 0 0.1060131744550812 -0.45411466011360518 0 0.1075632658294263 -0.46864028970971422 0 0.10479472320527 -0.47244738986742602 0 0.09506323621333454 -0.46277261346061632 0 0.1075632658294263 -0.46864028970971422 0 0.09506323621333454 -0.46277261346061632 0 0.10386028492466159 -0.46021350167150438 0 0.1075632658294263 -0.46864028970971422 0 0.1075632658294263 -0.46864028970971422 0 0.1123560704600764 -0.46204957042440498 0 0.11260152047704799 -0.44460220652757759 0 0.1075632658294263 -0.46864028970971422 0 0.1123560704600764 -0.46204957042440498 0 0.1075632658294263 -0.46864028970971422 0 0.11129693947086181 -0.46795476393154728 0 0.1123560704600764 -0.46204957042440498 0 0.1075632658294263 -0.46864028970971422 0 0.11260152047704799 -0.44460220652757759 0 0.11129693947086181 -0.46795476393154728 0 0.1123560704600764 -0.46204957042440498 0 0.11129693947086181 -0.46795476393154728 0 0.1149697984784732 -0.46556593525158491 0 0.1123560704600764 -0.46204957042440498 0 0.11625567037499381 -0.47238364776222469 0 0.1149697984784732 -0.46556593525158491 0 0.1192823524431306 -0.4663394170250621 0 0.11625567037499381 -0.47238364776222469 0 0.11129693947086181 -0.46795476393154728 0 0.1149697984784732 -0.46556593525158491 0 0.1149697984784732 -0.46556593525158491 0 0.1123560704600764 -0.46204957042440498 0 0.118705430672609 -0.46205297743075813 0 0.1123560704600764 -0.46204957042440498 0 0.11635977570981471 -0.45654396370023359 0 0.118705430672609 -0.46205297743075813 0 0.1123560704600764 -0.46204957042440498 0 0.11635977570981471 -0.45654396370023359 0 0.12531186358948529 -0.45757018679138572 0 0.11635977570981471 -0.45654396370023359 0 0.118705430672609 -0.46205297743075813 0 0.12543676829432579 -0.44683393452868708 0 0.12531186358948529 -0.45757018679138572 0 0.11635977570981471 -0.45654396370023359 0 0.12531186358948529 -0.45757018679138572 0 0.1232316263288145 -0.46410889533344052 0 0.118705430672609 -0.46205297743075813 0 0.1232316263288145 -0.46410889533344052 0 0.12311265484265969 -0.46777846846391841 0 0.1192823524431306 -0.4663394170250621 0 0.12842365125323091 -0.46593607888014599 0 0.1232316263288145 -0.46410889533344052 0 0.12311265484265969 -0.46777846846391841 0 0.12074084002908721 -0.47045370359981148 0 0.12311265484265969 -0.46777846846391841 0 0.1192823524431306 -0.4663394170250621 0 0.1149697984784732 -0.46556593525158491 0 0.1192823524431306 -0.4663394170250621 0 0.118705430672609 -0.46205297743075813 0 0.1232316263288145 -0.46410889533344052 0 0.1192823524431306 -0.4663394170250621 0 0.118705430672609 -0.46205297743075813 0 0.1123560704600764 -0.46204957042440498 0 0.11714561148417681 -0.43534544520691831 0 0.1123560704600764 -0.46204957042440498 0 0.11260152047704799 -0.44460220652757759 0 0.11714561148417681 -0.43534544520691831 0 0.1123560704600764 -0.46204957042440498 0 0.11635977570981471 -0.45654396370023359 0 0.11714561148417681 -0.43534544520691831 0 0.12543676829432579 -0.44683393452868708 0 0.11635977570981471 -0.45654396370023359 0 0.11714561148417681 -0.43534544520691831 0 0.13018508541287829 -0.43658956786597553 0 0.12543676829432579 -0.44683393452868708 0 0.11714561148417681 -0.43534544520691831 0 0.10592643308722841 -0.44437727779358549 0 0.083881602994700072 -0.43088647549478237 0 0.10592643308722841 -0.44437727779358549 0 0.091519926973447546 -0.44626784630584138 0 0.083881602994700072 -0.43088647549478237 0 0.11260152047704799 -0.44460220652757759 0 0.10592643308722841 -0.44437727779358549 0 0.1086116799951807 -0.43095684568344572 0 0.1060131744550812 -0.45411466011360518 0 0.10592643308722841 -0.44437727779358549 0 0.10011436795704159 -0.45274002486564408 0 0.1060131744550812 -0.45411466011360518 0 0.11260152047704799 -0.44460220652757759 0 0.10592643308722841 -0.44437727779358549 0 0.10592643308722841 -0.44437727779358549 0 0.10011436795704159 -0.45274002486564408 0 0.091519926973447546 -0.44626784630584138 0 0.09506323621333454 -0.46277261346061632 0 0.073976492589610171 -0.44180875358221461 0 0.09506323621333454 -0.46277261346061632 0 0.091519926973447546 -0.44626784630584138 0 0.073976492589610171 -0.44180875358221461 0 0.091519926973447546 -0.44626784630584138 0 0.073976492589610171 -0.44180875358221461 0 0.083881602994700072 -0.43088647549478237 0 0.069113753880103546 -0.47032146630200872 0 0.09506323621333454 -0.46277261346061632 0 0.09506323621333454 -0.46277261346061632 0 0.075948319170580939 -0.45709497223106438 0 0.073976492589610171 -0.44180875358221461 0 0.069113753880103546 -0.47032146630200872 0 0.09506323621333454 -0.46277261346061632 0 0.075948319170580939 -0.45709497223106438 0 0.069113753880103546 -0.47032146630200872 0 0.075948319170580939 -0.45709497223106438 0 0.064267892493667544 -0.45245405090636609 0 0.064267892493667544 -0.45245405090636609 0 0.073976492589610171 -0.44180875358221461 0 0.061221704008603092 -0.43412854505433712 0 0.075948319170580939 -0.45709497223106438 0 0.064267892493667544 -0.45245405090636609 0 0.073976492589610171 -0.44180875358221461 0 0.083881602994700072 -0.43088647549478237 0 0.061836772902171017 -0.41739567319598042 0 0.061221704008603092 -0.43412854505433712 0 0.073976492589610171 -0.44180875358221461 0 0.083881602994700072 -0.43088647549478237 0 0.061221704008603092 -0.43412854505433712 0 0.083881602994700072 -0.43088647549478237 0 0.061836772902171017 -0.41739567319598042 0 0.087852613914545186 -0.40334306140395609 0 0.070156507476487037 -0.39917662383738439 0 0.061836772902171017 -0.41739567319598042 0 0.087852613914545186 -0.40334306140395609 0 0.061836772902171017 -0.41739567319598042 0 0.090204007114443943 -0.4177400312392191 0 0.087852613914545186 -0.40334306140395609 0 0.061836772902171017 -0.41739567319598042 0 0.090204007114443943 -0.4177400312392191 0 0.083881602994700072 -0.43088647549478237 0 0.061836772902171017 -0.41739567319598042 0 0.090204007114443943 -0.4177400312392191 0 0.083881602994700072 -0.43088647549478237 0 0.10022705322515101 -0.42809075962971732 0 0.10592643308722841 -0.44437727779358549 0 0.083881602994700072 -0.43088647549478237 0 0.10022705322515101 -0.42809075962971732 0 0.10592643308722841 -0.44437727779358549 0 0.10022705322515101 -0.42809075962971732 0 0.1086116799951807 -0.43095684568344572 0 0.10022705322515101 -0.42809075962971732 0 0.1086116799951807 -0.43095684568344572 0 0.10561771621597441 -0.41891116251106192 0 0.11260152047704799 -0.44460220652757759 0 0.11714561148417681 -0.43534544520691831 0 0.11763977512467 -0.42056412334544119 0 0.11714561148417681 -0.43534544520691831 0 0.1219351525082772 -0.40864131998943182 0 0.11260152047704799 -0.44460220652757759 0 0.11763977512467 -0.42056412334544119 0 0.11260152047704799 -0.44460220652757759 0 0.1086116799951807 -0.43095684568344572 0 0.11763977512467 -0.42056412334544119 0 0.1272554141007321 -0.42571201066291808 0 0.11714561148417681 -0.43534544520691831 0 0.1219351525082772 -0.40864131998943182 0 0.1086116799951807 -0.43095684568344572 0 0.11763977512467 -0.42056412334544119 0 0.10561771621597441 -0.41891116251106192 0 0.13018508541287829 -0.43658956786597553 0 0.1272554141007321 -0.42571201066291808 0 0.11714561148417681 -0.43534544520691831 0 0.1219351525082772 -0.40864131998943182 0 0.11763977512467 -0.42056412334544119 0 0.1226780297722921 -0.39652604016330478 0 0.11763977512467 -0.42056412334544119 0 0.1063857367604352 -0.40565829933023112 0 0.1226780297722921 -0.39652604016330478 0 0.11714561148417681 -0.43534544520691831 0 0.1219351525082772 -0.40864131998943182 0 0.11763977512467 -0.42056412334544119 0 0.11763977512467 -0.42056412334544119 0 0.1226780297722921 -0.39652604016330478 0 0.11763977512467 -0.42056412334544119 0 0.10561771621597441 -0.41891116251106192 0 0.1063857367604352 -0.40565829933023112 0 0.090204007114443943 -0.4177400312392191 0 0.1063857367604352 -0.40565829933023112 0 0.087852613914545186 -0.40334306140395609 0 0.090204007114443943 -0.4177400312392191 0 0.10561771621597441 -0.41891116251106192 0 0.1063857367604352 -0.40565829933023112 0 0.090204007114443943 -0.4177400312392191 0 0.10022705322515101 -0.42809075962971732 0 0.10561771621597441 -0.41891116251106192 0 0.1063857367604352 -0.40565829933023112 0 0.11269819459067421 -0.38831450138448881 0 0.097085641119374302 -0.38571424072610178 0 0.1063857367604352 -0.40565829933023112 0 0.097085641119374302 -0.38571424072610178 0 0.087852613914545186 -0.40334306140395609 0 0.12672469353237761 -0.38193719477194499 0 0.1219351525082772 -0.40864131998943182 0 0.1063857367604352 -0.40565829933023112 0 0.1226780297722921 -0.39652604016330478 0 0.11269819459067421 -0.38831450138448881 0 0.12672469353237761 -0.38193719477194499 0 0.1219351525082772 -0.40864131998943182 0 0.1226780297722921 -0.39652604016330478 0 0.12672469353237761 -0.38193719477194499 0 0.11269819459067421 -0.38831450138448881 0 0.1080928822255358 -0.3703790814713866 0 0.12672469353237761 -0.38193719477194499 0 0.1226780297722921 -0.39652604016330478 0 0.11269819459067421 -0.38831450138448881 0 0.11269819459067421 -0.38831450138448881 0 0.097085641119374302 -0.38571424072610178 0 0.1080928822255358 -0.3703790814713866 0 0.097085641119374302 -0.38571424072610178 0 0.078524092076429908 -0.38558307009035819 0 0.085574671404253372 -0.36606529366265911 0 0.097085641119374302 -0.38571424072610178 0 0.078524092076429908 -0.38558307009035819 0 0.087852613914545186 -0.40334306140395609 0 0.078524092076429908 -0.38558307009035819 0 0.087852613914545186 -0.40334306140395609 0 0.070156507476487037 -0.39917662383738439 0 0.078524092076429908 -0.38558307009035819 0 0.070156507476487037 -0.39917662383738439 0 0.064141871653705745 -0.38905297891460661 0 0.070156507476487037 -0.39917662383738439 0 0.058427186835583247 -0.40050833558202109 0 0.061836772902171017 -0.41739567319598042 0 0.070156507476487037 -0.39917662383738439 0 0.064141871653705745 -0.38905297891460661 0 0.058427186835583247 -0.40050833558202109 0 0.078524092076429908 -0.38558307009035819 0 0.064141871653705745 -0.38905297891460661 0 0.064781398010314309 -0.37536455347105108 0 0.078524092076429908 -0.38558307009035819 0 0.064781398010314309 -0.37536455347105108 0 0.085574671404253372 -0.36606529366265911 0 0.064781398010314309 -0.37536455347105108 0 0.05115882120843647 -0.38571757356542352 0 0.043890455581289831 -0.3709268115488259 0 0.05115882120843647 -0.38571757356542352 0 0.043890455581289831 -0.3709268115488259 0 0.064141871653705745 -0.38905297891460661 0 0.064781398010314309 -0.37536455347105108 0 0.05115882120843647 -0.38571757356542352 0 0.064141871653705745 -0.38905297891460661 0 0.05115882120843647 -0.38571757356542352 0 0.058427186835583247 -0.40050833558202109 0 0.05115882120843647 -0.38571757356542352 0 0.058427186835583247 -0.40050833558202109 0 0.05115882120843647 -0.38571757356542352 0 0.058427186835583247 -0.40050833558202109 0 0.039291666751458072 -0.38953557003537942 0 0.058427186835583247 -0.40050833558202109 0 0.03861507037192409 -0.403184658796582 0 0.039291666751458072 -0.38953557003537942 0 0.039291666751458072 -0.38953557003537942 0 0.030780854092194759 -0.38031894893150719 0 0.043890455581289831 -0.3709268115488259 0 0.05115882120843647 -0.38571757356542352 0 0.039291666751458072 -0.38953557003537942 0 0.043890455581289831 -0.3709268115488259 0 0.030780854092194759 -0.38031894893150719 0 0.043890455581289831 -0.3709268115488259 0 0.030780854092194759 -0.38031894893150719 0 0.0132535835722172 -0.37610527220974688 0 0.01539336784167648 -0.38897364439718468 0 0.039291666751458072 -0.38953557003537942 0 0.030780854092194759 -0.38031894893150719 0 0.01539336784167648 -0.38897364439718468 0 0.030780854092194759 -0.38031894893150719 0 0.0132535835722172 -0.37610527220974688 0 0.022072978528308879 -0.36937310690127451 0 -0.0078283346885702904 -0.37476262999778609 0 -0.0023576536845698339 -0.39611583857600319 0 0.01539336784167648 -0.38897364439718468 0 -0.0078283346885702904 -0.37476262999778609 0 0.01539336784167648 -0.38897364439718468 0 -0.0078283346885702904 -0.37476262999778609 0 0.0132535835722172 -0.37610527220974688 0 0.01539336784167648 -0.38897364439718468 0 -0.0023576536845698339 -0.39611583857600319 0 -0.0081630895937607941 -0.41129335178386173 0 0.01158543002224671 -0.40754374071996963 0 -0.0023576536845698339 -0.39611583857600319 0 0.01539336784167648 -0.38897364439718468 0 0.01158543002224671 -0.40754374071996963 0 0.03861507037192409 -0.403184658796582 0 0.039291666751458072 -0.38953557003537942 0 0.01539336784167648 -0.38897364439718468 0 0.03861507037192409 -0.403184658796582 0 0.01539336784167648 -0.38897364439718468 0 0.026736383496206509 -0.41290648431754168 0 0.01539336784167648 -0.38897364439718468 0 0.026736383496206509 -0.41290648431754168 0 0.01158543002224671 -0.40754374071996963 0 0.03861507037192409 -0.403184658796582 0 0.01539336784167648 -0.38897364439718468 0 0.026736383496206509 -0.41290648431754168 0 0.01158543002224671 -0.40754374071996963 0 0.01747615232015888 -0.42514842909431222 0 0.026736383496206509 -0.41290648431754168 0 0.01747615232015888 -0.42514842909431222 0 0.02768083642208749 -0.42593076319487821 0 0.01158543002224671 -0.40754374071996963 0 0.0026957591361241309 -0.41958824334712869 0 0.01747615232015888 -0.42514842909431222 0 -0.0081630895937607941 -0.41129335178386173 0 0.01158543002224671 -0.40754374071996963 0 0.0026957591361241309 -0.41958824334712869 0 0.0026957591361241309 -0.41958824334712869 0 0.003851027954898749 -0.43172418954792041 0 0.01747615232015888 -0.42514842909431222 0 0.003851027954898749 -0.43172418954792041 0 0.01410030331848921 -0.43483725365991388 0 0.01747615232015888 -0.42514842909431222 0 0.003851027954898749 -0.43172418954792041 0 0.01410030331848921 -0.43483725365991388 0 0.011432193992105429 -0.44462200732167467 0 0.01747615232015888 -0.42514842909431222 0 0.023728282280598981 -0.43798020184644493 0 0.01410030331848921 -0.43483725365991388 0 0.01747615232015888 -0.42514842909431222 0 0.023728282280598981 -0.43798020184644493 0 0.01747615232015888 -0.42514842909431222 0 0.02768083642208749 -0.42593076319487821 0 0.023728282280598981 -0.43798020184644493 0 0.026736383496206509 -0.41290648431754168 0 0.02768083642208749 -0.42593076319487821 0 0.042782527591385587 -0.42768793752121392 0 0.042782527591385587 -0.42768793752121392 0 0.023728282280598981 -0.43798020184644493 0 0.02768083642208749 -0.42593076319487821 0 0.042782527591385587 -0.42768793752121392 0 0.023728282280598981 -0.43798020184644493 0 0.042782527591385587 -0.42768793752121392 0 0.038339333849137569 -0.44224603439757942 0 0.023728282280598981 -0.43798020184644493 0 0.03861507037192409 -0.403184658796582 0 0.026736383496206509 -0.41290648431754168 0 0.042782527591385587 -0.42768793752121392 0 0.03861507037192409 -0.403184658796582 0 0.042782527591385587 -0.42768793752121392 0 0.061836772902171017 -0.41739567319598042 0 0.03861507037192409 -0.403184658796582 0 0.061836772902171017 -0.41739567319598042 0 0.058427186835583247 -0.40050833558202109 0 0.03861507037192409 -0.403184658796582 0 0.061836772902171017 -0.41739567319598042 0 0.042782527591385587 -0.42768793752121392 0 0.061836772902171017 -0.41739567319598042 0 0.061221704008603092 -0.43412854505433712 0 0.042782527591385587 -0.42768793752121392 0 0.061836772902171017 -0.41739567319598042 0 0.042782527591385587 -0.42768793752121392 0 0.061221704008603092 -0.43412854505433712 0 0.052693917870023622 -0.44730825455084611 0 0.064267892493667544 -0.45245405090636609 0 0.061221704008603092 -0.43412854505433712 0 0.052693917870023622 -0.44730825455084611 0 0.069113753880103546 -0.47032146630200872 0 0.064267892493667544 -0.45245405090636609 0 0.052594011880735161 -0.46258963849414558 0 0.064267892493667544 -0.45245405090636609 0 0.052693917870023622 -0.44730825455084611 0 0.052594011880735161 -0.46258963849414558 0 0.033446276913734967 -0.45792526049492271 0 0.024747075647264399 -0.46972246297684461 0 0.043164271546872197 -0.4778703191434 0 0.052693917870023622 -0.44730825455084611 0 0.052594011880735161 -0.46258963849414558 0 0.033446276913734967 -0.45792526049492271 0 0.052594011880735161 -0.46258963849414558 0 0.033446276913734967 -0.45792526049492271 0 0.043164271546872197 -0.4778703191434 0 0.033446276913734967 -0.45792526049492271 0 0.043164271546872197 -0.4778703191434 0 0.042782527591385587 -0.42768793752121392 0 0.052693917870023622 -0.44730825455084611 0 0.038339333849137569 -0.44224603439757942 0 0.033446276913734967 -0.45792526049492271 0 0.038339333849137569 -0.44224603439757942 0 0.023728282280598981 -0.43798020184644493 0 0.052693917870023622 -0.44730825455084611 0 0.033446276913734967 -0.45792526049492271 0 0.038339333849137569 -0.44224603439757942 0 0.023728282280598981 -0.43798020184644493 0 0.011432193992105429 -0.44462200732167467 0 0.01779212199045099 -0.45571080357091009 0 0.033446276913734967 -0.45792526049492271 0 0.023728282280598981 -0.43798020184644493 0 0.033446276913734967 -0.45792526049492271 0 0.023728282280598981 -0.43798020184644493 0 0.01779212199045099 -0.45571080357091009 0 0.023728282280598981 -0.43798020184644493 0 0.011432193992105429 -0.44462200732167467 0 0.01410030331848921 -0.43483725365991388 0 0.023728282280598981 -0.43798020184644493 0 0.011432193992105429 -0.44462200732167467 0 -0.01027783979290609 -0.4450418277695869 0 0.011432193992105429 -0.44462200732167467 0 0.0031349746952128348 -0.45732154608844711 0 -0.01027783979290609 -0.4450418277695869 0 0.003851027954898749 -0.43172418954792041 0 0.011432193992105429 -0.44462200732167467 0 0.011432193992105429 -0.44462200732167467 0 0.0031349746952128348 -0.45732154608844711 0 0.01779212199045099 -0.45571080357091009 0 -0.00094907817261298132 -0.47112804672216879 0 0.0031349746952128348 -0.45732154608844711 0 0.01026392841378935 -0.46669334269712659 0 0.0031349746952128348 -0.45732154608844711 0 0.01026392841378935 -0.46669334269712659 0 0.01779212199045099 -0.45571080357091009 0 0.01026392841378935 -0.46669334269712659 0 0.01779212199045099 -0.45571080357091009 0 0.024747075647264399 -0.46972246297684461 0 0.033446276913734967 -0.45792526049492271 0 0.01779212199045099 -0.45571080357091009 0 0.024747075647264399 -0.46972246297684461 0 0.024747075647264399 -0.46972246297684461 0 0.019392481307258409 -0.48478566889839131 0 0.043164271546872197 -0.4778703191434 0 0.01026392841378935 -0.46669334269712659 0 0.024747075647264399 -0.46972246297684461 0 0.019392481307258409 -0.48478566889839131 0 0.01026392841378935 -0.46669334269712659 0 0.0053352152350804568 -0.4807791696356124 0 0.019392481307258409 -0.48478566889839131 0 -0.0043176495648967151 -0.48070428616945038 0 -0.00094907817261298132 -0.47112804672216879 0 0.0053352152350804568 -0.4807791696356124 0 -0.00094907817261298132 -0.47112804672216879 0 0.01026392841378935 -0.46669334269712659 0 0.0053352152350804568 -0.4807791696356124 0 -0.0023310323066341181 -0.5 0 -0.0043793089323552817 -0.49170101865338262 0 0.019392481307258409 -0.48478566889839131 0 -0.0043793089323552817 -0.49170101865338262 0 0.019392481307258409 -0.48478566889839131 0 -0.0043793089323552817 -0.49170101865338262 0 0.0053352152350804568 -0.4807791696356124 0 0.019392481307258409 -0.48478566889839131 0 -0.0023310323066341181 -0.5 0 0.019392481307258409 -0.48478566889839131 0 0.026698753392940699 -0.5 0 0.019392481307258409 -0.48478566889839131 0 0.026698753392940699 -0.5 0 0.035353585390671842 -0.48974665193930511 0 0.035353585390671842 -0.48974665193930511 0 0.043164271546872197 -0.4778703191434 0 0.052158835315616027 -0.49633061971542908 0 0.026698753392940699 -0.5 0 0.055728539092515517 -0.5 0 0.052158835315616027 -0.49633061971542908 0 0.026698753392940699 -0.5 0 0.035353585390671842 -0.48974665193930511 0 0.052158835315616027 -0.49633061971542908 0 0.019392481307258409 -0.48478566889839131 0 0.035353585390671842 -0.48974665193930511 0 0.043164271546872197 -0.4778703191434 0 0.019392481307258409 -0.48478566889839131 0 0.043164271546872197 -0.4778703191434 0 0.069113753880103546 -0.47032146630200872 0 0.052594011880735161 -0.46258963849414558 0 0.043164271546872197 -0.4778703191434 0 0.069113753880103546 -0.47032146630200872 0 0.043164271546872197 -0.4778703191434 0 0.057596711449277201 -0.48334309492942701 0 0.069113753880103546 -0.47032146630200872 0 0.043164271546872197 -0.4778703191434 0 0.043164271546872197 -0.4778703191434 0 0.057596711449277201 -0.48334309492942701 0 0.052158835315616027 -0.49633061971542908 0 0.065949985054517032 -0.48884997455687013 0 0.057596711449277201 -0.48334309492942701 0 0.052158835315616027 -0.49633061971542908 0 0.043164271546872197 -0.4778703191434 0 0.052158835315616027 -0.49633061971542908 0 0.065949985054517032 -0.48884997455687013 0 0.055728539092515517 -0.5 0 0.052158835315616027 -0.49633061971542908 0 0.091646396761647708 -0.28947790237370968 0 0.07071546022358817 -0.28620470259943642 0 0.079999995207784586 -0.26983589460815821 0 0.091646396761647708 -0.28947790237370968 0 0.072783535289555654 -0.30157633939854622 0 0.07071546022358817 -0.28620470259943642 0 0.091646396761647708 -0.28947790237370968 0 0.087363613427391865 -0.30807629250996549 0 0.072783535289555654 -0.30157633939854622 0 0.072783535289555654 -0.30157633939854622 0 0.073259594084162577 -0.32259772896999273 0 0.056038135353808333 -0.31320409925325249 0 0.087363613427391865 -0.30807629250996549 0 0.072783535289555654 -0.30157633939854622 0 0.073259594084162577 -0.32259772896999273 0 0.072783535289555654 -0.30157633939854622 0 0.07071546022358817 -0.28620470259943642 0 0.04944647540011983 -0.29680206833493911 0 0.07071546022358817 -0.28620470259943642 0 0.079999995207784586 -0.26983589460815821 0 0.059700898458833078 -0.27333130828182889 0 0.06835359365392131 -0.25019388684260668 0 0.079999995207784586 -0.26983589460815821 0 0.08421140423371333 -0.243891226620808 0 0.06835359365392131 -0.25019388684260668 0 0.079999995207784586 -0.26983589460815821 0 0.06835359365392131 -0.25019388684260668 0 0.079999995207784586 -0.26983589460815821 0 0.059700898458833078 -0.27333130828182889 0 0.079999995207784586 -0.26983589460815821 0 0.097662046653794854 -0.25561444261418242 0 0.08421140423371333 -0.243891226620808 0 0.079999995207784586 -0.26983589460815821 0 0.1034904733698796 -0.27103876000237981 0 0.097662046653794854 -0.25561444261418242 0 0.091646396761647708 -0.28947790237370968 0 0.079999995207784586 -0.26983589460815821 0 0.091646396761647708 -0.28947790237370968 0 0.079999995207784586 -0.26983589460815821 0 0.1034904733698796 -0.27103876000237981 0 0.1034904733698796 -0.27103876000237981 0 0.097662046653794854 -0.25561444261418242 0 0.1147239364606354 -0.25215539330366038 0 0.13687529418603939 -0.26162068250561471 0 0.1147239364606354 -0.25215539330366038 0 0.1223190960555403 -0.2394332616338683 0 0.1034904733698796 -0.27103876000237981 0 0.1147239364606354 -0.25215539330366038 0 0.12122917553908071 -0.27280048239714111 0 0.13687529418603939 -0.26162068250561471 0 0.1147239364606354 -0.25215539330366038 0 0.12122917553908071 -0.27280048239714111 0 0.1034904733698796 -0.27103876000237981 0 0.12122917553908071 -0.27280048239714111 0 0.11361649143026541 -0.29050419490534962 0 0.13743968224858391 -0.28868338126870119 0 0.12122917553908071 -0.27280048239714111 0 0.11361649143026541 -0.29050419490534962 0 0.091646396761647708 -0.28947790237370968 0 0.11361649143026541 -0.29050419490534962 0 0.10329279831551071 -0.3091199101392611 0 0.091646396761647708 -0.28947790237370968 0 0.1034904733698796 -0.27103876000237981 0 0.11361649143026541 -0.29050419490534962 0 0.091646396761647708 -0.28947790237370968 0 0.10329279831551071 -0.3091199101392611 0 0.091646396761647708 -0.28947790237370968 0 0.087363613427391865 -0.30807629250996549 0 0.10329279831551071 -0.3091199101392611 0 0.11361649143026541 -0.29050419490534962 0 0.10329279831551071 -0.3091199101392611 0 0.1207194796176513 -0.31206082339016011 0 0.13743968224858391 -0.28868338126870119 0 0.11361649143026541 -0.29050419490534962 0 0.1207194796176513 -0.31206082339016011 0 0.10329279831551071 -0.3091199101392611 0 0.11030782598785099 -0.32334328523235578 0 0.1149391998693738 -0.32876191790481257 0 0.10329279831551071 -0.3091199101392611 0 0.1207194796176513 -0.31206082339016011 0 0.1149391998693738 -0.32876191790481257 0 0.127277047630593 -0.32368123984794023 0 0.1207194796176513 -0.31206082339016011 0 0.1149391998693738 -0.32876191790481257 0 0.1252730154641265 -0.33501756179834041 0 0.127277047630593 -0.32368123984794023 0 0.1149391998693738 -0.32876191790481257 0 0.11030782598785099 -0.32334328523235578 0 0.1149391998693738 -0.32876191790481257 0 0.1071562875265276 -0.34088406714172798 0 0.1252730154641265 -0.33501756179834041 0 0.1149391998693738 -0.32876191790481257 0 0.1203073559828662 -0.34481831064573482 0 0.1149391998693738 -0.32876191790481257 0 0.1071562875265276 -0.34088406714172798 0 0.1203073559828662 -0.34481831064573482 0 0.11030782598785099 -0.32334328523235578 0 0.1071562875265276 -0.34088406714172798 0 0.088168702518997374 -0.33920446067117932 0 0.11030782598785099 -0.32334328523235578 0 0.088168702518997374 -0.33920446067117932 0 0.11030782598785099 -0.32334328523235578 0 0.092685396428672781 -0.32103820683708328 0 0.088168702518997374 -0.33920446067117932 0 0.10329279831551071 -0.3091199101392611 0 0.11030782598785099 -0.32334328523235578 0 0.092685396428672781 -0.32103820683708328 0 0.087363613427391865 -0.30807629250996549 0 0.10329279831551071 -0.3091199101392611 0 0.092685396428672781 -0.32103820683708328 0 0.10329279831551071 -0.3091199101392611 0 0.1149391998693738 -0.32876191790481257 0 0.1245186505824013 -0.36113750934922573 0 0.111761677400382 -0.35565256239397869 0 0.1080928822255358 -0.3703790814713866 0 0.12672469353237761 -0.38193719477194499 0 0.1245186505824013 -0.36113750934922573 0 0.1080928822255358 -0.3703790814713866 0 0.1245186505824013 -0.36113750934922573 0 0.111761677400382 -0.35565256239397869 0 0.1203073559828662 -0.34481831064573482 0 0.1071562875265276 -0.34088406714172798 0 0.111761677400382 -0.35565256239397869 0 0.1203073559828662 -0.34481831064573482 0 0.1071562875265276 -0.34088406714172798 0 0.09828664694928807 -0.35383226801130691 0 0.088168702518997374 -0.33920446067117932 0 0.1071562875265276 -0.34088406714172798 0 0.111761677400382 -0.35565256239397869 0 0.09828664694928807 -0.35383226801130691 0 0.097085641119374302 -0.38571424072610178 0 0.1080928822255358 -0.3703790814713866 0 0.085574671404253372 -0.36606529366265911 0 0.111761677400382 -0.35565256239397869 0 0.09828664694928807 -0.35383226801130691 0 0.1080928822255358 -0.3703790814713866 0 0.09828664694928807 -0.35383226801130691 0 0.1080928822255358 -0.3703790814713866 0 0.085574671404253372 -0.36606529366265911 0 0.085574671404253372 -0.36606529366265911 0 0.066029579050143783 -0.35506563611000291 0 0.088168702518997374 -0.33920446067117932 0 0.09828664694928807 -0.35383226801130691 0 0.085574671404253372 -0.36606529366265911 0 0.088168702518997374 -0.33920446067117932 0 0.066029579050143783 -0.35506563611000291 0 0.088168702518997374 -0.33920446067117932 0 0.064781398010314309 -0.37536455347105108 0 0.085574671404253372 -0.36606529366265911 0 0.066029579050143783 -0.35506563611000291 0 0.066029579050143783 -0.35506563611000291 0 0.088168702518997374 -0.33920446067117932 0 0.073259594084162577 -0.32259772896999273 0 0.066029579050143783 -0.35506563611000291 0 0.073259594084162577 -0.32259772896999273 0 0.048222299164917798 -0.333319266554439 0 0.092685396428672781 -0.32103820683708328 0 0.088168702518997374 -0.33920446067117932 0 0.073259594084162577 -0.32259772896999273 0 0.087363613427391865 -0.30807629250996549 0 0.092685396428672781 -0.32103820683708328 0 0.073259594084162577 -0.32259772896999273 0 0.073259594084162577 -0.32259772896999273 0 0.056038135353808333 -0.31320409925325249 0 0.048222299164917798 -0.333319266554439 0 0.056038135353808333 -0.31320409925325249 0 0.048222299164917798 -0.333319266554439 0 0.036478772830285791 -0.31172509300834528 0 0.048222299164917798 -0.333319266554439 0 0.033610930591278822 -0.35000849021355163 0 0.023331405601267931 -0.32909016887827719 0 0.048222299164917798 -0.333319266554439 0 0.023331405601267931 -0.32909016887827719 0 0.036478772830285791 -0.31172509300834528 0 0.066029579050143783 -0.35506563611000291 0 0.048355778033110031 -0.35315995845717169 0 0.043890455581289831 -0.3709268115488259 0 0.066029579050143783 -0.35506563611000291 0 0.043890455581289831 -0.3709268115488259 0 0.064781398010314309 -0.37536455347105108 0 0.066029579050143783 -0.35506563611000291 0 0.043890455581289831 -0.3709268115488259 0 0.066029579050143783 -0.35506563611000291 0 0.048222299164917798 -0.333319266554439 0 0.048355778033110031 -0.35315995845717169 0 0.048222299164917798 -0.333319266554439 0 0.048355778033110031 -0.35315995845717169 0 0.033610930591278822 -0.35000849021355163 0 0.048355778033110031 -0.35315995845717169 0 0.033610930591278822 -0.35000849021355163 0 0.043890455581289831 -0.3709268115488259 0 0.033610930591278822 -0.35000849021355163 0 0.03286340713970079 -0.36889202113574671 0 0.043890455581289831 -0.3709268115488259 0 0.033610930591278822 -0.35000849021355163 0 0.043890455581289831 -0.3709268115488259 0 0.030780854092194759 -0.38031894893150719 0 0.03286340713970079 -0.36889202113574671 0 0.043890455581289831 -0.3709268115488259 0 0.033610930591278822 -0.35000849021355163 0 0.03286340713970079 -0.36889202113574671 0 0.022072978528308879 -0.36937310690127451 0 0.030780854092194759 -0.38031894893150719 0 0.03286340713970079 -0.36889202113574671 0 0.022072978528308879 -0.36937310690127451 0 0.033610930591278822 -0.35000849021355163 0 0.022072978528308879 -0.36937310690127451 0 0.014393680356963701 -0.35536411395587292 0 0.033610930591278822 -0.35000849021355163 0 0.014393680356963701 -0.35536411395587292 0 0.0105762414372169 -0.3395135522035268 0 -0.00014080085946228561 -0.35082738964002957 0 0.014393680356963701 -0.35536411395587292 0 0.0105762414372169 -0.3395135522035268 0 -0.00014080085946228561 -0.35082738964002957 0 0.014393680356963701 -0.35536411395587292 0 0.0058490520874761691 -0.36709803082098191 0 0.022072978528308879 -0.36937310690127451 0 0.014393680356963701 -0.35536411395587292 0 0.0058490520874761691 -0.36709803082098191 0 0.022072978528308879 -0.36937310690127451 0 0.0058490520874761691 -0.36709803082098191 0 0.0132535835722172 -0.37610527220974688 0 0.022072978528308879 -0.36937310690127451 0 0.0058490520874761691 -0.36709803082098191 0 -0.0078283346885702904 -0.37476262999778609 0 0.0132535835722172 -0.37610527220974688 0 0.0058490520874761691 -0.36709803082098191 0 0.023331405601267931 -0.32909016887827719 0 0.013051880611257029 -0.30817184754300292 0 0.023331405601267931 -0.32909016887827719 0 0.013051880611257029 -0.30817184754300292 0 0.036478772830285791 -0.31172509300834528 0 0.033610930591278822 -0.35000849021355163 0 0.023331405601267931 -0.32909016887827719 0 0.0105762414372169 -0.3395135522035268 0 0.033610930591278822 -0.35000849021355163 0 0.023331405601267931 -0.32909016887827719 0 0.023331405601267931 -0.32909016887827719 0 0.0105762414372169 -0.3395135522035268 0 3.5896068887442723e-05 -0.32803491845883598 0 -0.00014080085946228561 -0.35082738964002957 0 0.0105762414372169 -0.3395135522035268 0 3.5896068887442723e-05 -0.32803491845883598 0 -0.0063780240591087903 -0.31078717533589839 0 3.5896068887442723e-05 -0.32803491845883598 0 0.013051880611257029 -0.30817184754300292 0 0.023331405601267931 -0.32909016887827719 0 3.5896068887442723e-05 -0.32803491845883598 0 0.013051880611257029 -0.30817184754300292 0 0.013051880611257029 -0.30817184754300292 0 0.0027723556212477219 -0.28725352620772771 0 0.0027723556212477219 -0.28725352620772771 0 0.026109415510684009 -0.29202779727133188 0 -0.0017476628817073611 -0.27805551369469472 0 0.0027723556212477219 -0.28725352620772771 0 0.01602201902671789 -0.28191194131808539 0 0.013051880611257029 -0.30817184754300292 0 0.0027723556212477219 -0.28725352620772771 0 0.026109415510684009 -0.29202779727133188 0 0.0027723556212477219 -0.28725352620772771 0 0.026109415510684009 -0.29202779727133188 0 0.01602201902671789 -0.28191194131808539 0 -0.0074917523477661804 -0.29461577546968681 0 0.013051880611257029 -0.30817184754300292 0 0.0027723556212477219 -0.28725352620772771 0 -0.0017476628817073611 -0.27805551369469472 0 0.0027723556212477219 -0.28725352620772771 0 0.026109415510684009 -0.29202779727133188 0 0.01602201902671789 -0.28191194131808539 0 0.036314123194761641 -0.27872041929058161 0 0.013051880611257029 -0.30817184754300292 0 0.026109415510684009 -0.29202779727133188 0 0.036478772830285791 -0.31172509300834528 0 0.026109415510684009 -0.29202779727133188 0 0.036478772830285791 -0.31172509300834528 0 0.04944647540011983 -0.29680206833493911 0 0.026109415510684009 -0.29202779727133188 0 0.04944647540011983 -0.29680206833493911 0 0.036314123194761641 -0.27872041929058161 0 0.026109415510684009 -0.29202779727133188 0 0.04944647540011983 -0.29680206833493911 0 0.04944647540011983 -0.29680206833493911 0 0.059700898458833078 -0.27333130828182889 0 0.036314123194761641 -0.27872041929058161 0 0.07071546022358817 -0.28620470259943642 0 0.04944647540011983 -0.29680206833493911 0 0.059700898458833078 -0.27333130828182889 0 0.072783535289555654 -0.30157633939854622 0 0.04944647540011983 -0.29680206833493911 0 0.056038135353808333 -0.31320409925325249 0 0.036478772830285791 -0.31172509300834528 0 0.04944647540011983 -0.29680206833493911 0 0.072783535289555654 -0.30157633939854622 0 0.056038135353808333 -0.31320409925325249 0 0.04944647540011983 -0.29680206833493911 0 0.06835359365392131 -0.25019388684260668 0 0.044986508142045613 -0.25948109579330381 0 0.047362788675733028 -0.24199119006041811 0 0.06835359365392131 -0.25019388684260668 0 0.059700898458833078 -0.27333130828182889 0 0.044986508142045613 -0.25948109579330381 0 0.06835359365392131 -0.25019388684260668 0 0.044986508142045613 -0.25948109579330381 0 0.059700898458833078 -0.27333130828182889 0 0.036314123194761641 -0.27872041929058161 0 0.044986508142045613 -0.25948109579330381 0 0.036314123194761641 -0.27872041929058161 0 0.044986508142045613 -0.25948109579330381 0 0.02161942263016943 -0.26876830474400021 0 0.044986508142045613 -0.25948109579330381 0 0.02161942263016943 -0.26876830474400021 0 0.044986508142045613 -0.25948109579330381 0 0.029973277209287209 -0.25054958921230208 0 0.02161942263016943 -0.26876830474400021 0 0.044986508142045613 -0.25948109579330381 0 0.029973277209287209 -0.25054958921230208 0 0.047362788675733028 -0.24199119006041811 0 0.029973277209287209 -0.25054958921230208 0 0.015960739131678031 -0.25406337006458851 0 0.02161942263016943 -0.26876830474400021 0 0.01602201902671789 -0.28191194131808539 0 0.036314123194761641 -0.27872041929058161 0 0.02161942263016943 -0.26876830474400021 0 -0.0017476628817073611 -0.27805551369469472 0 0.01602201902671789 -0.28191194131808539 0 0.02161942263016943 -0.26876830474400021 0 -0.0017476628817073611 -0.27805551369469472 0 0.02161942263016943 -0.26876830474400021 0 -0.0017476628817073611 -0.27805551369469472 0 0.02161942263016943 -0.26876830474400021 0 0.0057386521092319797 -0.26220041049146298 0 0.015960739131678031 -0.25406337006458851 0 0.02161942263016943 -0.26876830474400021 0 0.0057386521092319797 -0.26220041049146298 0 0.015960739131678031 -0.25406337006458851 0 0.0057386521092319797 -0.26220041049146298 0 0.0025328853753160741 -0.24958102673793139 0 0.0010854142569982001 -0.23807309260292489 0 0.010575476039053681 -0.22730954243123891 0 0.017210747296828609 -0.24036453645492739 0 0.0010854142569982001 -0.23807309260292489 0 0.0025328853753160741 -0.24958102673793139 0 0.017210747296828609 -0.24036453645492739 0 0.015960739131678031 -0.25406337006458851 0 0.0025328853753160741 -0.24958102673793139 0 0.017210747296828609 -0.24036453645492739 0 -0.0061584899570064598 -0.22962027277065361 0 0.0010854142569982001 -0.23807309260292489 0 0.010575476039053681 -0.22730954243123891 0 -0.0061584899570064598 -0.22962027277065361 0 0.010575476039053681 -0.22730954243123891 0 0.0064165675551885711 -0.21575046092143421 0 -0.0061584899570064598 -0.22962027277065361 0 0.0064165675551885711 -0.21575046092143421 0 0.010575476039053681 -0.22730954243123891 0 0.0064165675551885711 -0.21575046092143421 0 0.021509429760601551 -0.21557394742371069 0 0.010575476039053681 -0.22730954243123891 0 0.0064165675551885711 -0.21575046092143421 0 0.010575476039053681 -0.22730954243123891 0 0.02225812238200572 -0.22838936745028471 0 0.017210747296828609 -0.24036453645492739 0 0.010575476039053681 -0.22730954243123891 0 0.02225812238200572 -0.22838936745028471 0 0.021509429760601551 -0.21557394742371069 0 0.02225812238200572 -0.22838936745028471 0 0.029479073121619459 -0.22118232130399371 0 0.021509429760601551 -0.21557394742371069 0 0.02225812238200572 -0.22838936745028471 0 0.029479073121619459 -0.22118232130399371 0 0.031866256870133697 -0.23515517363185631 0 0.029973277209287209 -0.25054958921230208 0 0.017210747296828609 -0.24036453645492739 0 0.031866256870133697 -0.23515517363185631 0 0.02225812238200572 -0.22838936745028471 0 0.017210747296828609 -0.24036453645492739 0 0.031866256870133697 -0.23515517363185631 0 0.029973277209287209 -0.25054958921230208 0 0.015960739131678031 -0.25406337006458851 0 0.017210747296828609 -0.24036453645492739 0 -0.0015622250741301779 -0.1935745667631632 0 0.01896638504685547 -0.20190848785827681 0 0.0091962193441852118 -0.18107109871456811 0 -0.0015622250741301779 -0.1935745667631632 0 0.0064165675551885711 -0.21575046092143421 0 0.01896638504685547 -0.20190848785827681 0 -0.0015622250741301779 -0.1935745667631632 0 0.0064165675551885711 -0.21575046092143421 0 0.0064165675551885711 -0.21575046092143421 0 0.01896638504685547 -0.20190848785827681 0 0.0064165675551885711 -0.21575046092143421 0 0.021509429760601551 -0.21557394742371069 0 0.01896638504685547 -0.20190848785827681 0 0.029479073121619459 -0.22118232130399371 0 0.021509429760601551 -0.21557394742371069 0 0.033558692489570878 -0.21195100443687931 0 0.021509429760601551 -0.21557394742371069 0 0.029251690937081031 -0.20258635003767089 0 0.033558692489570878 -0.21195100443687931 0 0.021509429760601551 -0.21557394742371069 0 0.01896638504685547 -0.20190848785827681 0 0.029251690937081031 -0.20258635003767089 0 0.01896638504685547 -0.20190848785827681 0 0.031516202538524517 -0.1880665147951214 0 0.0091962193441852118 -0.18107109871456811 0 0.01896638504685547 -0.20190848785827681 0 0.029251690937081031 -0.20258635003767089 0 0.031516202538524517 -0.1880665147951214 0 0.01896638504685547 -0.20190848785827681 0 0.031516202538524517 -0.1880665147951214 0 0.043838458457815248 -0.18986676967386279 0 0.039506267971797952 -0.20154200132731501 0 0.055741541871671067 -0.19352675789948551 0 0.043838458457815248 -0.18986676967386279 0 0.031516202538524517 -0.1880665147951214 0 0.039506267971797952 -0.20154200132731501 0 0.031516202538524517 -0.1880665147951214 0 0.039506267971797952 -0.20154200132731501 0 0.029251690937081031 -0.20258635003767089 0 0.031516202538524517 -0.1880665147951214 0 0.039506267971797952 -0.20154200132731501 0 0.039506267971797952 -0.20154200132731501 0 0.033558692489570878 -0.21195100443687931 0 0.047496333405074677 -0.2150174878595065 0 0.039506267971797952 -0.20154200132731501 0 0.047496333405074677 -0.2150174878595065 0 0.029251690937081031 -0.20258635003767089 0 0.039506267971797952 -0.20154200132731501 0 0.033558692489570878 -0.21195100443687931 0 0.033558692489570878 -0.21195100443687931 0 0.047496333405074677 -0.2150174878595065 0 0.033558692489570878 -0.21195100443687931 0 0.047496333405074677 -0.2150174878595065 0 0.039554961726260877 -0.22474601638733641 0 0.039506267971797952 -0.20154200132731501 0 0.047496333405074677 -0.2150174878595065 0 0.05523956109653505 -0.20714630445374671 0 0.047496333405074677 -0.2150174878595065 0 0.05523956109653505 -0.20714630445374671 0 0.064206587222380762 -0.21869398638814641 0 0.047496333405074677 -0.2150174878595065 0 0.064206587222380762 -0.21869398638814641 0 0.039506267971797952 -0.20154200132731501 0 0.05523956109653505 -0.20714630445374671 0 0.055741541871671067 -0.19352675789948551 0 0.05523956109653505 -0.20714630445374671 0 0.055741541871671067 -0.19352675789948551 0 0.069247075011750078 -0.20695128879428309 0 0.055741541871671067 -0.19352675789948551 0 0.069247075011750078 -0.20695128879428309 0 0.029973277209287209 -0.25054958921230208 0 0.031866256870133697 -0.23515517363185631 0 0.047362788675733028 -0.24199119006041811 0 0.031866256870133697 -0.23515517363185631 0 0.039554961726260877 -0.22474601638733641 0 0.047362788675733028 -0.24199119006041811 0 0.029479073121619459 -0.22118232130399371 0 0.031866256870133697 -0.23515517363185631 0 0.039554961726260877 -0.22474601638733641 0 0.029479073121619459 -0.22118232130399371 0 0.033558692489570878 -0.21195100443687931 0 0.039554961726260877 -0.22474601638733641 0 0.047496333405074677 -0.2150174878595065 0 0.05536207860111314 -0.2282833045590259 0 0.064206587222380762 -0.21869398638814641 0 0.05536207860111314 -0.2282833045590259 0 0.063311866646695691 -0.24149928944984211 0 0.064206587222380762 -0.21869398638814641 0 0.039554961726260877 -0.22474601638733641 0 0.05536207860111314 -0.2282833045590259 0 0.047362788675733028 -0.24199119006041811 0 0.047496333405074677 -0.2150174878595065 0 0.039554961726260877 -0.22474601638733641 0 0.05536207860111314 -0.2282833045590259 0 0.047496333405074677 -0.2150174878595065 0 0.05536207860111314 -0.2282833045590259 0 0.05536207860111314 -0.2282833045590259 0 0.063311866646695691 -0.24149928944984211 0 0.06835359365392131 -0.25019388684260668 0 0.047362788675733028 -0.24199119006041811 0 0.063311866646695691 -0.24149928944984211 0 0.05536207860111314 -0.2282833045590259 0 0.047362788675733028 -0.24199119006041811 0 0.063311866646695691 -0.24149928944984211 0 0.06835359365392131 -0.25019388684260668 0 0.08421140423371333 -0.243891226620808 0 0.06835359365392131 -0.25019388684260668 0 0.063311866646695691 -0.24149928944984211 0 0.063311866646695691 -0.24149928944984211 0 0.074219814037010917 -0.24224782663387789 0 0.081086434463253185 -0.23335707181355411 0 0.06835359365392131 -0.25019388684260668 0 0.063311866646695691 -0.24149928944984211 0 0.074219814037010917 -0.24224782663387789 0 0.06835359365392131 -0.25019388684260668 0 0.074219814037010917 -0.24224782663387789 0 0.08421140423371333 -0.243891226620808 0 0.08421140423371333 -0.243891226620808 0 0.081086434463253185 -0.23335707181355411 0 0.10006921481350529 -0.2375885663990091 0 0.08421140423371333 -0.243891226620808 0 0.10006921481350529 -0.2375885663990091 0 0.074219814037010917 -0.24224782663387789 0 0.08421140423371333 -0.243891226620808 0 0.081086434463253185 -0.23335707181355411 0 0.081086434463253185 -0.23335707181355411 0 0.085851572697872774 -0.2234561975504171 0 0.10006921481350529 -0.2375885663990091 0 0.085851572697872774 -0.2234561975504171 0 0.08275260815182911 -0.2203758196890806 0 0.098293187803831117 -0.21887499219370271 0 0.085851572697872774 -0.2234561975504171 0 0.10006921481350529 -0.2375885663990091 0 0.081086434463253185 -0.23335707181355411 0 0.085851572697872774 -0.2234561975504171 0 0.080916841039686133 -0.2223704849167896 0 0.085851572697872774 -0.2234561975504171 0 0.080916841039686133 -0.2223704849167896 0 0.085851572697872774 -0.2234561975504171 0 0.08275260815182911 -0.2203758196890806 0 0.080916841039686133 -0.2223704849167896 0 0.085851572697872774 -0.2234561975504171 0 0.08275260815182911 -0.2203758196890806 0 0.08275260815182911 -0.2203758196890806 0 0.080916841039686133 -0.2223704849167896 0 0.063311866646695691 -0.24149928944984211 0 0.080916841039686133 -0.2223704849167896 0 0.063311866646695691 -0.24149928944984211 0 0.080916841039686133 -0.2223704849167896 0 0.064206587222380762 -0.21869398638814641 0 0.080916841039686133 -0.2223704849167896 0 0.064206587222380762 -0.21869398638814641 0 0.063311866646695691 -0.24149928944984211 0 0.081086434463253185 -0.23335707181355411 0 0.080916841039686133 -0.2223704849167896 0 0.080916841039686133 -0.2223704849167896 0 0.064206587222380762 -0.21869398638814641 0 0.069247075011750078 -0.20695128879428309 0 0.05523956109653505 -0.20714630445374671 0 0.064206587222380762 -0.21869398638814641 0 0.069247075011750078 -0.20695128879428309 0 0.08275260815182911 -0.2203758196890806 0 0.069247075011750078 -0.20695128879428309 0 0.08275260815182911 -0.2203758196890806 0 0.080916841039686133 -0.2223704849167896 0 0.069247075011750078 -0.20695128879428309 0 0.055741541871671067 -0.19352675789948551 0 0.069247075011750078 -0.20695128879428309 0 0.070887819862862286 -0.1914088031202833 0 0.069247075011750078 -0.20695128879428309 0 0.070887819862862286 -0.1914088031202833 0 0.082832551139222166 -0.19914513048671481 0 0.070887819862862286 -0.1914088031202833 0 0.082832551139222166 -0.19914513048671481 0 0.081821336385090343 -0.18186245165470949 0 0.082832551139222166 -0.19914513048671481 0 0.097084301305641635 -0.20480362112478781 0 0.095405874932467813 -0.18887779734800569 0 0.082832551139222166 -0.19914513048671481 0 0.095405874932467813 -0.18887779734800569 0 0.081821336385090343 -0.18186245165470949 0 0.08275260815182911 -0.2203758196890806 0 0.082832551139222166 -0.19914513048671481 0 0.097084301305641635 -0.20480362112478781 0 0.08275260815182911 -0.2203758196890806 0 0.069247075011750078 -0.20695128879428309 0 0.082832551139222166 -0.19914513048671481 0 0.08275260815182911 -0.2203758196890806 0 0.097084301305641635 -0.20480362112478781 0 0.098293187803831117 -0.21887499219370271 0 0.08275260815182911 -0.2203758196890806 0 0.097084301305641635 -0.20480362112478781 0 0.097084301305641635 -0.20480362112478781 0 0.1146962174531268 -0.21673223195775559 0 0.098293187803831117 -0.21887499219370271 0 0.097084301305641635 -0.20480362112478781 0 0.095405874932467813 -0.18887779734800569 0 0.11141599445945349 -0.1892314225604943 0 0.097084301305641635 -0.20480362112478781 0 0.11141599445945349 -0.1892314225604943 0 0.097084301305641635 -0.20480362112478781 0 0.1210323504124224 -0.2015702574875764 0 0.11141599445945349 -0.1892314225604943 0 0.1210323504124224 -0.2015702574875764 0 0.11141599445945349 -0.1892314225604943 0 0.13523084618428721 -0.18276855246186111 0 0.1210323504124224 -0.2015702574875764 0 0.1146962174531268 -0.21673223195775559 0 0.13583218450739579 -0.2116030352811932 0 0.097084301305641635 -0.20480362112478781 0 0.1210323504124224 -0.2015702574875764 0 0.1146962174531268 -0.21673223195775559 0 0.1110812394106853 -0.22900709064647229 0 0.12594488917549271 -0.2231145762792166 0 0.1363109061234978 -0.23455798374252809 0 0.1110812394106853 -0.22900709064647229 0 0.1223190960555403 -0.2394332616338683 0 0.1363109061234978 -0.23455798374252809 0 0.1110812394106853 -0.22900709064647229 0 0.1363109061234978 -0.23455798374252809 0 0.1146962174531268 -0.21673223195775559 0 0.1110812394106853 -0.22900709064647229 0 0.12594488917549271 -0.2231145762792166 0 0.1110812394106853 -0.22900709064647229 0 0.1223190960555403 -0.2394332616338683 0 0.1084330749156753 -0.23426436422737831 0 0.1147239364606354 -0.25215539330366038 0 0.1223190960555403 -0.2394332616338683 0 0.1084330749156753 -0.23426436422737831 0 0.097662046653794854 -0.25561444261418242 0 0.1147239364606354 -0.25215539330366038 0 0.10006921481350529 -0.2375885663990091 0 0.1147239364606354 -0.25215539330366038 0 0.10006921481350529 -0.2375885663990091 0 0.1084330749156753 -0.23426436422737831 0 0.097662046653794854 -0.25561444261418242 0 0.08421140423371333 -0.243891226620808 0 0.10006921481350529 -0.2375885663990091 0 0.10006921481350529 -0.2375885663990091 0 0.1084330749156753 -0.23426436422737831 0 0.1147239364606354 -0.25215539330366038 0 0.10006921481350529 -0.2375885663990091 0 0.085851572697872774 -0.2234561975504171 0 0.1110812394106853 -0.22900709064647229 0 0.1146962174531268 -0.21673223195775559 0 0.1110812394106853 -0.22900709064647229 0 0.098293187803831117 -0.21887499219370271 0 0.085851572697872774 -0.2234561975504171 0 0.1110812394106853 -0.22900709064647229 0 0.098293187803831117 -0.21887499219370271 0 0.085851572697872774 -0.2234561975504171 0 0.1110812394106853 -0.22900709064647229 0 0.10006921481350529 -0.2375885663990091 0 0.1110812394106853 -0.22900709064647229 0 0.10006921481350529 -0.2375885663990091 0 0.1084330749156753 -0.23426436422737831 0 0.1040552578412003 -0.15282191894301261 0 0.1005807427949069 -0.13366374688330029 0 0.11727103389215909 -0.1361484369810822 0 0.1005807427949069 -0.13366374688330029 0 0.11727103389215909 -0.1361484369810822 0 0.1051359327507693 -0.1227177542784853 0 0.1040552578412003 -0.15282191894301261 0 0.1005807427949069 -0.13366374688330029 0 0.082362828069140165 -0.1319846138898183 0 0.11727103389215909 -0.1361484369810822 0 0.1154331983948798 -0.1174886032934183 0 0.13404900744611239 -0.12609877526333699 0 0.11727103389215909 -0.1361484369810822 0 0.1051359327507693 -0.1227177542784853 0 0.1154331983948798 -0.1174886032934183 0 0.1040552578412003 -0.15282191894301261 0 0.11727103389215909 -0.1361484369810822 0 0.1232701832726428 -0.15427141090171109 0 0.11727103389215909 -0.1361484369810822 0 0.1232701832726428 -0.15427141090171109 0 0.13444198148756639 -0.1449420832838656 0 0.1040552578412003 -0.15282191894301261 0 0.12574768761326591 -0.17365922399620121 0 0.1040552578412003 -0.15282191894301261 0 0.1002282447692335 -0.17458527697826651 0 0.12574768761326591 -0.17365922399620121 0 0.1040552578412003 -0.15282191894301261 0 0.1232701832726428 -0.15427141090171109 0 0.12574768761326591 -0.17365922399620121 0 0.11141599445945349 -0.1892314225604943 0 0.1002282447692335 -0.17458527697826651 0 0.12574768761326591 -0.17365922399620121 0 0.11141599445945349 -0.1892314225604943 0 0.12574768761326591 -0.17365922399620121 0 0.13523084618428721 -0.18276855246186111 0 0.11141599445945349 -0.1892314225604943 0 0.12574768761326591 -0.17365922399620121 0 0.095405874932467813 -0.18887779734800569 0 0.11141599445945349 -0.1892314225604943 0 0.1002282447692335 -0.17458527697826651 0 0.1040552578412003 -0.15282191894301261 0 0.1002282447692335 -0.17458527697826651 0 0.08311303581058499 -0.16124853818171381 0 0.095405874932467813 -0.18887779734800569 0 0.1002282447692335 -0.17458527697826651 0 0.081821336385090343 -0.18186245165470949 0 0.1002282447692335 -0.17458527697826651 0 0.08311303581058499 -0.16124853818171381 0 0.081821336385090343 -0.18186245165470949 0 0.08311303581058499 -0.16124853818171381 0 0.081821336385090343 -0.18186245165470949 0 0.066780308608768796 -0.17493307235476979 0 0.070887819862862286 -0.1914088031202833 0 0.081821336385090343 -0.18186245165470949 0 0.066780308608768796 -0.17493307235476979 0 0.055741541871671067 -0.19352675789948551 0 0.070887819862862286 -0.1914088031202833 0 0.066780308608768796 -0.17493307235476979 0 0.08311303581058499 -0.16124853818171381 0 0.066780308608768796 -0.17493307235476979 0 0.065413952892267702 -0.150678580858252 0 0.065413952892267702 -0.150678580858252 0 0.082362828069140165 -0.1319846138898183 0 0.08311303581058499 -0.16124853818171381 0 0.065413952892267702 -0.150678580858252 0 0.082362828069140165 -0.1319846138898183 0 0.1040552578412003 -0.15282191894301261 0 0.08311303581058499 -0.16124853818171381 0 0.082362828069140165 -0.1319846138898183 0 0.1040552578412003 -0.15282191894301261 0 0.082362828069140165 -0.1319846138898183 0 0.1005807427949069 -0.13366374688330029 0 0.082362828069140165 -0.1319846138898183 0 0.095577299328253623 -0.1174095529111252 0 0.082362828069140165 -0.1319846138898183 0 0.070308403876621794 -0.13238109852993221 0 0.069837722907261313 -0.1199532536492431 0 0.065413952892267702 -0.150678580858252 0 0.082362828069140165 -0.1319846138898183 0 0.070308403876621794 -0.13238109852993221 0 0.082362828069140165 -0.1319846138898183 0 0.069837722907261313 -0.1199532536492431 0 0.065413952892267702 -0.150678580858252 0 0.070308403876621794 -0.13238109852993221 0 0.06118566078759103 -0.13005342953014129 0 0.070308403876621794 -0.13238109852993221 0 0.06118566078759103 -0.13005342953014129 0 0.069837722907261313 -0.1199532536492431 0 0.065413952892267702 -0.150678580858252 0 0.06118566078759103 -0.13005342953014129 0 0.053245925046226952 -0.14076102386291889 0 0.06118566078759103 -0.13005342953014129 0 0.049352038069647858 -0.1295439288512826 0 0.048525659269531229 -0.11802361343548989 0 0.049352038069647858 -0.1295439288512826 0 0.053245925046226952 -0.14076102386291889 0 0.041700188437408421 -0.13409859591225329 0 0.06118566078759103 -0.13005342953014129 0 0.049352038069647858 -0.1295439288512826 0 0.053245925046226952 -0.14076102386291889 0 0.065413952892267702 -0.150678580858252 0 0.053245925046226952 -0.14076102386291889 0 0.048465077715394989 -0.16937254782668559 0 0.053245925046226952 -0.14076102386291889 0 0.040505841312838547 -0.14468304457988079 0 0.048465077715394989 -0.16937254782668559 0 0.040505841312838547 -0.14468304457988079 0 0.03393783807298914 -0.14093707321474161 0 0.030230252537669321 -0.1566253376229266 0 0.040505841312838547 -0.14468304457988079 0 0.030230252537669321 -0.1566253376229266 0 0.040505841312838547 -0.14468304457988079 0 0.03393783807298914 -0.14093707321474161 0 0.041700188437408421 -0.13409859591225329 0 0.03393783807298914 -0.14093707321474161 0 0.041700188437408421 -0.13409859591225329 0 0.024480650806643651 -0.1375151559245551 0 0.041700188437408421 -0.13409859591225329 0 0.042102756807481732 -0.1247829815156095 0 0.031290738437872938 -0.1201921761368282 0 0.049352038069647858 -0.1295439288512826 0 0.041700188437408421 -0.13409859591225329 0 0.042102756807481732 -0.1247829815156095 0 0.053245925046226952 -0.14076102386291889 0 0.040505841312838547 -0.14468304457988079 0 0.041700188437408421 -0.13409859591225329 0 0.055741541871671067 -0.19352675789948551 0 0.066780308608768796 -0.17493307235476979 0 0.048465077715394989 -0.16937254782668559 0 0.043838458457815248 -0.18986676967386279 0 0.055741541871671067 -0.19352675789948551 0 0.048465077715394989 -0.16937254782668559 0 0.066780308608768796 -0.17493307235476979 0 0.065413952892267702 -0.150678580858252 0 0.048465077715394989 -0.16937254782668559 0 0.065413952892267702 -0.150678580858252 0 0.048465077715394989 -0.16937254782668559 0 0.040505841312838547 -0.14468304457988079 0 0.048465077715394989 -0.16937254782668559 0 0.030230252537669321 -0.1566253376229266 0 0.048465077715394989 -0.16937254782668559 0 0.033338822752702377 -0.1705348433046637 0 0.030230252537669321 -0.1566253376229266 0 0.043838458457815248 -0.18986676967386279 0 0.031516202538524517 -0.1880665147951214 0 0.048465077715394989 -0.16937254782668559 0 0.031516202538524517 -0.1880665147951214 0 0.048465077715394989 -0.16937254782668559 0 0.031516202538524517 -0.1880665147951214 0 0.048465077715394989 -0.16937254782668559 0 0.033338822752702377 -0.1705348433046637 0 0.031516202538524517 -0.1880665147951214 0 0.033338822752702377 -0.1705348433046637 0 0.01995466376250531 -0.16856763066597699 0 0.031516202538524517 -0.1880665147951214 0 0.01995466376250531 -0.16856763066597699 0 0.031516202538524517 -0.1880665147951214 0 0.01995466376250531 -0.16856763066597699 0 0.0091962193441852118 -0.18107109871456811 0 0.01995466376250531 -0.16856763066597699 0 0.030230252537669321 -0.1566253376229266 0 0.008868239412810253 -0.14987004135808221 0 0.033338822752702377 -0.1705348433046637 0 0.01995466376250531 -0.16856763066597699 0 0.030230252537669321 -0.1566253376229266 0 0.01995466376250531 -0.16856763066597699 0 0.030230252537669321 -0.1566253376229266 0 -0.0025999653858941639 -0.16131422913783491 0 0.0067086063528142403 -0.16809244781376179 0 0.008868239412810253 -0.14987004135808221 0 0.01995466376250531 -0.16856763066597699 0 0.008868239412810253 -0.14987004135808221 0 0.01995466376250531 -0.16856763066597699 0 0.0067086063528142403 -0.16809244781376179 0 0.008868239412810253 -0.14987004135808221 0 -0.0084927016390539001 -0.17431231470194719 0 0.0067086063528142403 -0.16809244781376179 0 0.0091962193441852118 -0.18107109871456811 0 0.01995466376250531 -0.16856763066597699 0 0.0091962193441852118 -0.18107109871456811 0 0.01995466376250531 -0.16856763066597699 0 0.0067086063528142403 -0.16809244781376179 0 0.0091962193441852118 -0.18107109871456811 0 -0.0015622250741301779 -0.1935745667631632 0 0.0091962193441852118 -0.18107109871456811 0 0.041700188437408421 -0.13409859591225329 0 0.014197789575412951 -0.12328672932727321 0 0.031290738437872938 -0.1201921761368282 0 0.041700188437408421 -0.13409859591225329 0 0.024480650806643651 -0.1375151559245551 0 0.014197789575412951 -0.12328672932727321 0 0.041700188437408421 -0.13409859591225329 0 0.014197789575412951 -0.12328672932727321 0 0.024480650806643651 -0.1375151559245551 0 0.011332123714495041 -0.13546109466502479 0 0.014197789575412951 -0.12328672932727321 0 0.03393783807298914 -0.14093707321474161 0 0.030230252537669321 -0.1566253376229266 0 0.024480650806643651 -0.1375151559245551 0 0.030230252537669321 -0.1566253376229266 0 0.024480650806643651 -0.1375151559245551 0 0.008868239412810253 -0.14987004135808221 0 0.024480650806643651 -0.1375151559245551 0 0.008868239412810253 -0.14987004135808221 0 0.011332123714495041 -0.13546109466502479 0 -0.00221818493688669 -0.13117245205018849 0 -0.0031786103040098569 -0.14705450477373769 0 0.008868239412810253 -0.14987004135808221 0 -0.0031786103040098569 -0.14705450477373769 0 -0.0025999653858941639 -0.16131422913783491 0 0.008868239412810253 -0.14987004135808221 0 -0.00221818493688669 -0.13117245205018849 0 0.008868239412810253 -0.14987004135808221 0 -0.00221818493688669 -0.13117245205018849 0 0.011332123714495041 -0.13546109466502479 0 0.014197789575412951 -0.12328672932727321 0 -0.00221818493688669 -0.13117245205018849 0 0.008868239412810253 -0.14987004135808221 0 0.011332123714495041 -0.13546109466502479 0 -0.013304609286582791 -0.1124748627422944 0 0.014197789575412951 -0.12328672932727321 0 0.014197789575412951 -0.12328672932727321 0 0.020945276257035669 -0.1055296092587116 0 0.0046245275045138064 -0.1076828264142336 0 -0.013304609286582791 -0.1124748627422944 0 0.014197789575412951 -0.12328672932727321 0 0.0046245275045138064 -0.1076828264142336 0 0.014197789575412951 -0.12328672932727321 0 0.020945276257035669 -0.1055296092587116 0 0.031290738437872938 -0.1201921761368282 0 0.020945276257035669 -0.1055296092587116 0 0.031290738437872938 -0.1201921761368282 0 0.040241467446851142 -0.1026788937802551 0 0.020945276257035669 -0.1055296092587116 0 0.028115865357471449 -0.087896533900266943 0 0.040241467446851142 -0.1026788937802551 0 0.020945276257035669 -0.1055296092587116 0 0.0072012692200917657 -0.09144049599341271 0 0.028115865357471449 -0.087896533900266943 0 -0.0070294542012635762 -0.10327829347153671 0 0.0046245275045138064 -0.1076828264142336 0 0.0072012692200917657 -0.09144049599341271 0 0.020945276257035669 -0.1055296092587116 0 0.0046245275045138064 -0.1076828264142336 0 0.0072012692200917657 -0.09144049599341271 0 0.0072012692200917657 -0.09144049599341271 0 0.0054575408194632406 -0.073720759659108445 0 0.018511759797904249 -0.077210571545524964 0 -0.0056293594721457006 -0.082036805430144924 0 0.0072012692200917657 -0.09144049599341271 0 0.0054575408194632406 -0.073720759659108445 0 0.0054575408194632406 -0.073720759659108445 0 0.018354718881549058 -0.065167425818499949 0 0.003426744450576454 -0.054815297075420773 0 -0.0072319765520409062 -0.068818796064575097 0 0.0054575408194632406 -0.073720759659108445 0 0.003426744450576454 -0.054815297075420773 0 0.0054575408194632406 -0.073720759659108445 0 0.018354718881549058 -0.065167425818499949 0 0.018511759797904249 -0.077210571545524964 0 0.018511759797904249 -0.077210571545524964 0 0.028115865357471449 -0.087896533900266943 0 0.033429404710945708 -0.067827642356336801 0 0.018354718881549058 -0.065167425818499949 0 0.018511759797904249 -0.077210571545524964 0 0.033429404710945708 -0.067827642356336801 0 0.0072012692200917657 -0.09144049599341271 0 0.018511759797904249 -0.077210571545524964 0 0.028115865357471449 -0.087896533900266943 0 0.028115865357471449 -0.087896533900266943 0 0.044094628308957058 -0.087651847290754856 0 0.040241467446851142 -0.1026788937802551 0 0.028115865357471449 -0.087896533900266943 0 0.044094628308957058 -0.087651847290754856 0 0.033429404710945708 -0.067827642356336801 0 0.044094628308957058 -0.087651847290754856 0 0.033429404710945708 -0.067827642356336801 0 0.052580487019044733 -0.06457445167855122 0 0.052580487019044733 -0.06457445167855122 0 0.057640786708643768 -0.07951032993234286 0 0.068682665651441266 -0.069637891440837665 0 0.044094628308957058 -0.087651847290754856 0 0.052580487019044733 -0.06457445167855122 0 0.057640786708643768 -0.07951032993234286 0 0.044094628308957058 -0.087651847290754856 0 0.057640786708643768 -0.07951032993234286 0 0.064045145718632748 -0.088800152685812248 0 0.056223070490067702 -0.1049071233711502 0 0.048525659269531229 -0.11802361343548989 0 0.040241467446851142 -0.1026788937802551 0 0.044094628308957058 -0.087651847290754856 0 0.056223070490067702 -0.1049071233711502 0 0.064045145718632748 -0.088800152685812248 0 0.06118566078759103 -0.13005342953014129 0 0.056223070490067702 -0.1049071233711502 0 0.048525659269531229 -0.11802361343548989 0 0.048525659269531229 -0.11802361343548989 0 0.042102756807481732 -0.1247829815156095 0 0.031290738437872938 -0.1201921761368282 0 0.048525659269531229 -0.11802361343548989 0 0.031290738437872938 -0.1201921761368282 0 0.040241467446851142 -0.1026788937802551 0 0.049352038069647858 -0.1295439288512826 0 0.048525659269531229 -0.11802361343548989 0 0.042102756807481732 -0.1247829815156095 0 0.044094628308957058 -0.087651847290754856 0 0.056223070490067702 -0.1049071233711502 0 0.040241467446851142 -0.1026788937802551 0 0.020415517075116841 0.0076517724901667356 0 0.020207185183206099 -0.010785841930981459 0 0.039787151186370009 -0.0039594854922263374 0 0.020207185183206099 -0.010785841930981459 0 0.0047038114401232534 -0.001040937293712483 0 0.0026421611525163911 -0.019923693291100199 0 0.020415517075116841 0.0076517724901667356 0 0.020207185183206099 -0.010785841930981459 0 0.0047038114401232534 -0.001040937293712483 0 0.020207185183206099 -0.010785841930981459 0 0.0026421611525163911 -0.019923693291100199 0 0.018057611388834851 -0.030223969914345401 0 0.0026421611525163911 -0.019923693291100199 0 0.018057611388834851 -0.030223969914345401 0 0.001114662024295677 -0.034644724797188199 0 0.018057611388834851 -0.030223969914345401 0 0.03214982838215158 -0.036550164909951742 0 0.03396684481877061 -0.021771474300517551 0 0.020207185183206099 -0.010785841930981459 0 0.018057611388834851 -0.030223969914345401 0 0.03396684481877061 -0.021771474300517551 0 0.018057611388834851 -0.030223969914345401 0 0.010882918392325341 -0.043546784918672053 0 0.022583515379492949 -0.04946345385366932 0 0.018057611388834851 -0.030223969914345401 0 0.022583515379492949 -0.04946345385366932 0 0.03214982838215158 -0.036550164909951742 0 0.010882918392325341 -0.043546784918672053 0 0.001114662024295677 -0.034644724797188199 0 0.003426744450576454 -0.054815297075420773 0 0.018057611388834851 -0.030223969914345401 0 0.010882918392325341 -0.043546784918672053 0 0.001114662024295677 -0.034644724797188199 0 0.018354718881549058 -0.065167425818499949 0 0.003426744450576454 -0.054815297075420773 0 0.022583515379492949 -0.04946345385366932 0 0.010882918392325341 -0.043546784918672053 0 0.003426744450576454 -0.054815297075420773 0 0.022583515379492949 -0.04946345385366932 0 0.018354718881549058 -0.065167425818499949 0 0.033429404710945708 -0.067827642356336801 0 0.022583515379492949 -0.04946345385366932 0 0.033429404710945708 -0.067827642356336801 0 0.022583515379492949 -0.04946345385366932 0 0.040434423972952403 -0.049093231793294147 0 0.033429404710945708 -0.067827642356336801 0 0.052580487019044733 -0.06457445167855122 0 0.040434423972952403 -0.049093231793294147 0 0.052580487019044733 -0.06457445167855122 0 0.040434423972952403 -0.049093231793294147 0 0.05544232884238081 -0.044875881875575382 0 0.052580487019044733 -0.06457445167855122 0 0.05544232884238081 -0.044875881875575382 0 0.068339170937992105 -0.053424337060716878 0 0.040434423972952403 -0.049093231793294147 0 0.05544232884238081 -0.044875881875575382 0 0.045706746350707102 -0.032198694687932281 0 0.05544232884238081 -0.044875881875575382 0 0.045706746350707102 -0.032198694687932281 0 0.061157621829282929 -0.025231604425866621 0 0.040434423972952403 -0.049093231793294147 0 0.045706746350707102 -0.032198694687932281 0 0.03214982838215158 -0.036550164909951742 0 0.022583515379492949 -0.04946345385366932 0 0.040434423972952403 -0.049093231793294147 0 0.03214982838215158 -0.036550164909951742 0 0.045706746350707102 -0.032198694687932281 0 0.03214982838215158 -0.036550164909951742 0 0.03396684481877061 -0.021771474300517551 0 0.045706746350707102 -0.032198694687932281 0 0.03396684481877061 -0.021771474300517551 0 0.047710046720236987 -0.018368172826886429 0 0.061157621829282929 -0.025231604425866621 0 0.047710046720236987 -0.018368172826886429 0 0.057931869416054299 -0.0086796052278893948 0 0.045706746350707102 -0.032198694687932281 0 0.061157621829282929 -0.025231604425866621 0 0.047710046720236987 -0.018368172826886429 0 0.053306813386582982 0.0056008818424343951 0 0.057931869416054299 -0.0086796052278893948 0 0.039787151186370009 -0.0039594854922263374 0 0.047710046720236987 -0.018368172826886429 0 0.057931869416054299 -0.0086796052278893948 0 0.039787151186370009 -0.0039594854922263374 0 0.053306813386582982 0.0056008818424343951 0 0.065940651683257009 0.0024831850618150888 0 0.057931869416054299 -0.0086796052278893948 0 0.020207185183206099 -0.010785841930981459 0 0.03396684481877061 -0.021771474300517551 0 0.039787151186370009 -0.0039594854922263374 0 0.03396684481877061 -0.021771474300517551 0 0.047710046720236987 -0.018368172826886429 0 0.039787151186370009 -0.0039594854922263374 0 0.07992851590561921 0.0082161523869754144 0 0.085319843464057188 -0.007629982329875426 0 0.074177093133044117 -0.010507922444979889 0 0.07992851590561921 0.0082161523869754144 0 0.085319843464057188 -0.007629982329875426 0 0.09649789417263642 -0.0037639840011086311 0 0.093491186985964037 -0.01472799792969565 0 0.085319843464057188 -0.007629982329875426 0 0.09649789417263642 -0.0037639840011086311 0 0.093491186985964037 -0.01472799792969565 0 0.085319843464057188 -0.007629982329875426 0 0.083581835824733053 -0.016535058395947159 0 0.085319843464057188 -0.007629982329875426 0 0.074177093133044117 -0.010507922444979889 0 0.083581835824733053 -0.016535058395947159 0 0.061157621829282929 -0.025231604425866621 0 0.057931869416054299 -0.0086796052278893948 0 0.074177093133044117 -0.010507922444979889 0 0.065940651683257009 0.0024831850618150888 0 0.057931869416054299 -0.0086796052278893948 0 0.074177093133044117 -0.010507922444979889 0 0.061157621829282929 -0.025231604425866621 0 0.077044537184394621 -0.024954964190685061 0 0.071280738265345076 -0.03811759874850193 0 0.061157621829282929 -0.025231604425866621 0 0.074177093133044117 -0.010507922444979889 0 0.077044537184394621 -0.024954964190685061 0 0.077044537184394621 -0.024954964190685061 0 0.087876518356205288 -0.024854425084499782 0 0.083696735197635597 -0.035074751153617953 0 0.077044537184394621 -0.024954964190685061 0 0.083581835824733053 -0.016535058395947159 0 0.087876518356205288 -0.024854425084499782 0 0.074177093133044117 -0.010507922444979889 0 0.077044537184394621 -0.024954964190685061 0 0.083581835824733053 -0.016535058395947159 0 0.093491186985964037 -0.01472799792969565 0 0.083581835824733053 -0.016535058395947159 0 0.087876518356205288 -0.024854425084499782 0 0.093491186985964037 -0.01472799792969565 0 0.087876518356205288 -0.024854425084499782 0 0.096892307268332672 -0.02266252034611416 0 0.087876518356205288 -0.024854425084499782 0 0.093921030959280866 -0.033511072873054298 0 0.096892307268332672 -0.02266252034611416 0 0.087876518356205288 -0.024854425084499782 0 0.083696735197635597 -0.035074751153617953 0 0.093921030959280866 -0.033511072873054298 0 0.088828324516270887 -0.041348533459236683 0 0.095977453204919599 -0.050472192210401508 0 0.093921030959280866 -0.033511072873054298 0 0.088828324516270887 -0.041348533459236683 0 0.083696735197635597 -0.035074751153617953 0 0.093921030959280866 -0.033511072873054298 0 0.088828324516270887 -0.041348533459236683 0 0.081718078703247488 -0.046336117599872988 0 0.095977453204919599 -0.050472192210401508 0 0.088828324516270887 -0.041348533459236683 0 0.081718078703247488 -0.046336117599872988 0 0.083696735197635597 -0.035074751153617953 0 0.081718078703247488 -0.046336117599872988 0 0.083696735197635597 -0.035074751153617953 0 0.071280738265345076 -0.03811759874850193 0 0.05544232884238081 -0.044875881875575382 0 0.061157621829282929 -0.025231604425866621 0 0.071280738265345076 -0.03811759874850193 0 0.05544232884238081 -0.044875881875575382 0 0.071280738265345076 -0.03811759874850193 0 0.068339170937992105 -0.053424337060716878 0 0.077044537184394621 -0.024954964190685061 0 0.083696735197635597 -0.035074751153617953 0 0.071280738265345076 -0.03811759874850193 0 0.081718078703247488 -0.046336117599872988 0 0.071280738265345076 -0.03811759874850193 0 0.068339170937992105 -0.053424337060716878 0 0.081718078703247488 -0.046336117599872988 0 0.068339170937992105 -0.053424337060716878 0 0.079819511512682115 -0.059373961925762081 0 0.068339170937992105 -0.053424337060716878 0 0.079819511512682115 -0.059373961925762081 0 0.068682665651441266 -0.069637891440837665 0 0.079819511512682115 -0.059373961925762081 0 0.095977453204919599 -0.050472192210401508 0 0.084380189065810102 -0.076999271316981366 0 0.081718078703247488 -0.046336117599872988 0 0.079819511512682115 -0.059373961925762081 0 0.095977453204919599 -0.050472192210401508 0 0.095977453204919599 -0.050472192210401508 0 0.1084893608633546 -0.054995312108922077 0 0.1003826539890946 -0.069656067773248523 0 0.095977453204919599 -0.050472192210401508 0 0.1084893608633546 -0.054995312108922077 0 0.10497618281608501 -0.042163163930312997 0 0.1084893608633546 -0.054995312108922077 0 0.12021542192502691 -0.05736310542253667 0 0.11225492598618329 -0.067700646346746801 0 0.12021542192502691 -0.05736310542253667 0 0.1181844865236701 -0.045884275653046647 0 0.1350650896680477 -0.050994701792827862 0 0.1084893608633546 -0.054995312108922077 0 0.12021542192502691 -0.05736310542253667 0 0.1181844865236701 -0.045884275653046647 0 0.1084893608633546 -0.054995312108922077 0 0.1181844865236701 -0.045884275653046647 0 0.10497618281608501 -0.042163163930312997 0 0.1181844865236701 -0.045884275653046647 0 0.1169603374125384 -0.034526050343312617 0 0.10497618281608501 -0.042163163930312997 0 0.10497618281608501 -0.042163163930312997 0 0.1139069069496291 -0.021464697665753471 0 0.1169603374125384 -0.034526050343312617 0 0.10497618281608501 -0.042163163930312997 0 0.1139069069496291 -0.021464697665753471 0 0.1181844865236701 -0.045884275653046647 0 0.1169603374125384 -0.034526050343312617 0 0.1283586559847627 -0.040725310836502493 0 0.095977453204919599 -0.050472192210401508 0 0.10497618281608501 -0.042163163930312997 0 0.1075747173440291 -0.023945113103821601 0 0.095977453204919599 -0.050472192210401508 0 0.093921030959280866 -0.033511072873054298 0 0.1075747173440291 -0.023945113103821601 0 0.095977453204919599 -0.050472192210401508 0 0.1075747173440291 -0.023945113103821601 0 0.10497618281608501 -0.042163163930312997 0 0.1075747173440291 -0.023945113103821601 0 0.1139069069496291 -0.021464697665753471 0 0.093921030959280866 -0.033511072873054298 0 0.096892307268332672 -0.02266252034611416 0 0.1075747173440291 -0.023945113103821601 0 0.093491186985964037 -0.01472799792969565 0 0.096892307268332672 -0.02266252034611416 0 0.10169828607787421 -0.015923098960230999 0 0.096892307268332672 -0.02266252034611416 0 0.10169828607787421 -0.015923098960230999 0 0.1075747173440291 -0.023945113103821601 0 0.10169828607787421 -0.015923098960230999 0 0.1075747173440291 -0.023945113103821601 0 0.1082483433893755 -0.0084409933366877514 0 0.1169603374125384 -0.034526050343312617 0 0.1213672368215104 -0.025634276355807499 0 0.12969235634276979 -0.031284000123743903 0 0.1169603374125384 -0.034526050343312617 0 0.1213672368215104 -0.025634276355807499 0 0.1139069069496291 -0.021464697665753471 0 0.1213672368215104 -0.025634276355807499 0 0.1139069069496291 -0.021464697665753471 0 0.12490934658110441 -0.01526235729042 0 0.11917198148314 0.002581966002757949 0 0.1075747173440291 -0.023945113103821601 0 0.1139069069496291 -0.021464697665753471 0 0.11917198148314 0.002581966002757949 0 0.1139069069496291 -0.021464697665753471 0 0.1228376310831711 -0.00076623140119310329 0 0.11917198148314 0.002581966002757949 0 0.1075747173440291 -0.023945113103821601 0 0.1082483433893755 -0.0084409933366877514 0 0.1139069069496291 -0.021464697665753471 0 0.12490934658110441 -0.01526235729042 0 0.1228376310831711 -0.00076623140119310329 0 0.1139069069496291 -0.021464697665753471 0 0.1228376310831711 -0.00076623140119310329 0 0.11917198148314 0.002581966002757949 0 0.1075747173440291 -0.023945113103821601 0 0.11917198148314 0.002581966002757949 0 0.1105415625726717 -0.0014271332550589229 0 0.1082483433893755 -0.0084409933366877514 0 0.1078625722471533 0.0022823866337398822 0 0.1105415625726717 -0.0014271332550589229 0 0.1039166904039584 -0.0028966343462391718 0 0.1039166904039584 -0.0028966343462391718 0 0.1082483433893755 -0.0084409933366877514 0 0.10154047648190589 -0.00941290969201335 0 0.1105415625726717 -0.0014271332550589229 0 0.1039166904039584 -0.0028966343462391718 0 0.1082483433893755 -0.0084409933366877514 0 0.10169828607787421 -0.015923098960230999 0 0.1082483433893755 -0.0084409933366877514 0 0.10154047648190589 -0.00941290969201335 0 0.093491186985964037 -0.01472799792969565 0 0.10154047648190589 -0.00941290969201335 0 0.09649789417263642 -0.0037639840011086311 0 0.093491186985964037 -0.01472799792969565 0 0.10169828607787421 -0.015923098960230999 0 0.10154047648190589 -0.00941290969201335 0 0.1039166904039584 -0.0028966343462391718 0 0.10154047648190589 -0.00941290969201335 0 0.09649789417263642 -0.0037639840011086311 0 0.088046088292129038 -0.10430519341125349 0 0.072782924926700548 -0.1035263504235614 0 0.088717560391344957 -0.092993146067331611 0 0.088046088292129038 -0.10430519341125349 0 0.080670658246847674 -0.112136361820053 0 0.072782924926700548 -0.1035263504235614 0 0.088046088292129038 -0.10430519341125349 0 0.088717560391344957 -0.092993146067331611 0 0.100171096126226 -0.096028489315426471 0 0.088046088292129038 -0.10430519341125349 0 0.089116900718008318 -0.11226838151764811 0 0.096817389343646892 -0.1088784313235004 0 0.088046088292129038 -0.10430519341125349 0 0.089116900718008318 -0.11226838151764811 0 0.080670658246847674 -0.112136361820053 0 0.089116900718008318 -0.11226838151764811 0 0.082844213492092533 -0.1195429602861619 0 0.095577299328253623 -0.1174095529111252 0 0.082362828069140165 -0.1319846138898183 0 0.082844213492092533 -0.1195429602861619 0 0.095577299328253623 -0.1174095529111252 0 0.082362828069140165 -0.1319846138898183 0 0.095577299328253623 -0.1174095529111252 0 0.082362828069140165 -0.1319846138898183 0 0.082844213492092533 -0.1195429602861619 0 0.069837722907261313 -0.1199532536492431 0 0.089116900718008318 -0.11226838151764811 0 0.082844213492092533 -0.1195429602861619 0 0.080670658246847674 -0.112136361820053 0 0.080670658246847674 -0.112136361820053 0 0.069837722907261313 -0.1199532536492431 0 0.072782924926700548 -0.1035263504235614 0 0.06118566078759103 -0.13005342953014129 0 0.072782924926700548 -0.1035263504235614 0 0.06118566078759103 -0.13005342953014129 0 0.069837722907261313 -0.1199532536492431 0 0.072782924926700548 -0.1035263504235614 0 0.06118566078759103 -0.13005342953014129 0 0.056223070490067702 -0.1049071233711502 0 0.072782924926700548 -0.1035263504235614 0 0.082844213492092533 -0.1195429602861619 0 0.080670658246847674 -0.112136361820053 0 0.069837722907261313 -0.1199532536492431 0 0.056223070490067702 -0.1049071233711502 0 0.072782924926700548 -0.1035263504235614 0 0.064045145718632748 -0.088800152685812248 0 0.057640786708643768 -0.07951032993234286 0 0.064045145718632748 -0.088800152685812248 0 0.068682665651441266 -0.069637891440837665 0 0.064045145718632748 -0.088800152685812248 0 0.068682665651441266 -0.069637891440837665 0 0.084380189065810102 -0.076999271316981366 0 0.072782924926700548 -0.1035263504235614 0 0.064045145718632748 -0.088800152685812248 0 0.084380189065810102 -0.076999271316981366 0 0.052580487019044733 -0.06457445167855122 0 0.068339170937992105 -0.053424337060716878 0 0.068682665651441266 -0.069637891440837665 0 0.079819511512682115 -0.059373961925762081 0 0.068682665651441266 -0.069637891440837665 0 0.084380189065810102 -0.076999271316981366 0 0.095977453204919599 -0.050472192210401508 0 0.084380189065810102 -0.076999271316981366 0 0.1003826539890946 -0.069656067773248523 0 0.095977453204919599 -0.050472192210401508 0 0.084380189065810102 -0.076999271316981366 0 0.084380189065810102 -0.076999271316981366 0 0.095693843046354268 -0.0841642264331387 0 0.1003826539890946 -0.069656067773248523 0 0.072782924926700548 -0.1035263504235614 0 0.084380189065810102 -0.076999271316981366 0 0.072782924926700548 -0.1035263504235614 0 0.084380189065810102 -0.076999271316981366 0 0.088717560391344957 -0.092993146067331611 0 0.084380189065810102 -0.076999271316981366 0 0.088717560391344957 -0.092993146067331611 0 0.095693843046354268 -0.0841642264331387 0 0.088717560391344957 -0.092993146067331611 0 0.095693843046354268 -0.0841642264331387 0 0.100171096126226 -0.096028489315426471 0 0.095693843046354268 -0.0841642264331387 0 0.1061825878765964 -0.082065358753895937 0 0.100171096126226 -0.096028489315426471 0 0.095693843046354268 -0.0841642264331387 0 0.1061825878765964 -0.082065358753895937 0 0.1003826539890946 -0.069656067773248523 0 0.1061825878765964 -0.082065358753895937 0 0.1152940355071756 -0.093458773729521216 0 0.100171096126226 -0.096028489315426471 0 0.1061825878765964 -0.082065358753895937 0 0.1003826539890946 -0.069656067773248523 0 0.11225492598618329 -0.067700646346746801 0 0.1084893608633546 -0.054995312108922077 0 0.1003826539890946 -0.069656067773248523 0 0.11225492598618329 -0.067700646346746801 0 0.1061825878765964 -0.082065358753895937 0 0.11225492598618329 -0.067700646346746801 0 0.1171317857577618 -0.078667044940758796 0 0.1171317857577618 -0.078667044940758796 0 0.12857779857738699 -0.078718698725873171 0 0.12708324658387871 -0.067240591211139955 0 0.11225492598618329 -0.067700646346746801 0 0.1171317857577618 -0.078667044940758796 0 0.12708324658387871 -0.067240591211139955 0 0.12021542192502691 -0.05736310542253667 0 0.11225492598618329 -0.067700646346746801 0 0.12708324658387871 -0.067240591211139955 0 0.1061825878765964 -0.082065358753895937 0 0.1152940355071756 -0.093458773729521216 0 0.1171317857577618 -0.078667044940758796 0 0.1171317857577618 -0.078667044940758796 0 0.1286838548293292 -0.09135300801218077 0 0.12857779857738699 -0.078718698725873171 0 0.1152940355071756 -0.093458773729521216 0 0.1171317857577618 -0.078667044940758796 0 0.1286838548293292 -0.09135300801218077 0 0.1152940355071756 -0.093458773729521216 0 0.1230450488982011 -0.098166020395255585 0 0.1286838548293292 -0.09135300801218077 0 0.1152940355071756 -0.093458773729521216 0 0.1230450488982011 -0.098166020395255585 0 0.1196469902177196 -0.1061558951397697 0 0.1230450488982011 -0.098166020395255585 0 0.1196469902177196 -0.1061558951397697 0 0.12917406780106669 -0.1036793655145172 0 0.1196469902177196 -0.1061558951397697 0 0.1094725419179296 -0.1044020385603272 0 0.1154331983948798 -0.1174886032934183 0 0.1152940355071756 -0.093458773729521216 0 0.1196469902177196 -0.1061558951397697 0 0.1094725419179296 -0.1044020385603272 0 0.1152940355071756 -0.093458773729521216 0 0.1094725419179296 -0.1044020385603272 0 0.100171096126226 -0.096028489315426471 0 0.1094725419179296 -0.1044020385603272 0 0.096817389343646892 -0.1088784313235004 0 0.100171096126226 -0.096028489315426471 0 0.088046088292129038 -0.10430519341125349 0 0.096817389343646892 -0.1088784313235004 0 0.100171096126226 -0.096028489315426471 0 0.096817389343646892 -0.1088784313235004 0 0.1051359327507693 -0.1227177542784853 0 0.1154331983948798 -0.1174886032934183 0 0.096817389343646892 -0.1088784313235004 0 0.1154331983948798 -0.1174886032934183 0 0.1005807427949069 -0.13366374688330029 0 0.095577299328253623 -0.1174095529111252 0 0.1051359327507693 -0.1227177542784853 0 0.1094725419179296 -0.1044020385603272 0 0.096817389343646892 -0.1088784313235004 0 0.1154331983948798 -0.1174886032934183 0 0.089116900718008318 -0.11226838151764811 0 0.096817389343646892 -0.1088784313235004 0 0.095577299328253623 -0.1174095529111252 0 0.096817389343646892 -0.1088784313235004 0 0.095577299328253623 -0.1174095529111252 0 0.1051359327507693 -0.1227177542784853 0 0.1154331983948798 -0.1174886032934183 0 0.13404900744611239 -0.12609877526333699 0 0.1196469902177196 -0.1061558951397697 0 0.1154331983948798 -0.1174886032934183 0 0.12686113813069899 -0.1114359576666621 0 0.1154331983948798 -0.1174886032934183 0 0.12686113813069899 -0.1114359576666621 0 0.13390982127973511 -0.11942472678041111 0 0.1154331983948798 -0.1174886032934183 0 0.13390982127973511 -0.11942472678041111 0 0.13404900744611239 -0.12609877526333699 0 0.12686113813069899 -0.1114359576666621 0 0.13614161296009411 -0.11043119760519431 0 0.13390982127973511 -0.11942472678041111 0 0.13614161296009411 -0.11043119760519431 0 0.14023431030656019 -0.11642081500581559 0 0.13390982127973511 -0.11942472678041111 0 0.13614161296009411 -0.11043119760519431 0 0.14023431030656019 -0.11642081500581559 0 0.14347338005148061 -0.1082488085161593 0 0.13773130733042549 -0.12113088311922759 0 0.1427320902892944 -0.12257921542734659 0 0.13404900744611239 -0.12609877526333699 0 0.13390982127973511 -0.11942472678041111 0 0.13773130733042549 -0.12113088311922759 0 0.13404900744611239 -0.12609877526333699 0 0.13390982127973511 -0.11942472678041111 0 0.13404900744611239 -0.12609877526333699 0 0.14023431030656019 -0.11642081500581559 0 0.13773130733042549 -0.12113088311922759 0 0.1427320902892944 -0.12257921542734659 0 0.14023431030656019 -0.11642081500581559 0 0.13390982127973511 -0.11942472678041111 0 0.13773130733042549 -0.12113088311922759 0 0.1427320902892944 -0.12257921542734659 0 0.15192118682329561 -0.12273271218809589 0 0.1490682445489844 -0.1279194233146575 0 0.1427320902892944 -0.12257921542734659 0 0.1474293378639818 -0.11515719203513899 0 0.15192118682329561 -0.12273271218809589 0 0.14023431030656019 -0.11642081500581559 0 0.1427320902892944 -0.12257921542734659 0 0.1474293378639818 -0.11515719203513899 0 0.1474293378639818 -0.11515719203513899 0 0.15201290161170181 -0.107226104105896 0 0.14347338005148061 -0.1082488085161593 0 0.14023431030656019 -0.11642081500581559 0 0.1474293378639818 -0.11515719203513899 0 0.14347338005148061 -0.1082488085161593 0 0.1474293378639818 -0.11515719203513899 0 0.15419764536576119 -0.1149677746217292 0 0.15201290161170181 -0.107226104105896 0 0.15419764536576119 -0.1149677746217292 0 0.15201290161170181 -0.107226104105896 0 0.1590985184781393 -0.1107939778183322 0 0.15419764536576119 -0.1149677746217292 0 0.15192118682329561 -0.12273271218809589 0 0.1605262820516872 -0.11892888696118289 0 0.1474293378639818 -0.11515719203513899 0 0.15419764536576119 -0.1149677746217292 0 0.15192118682329561 -0.12273271218809589 0 0.153855148049276 -0.097460838801678593 0 0.15201290161170181 -0.107226104105896 0 0.1462355681673109 -0.099255024001954253 0 0.153855148049276 -0.097460838801678593 0 0.1462355681673109 -0.099255024001954253 0 0.1490737095502995 -0.088653392770718792 0 0.153855148049276 -0.097460838801678593 0 0.15201290161170181 -0.107226104105896 0 0.16008969536972259 -0.10263897543636979 0 0.14347338005148061 -0.1082488085161593 0 0.1462355681673109 -0.099255024001954253 0 0.13800617896953651 -0.1013117005447786 0 0.15201290161170181 -0.107226104105896 0 0.14347338005148061 -0.1082488085161593 0 0.1462355681673109 -0.099255024001954253 0 0.1462355681673109 -0.099255024001954253 0 0.13800617896953651 -0.1013117005447786 0 0.14099209077157121 -0.092629299272494275 0 0.13800617896953651 -0.1013117005447786 0 0.1286838548293292 -0.09135300801218077 0 0.14099209077157121 -0.092629299272494275 0 0.13614161296009411 -0.11043119760519431 0 0.13800617896953651 -0.1013117005447786 0 0.12917406780106669 -0.1036793655145172 0 0.13614161296009411 -0.11043119760519431 0 0.14347338005148061 -0.1082488085161593 0 0.13800617896953651 -0.1013117005447786 0 0.1196469902177196 -0.1061558951397697 0 0.12686113813069899 -0.1114359576666621 0 0.12917406780106669 -0.1036793655145172 0 0.12686113813069899 -0.1114359576666621 0 0.13614161296009411 -0.11043119760519431 0 0.12917406780106669 -0.1036793655145172 0 0.1230450488982011 -0.098166020395255585 0 0.12917406780106669 -0.1036793655145172 0 0.1286838548293292 -0.09135300801218077 0 0.13800617896953651 -0.1013117005447786 0 0.12917406780106669 -0.1036793655145172 0 0.1286838548293292 -0.09135300801218077 0 0.1286838548293292 -0.09135300801218077 0 0.12857779857738699 -0.078718698725873171 0 0.13748132505412469 -0.08396770010957226 0 0.13748132505412469 -0.08396770010957226 0 0.1367334774756912 -0.073531819827653083 0 0.14538989296775451 -0.078880163337803719 0 0.12857779857738699 -0.078718698725873171 0 0.13748132505412469 -0.08396770010957226 0 0.1367334774756912 -0.073531819827653083 0 0.1286838548293292 -0.09135300801218077 0 0.13748132505412469 -0.08396770010957226 0 0.14099209077157121 -0.092629299272494275 0 0.12857779857738699 -0.078718698725873171 0 0.12708324658387871 -0.067240591211139955 0 0.1367334774756912 -0.073531819827653083 0 0.12708324658387871 -0.067240591211139955 0 0.1367334774756912 -0.073531819827653083 0 0.14110971147140131 -0.064913967020147179 0 0.1367334774756912 -0.073531819827653083 0 0.14110971147140131 -0.064913967020147179 0 0.14964674351361701 -0.070099729323911744 0 0.14110971147140131 -0.064913967020147179 0 0.14964674351361701 -0.070099729323911744 0 0.15194569281242609 -0.056105127932606663 0 0.1367334774756912 -0.073531819827653083 0 0.14964674351361701 -0.070099729323911744 0 0.14538989296775451 -0.078880163337803719 0 0.14964674351361701 -0.070099729323911744 0 0.14538989296775451 -0.078880163337803719 0 0.15822082836811369 -0.079982126599630443 0 0.14964674351361701 -0.070099729323911744 0 0.15822082836811369 -0.079982126599630443 0 0.1603896916223197 -0.069044426588861466 0 0.14964674351361701 -0.070099729323911744 0 0.1603896916223197 -0.069044426588861466 0 0.15194569281242609 -0.056105127932606663 0 0.13748132505412469 -0.08396770010957226 0 0.14099209077157121 -0.092629299272494275 0 0.1490737095502995 -0.088653392770718792 0 0.1462355681673109 -0.099255024001954253 0 0.14099209077157121 -0.092629299272494275 0 0.1490737095502995 -0.088653392770718792 0 0.13748132505412469 -0.08396770010957226 0 0.14538989296775451 -0.078880163337803719 0 0.1490737095502995 -0.088653392770718792 0 0.14538989296775451 -0.078880163337803719 0 0.1490737095502995 -0.088653392770718792 0 0.15822082836811369 -0.079982126599630443 0 0.153855148049276 -0.097460838801678593 0 0.1490737095502995 -0.088653392770718792 0 0.1594354292934542 -0.091737259282716963 0 0.1490737095502995 -0.088653392770718792 0 0.1594354292934542 -0.091737259282716963 0 0.15822082836811369 -0.079982126599630443 0 0.1594354292934542 -0.091737259282716963 0 0.15822082836811369 -0.079982126599630443 0 0.1684140015429216 -0.087293140772549349 0 0.15822082836811369 -0.079982126599630443 0 0.1684140015429216 -0.087293140772549349 0 0.1694423915093585 -0.075846288749261012 0 0.1684140015429216 -0.087293140772549349 0 0.1776016981043757 -0.094466756631608209 0 0.16825903644140999 -0.098606158866582916 0 0.1594354292934542 -0.091737259282716963 0 0.1684140015429216 -0.087293140772549349 0 0.16825903644140999 -0.098606158866582916 0 0.15822082836811369 -0.079982126599630443 0 0.1603896916223197 -0.069044426588861466 0 0.1694423915093585 -0.075846288749261012 0 0.1603896916223197 -0.069044426588861466 0 0.1694423915093585 -0.075846288749261012 0 0.17187576892014289 -0.062138750134232333 0 0.17971720707086189 -0.073145871694163048 0 0.17187576892014289 -0.062138750134232333 0 0.19180584502786041 -0.068172372335855602 0 0.17187576892014289 -0.062138750134232333 0 0.19180584502786041 -0.068172372335855602 0 0.1694423915093585 -0.075846288749261012 0 0.17971720707086189 -0.073145871694163048 0 0.17187576892014289 -0.062138750134232333 0 0.1694423915093585 -0.075846288749261012 0 0.17971720707086189 -0.073145871694163048 0 0.17803685153179119 -0.083473416706129469 0 0.17971720707086189 -0.073145871694163048 0 0.18645595400882431 -0.078186102724248294 0 0.19180584502786041 -0.068172372335855602 0 0.1684140015429216 -0.087293140772549349 0 0.17803685153179119 -0.083473416706129469 0 0.1776016981043757 -0.094466756631608209 0 0.1684140015429216 -0.087293140772549349 0 0.1694423915093585 -0.075846288749261012 0 0.17803685153179119 -0.083473416706129469 0 0.17803685153179119 -0.083473416706129469 0 0.18645595400882431 -0.078186102724248294 0 0.18748362772352481 -0.090285751384613616 0 0.17971720707086189 -0.073145871694163048 0 0.17803685153179119 -0.083473416706129469 0 0.18645595400882431 -0.078186102724248294 0 0.17803685153179119 -0.083473416706129469 0 0.18748362772352481 -0.090285751384613616 0 0.1776016981043757 -0.094466756631608209 0 0.1776016981043757 -0.094466756631608209 0 0.1757785255420414 -0.1036637588673371 0 0.18737718651252391 -0.1018645954104864 0 0.18748362772352481 -0.090285751384613616 0 0.1776016981043757 -0.094466756631608209 0 0.18737718651252391 -0.1018645954104864 0 0.1776016981043757 -0.094466756631608209 0 0.1757785255420414 -0.1036637588673371 0 0.16825903644140999 -0.098606158866582916 0 0.1757785255420414 -0.1036637588673371 0 0.17797479248166551 -0.1125427820454727 0 0.16787713834435419 -0.11000951374301229 0 0.1757785255420414 -0.1036637588673371 0 0.18737718651252391 -0.1018645954104864 0 0.17797479248166551 -0.1125427820454727 0 0.18737718651252391 -0.1018645954104864 0 0.18701697985041221 -0.11880972375357141 0 0.17797479248166551 -0.1125427820454727 0 0.18701697985041221 -0.11880972375357141 0 0.173543926957343 -0.1211375462363173 0 0.17990838590865871 -0.12844737664361131 0 0.18701697985041221 -0.11880972375357141 0 0.173543926957343 -0.1211375462363173 0 0.17797479248166551 -0.1125427820454727 0 0.173543926957343 -0.1211375462363173 0 0.17797479248166551 -0.1125427820454727 0 0.16787713834435419 -0.11000951374301229 0 0.173543926957343 -0.1211375462363173 0 0.16787713834435419 -0.11000951374301229 0 0.1605262820516872 -0.11892888696118289 0 0.173543926957343 -0.1211375462363173 0 0.1605262820516872 -0.11892888696118289 0 0.1641162962428066 -0.126449221113482 0 0.15192118682329561 -0.12273271218809589 0 0.1605262820516872 -0.11892888696118289 0 0.1587247560068413 -0.12564209046719049 0 0.1605262820516872 -0.11892888696118289 0 0.1587247560068413 -0.12564209046719049 0 0.1641162962428066 -0.126449221113482 0 0.15419764536576119 -0.1149677746217292 0 0.1605262820516872 -0.11892888696118289 0 0.1590985184781393 -0.1107939778183322 0 0.16787713834435419 -0.11000951374301229 0 0.1605262820516872 -0.11892888696118289 0 0.1590985184781393 -0.1107939778183322 0 0.15201290161170181 -0.107226104105896 0 0.1590985184781393 -0.1107939778183322 0 0.16008969536972259 -0.10263897543636979 0 0.16787713834435419 -0.11000951374301229 0 0.1590985184781393 -0.1107939778183322 0 0.16008969536972259 -0.10263897543636979 0 0.1594354292934542 -0.091737259282716963 0 0.16008969536972259 -0.10263897543636979 0 0.16825903644140999 -0.098606158866582916 0 0.153855148049276 -0.097460838801678593 0 0.1594354292934542 -0.091737259282716963 0 0.16008969536972259 -0.10263897543636979 0 0.1757785255420414 -0.1036637588673371 0 0.16787713834435419 -0.11000951374301229 0 0.16825903644140999 -0.098606158866582916 0 0.16787713834435419 -0.11000951374301229 0 0.16008969536972259 -0.10263897543636979 0 0.16825903644140999 -0.098606158866582916 0 0.1552076984021574 -0.0047487866015848753 0 0.1380919344669613 -0.01469948322874493 0 0.1606476670511833 -0.017066892083396779 0 0.14127976741107601 0.00215554095495248 0 0.1552076984021574 -0.0047487866015848753 0 0.1380919344669613 -0.01469948322874493 0 0.14127976741107601 0.00215554095495248 0 0.1228376310831711 -0.00076623140119310329 0 0.1380919344669613 -0.01469948322874493 0 0.1228376310831711 -0.00076623140119310329 0 0.1380919344669613 -0.01469948322874493 0 0.12490934658110441 -0.01526235729042 0 0.1228376310831711 -0.00076623140119310329 0 0.1380919344669613 -0.01469948322874493 0 0.1380919344669613 -0.01469948322874493 0 0.1415761600091012 -0.038003691908970592 0 0.12969235634276979 -0.031284000123743903 0 0.1213672368215104 -0.025634276355807499 0 0.12490934658110441 -0.01526235729042 0 0.12969235634276979 -0.031284000123743903 0 0.12490934658110441 -0.01526235729042 0 0.1380919344669613 -0.01469948322874493 0 0.12969235634276979 -0.031284000123743903 0 0.1380919344669613 -0.01469948322874493 0 0.15334623785075199 -0.02863273505629621 0 0.1415761600091012 -0.038003691908970592 0 0.1380919344669613 -0.01469948322874493 0 0.15334623785075199 -0.02863273505629621 0 0.1606476670511833 -0.017066892083396779 0 0.1380919344669613 -0.01469948322874493 0 0.15334623785075199 -0.02863273505629621 0 0.15437572795414581 -0.042117567211766717 0 0.1415761600091012 -0.038003691908970592 0 0.15194569281242609 -0.056105127932606663 0 0.15334623785075199 -0.02863273505629621 0 0.15437572795414581 -0.042117567211766717 0 0.1415761600091012 -0.038003691908970592 0 0.1181844865236701 -0.045884275653046647 0 0.1283586559847627 -0.040725310836502493 0 0.1350650896680477 -0.050994701792827862 0 0.1415761600091012 -0.038003691908970592 0 0.12969235634276979 -0.031284000123743903 0 0.1283586559847627 -0.040725310836502493 0 0.1169603374125384 -0.034526050343312617 0 0.12969235634276979 -0.031284000123743903 0 0.1283586559847627 -0.040725310836502493 0 0.1415761600091012 -0.038003691908970592 0 0.1283586559847627 -0.040725310836502493 0 0.1350650896680477 -0.050994701792827862 0 0.1181844865236701 -0.045884275653046647 0 0.1350650896680477 -0.050994701792827862 0 0.12021542192502691 -0.05736310542253667 0 0.12708324658387871 -0.067240591211139955 0 0.1350650896680477 -0.050994701792827862 0 0.12708324658387871 -0.067240591211139955 0 0.14110971147140131 -0.064913967020147179 0 0.1350650896680477 -0.050994701792827862 0 0.14110971147140131 -0.064913967020147179 0 0.15194569281242609 -0.056105127932606663 0 0.1415761600091012 -0.038003691908970592 0 0.1350650896680477 -0.050994701792827862 0 0.15194569281242609 -0.056105127932606663 0 0.1350650896680477 -0.050994701792827862 0 0.15194569281242609 -0.056105127932606663 0 0.14110971147140131 -0.064913967020147179 0 0.1350650896680477 -0.050994701792827862 0 0.15194569281242609 -0.056105127932606663 0 0.15194569281242609 -0.056105127932606663 0 0.16860054123454279 -0.042565986883847551 0 0.15437572795414581 -0.042117567211766717 0 0.15194569281242609 -0.056105127932606663 0 0.16860054123454279 -0.042565986883847551 0 0.1603896916223197 -0.069044426588861466 0 0.15194569281242609 -0.056105127932606663 0 0.17187576892014289 -0.062138750134232333 0 0.15194569281242609 -0.056105127932606663 0 0.165016394264413 -0.053661354003145263 0 0.17187576892014289 -0.062138750134232333 0 0.15194569281242609 -0.056105127932606663 0 0.165016394264413 -0.053661354003145263 0 0.16860054123454279 -0.042565986883847551 0 0.15194569281242609 -0.056105127932606663 0 0.17187576892014289 -0.062138750134232333 0 0.165016394264413 -0.053661354003145263 0 0.17187576892014289 -0.062138750134232333 0 0.18345715790010181 -0.056135992415964377 0 0.165016394264413 -0.053661354003145263 0 0.18345715790010181 -0.056135992415964377 0 0.16860054123454279 -0.042565986883847551 0 0.17187576892014289 -0.062138750134232333 0 0.18345715790010181 -0.056135992415964377 0 0.19180584502786041 -0.068172372335855602 0 0.18345715790010181 -0.056135992415964377 0 0.17385144243116649 -0.043269821226828903 0 0.18595588634396351 -0.043176695624854357 0 0.18345715790010181 -0.056135992415964377 0 0.17385144243116649 -0.043269821226828903 0 0.16860054123454279 -0.042565986883847551 0 0.18345715790010181 -0.056135992415964377 0 0.16860054123454279 -0.042565986883847551 0 0.18595588634396351 -0.043176695624854357 0 0.1782733089797521 -0.034702753096601993 0 0.1941468740000297 -0.021798736782002521 0 0.17385144243116649 -0.043269821226828903 0 0.18595588634396351 -0.043176695624854357 0 0.1782733089797521 -0.034702753096601993 0 0.17385144243116649 -0.043269821226828903 0 0.1782733089797521 -0.034702753096601993 0 0.16860054123454279 -0.042565986883847551 0 0.1782733089797521 -0.034702753096601993 0 0.16860054123454279 -0.042565986883847551 0 0.17385144243116649 -0.043269821226828903 0 0.1782733089797521 -0.034702753096601993 0 0.1782733089797521 -0.034702753096601993 0 0.16860054123454279 -0.042565986883847551 0 0.1670526359884773 -0.02836254214418232 0 0.15334623785075199 -0.02863273505629621 0 0.16860054123454279 -0.042565986883847551 0 0.1670526359884773 -0.02836254214418232 0 0.15334623785075199 -0.02863273505629621 0 0.15437572795414581 -0.042117567211766717 0 0.16860054123454279 -0.042565986883847551 0 0.15334623785075199 -0.02863273505629621 0 0.16860054123454279 -0.042565986883847551 0 0.15334623785075199 -0.02863273505629621 0 0.1606476670511833 -0.017066892083396779 0 0.1670526359884773 -0.02836254214418232 0 0.1606476670511833 -0.017066892083396779 0 0.1670526359884773 -0.02836254214418232 0 0.1743954248261565 -0.018844343600769399 0 0.1782733089797521 -0.034702753096601993 0 0.1743954248261565 -0.018844343600769399 0 0.1918659379284415 -0.0083679514935210662 0 0.1782733089797521 -0.034702753096601993 0 0.1670526359884773 -0.02836254214418232 0 0.1743954248261565 -0.018844343600769399 0 0.1782733089797521 -0.034702753096601993 0 0.1918659379284415 -0.0083679514935210662 0 0.1782733089797521 -0.034702753096601993 0 0.1941468740000297 -0.021798736782002521 0 0.1743954248261565 -0.018844343600769399 0 0.17983697574181159 -0.0080573062328258595 0 0.1918659379284415 -0.0083679514935210662 0 0.1743954248261565 -0.018844343600769399 0 0.17983697574181159 -0.0080573062328258595 0 0.17056947168728639 -0.0076341498549102596 0 0.17983697574181159 -0.0080573062328258595 0 0.18580903226614379 -0.0011502469314075439 0 0.17786282304025339 -0.001583287003114023 0 0.17983697574181159 -0.0080573062328258595 0 0.18580903226614379 -0.0011502469314075439 0 0.1918659379284415 -0.0083679514935210662 0 0.17983697574181159 -0.0080573062328258595 0 0.17786282304025339 -0.001583287003114023 0 0.17056947168728639 -0.0076341498549102596 0 0.17227434920368959 0.00081991249798677823 0 0.17786282304025339 -0.001583287003114023 0 0.17056947168728639 -0.0076341498549102596 0 0.17227434920368959 0.00081991249798677823 0 0.16550177429739321 0.001625335581948511 0 0.17056947168728639 -0.0076341498549102596 0 0.1606476670511833 -0.017066892083396779 0 0.1743954248261565 -0.018844343600769399 0 0.17056947168728639 -0.0076341498549102596 0 0.1552076984021574 -0.0047487866015848753 0 0.1606476670511833 -0.017066892083396779 0 0.17056947168728639 -0.0076341498549102596 0 0.15830422717032419 0.0026668804518291322 0 0.16550177429739321 0.001625335581948511 0 0.1552076984021574 -0.0047487866015848753 0 0.16550177429739321 0.001625335581948511 0 0.1552076984021574 -0.0047487866015848753 0 0.17056947168728639 -0.0076341498549102596 0 0.21653748859829491 -0.0035968485671754561 0 0.20239897911060981 -0.0049616950454924097 0 0.1941468740000297 -0.021798736782002521 0 0.21653748859829491 -0.0035968485671754561 0 0.1941468740000297 -0.021798736782002521 0 0.20955206102217341 -0.019021580532265901 0 0.21653748859829491 -0.0035968485671754561 0 0.20955206102217341 -0.019021580532265901 0 0.22864161374710179 -0.024239001361894639 0 0.21653748859829491 -0.0035968485671754561 0 0.1941468740000297 -0.021798736782002521 0 0.20938161325362409 0.0025060029461209908 0 0.21653748859829491 -0.0035968485671754561 0 0.20239897911060981 -0.0049616950454924097 0 0.19981118715584381 0.0070254328827108366 0 0.20239897911060981 -0.0049616950454924097 0 0.1918659379284415 -0.0083679514935210662 0 0.19981118715584381 0.0070254328827108366 0 0.1918659379284415 -0.0083679514935210662 0 0.20239897911060981 -0.0049616950454924097 0 0.1918659379284415 -0.0083679514935210662 0 0.1941468740000297 -0.021798736782002521 0 0.1894192936343001 0.0060385698470956234 0 0.18580903226614379 -0.0011502469314075439 0 0.1918659379284415 -0.0083679514935210662 0 0.1894192936343001 0.0060385698470956234 0 0.1918659379284415 -0.0083679514935210662 0 0.1918659379284415 -0.0083679514935210662 0 0.1941468740000297 -0.021798736782002521 0 0.1782733089797521 -0.034702753096601993 0 0.1918659379284415 -0.0083679514935210662 0 0.1941468740000297 -0.021798736782002521 0 0.1941468740000297 -0.021798736782002521 0 0.2031559883210855 -0.029985938475911671 0 0.20955206102217341 -0.019021580532265901 0 0.20955206102217341 -0.019021580532265901 0 0.21066165658577479 -0.033085676709690801 0 0.22864161374710179 -0.024239001361894639 0 0.2031559883210855 -0.029985938475911671 0 0.20955206102217341 -0.019021580532265901 0 0.21066165658577479 -0.033085676709690801 0 0.21864271396698939 -0.038649087319523719 0 0.21066165658577479 -0.033085676709690801 0 0.21034122995680221 -0.050048420551560682 0 0.21066165658577479 -0.033085676709690801 0 0.1982633616763636 -0.046037759879686967 0 0.21034122995680221 -0.050048420551560682 0 0.2031559883210855 -0.029985938475911671 0 0.21066165658577479 -0.033085676709690801 0 0.1982633616763636 -0.046037759879686967 0 0.21864271396698939 -0.038649087319523719 0 0.21034122995680221 -0.050048420551560682 0 0.21819242210762169 -0.050823402618315167 0 0.1941468740000297 -0.021798736782002521 0 0.2031559883210855 -0.029985938475911671 0 0.1982633616763636 -0.046037759879686967 0 0.18595588634396351 -0.043176695624854357 0 0.1941468740000297 -0.021798736782002521 0 0.1982633616763636 -0.046037759879686967 0 0.1941468740000297 -0.021798736782002521 0 0.1982633616763636 -0.046037759879686967 0 0.1982633616763636 -0.046037759879686967 0 0.19180584502786041 -0.068172372335855602 0 0.20237984935269879 -0.070276782977371152 0 0.1982633616763636 -0.046037759879686967 0 0.20237984935269879 -0.070276782977371152 0 0.18345715790010181 -0.056135992415964377 0 0.1982633616763636 -0.046037759879686967 0 0.19180584502786041 -0.068172372335855602 0 0.18345715790010181 -0.056135992415964377 0 0.18595588634396351 -0.043176695624854357 0 0.1982633616763636 -0.046037759879686967 0 0.21034122995680221 -0.050048420551560682 0 0.21390737605136481 -0.061417813804776289 0 0.20237984935269879 -0.070276782977371152 0 0.1982633616763636 -0.046037759879686967 0 0.21034122995680221 -0.050048420551560682 0 0.20237984935269879 -0.070276782977371152 0 0.21034122995680221 -0.050048420551560682 0 0.21819242210762169 -0.050823402618315167 0 0.21390737605136481 -0.061417813804776289 0 0.2255736282180465 -0.056882305063223393 0 0.23627526009844421 -0.049694667024589079 0 0.23165324526163639 -0.065502610206523884 0 0.21390737605136481 -0.061417813804776289 0 0.2255736282180465 -0.056882305063223393 0 0.2221192681341374 -0.068345353637844553 0 0.21819242210762169 -0.050823402618315167 0 0.21390737605136481 -0.061417813804776289 0 0.2255736282180465 -0.056882305063223393 0 0.21819242210762169 -0.050823402618315167 0 0.2255736282180465 -0.056882305063223393 0 0.22546512762764079 -0.044057692677509197 0 0.2255736282180465 -0.056882305063223393 0 0.23627526009844421 -0.049694667024589079 0 0.22546512762764079 -0.044057692677509197 0 0.24617004458672351 -0.058202332164817121 0 0.23627526009844421 -0.049694667024589079 0 0.24390890644978661 -0.075150332687283522 0 0.23627526009844421 -0.049694667024589079 0 0.24390890644978661 -0.075150332687283522 0 0.25164978009717781 -0.053061021673298493 0 0.24617004458672351 -0.058202332164817121 0 0.24422464309495209 -0.046986837608536558 0 0.24617004458672351 -0.058202332164817121 0 0.24422464309495209 -0.046986837608536558 0 0.23627526009844421 -0.049694667024589079 0 0.25164978009717781 -0.053061021673298493 0 0.2539732262079259 -0.044675773385505282 0 0.24422464309495209 -0.046986837608536558 0 0.24422464309495209 -0.046986837608536558 0 0.23627526009844421 -0.049694667024589079 0 0.24524507923365879 -0.0330622213940093 0 0.25845033672230949 -0.02738613623275089 0 0.24422464309495209 -0.046986837608536558 0 0.24524507923365879 -0.0330622213940093 0 0.23627526009844421 -0.049694667024589079 0 0.24524507923365879 -0.0330622213940093 0 0.22864161374710179 -0.024239001361894639 0 0.21864271396698939 -0.038649087319523719 0 0.21066165658577479 -0.033085676709690801 0 0.22864161374710179 -0.024239001361894639 0 0.23627526009844421 -0.049694667024589079 0 0.22864161374710179 -0.024239001361894639 0 0.21864271396698939 -0.038649087319523719 0 0.22546512762764079 -0.044057692677509197 0 0.22864161374710179 -0.024239001361894639 0 0.23627526009844421 -0.049694667024589079 0 0.22546512762764079 -0.044057692677509197 0 0.22864161374710179 -0.024239001361894639 0 0.21864271396698939 -0.038649087319523719 0 0.21819242210762169 -0.050823402618315167 0 0.22546512762764079 -0.044057692677509197 0 0.22864161374710179 -0.024239001361894639 0 0.24437070500465241 -0.019757014484825589 0 0.23246643938152739 -0.0092251246746631842 0 0.24524507923365879 -0.0330622213940093 0 0.22864161374710179 -0.024239001361894639 0 0.24437070500465241 -0.019757014484825589 0 0.25013504981522988 -0.025019616072594848 0 0.24524507923365879 -0.0330622213940093 0 0.24437070500465241 -0.019757014484825589 0 0.25247407830029878 -0.019873092178793648 0 0.25006914023697918 -0.01208141302270524 0 0.24437070500465241 -0.019757014484825589 0 0.25013504981522988 -0.025019616072594848 0 0.25247407830029878 -0.019873092178793648 0 0.24437070500465241 -0.019757014484825589 0 0.24437070500465241 -0.019757014484825589 0 0.242989310538931 -0.0092135161021761666 0 0.23246643938152739 -0.0092251246746631842 0 0.25006914023697918 -0.01208141302270524 0 0.242989310538931 -0.0092135161021761666 0 0.2479891295484222 -0.0022684572774312019 0 0.25006914023697918 -0.01208141302270524 0 0.24437070500465241 -0.019757014484825589 0 0.242989310538931 -0.0092135161021761666 0 0.2429424487767215 0.0026164120279975069 0 0.2479891295484222 -0.0022684572774312019 0 0.24005113852307369 -0.0027355710512556022 0 0.242989310538931 -0.0092135161021761666 0 0.2479891295484222 -0.0022684572774312019 0 0.24005113852307369 -0.0027355710512556022 0 0.23517440673197429 0.0051848507458196356 0 0.24005113852307369 -0.0027355710512556022 0 0.23246643938152739 -0.0092251246746631842 0 0.242989310538931 -0.0092135161021761666 0 0.24005113852307369 -0.0027355710512556022 0 0.23246643938152739 -0.0092251246746631842 0 0.22100796739575951 0.001216664300799794 0 0.22864161374710179 -0.024239001361894639 0 0.23246643938152739 -0.0092251246746631842 0 0.23517440673197429 0.0051848507458196356 0 0.22100796739575951 0.001216664300799794 0 0.23246643938152739 -0.0092251246746631842 0 0.22100796739575951 0.001216664300799794 0 0.21653748859829491 -0.0035968485671754561 0 0.22864161374710179 -0.024239001361894639 0 0.22100796739575951 0.001216664300799794 0 0.22864161374710179 -0.024239001361894639 0 0.206496337029034 -0.094515806075055359 0 0.21061282470536921 -0.1187548291727395 0 0.206496337029034 -0.094515806075055359 0 0.22623965631488491 -0.089683688039789988 0 0.22333782165884589 -0.10574313483481231 0 0.206496337029034 -0.094515806075055359 0 0.21061282470536921 -0.1187548291727395 0 0.22333782165884589 -0.10574313483481231 0 0.18737718651252391 -0.1018645954104864 0 0.18701697985041221 -0.11880972375357141 0 0.21061282470536921 -0.1187548291727395 0 0.18701697985041221 -0.11880972375357141 0 0.21061282470536921 -0.1187548291727395 0 0.19260125287660149 -0.13207131947283501 0 0.18748362772352481 -0.090285751384613616 0 0.18737718651252391 -0.1018645954104864 0 0.206496337029034 -0.094515806075055359 0 0.18737718651252391 -0.1018645954104864 0 0.206496337029034 -0.094515806075055359 0 0.21061282470536921 -0.1187548291727395 0 0.18748362772352481 -0.090285751384613616 0 0.206496337029034 -0.094515806075055359 0 0.19448955746265811 -0.082220240722777116 0 0.206496337029034 -0.094515806075055359 0 0.19448955746265811 -0.082220240722777116 0 0.20237984935269879 -0.070276782977371152 0 0.18645595400882431 -0.078186102724248294 0 0.18748362772352481 -0.090285751384613616 0 0.19448955746265811 -0.082220240722777116 0 0.18645595400882431 -0.078186102724248294 0 0.19448955746265811 -0.082220240722777116 0 0.19180584502786041 -0.068172372335855602 0 0.19448955746265811 -0.082220240722777116 0 0.19180584502786041 -0.068172372335855602 0 0.20237984935269879 -0.070276782977371152 0 0.21390737605136481 -0.061417813804776289 0 0.20237984935269879 -0.070276782977371152 0 0.21248527081093549 -0.070330245212121473 0 0.20237984935269879 -0.070276782977371152 0 0.21248527081093549 -0.070330245212121473 0 0.2145783618208984 -0.079628257083024359 0 0.21248527081093549 -0.070330245212121473 0 0.2145783618208984 -0.079628257083024359 0 0.2221192681341374 -0.068345353637844553 0 0.21390737605136481 -0.061417813804776289 0 0.21248527081093549 -0.070330245212121473 0 0.2221192681341374 -0.068345353637844553 0 0.206496337029034 -0.094515806075055359 0 0.20237984935269879 -0.070276782977371152 0 0.2145783618208984 -0.079628257083024359 0 0.206496337029034 -0.094515806075055359 0 0.2145783618208984 -0.079628257083024359 0 0.22623965631488491 -0.089683688039789988 0 0.206496337029034 -0.094515806075055359 0 0.20237984935269879 -0.070276782977371152 0 0.2145783618208984 -0.079628257083024359 0 0.22623965631488491 -0.089683688039789988 0 0.23038916340776741 -0.077440392619678861 0 0.22623965631488491 -0.089683688039789988 0 0.23038916340776741 -0.077440392619678861 0 0.23781669784438761 -0.088769324738514177 0 0.22623965631488491 -0.089683688039789988 0 0.23781669784438761 -0.088769324738514177 0 0.23714180950183539 -0.10160942858925499 0 0.2145783618208984 -0.079628257083024359 0 0.2221192681341374 -0.068345353637844553 0 0.23038916340776741 -0.077440392619678861 0 0.2255736282180465 -0.056882305063223393 0 0.2221192681341374 -0.068345353637844553 0 0.23165324526163639 -0.065502610206523884 0 0.2221192681341374 -0.068345353637844553 0 0.23038916340776741 -0.077440392619678861 0 0.23165324526163639 -0.065502610206523884 0 0.25256726729664603 -0.064532785491330763 0 0.24617004458672351 -0.058202332164817121 0 0.24390890644978661 -0.075150332687283522 0 0.23627526009844421 -0.049694667024589079 0 0.23165324526163639 -0.065502610206523884 0 0.24390890644978661 -0.075150332687283522 0 0.23038916340776741 -0.077440392619678861 0 0.23165324526163639 -0.065502610206523884 0 0.24390890644978661 -0.075150332687283522 0 0.25154255280112903 -0.1006059983499779 0 0.24390890644978661 -0.075150332687283522 0 0.25154255280112903 -0.1006059983499779 0 0.24390890644978661 -0.075150332687283522 0 0.23781669784438761 -0.088769324738514177 0 0.23038916340776741 -0.077440392619678861 0 0.24390890644978661 -0.075150332687283522 0 0.23781669784438761 -0.088769324738514177 0 0.25154255280112903 -0.1006059983499779 0 0.23714180950183539 -0.10160942858925499 0 0.24954668948061209 -0.11284283178631641 0 0.25154255280112903 -0.1006059983499779 0 0.23781669784438761 -0.088769324738514177 0 0.23714180950183539 -0.10160942858925499 0 0.23714180950183539 -0.10160942858925499 0 0.22333782165884589 -0.10574313483481231 0 0.23542538064511609 -0.1194854446592761 0 0.22623965631488491 -0.089683688039789988 0 0.23714180950183539 -0.10160942858925499 0 0.22333782165884589 -0.10574313483481231 0 0.21061282470536921 -0.1187548291727395 0 0.22333782165884589 -0.10574313483481231 0 0.23542538064511609 -0.1194854446592761 0 0.25741251913389712 -0.1305951081492244 0 0.23542538064511609 -0.1194854446592761 0 0.24954668948061209 -0.11284283178631641 0 0.23714180950183539 -0.10160942858925499 0 0.23542538064511609 -0.1194854446592761 0 0.24954668948061209 -0.11284283178631641 0 0.25741251913389712 -0.1305951081492244 0 0.25452239946831973 -0.14829655140993131 0 0.23191914561449989 -0.13726295483178369 0 0.25741251913389712 -0.1305951081492244 0 0.23542538064511609 -0.1194854446592761 0 0.23191914561449989 -0.13726295483178369 0 0.25452239946831973 -0.14829655140993131 0 0.23782434991563151 -0.15439369078169049 0 0.23191914561449989 -0.13726295483178369 0 0.23782434991563151 -0.15439369078169049 0 0.2147293123817042 -0.1429938522704238 0 0.23782434991563151 -0.15439369078169049 0 0.2147293123817042 -0.1429938522704238 0 0.21952864142792899 -0.1712536350637954 0 0.23782434991563151 -0.15439369078169049 0 0.23191914561449989 -0.13726295483178369 0 0.2147293123817042 -0.1429938522704238 0 0.21061282470536921 -0.1187548291727395 0 0.23542538064511609 -0.1194854446592761 0 0.23191914561449989 -0.13726295483178369 0 0.21061282470536921 -0.1187548291727395 0 0.23191914561449989 -0.13726295483178369 0 0.2147293123817042 -0.1429938522704238 0 0.2147293123817042 -0.1429938522704238 0 0.19260125287660149 -0.13207131947283501 0 0.21061282470536921 -0.1187548291727395 0 0.2147293123817042 -0.1429938522704238 0 0.19260125287660149 -0.13207131947283501 0 0.21061282470536921 -0.1187548291727395 0 0.2147293123817042 -0.1429938522704238 0 0.2147293123817042 -0.1429938522704238 0 0.20548350855114439 -0.15623176612928341 0 0.19677556980284089 -0.14597147697610061 0 0.20548350855114439 -0.15623176612928341 0 0.19677556980284089 -0.14597147697610061 0 0.19325106823209409 -0.153061144976989 0 0.19677556980284089 -0.14597147697610061 0 0.19325106823209409 -0.153061144976989 0 0.18786488322971459 -0.15098965934649999 0 0.19325106823209409 -0.153061144976989 0 0.18786488322971459 -0.15098965934649999 0 0.1842505296355367 -0.15589311325690541 0 0.19677556980284089 -0.14597147697610061 0 0.18786488322971459 -0.15098965934649999 0 0.188659048266132 -0.1418371739210742 0 0.2147293123817042 -0.1429938522704238 0 0.19677556980284089 -0.14597147697610061 0 0.19260125287660149 -0.13207131947283501 0 0.19677556980284089 -0.14597147697610061 0 0.188659048266132 -0.1418371739210742 0 0.19260125287660149 -0.13207131947283501 0 0.18830323417204939 -0.1765657128700695 0 0.20313295091115369 -0.1678787213591082 0 0.20600005448239761 -0.18645800734220749 0 0.18830323417204939 -0.1765657128700695 0 0.20600005448239761 -0.18645800734220749 0 0.1956377870383576 -0.1970896374814364 0 0.19325106823209409 -0.153061144976989 0 0.18830323417204939 -0.1765657128700695 0 0.19325106823209409 -0.153061144976989 0 0.18830323417204939 -0.1765657128700695 0 0.20313295091115369 -0.1678787213591082 0 0.19325106823209409 -0.153061144976989 0 0.18830323417204939 -0.1765657128700695 0 0.18144082188941271 -0.16389154531309821 0 0.20548350855114439 -0.15623176612928341 0 0.19325106823209409 -0.153061144976989 0 0.20313295091115369 -0.1678787213591082 0 0.20548350855114439 -0.15623176612928341 0 0.20313295091115369 -0.1678787213591082 0 0.21952864142792899 -0.1712536350637954 0 0.2147293123817042 -0.1429938522704238 0 0.21952864142792899 -0.1712536350637954 0 0.2147293123817042 -0.1429938522704238 0 0.20548350855114439 -0.15623176612928341 0 0.21952864142792899 -0.1712536350637954 0 0.20600005448239761 -0.18645800734220749 0 0.21952864142792899 -0.1712536350637954 0 0.22432797047415351 -0.19951341785716731 0 0.20313295091115369 -0.1678787213591082 0 0.20600005448239761 -0.18645800734220749 0 0.21952864142792899 -0.1712536350637954 0 0.21952864142792899 -0.1712536350637954 0 0.2437278363918948 -0.18195096812212239 0 0.22432797047415351 -0.19951341785716731 0 0.21952864142792899 -0.1712536350637954 0 0.22432797047415351 -0.19951341785716731 0 0.23782434991563151 -0.15439369078169049 0 0.21952864142792899 -0.1712536350637954 0 0.2437278363918948 -0.18195096812212239 0 0.260919387449559 -0.16579352929295721 0 0.23782434991563151 -0.15439369078169049 0 0.260919387449559 -0.16579352929295721 0 0.23782434991563151 -0.15439369078169049 0 0.2437278363918948 -0.18195096812212239 0 0.2437278363918948 -0.18195096812212239 0 0.24314545538918961 -0.20571013864437751 0 0.22432797047415351 -0.19951341785716731 0 0.2593871514889205 -0.19799184377322379 0 0.2437278363918948 -0.18195096812212239 0 0.24314545538918961 -0.20571013864437751 0 0.22432797047415351 -0.19951341785716731 0 0.2342802842193491 -0.2219117808856606 0 0.21564630723174069 -0.21833189921059021 0 0.24314545538918961 -0.20571013864437751 0 0.22432797047415351 -0.19951341785716731 0 0.2342802842193491 -0.2219117808856606 0 0.2462907050713771 -0.25204034373521428 0 0.2499607574480687 -0.24385609709525671 0 0.2374752251495614 -0.24157268794541539 0 0.25134951441318748 -0.22920843539767929 0 0.2499607574480687 -0.24385609709525671 0 0.2374752251495614 -0.24157268794541539 0 0.25134951441318748 -0.22920843539767929 0 0.24314545538918961 -0.20571013864437751 0 0.2342802842193491 -0.2219117808856606 0 0.25134951441318748 -0.22920843539767929 0 0.2374752251495614 -0.24157268794541539 0 0.2342802842193491 -0.2219117808856606 0 0.2374752251495614 -0.24157268794541539 0 0.22060620183210919 -0.232775489656291 0 0.2342802842193491 -0.2219117808856606 0 0.22060620183210919 -0.232775489656291 0 0.2342802842193491 -0.2219117808856606 0 0.21564630723174069 -0.21833189921059021 0 0.22198339683909701 -0.25340717595137879 0 0.2374752251495614 -0.24157268794541539 0 0.22060620183210919 -0.232775489656291 0 0.22198339683909701 -0.25340717595137879 0 0.22060620183210919 -0.232775489656291 0 0.22198339683909701 -0.25340717595137879 0 0.22060620183210919 -0.232775489656291 0 0.20573671357227499 -0.23448295905173899 0 0.22198339683909701 -0.25340717595137879 0 0.20573671357227499 -0.23448295905173899 0 0.19815896102696709 -0.24816545406213189 0 0.22060620183210919 -0.232775489656291 0 0.20573671357227499 -0.23448295905173899 0 0.21564630723174069 -0.21833189921059021 0 0.20573671357227499 -0.23448295905173899 0 0.19801089506944891 -0.22061097325298201 0 0.21564630723174069 -0.21833189921059021 0 0.20573671357227499 -0.23448295905173899 0 0.19801089506944891 -0.22061097325298201 0 0.18862314846194941 -0.23474346369713109 0 0.19801089506944891 -0.22061097325298201 0 0.18862314846194941 -0.23474346369713109 0 0.17884496266341901 -0.22149700646801701 0 0.20573671357227499 -0.23448295905173899 0 0.18862314846194941 -0.23474346369713109 0 0.19815896102696709 -0.24816545406213189 0 0.20600005448239761 -0.18645800734220749 0 0.22432797047415351 -0.19951341785716731 0 0.20571207111442141 -0.20503903284801611 0 0.22432797047415351 -0.19951341785716731 0 0.21564630723174069 -0.21833189921059021 0 0.20571207111442141 -0.20503903284801611 0 0.19801089506944891 -0.22061097325298201 0 0.21564630723174069 -0.21833189921059021 0 0.20571207111442141 -0.20503903284801611 0 0.19801089506944891 -0.22061097325298201 0 0.19227081910603411 -0.2100117569492751 0 0.17884496266341901 -0.22149700646801701 0 0.20571207111442141 -0.20503903284801611 0 0.19227081910603411 -0.2100117569492751 0 0.1956377870383576 -0.1970896374814364 0 0.19801089506944891 -0.22061097325298201 0 0.20571207111442141 -0.20503903284801611 0 0.19227081910603411 -0.2100117569492751 0 0.18830323417204939 -0.1765657128700695 0 0.1956377870383576 -0.1970896374814364 0 0.18335540011200491 -0.20007028076315 0 0.19227081910603411 -0.2100117569492751 0 0.1956377870383576 -0.1970896374814364 0 0.18335540011200491 -0.20007028076315 0 0.1956377870383576 -0.1970896374814364 0 0.18335540011200491 -0.20007028076315 0 0.20600005448239761 -0.18645800734220749 0 0.20571207111442141 -0.20503903284801611 0 0.1956377870383576 -0.1970896374814364 0 0.18830323417204939 -0.1765657128700695 0 0.18335540011200491 -0.20007028076315 0 0.18335540011200491 -0.20007028076315 0 0.16873688803845349 -0.19227854821165941 0 0.17543185729929969 -0.18273889272689711 0 0.19227081910603411 -0.2100117569492751 0 0.18335540011200491 -0.20007028076315 0 0.17884496266341901 -0.22149700646801701 0 0.18335540011200491 -0.20007028076315 0 0.17884496266341901 -0.22149700646801701 0 0.18335540011200491 -0.20007028076315 0 0.16621660047528611 -0.21253283526692829 0 0.17884496266341901 -0.22149700646801701 0 0.16621660047528611 -0.21253283526692829 0 0.1593158439583067 -0.2059041094785751 0 0.15302060169630469 -0.2217977003443504 0 0.18335540011200491 -0.20007028076315 0 0.16621660047528611 -0.21253283526692829 0 0.1593158439583067 -0.2059041094785751 0 0.16621660047528611 -0.21253283526692829 0 0.1593158439583067 -0.2059041094785751 0 0.1593158439583067 -0.2059041094785751 0 0.15759932706250929 -0.18907488386135229 0 0.16873688803845349 -0.19227854821165941 0 0.18335540011200491 -0.20007028076315 0 0.1593158439583067 -0.2059041094785751 0 0.18335540011200491 -0.20007028076315 0 0.1593158439583067 -0.2059041094785751 0 0.16873688803845349 -0.19227854821165941 0 0.18066177981631051 -0.25348299893649828 0 0.19815896102696709 -0.24816545406213189 0 0.17433452521483719 -0.24292373217288479 0 0.19815896102696709 -0.24816545406213189 0 0.17433452521483719 -0.24292373217288479 0 0.18862314846194941 -0.23474346369713109 0 0.19815896102696709 -0.24816545406213189 0 0.17433452521483719 -0.24292373217288479 0 0.18066177981631051 -0.25348299893649828 0 0.17304535898525439 -0.24904788565112909 0 0.17433452521483719 -0.24292373217288479 0 0.17304535898525439 -0.24904788565112909 0 0.17433452521483719 -0.24292373217288479 0 0.18862314846194941 -0.23474346369713109 0 0.17433452521483719 -0.24292373217288479 0 0.17884496266341901 -0.22149700646801701 0 0.17433452521483719 -0.24292373217288479 0 0.17884496266341901 -0.22149700646801701 0 0.17433452521483719 -0.24292373217288479 0 0.17884496266341901 -0.22149700646801701 0 0.16512535944417561 -0.22744738033917331 0 0.16512535944417561 -0.22744738033917331 0 0.15532271566916761 -0.23874085795770611 0 0.15302060169630469 -0.2217977003443504 0 0.16621660047528611 -0.21253283526692829 0 0.17884496266341901 -0.22149700646801701 0 0.16512535944417561 -0.22744738033917331 0 0.16621660047528611 -0.21253283526692829 0 0.16512535944417561 -0.22744738033917331 0 0.15302060169630469 -0.2217977003443504 0 0.17304535898525439 -0.24904788565112909 0 0.17433452521483719 -0.24292373217288479 0 0.15532271566916761 -0.23874085795770611 0 0.15867772839633809 -0.25707915377424612 0 0.17304535898525439 -0.24904788565112909 0 0.15532271566916761 -0.23874085795770611 0 0.17433452521483719 -0.24292373217288479 0 0.16512535944417561 -0.22744738033917331 0 0.15532271566916761 -0.23874085795770611 0 0.17433452521483719 -0.24292373217288479 0 0.15532271566916761 -0.23874085795770611 0 0.15532271566916761 -0.23874085795770611 0 0.1363109061234978 -0.23455798374252809 0 0.13687529418603939 -0.26162068250561471 0 0.15532271566916761 -0.23874085795770611 0 0.1363109061234978 -0.23455798374252809 0 0.15532271566916761 -0.23874085795770611 0 0.15302060169630469 -0.2217977003443504 0 0.1363109061234978 -0.23455798374252809 0 0.15302060169630469 -0.2217977003443504 0 0.1363109061234978 -0.23455798374252809 0 0.13583218450739579 -0.2116030352811932 0 0.12594488917549271 -0.2231145762792166 0 0.1363109061234978 -0.23455798374252809 0 0.13583218450739579 -0.2116030352811932 0 0.1363109061234978 -0.23455798374252809 0 0.13583218450739579 -0.2116030352811932 0 0.13687529418603939 -0.26162068250561471 0 0.1363109061234978 -0.23455798374252809 0 0.13687529418603939 -0.26162068250561471 0 0.1223190960555403 -0.2394332616338683 0 0.1363109061234978 -0.23455798374252809 0 0.1593158439583067 -0.2059041094785751 0 0.15759932706250929 -0.18907488386135229 0 0.14727334507129489 -0.19433633097022029 0 0.14727334507129489 -0.19433633097022029 0 0.13523084618428721 -0.18276855246186111 0 0.1593158439583067 -0.2059041094785751 0 0.14727334507129489 -0.19433633097022029 0 0.1593158439583067 -0.2059041094785751 0 0.14727334507129489 -0.19433633097022029 0 0.13583218450739579 -0.2116030352811932 0 0.1593158439583067 -0.2059041094785751 0 0.13583218450739579 -0.2116030352811932 0 0.1593158439583067 -0.2059041094785751 0 0.15302060169630469 -0.2217977003443504 0 0.13583218450739579 -0.2116030352811932 0 0.1146962174531268 -0.21673223195775559 0 0.12594488917549271 -0.2231145762792166 0 0.13583218450739579 -0.2116030352811932 0 0.1146962174531268 -0.21673223195775559 0 0.13583218450739579 -0.2116030352811932 0 0.13583218450739579 -0.2116030352811932 0 0.13523084618428721 -0.18276855246186111 0 0.1210323504124224 -0.2015702574875764 0 0.13583218450739579 -0.2116030352811932 0 0.13523084618428721 -0.18276855246186111 0 0.14727334507129489 -0.19433633097022029 0 0.13583218450739579 -0.2116030352811932 0 0.13523084618428721 -0.18276855246186111 0 0.13523084618428721 -0.18276855246186111 0 0.13483495552902119 -0.16378539130439421 0 0.13523084618428721 -0.18276855246186111 0 0.14953284821028701 -0.17659781711855899 0 0.13483495552902119 -0.16378539130439421 0 0.12574768761326591 -0.17365922399620121 0 0.13523084618428721 -0.18276855246186111 0 0.13483495552902119 -0.16378539130439421 0 0.12574768761326591 -0.17365922399620121 0 0.13523084618428721 -0.18276855246186111 0 0.15759932706250929 -0.18907488386135229 0 0.14727334507129489 -0.19433633097022029 0 0.14953284821028701 -0.17659781711855899 0 0.14727334507129489 -0.19433633097022029 0 0.13523084618428721 -0.18276855246186111 0 0.14953284821028701 -0.17659781711855899 0 0.15759932706250929 -0.18907488386135229 0 0.14953284821028701 -0.17659781711855899 0 0.16056198994912749 -0.17787080610445691 0 0.14953284821028701 -0.17659781711855899 0 0.15118562361057611 -0.16212531631630639 0 0.13483495552902119 -0.16378539130439421 0 0.15118562361057611 -0.16212531631630639 0 0.13483495552902119 -0.16378539130439421 0 0.15272907190244081 -0.1550331303974728 0 0.15118562361057611 -0.16212531631630639 0 0.15272907190244081 -0.1550331303974728 0 0.15987479688754311 -0.1572750313981319 0 0.14953284821028701 -0.17659781711855899 0 0.15118562361057611 -0.16212531631630639 0 0.1601367247146048 -0.167216461388007 0 0.1232701832726428 -0.15427141090171109 0 0.12574768761326591 -0.17365922399620121 0 0.13483495552902119 -0.16378539130439421 0 0.12574768761326591 -0.17365922399620121 0 0.13483495552902119 -0.16378539130439421 0 0.13483495552902119 -0.16378539130439421 0 0.13444198148756639 -0.1449420832838656 0 0.14315652521050079 -0.14523933820255211 0 0.1232701832726428 -0.15427141090171109 0 0.13483495552902119 -0.16378539130439421 0 0.13444198148756639 -0.1449420832838656 0 0.13483495552902119 -0.16378539130439421 0 0.13444198148756639 -0.1449420832838656 0 0.13444198148756639 -0.1449420832838656 0 0.1434537453928684 -0.13532839273855221 0 0.14315652521050079 -0.14523933820255211 0 0.13444198148756639 -0.1449420832838656 0 0.13404900744611239 -0.12609877526333699 0 0.13444198148756639 -0.1449420832838656 0 0.13404900744611239 -0.12609877526333699 0 0.1434537453928684 -0.13532839273855221 0 0.11727103389215909 -0.1361484369810822 0 0.13444198148756639 -0.1449420832838656 0 0.13404900744611239 -0.12609877526333699 0 0.13404900744611239 -0.12609877526333699 0 0.1490682445489844 -0.1279194233146575 0 0.1609569453379138 -0.13854421730491809 0 0.13404900744611239 -0.12609877526333699 0 0.1609569453379138 -0.13854421730491809 0 0.13404900744611239 -0.12609877526333699 0 0.1434537453928684 -0.13532839273855221 0 0.1609569453379138 -0.13854421730491809 0 0.1434537453928684 -0.13532839273855221 0 0.14993504674019009 -0.14021612160814689 0 0.1609569453379138 -0.13854421730491809 0 0.1427320902892944 -0.12257921542734659 0 0.13404900744611239 -0.12609877526333699 0 0.1490682445489844 -0.1279194233146575 0 0.1434537453928684 -0.13532839273855221 0 0.14993504674019009 -0.14021612160814689 0 0.14315652521050079 -0.14523933820255211 0 0.14993504674019009 -0.14021612160814689 0 0.15469010670848909 -0.14221164189652771 0 0.1609569453379138 -0.13854421730491809 0 0.15568199284830581 -0.1296421963895899 0 0.1490682445489844 -0.1279194233146575 0 0.1609569453379138 -0.13854421730491809 0 0.15192118682329561 -0.12273271218809589 0 0.15568199284830581 -0.1296421963895899 0 0.1587247560068413 -0.12564209046719049 0 0.15192118682329561 -0.12273271218809589 0 0.15568199284830581 -0.1296421963895899 0 0.1490682445489844 -0.1279194233146575 0 0.13483495552902119 -0.16378539130439421 0 0.15469010670848909 -0.14221164189652771 0 0.13483495552902119 -0.16378539130439421 0 0.14315652521050079 -0.14523933820255211 0 0.15469010670848909 -0.14221164189652771 0 0.13483495552902119 -0.16378539130439421 0 0.15469010670848909 -0.14221164189652771 0 0.15272907190244081 -0.1550331303974728 0 0.14993504674019009 -0.14021612160814689 0 0.14315652521050079 -0.14523933820255211 0 0.15469010670848909 -0.14221164189652771 0 0.15272907190244081 -0.1550331303974728 0 0.16278769519534109 -0.1503194818261428 0 0.15987479688754311 -0.1572750313981319 0 0.16278769519534109 -0.1503194818261428 0 0.15987479688754311 -0.1572750313981319 0 0.16866771310860729 -0.15951236945753941 0 0.15469010670848909 -0.14221164189652771 0 0.15272907190244081 -0.1550331303974728 0 0.16278769519534109 -0.1503194818261428 0 0.15469010670848909 -0.14221164189652771 0 0.16278769519534109 -0.1503194818261428 0 0.1609569453379138 -0.13854421730491809 0 0.16278769519534109 -0.1503194818261428 0 0.1609569453379138 -0.13854421730491809 0 0.17433915911560069 -0.15342176620747169 0 0.16278769519534109 -0.1503194818261428 0 0.17433915911560069 -0.15342176620747169 0 0.16866771310860729 -0.15951236945753941 0 0.1609569453379138 -0.13854421730491809 0 0.16898528270356589 -0.1319020538664718 0 0.17739448715537109 -0.13831623988886119 0 0.1587247560068413 -0.12564209046719049 0 0.1613780220681113 -0.13045743568360191 0 0.1641162962428066 -0.126449221113482 0 0.15568199284830581 -0.1296421963895899 0 0.1587247560068413 -0.12564209046719049 0 0.1613780220681113 -0.13045743568360191 0 0.15568199284830581 -0.1296421963895899 0 0.1613780220681113 -0.13045743568360191 0 0.1609569453379138 -0.13854421730491809 0 0.1613780220681113 -0.13045743568360191 0 0.1609569453379138 -0.13854421730491809 0 0.16898528270356589 -0.1319020538664718 0 0.173543926957343 -0.1211375462363173 0 0.16898528270356589 -0.1319020538664718 0 0.1641162962428066 -0.126449221113482 0 0.1613780220681113 -0.13045743568360191 0 0.16898528270356589 -0.1319020538664718 0 0.1641162962428066 -0.126449221113482 0 0.173543926957343 -0.1211375462363173 0 0.16898528270356589 -0.1319020538664718 0 0.17990838590865871 -0.12844737664361131 0 0.16898528270356589 -0.1319020538664718 0 0.17739448715537109 -0.13831623988886119 0 0.17990838590865871 -0.12844737664361131 0 0.188659048266132 -0.1418371739210742 0 0.19260125287660149 -0.13207131947283501 0 0.17739448715537109 -0.13831623988886119 0 0.19260125287660149 -0.13207131947283501 0 0.17739448715537109 -0.13831623988886119 0 0.17990838590865871 -0.12844737664361131 0 0.18701697985041221 -0.11880972375357141 0 0.19260125287660149 -0.13207131947283501 0 0.17990838590865871 -0.12844737664361131 0 0.18786488322971459 -0.15098965934649999 0 0.1609569453379138 -0.13854421730491809 0 0.17433915911560069 -0.15342176620747169 0 0.18786488322971459 -0.15098965934649999 0 0.1609569453379138 -0.13854421730491809 0 0.18786488322971459 -0.15098965934649999 0 0.1609569453379138 -0.13854421730491809 0 0.17739448715537109 -0.13831623988886119 0 0.18786488322971459 -0.15098965934649999 0 0.188659048266132 -0.1418371739210742 0 0.17739448715537109 -0.13831623988886119 0 0.18786488322971459 -0.15098965934649999 0 0.17433915911560069 -0.15342176620747169 0 0.1842505296355367 -0.15589311325690541 0 0.17433915911560069 -0.15342176620747169 0 0.1842505296355367 -0.15589311325690541 0 0.18144082188941271 -0.16389154531309821 0 0.19325106823209409 -0.153061144976989 0 0.1842505296355367 -0.15589311325690541 0 0.18144082188941271 -0.16389154531309821 0 0.18830323417204939 -0.1765657128700695 0 0.18144082188941271 -0.16389154531309821 0 0.17072519494025609 -0.1704686386871877 0 0.17433915911560069 -0.15342176620747169 0 0.18144082188941271 -0.16389154531309821 0 0.16866771310860729 -0.15951236945753941 0 0.18144082188941271 -0.16389154531309821 0 0.16866771310860729 -0.15951236945753941 0 0.17072519494025609 -0.1704686386871877 0 0.18830323417204939 -0.1765657128700695 0 0.18335540011200491 -0.20007028076315 0 0.17543185729929969 -0.18273889272689711 0 0.18830323417204939 -0.1765657128700695 0 0.17543185729929969 -0.18273889272689711 0 0.17072519494025609 -0.1704686386871877 0 0.17543185729929969 -0.18273889272689711 0 0.16056198994912749 -0.17787080610445691 0 0.17072519494025609 -0.1704686386871877 0 0.16873688803845349 -0.19227854821165941 0 0.17543185729929969 -0.18273889272689711 0 0.16056198994912749 -0.17787080610445691 0 0.15759932706250929 -0.18907488386135229 0 0.16873688803845349 -0.19227854821165941 0 0.16056198994912749 -0.17787080610445691 0 0.14953284821028701 -0.17659781711855899 0 0.16056198994912749 -0.17787080610445691 0 0.1601367247146048 -0.167216461388007 0 0.16056198994912749 -0.17787080610445691 0 0.1601367247146048 -0.167216461388007 0 0.17072519494025609 -0.1704686386871877 0 0.1601367247146048 -0.167216461388007 0 0.15987479688754311 -0.1572750313981319 0 0.16866771310860729 -0.15951236945753941 0 0.15118562361057611 -0.16212531631630639 0 0.1601367247146048 -0.167216461388007 0 0.15987479688754311 -0.1572750313981319 0 0.1601367247146048 -0.167216461388007 0 0.16866771310860729 -0.15951236945753941 0 0.17072519494025609 -0.1704686386871877 0 
</DataArray>
</Points>
<Cells>
<DataArray type="UInt32" Name="connectivity" format="ascii">
0 1 2 3 4 5 6 7 8 9 10 11 12 13 14 15 16 17 18 19 20 21 22 23 24 25 26 27 28 29 30 31 32 33 34 35 36 37 38 39 40 41 42 43 44 45 46 47 48 49 50 51 52 53 54 55 56 57 58 59 60 61 62 63 64 65 66 67 68 69 70 71 72 73 74 75 76 77 78 79 80 81 82 83 84 85 86 87 88 89 90 91 92 93 94 95 96 97 98 99 100 101 102 103 104 105 106 107 108 109 110 111 112 113 114 115 116 117 118 119 120 121 122 123 124 125 126 127 128 129 130 131 132 133 134 135 136 137 138 139 140 141 142 143 144 145 146 147 148 149 150 151 152 153 154 155 156 157 158 159 160 161 162 163 164 165 166 167 168 169 170 171 172 173 174 175 176 177 178 179 180 181 182 183 184 185 186 187 188 189 190 191 192 193 194 195 196 197 198 199 200 201 202 203 204 205 206 207 208 209 210 211 212 213 214 215 216 217 218 219 220 221 222 223 224 225 226 227 228 229 230 231 232 233 234 235 236 237 238 239 240 241 242 243 244 245 246 247 248 249 250 251 252 253 254 255 256 257 258 259 260 261 262 263 264 265 266 267 268 269 270 271 272 273 274 275 276 277 278 279 280 281 282 283 284 285 286 287 288 289 290 291 292 293 294 295 296 297 298 299 300 301 302 303 304 305 306 307 308 309 310 311 312 313 314 315 316 317 318 319 320 321 322 323 324 325 326 327 328 329 330 331 332 333 334 335 336 337 338 339 340 341 342 343 344 345 346 347 348 349 350 351 352 353 354 355 356 357 358 359 360 361 362 363 364 365 366 367 368 369 370 371 372 373 374 375 376 377 378 379 380 381 382 383 384 385 386 387 388 389 390 391 392 393 394 395 396 397 398 399 400 401 402 403 404 405 406 407 408 409 410 411 412 413 414 415 416 417 418 419 420 421 422 423 424 425 426 427 428 429 430 431 432 433 434 435 436 437 438 439 440 441 442 443 444 445 446 447 448 449 450 451 452 453 454 455 456 457 458 459 460 461 462 463 464 465 466 467 468 469 470 471 472 473 474 475 476 477 478 479 480 481 482 483 484 485 486 487 488 489 490 491 492 493 494 495 496 497 498 499 500 501 502 503 504 505 506 507 508 509 510 511 512 513 514 515 516 517 518 519 520 521 522 523 524 525 526 527 528 529 530 531 532 533 534 535 536 537 538 539 540 541 542 543 544 545 546 547 548 549 550 551 552 553 554 555 556 557 558 559 560 561 562 563 564 565 566 567 568 569 570 571 572 573 574 575 576 577 578 579 580 581 582 583 584 585 586 587 588 589 590 591 592 593 594 595 596 597 598 599 600 601 602 603 604 605 606 607 608 609 610 611 612 613 614 615 616 617 618 619 620 621 622 623 624 625 626 627 628 629 630 631 632 633 634 635 636 637 638 639 640 641 642 643 644 645 646 647 648 649 650 651 652 653 654 655 656 657 658 659 660 661 662 663 664 665 666 667 668 669 670 671 672 673 674 675 676 677 678 679 680 681 682 683 684 685 686 687 688 689 690 691 692 693 694 695 696 697 698 699 700 701 702 703 704 705 706 707 708 709 710 711 712 713 714 715 716 717 718 719 720 721 722 723 724 725 726 727 728 729 730 731 732 733 734 735 736 737 738 739 740 741 742 743 744 745 746 747 748 749 750 751 752 753 754 755 756 757 758 759 760 761 762 763 764 765 766 767 768 769 770 771 772 773 774 775 776 777 778 779 780 781 782 783 784 785 786 787 788 789 790 791 792 793 794 795 796 797 798 799 800 801 802 803 804 805 806 807 808 809 810 811 812 813 814 815 816 817 818 819 820 821 822 823 824 825 826 827 828 829 830 831 832 833 834 835 836 837 838 839 840 841 842 843 844 845 846 847 848 849 850 851 852 853 854 855 856 857 858 859 860 861 862 863 864 865 866 867 868 869 870 871 872 873 874 875 876 877 878 879 880 881 882 883 884 885 886 887 888 889 890 891 892 893 894 895 896 897 898 899 900 901 902 903 904 905 906 907 908 909 910 911 912 913 914 915 916 917 918 919 920 921 922 923 924 925 926 927 928 929 930 931 932 933 934 935 936 937 938 939 940 941 942 943 944 945 946 947 948 949 950 951 952 953 954 955 956 957 958 959 960 961 962 963 964 965 966 967 968 969 970 971 972 973 974 975 976 977 978 979 980 981 982 983 984 985 986 987 988 989 990 991 992 993 994 995 996 997 998 999 1000 1001 1002 1003 1004 1005 1006 1007 1008 1009 1010 1011 1012 1013 1014 1015 1016 1017 1018 1019 1020 1021 1022 1023 1024 1025 1026 1027 1028 1029 1030 1031 1032 1033 1034 1035 1036 1037 1038 1039 1040 1041 1042 1043 1044 1045 1046 1047 1048 1049 1050 1051 1052 1053 1054 1055 1056 1057 1058 1059 1060 1061 1062 1063 1064 1065 1066 1067 1068 1069 1070 1071 1072 1073 1074 1075 1076 1077 1078 1079 1080 1081 1082 1083 1084 1085 1086 1087 1088 1089 1090 1091 1092 1093 1094 1095 1096 1097 1098 1099 1100 1101 1102 1103 1104 1105 1106 1107 1108 1109 1110 1111 1112 1113 1114 1115 1116 1117 1118 1119 1120 1121 1122 1123 1124 1125 1126 1127 1128 1129 1130 1131 1132 1133 1134 1135 1136 1137 1138 1139 1140 1141 1142 1143 1144 1145 1146 1147 1148 1149 1150 1151 1152 1153 1154 1155 1156 1157 1158 1159 1160 1161 1162 1163 1164 1165 1166 1167 1168 1169 1170 1171 1172 1173 1174 1175 1176 1177 1178 1179 1180 1181 1182 1183 1184 1185 1186 1187 1188 1189 1190 1191 1192 1193 1194 1195 1196 1197 1198 1199 1200 1201 1202 1203 1204 1205 1206 1207 1208 1209 1210 1211 1212 1213 1214 1215 1216 1217 1218 1219 1220 1221 1222 1223 1224 1225 1226 1227 1228 1229 1230 1231 1232 1233 1234 1235 1236 1237 1238 1239 1240 1241 1242 1243 1244 1245 1246 1247 1248 1249 1250 1251 1252 1253 1254 1255 1256 1257 1258 1259 1260 1261 1262 1263 1264 1265 1266 1267 1268 1269 1270 1271 1272 1273 1274 1275 1276 1277 1278 1279 1280 1281 1282 1283 1284 1285 1286 1287 1288 1289 1290 1291 1292 1293 1294 1295 1296 1297 1298 1299 1300 1301 1302 1303 1304 1305 1306 1307 1308 1309 1310 1311 1312 1313 1314 1315 1316 1317 1318 1319 1320 1321 1322 1323 1324 1325 1326 1327 1328 1329 1330 1331 1332 1333 1334 1335 1336 1337 1338 1339 1340 1341 1342 1343 1344 1345 1346 1347 1348 1349 1350 1351 1352 1353 1354 1355 1356 1357 1358 1359 1360 1361 1362 1363 1364 1365 1366 1367 1368 1369 1370 1371 1372 1373 1374 1375 1376 1377 1378 1379 1380 1381 1382 1383 1384 1385 1386 1387 1388 1389 1390 1391 1392 1393 1394 1395 1396 1397 1398 1399 1400 1401 1402 1403 1404 1405 1406 1407 1408 1409 1410 1411 1412 1413 1414 1415 1416 1417 1418 1419 1420 1421 1422 1423 1424 1425 1426 1427 1428 1429 1430 1431 1432 1433 1434 1435 1436 1437 1438 1439 1440 1441 1442 1443 1444 1445 1446 1447 1448 1449 1450 1451 1452 1453 1454 1455 1456 1457 1458 1459 1460 1461 1462 1463 1464 1465 1466 1467 1468 1469 1470 1471 1472 1473 1474 1475 1476 1477 1478 1479 1480 1481 1482 1483 1484 1485 1486 1487 1488 1489 1490 1491 1492 1493 1494 1495 1496 1497 1498 1499 1500 1501 1502 1503 1504 1505 1506 1507 1508 1509 1510 1511 1512 1513 1514 1515 1516 1517 1518 1519 1520 1521 1522 1523 1524 1525 1526 1527 1528 1529 1530 1531 1532 1533 1534 1535 1536 1537 1538 1539 1540 1541 1542 1543 1544 1545 1546 1547 1548 1549 1550 1551 1552 1553 1554 1555 1556 1557 1558 1559 1560 1561 1562 1563 1564 1565 1566 1567 1568 1569 1570 1571 1572 1573 1574 1575 1576 1577 1578 1579 1580 1581 1582 1583 1584 1585 1586 1587 1588 1589 1590 1591 1592 1593 1594 1595 1596 1597 1598 1599 1600 1601 1602 1603 1604 1605 1606 1607 1608 1609 1610 1611 1612 1613 1614 1615 1616 1617 1618 1619 1620 1621 1622 1623 1624 1625 1626 1627 1628 1629 1630 1631 1632 1633 1634 1635 1636 1637 1638 1639 1640 1641 1642 1643 1644 1645 1646 1647 1648 1649 1650 1651 1652 1653 1654 1655 1656 1657 1658 1659 1660 1661 1662 1663 1664 1665 1666 1667 1668 1669 1670 1671 1672 1673 1674 1675 1676 1677 1678 1679 1680 1681 1682 1683 1684 1685 1686 1687 1688 1689 1690 1691 1692 1693 1694 1695 1696 1697 1698 1699 1700 1701 1702 1703 1704 1705 1706 1707 1708 1709 1710 1711 1712 1713 1714 1715 1716 1717 1718 1719 1720 1721 1722 1723 1724 1725 1726 1727 1728 1729 1730 1731 1732 1733 1734 1735 1736 1737 1738 1739 1740 1741 1742 1743 1744 1745 1746 1747 1748 1749 1750 1751 1752 1753 1754 1755 1756 1757 1758 1759 1760 1761 1762 1763 1764 1765 1766 1767 1768 1769 1770 1771 1772 1773 1774 1775 1776 1777 1778 1779 1780 1781 1782 1783 1784 1785 1786 1787 1788 1789 1790 1791 1792 1793 1794 1795 1796 1797 1798 1799 1800 1801 1802 1803 1804 1805 1806 1807 1808 1809 1810 1811 1812 1813 1814 1815 1816 1817 1818 1819 1820 1821 1822 1823 1824 1825 1826 1827 1828 1829 1830 1831 1832 1833 1834 1835 1836 1837 1838 1839 1840 1841 1842 1843 1844 1845 1846 1847 1848 1849 1850 1851 1852 1853 1854 1855 1856 1857 1858 1859 1860 1861 1862 1863 1864 1865 1866 1867 1868 1869 1870 1871 1872 1873 1874 1875 1876 1877 1878 1879 1880 1881 1882 1883 1884 1885 1886 1887 1888 1889 1890 1891 1892 1893 1894 1895 1896 1897 1898 1899 1900 1901 1902 1903 1904 1905 1906 1907 1908 1909 1910 1911 1912 1913 1914 1915 1916 1917 1918 1919 1920 1921 1922 1923 1924 1925 1926 1927 1928 1929 1930 1931 1932 1933 1934 1935 1936 1937 1938 1939 1940 1941 1942 1943 1944 1945 1946 1947 1948 1949 1950 1951 1952 1953 1954 1955 1956 1957 1958 1959 1960 1961 1962 1963 1964 1965 1966 1967 1968 1969 1970 1971 1972 1973 1974 1975 1976 1977 1978 1979 1980 1981 1982 1983 1984 1985 1986 1987 1988 1989 1990 1991 1992 1993 1994 1995 1996 1997 1998 1999 2000 2001 2002 2003 2004 2005 2006 2007 2008 2009 2010 2011 2012 2013 2014 2015 2016 2017 2018 2019 2020 2021 2022 2023 2024 2025 2026 2027 2028 2029 2030 2031 2032 2033 2034 2035 2036 2037 2038 2039 2040 2041 2042 2043 2044 2045 2046 2047 2048 2049 2050 2051 2052 2053 2054 2055 2056 2057 2058 2059 2060 2061 2062 2063 2064 2065 2066 2067 2068 2069 2070 2071 2072 2073 2074 2075 2076 2077 2078 2079 2080 2081 2082 2083 2084 2085 2086 2087 2088 2089 2090 2091 2092 2093 2094 2095 2096 2097 2098 2099 2100 2101 2102 2103 2104 2105 2106 2107 2108 2109 2110 2111 2112 2113 2114 2115 2116 2117 2118 2119 2120 2121 2122 2123 2124 2125 2126 2127 2128 2129 2130 2131 2132 2133 2134 2135 2136 2137 2138 2139 2140 2141 2142 2143 2144 2145 2146 2147 2148 2149 2150 2151 2152 2153 2154 2155 2156 2157 2158 2159 2160 2161 2162 2163 2164 2165 2166 2167 2168 2169 2170 2171 2172 2173 2174 2175 2176 2177 2178 2179 2180 2181 2182 2183 2184 2185 2186 2187 2188 2189 2190 2191 2192 2193 2194 2195 2196 2197 2198 2199 2200 2201 2202 2203 2204 2205 2206 2207 2208 2209 2210 2211 2212 2213 2214 2215 2216 2217 2218 2219 2220 2221 2222 2223 2224 2225 2226 2227 2228 2229 2230 2231 2232 2233 2234 2235 2236 2237 2238 2239 2240 2241 2242 2243 2244 2245 2246 2247 2248 2249 2250 2251 2252 2253 2254 2255 2256 2257 2258 2259 2260 2261 2262 2263 2264 2265 2266 2267 2268 2269 2270 2271 2272 2273 2274 2275 2276 2277 2278 2279 2280 2281 2282 2283 2284 2285 2286 2287 2288 2289 2290 2291 2292 2293 2294 2295 2296 2297 2298 2299 2300 2301 2302 2303 2304 2305 2306 2307 2308 2309 2310 2311 2312 2313 2314 2315 2316 2317 2318 2319 2320 2321 2322 2323 2324 2325 2326 2327 2328 2329 2330 2331 2332 2333 2334 2335 2336 2337 2338 2339 2340 2341 2342 2343 2344 2345 2346 2347 2348 2349 2350 2351 2352 2353 2354 2355 2356 2357 2358 2359 2360 2361 2362 2363 2364 2365 2366 2367 2368 2369 2370 2371 2372 2373 2374 2375 2376 2377 2378 2379 2380 2381 2382 2383 2384 2385 2386 2387 2388 2389 2390 2391 2392 2393 2394 2395 2396 2397 2398 2399 2400 2401 2402 2403 2404 2405 2406 2407 2408 2409 2410 2411 2412 2413 2414 2415 2416 2417 2418 2419 2420 2421 2422 2423 2424 2425 2426 2427 2428 2429 2430 2431 2432 2433 2434 2435 2436 2437 2438 2439 2440 2441 2442 2443 2444 2445 2446 2447 2448 2449 2450 2451 2452 2453 2454 2455 2456 2457 2458 2459 2460 2461 2462 2463 2464 2465 2466 2467 2468 2469 2470 2471 2472 2473 2474 2475 2476 2477 2478 2479 2480 2481 2482 2483 2484 2485 2486 2487 2488 2489 2490 2491 2492 2493 2494 2495 2496 2497 2498 2499 2500 2501 2502 2503 2504 2505 2506 2507 2508 2509 2510 2511 2512 2513 2514 2515 2516 2517 2518 2519 2520 2521 2522 2523 2524 2525 2526 2527 2528 2529 2530 2531 2532 2533 2534 2535 2536 2537 2538 2539 2540 2541 2542 2543 2544 2545 2546 2547 2548 2549 2550 2551 2552 2553 2554 2555 2556 2557 2558 2559 2560 2561 2562 2563 2564 2565 2566 2567 2568 2569 2570 2571 2572 2573 2574 2575 2576 2577 2578 2579 2580 2581 2582 2583 2584 2585 2586 2587 2588 2589 2590 2591 2592 2593 2594 2595 2596 2597 2598 2599 2600 2601 2602 2603 2604 2605 2606 2607 2608 2609 2610 2611 2612 2613 2614 2615 2616 2617 2618 2619 2620 2621 2622 2623 2624 2625 2626 2627 2628 2629 2630 2631 2632 2633 2634 2635 2636 2637 2638 2639 2640 2641 2642 2643 2644 2645 2646 2647 2648 2649 2650 2651 2652 2653 2654 2655 2656 2657 2658 2659 2660 2661 2662 2663 2664 2665 2666 2667 2668 2669 2670 2671 2672 2673 2674 2675 2676 2677 2678 2679 2680 2681 2682 2683 2684 2685 2686 2687 2688 2689 2690 2691 2692 2693 2694 2695 2696 2697 2698 2699 2700 2701 2702 2703 2704 2705 2706 2707 2708 2709 2710 2711 2712 2713 2714 2715 2716 2717 2718 2719 2720 2721 2722 2723 2724 2725 2726 2727 2728 2729 2730 2731 2732 2733 2734 2735 2736 2737 2738 2739 2740 2741 2742 2743 2744 2745 2746 2747 2748 2749 2750 2751 2752 2753 2754 2755 2756 2757 2758 2759 2760 2761 2762 2763 2764 2765 2766 2767 2768 2769 2770 2771 2772 2773 2774 2775 2776 2777 2778 2779 2780 2781 2782 2783 2784 2785 2786 2787 2788 2789 2790 2791 2792 2793 2794 2795 2796 2797 2798 2799 2800 2801 2802 2803 2804 2805 2806 2807 2808 2809 2810 2811 2812 2813 2814 2815 2816 2817 2818 2819 2820 2821 2822 2823 2824 2825 2826 2827 2828 2829 2830 2831 2832 2833 2834 2835 2836 2837 2838 2839 2840 2841 2842 2843 2844 2845 2846 2847 2848 2849 2850 2851 2852 2853 2854 2855 2856 2857 2858 2859 2860 2861 2862 2863 2864 2865 2866 2867 2868 2869 2870 2871 2872 2873 2874 2875 2876 2877 2878 2879 2880 2881 2882 2883 2884 2885 2886 2887 2888 2889 2890 2891 2892 2893 2894 2895 2896 2897 2898 2899 2900 2901 2902 2903 2904 2905 2906 2907 2908 2909 2910 2911 2912 2913 2914 2915 2916 2917 2918 2919 2920 2921 2922 2923 2924 2925 2926 2927 2928 2929 2930 2931 2932 2933 2934 2935 2936 2937 2938 2939 2940 2941 2942 2943 2944 2945 2946 2947 2948 2949 2950 2951 2952 2953 2954 2955 2956 2957 2958 2959 2960 2961 2962 2963 2964 2965 2966 2967 2968 2969 2970 2971 2972 2973 2974 2975 2976 2977 2978 2979 2980 2981 2982 2983 2984 2985 2986 2987 2988 2989 2990 2991 2992 2993 2994 2995 2996 2997 2998 2999 3000 3001 3002 3003 3004 3005 3006 3007 3008 3009 3010 3011 3012 3013 3014 3015 3016 3017 3018 3019 3020 3021 3022 3023 3024 3025 3026 3027 3028 3029 3030 3031 3032 3033 3034 3035 3036 3037 3038 3039 3040 3041 3042 3043 3044 3045 3046 3047 3048 3049 3050 3051 3052 3053 3054 3055 3056 3057 3058 3059 3060 3061 3062 3063 3064 3065 3066 3067 3068 3069 3070 3071 3072 3073 3074 3075 3076 3077 3078 3079 3080 3081 3082 3083 3084 3085 3086 3087 3088 3089 3090 3091 3092 3093 3094 3095 3096 3097 3098 3099 3100 3101 3102 3103 3104 3105 3106 3107 3108 3109 3110 3111 3112 3113 3114 3115 3116 3117 3118 3119 3120 3121 3122 3123 3124 3125 3126 3127 3128 3129 3130 3131 3132 3133 3134 3135 3136 3137 3138 3139 3140 3141 3142 3143 3144 3145 3146 3147 3148 3149 3150 3151 3152 3153 3154 3155 3156 3157 3158 3159 3160 3161 3162 3163 3164 3165 3166 3167 3168 3169 3170 3171 3172 3173 3174 3175 3176 3177 3178 3179 3180 3181 3182 3183 3184 3185 3186 3187 3188 3189 3190 3191 3192 3193 3194 3195 3196 3197 3198 3199 3200 3201 3202 3203 3204 3205 3206 3207 3208 3209 3210 3211 3212 3213 3214 3215 3216 3217 3218 3219 3220 3221 3222 3223 3224 3225 3226 3227 3228 3229 3230 3231 3232 3233 3234 3235 3236 3237 3238 3239 3240 3241 3242 3243 3244 3245 3246 3247 3248 3249 3250 3251 3252 3253 3254 3255 3256 3257 3258 3259 3260 3261 3262 3263 3264 3265 3266 3267 3268 3269 3270 3271 3272 3273 3274 3275 3276 3277 3278 3279 3280 3281 3282 3283 3284 3285 3286 3287 3288 3289 3290 3291 3292 3293 3294 3295 3296 3297 3298 3299 3300 3301 3302 3303 3304 3305 3306 3307 3308 3309 3310 3311 3312 3313 3314 3315 3316 3317 3318 3319 3320 3321 3322 3323 3324 3325 3326 3327 3328 3329 3330 3331 3332 3333 3334 3335 3336 3337 3338 3339 3340 3341 3342 3343 3344 3345 3346 3347 3348 3349 3350 3351 3352 3353 3354 3355 3356 3357 3358 3359 3360 3361 3362 3363 3364 3365 3366 3367 3368 3369 3370 3371 3372 3373 3374 3375 3376 3377 3378 3379 3380 3381 3382 3383 3384 3385 3386 3387 3388 3389 3390 3391 3392 3393 3394 3395 3396 3397 3398 3399 3400 3401 3402 3403 3404 3405 3406 3407 3408 3409 3410 3411 3412 3413 3414 3415 3416 3417 3418 3419 3420 3421 3422 3423 3424 3425 3426 3427 3428 3429 3430 3431 3432 3433 3434 3435 3436 3437 3438 3439 3440 3441 3442 3443 3444 3445 3446 3447 3448 3449 3450 3451 3452 3453 3454 3455 3456 3457 3458 3459 3460 3461 3462 3463 3464 3465 3466 3467 3468 3469 3470 3471 3472 3473 3474 3475 3476 3477 3478 3479 3480 3481 3482 3483 3484 3485 3486 3487 3488 3489 3490 3491 3492 3493 3494 3495 3496 3497 3498 3499 3500 3501 3502 3503 3504 3505 3506 3507 3508 3509 3510 3511 3512 3513 3514 3515 3516 3517 3518 3519 3520 3521 3522 3523 3524 3525 3526 3527 3528 3529 3530 3531 3532 3533 3534 3535 3536 3537 3538 3539 3540 3541 3542 3543 3544 3545 3546 3547 3548 3549 3550 3551 3552 3553 3554 3555 3556 3557 3558 3559 3560 3561 3562 3563 3564 3565 3566 3567 3568 3569 3570 3571 3572 3573 3574 3575 3576 3577 3578 3579 3580 3581 3582 3583 3584 3585 3586 3587 3588 3589 3590 3591 3592 3593 3594 3595 3596 3597 3598 3599 3600 3601 3602 3603 3604 3605 3606 3607 3608 3609 3610 3611 3612 3613 3614 3615 3616 3617 3618 3619 3620 3621 3622 3623 3624 3625 3626 3627 3628 3629 3630 3631 3632 3633 3634 3635 3636 3637 3638 3639 3640 3641 3642 3643 3644 3645 3646 3647 3648 3649 3650 3651 3652 3653 3654 3655 3656 3657 3658 3659 3660 3661 3662 3663 3664 3665 3666 3667 3668 3669 3670 3671 3672 3673 3674 3675 3676 3677 3678 3679 3680 3681 3682 3683 3684 3685 3686 3687 3688 3689 3690 3691 3692 3693 3694 3695 3696 3697 3698 3699 3700 3701 3702 3703 3704 3705 3706 3707 3708 3709 3710 3711 3712 3713 3714 3715 3716 3717 3718 3719 3720 3721 3722 3723 3724 3725 3726 3727 3728 3729 3730 3731 3732 3733 3734 3735 3736 3737 3738 3739 3740 3741 3742 3743 3744 3745 3746 3747 3748 3749 3750 3751 3752 3753 3754 3755 3756 3757 3758 3759 3760 3761 3762 3763 3764 3765 3766 3767 3768 3769 3770 3771 3772 3773 3774 3775 3776 3777 3778 3779 3780 3781 3782 3783 3784 3785 3786 3787 3788 3789 3790 3791 3792 3793 3794 3795 3796 3797 3798 3799 3800 3801 3802 3803 3804 3805 3806 3807 3808 3809 3810 3811 3812 3813 3814 3815 3816 3817 3818 3819 3820 3821 3822 3823 3824 3825 3826 3827 3828 3829 3830 3831 3832 3833 3834 3835 3836 3837 3838 3839 3840 3841 3842 3843 3844 3845 3846 3847 3848 3849 3850 3851 3852 3853 3854 3855 3856 3857 3858 3859 3860 3861 3862 3863 3864 3865 3866 3867 3868 3869 3870 3871 3872 3873 3874 3875 3876 3877 3878 3879 3880 3881 3882 3883 3884 3885 3886 3887 3888 3889 3890 3891 3892 3893 3894 3895 3896 3897 3898 3899 3900 3901 3902 3903 3904 3905 3906 3907 3908 3909 3910 3911 3912 3913 3914 3915 3916 3917 3918 3919 3920 3921 3922 3923 3924 3925 3926 3927 3928 3929 3930 3931 3932 3933 3934 3935 3936 3937 3938 3939 3940 3941 3942 3943 3944 3945 3946 3947 3948 3949 3950 3951 3952 3953 3954 3955 3956 3957 3958 3959 3960 3961 3962 3963 3964 3965 3966 3967 3968 3969 3970 3971 3972 3973 3974 3975 3976 3977 3978 3979 3980 3981 3982 3983 3984 3985 3986 3987 3988 3989 3990 3991 3992 3993 3994 3995 3996 3997 3998 3999 4000 4001 4002 4003 4004 4005 4006 4007 4008 4009 4010 4011 4012 4013 4014 4015 4016 4017 4018 4019 4020 4021 4022 4023 4024 4025 4026 4027 4028 4029 4030 4031 4032 4033 4034 4035 4036 4037 4038 4039 4040 4041 4042 4043 4044 4045 4046 4047 4048 4049 4050 4051 4052 4053 4054 4055 4056 4057 4058 4059 4060 4061 4062 4063 4064 4065 4066 4067 4068 4069 4070 4071 4072 4073 4074 4075 4076 4077 4078 4079 4080 4081 4082 4083 4084 4085 4086 4087 4088 4089 4090 4091 4092 4093 4094 4095 4096 4097 4098 4099 4100 4101 4102 4103 4104 4105 4106 4107 4108 4109 4110 4111 4112 4113 4114 4115 4116 4117 4118 4119 4120 4121 4122 4123 4124 4125 4126 4127 4128 4129 4130 4131 4132 4133 4134 4135 4136 4137 4138 4139 4140 4141 4142 4143 4144 4145 4146 4147 4148 4149 4150 4151 4152 4153 4154 4155 4156 4157 4158 4159 4160 4161 4162 4163 4164 4165 4166 4167 4168 4169 4170 4171 4172 4173 4174 4175 4176 4177 4178 4179 4180 4181 4182 4183 4184 4185 4186 4187 4188 4189 4190 4191 4192 4193 4194 4195 4196 4197 4198 4199 4200 4201 4202 4203 4204 4205 4206 4207 4208 4209 4210 4211 4212 4213 4214 4215 4216 4217 4218 4219 4220 4221 4222 4223 4224 4225 4226 4227 4228 4229 4230 4231 4232 4233 4234 4235 4236 4237 4238 4239 4240 4241 4242 4243 4244 4245 4246 4247 4248 4249 4250 4251 4252 4253 4254 4255 4256 4257 4258 4259 4260 4261 4262 4263 4264 4265 4266 4267 4268 4269 4270 4271 4272 4273 4274 4275 4276 4277 4278 4279 4280 4281 4282 4283 4284 4285 4286 4287 4288 4289 4290 4291 4292 4293 4294 4295 4296 4297 4298 4299 4300 4301 4302 4303 4304 4305 4306 4307 4308 4309 4310 4311 4312 4313 4314 4315 4316 4317 4318 4319 4320 4321 4322 4323 4324 4325 4326 4327 4328 4329 4330 4331 4332 4333 4334 4335 4336 4337 4338 4339 4340 4341 4342 4343 4344 4345 4346 4347 4348 4349 4350 4351 4352 4353 4354 4355 4356 4357 4358 4359 4360 4361 4362 4363 4364 4365 4366 4367 4368 4369 4370 4371 4372 4373 4374 4375 4376 4377 4378 4379 4380 4381 4382 4383 4384 4385 4386 4387 4388 4389 4390 4391 4392 4393 4394 4395 4396 4397 4398 4399 4400 4401 4402 4403 4404 4405 4406 4407 4408 4409 4410 4411 4412 4413 4414 4415 4416 4417 4418 4419 4420 4421 4422 4423 4424 4425 4426 4427 4428 4429 4430 4431 4432 4433 4434 4435 4436 4437 4438 4439 4440 4441 4442 4443 4444 4445 4446 4447 4448 4449 4450 4451 4452 4453 4454 4455 4456 4457 4458 4459 4460 4461 4462 4463 4464 4465 4466 4467 4468 4469 4470 4471 4472 4473 4474 4475 4476 4477 4478 4479 4480 4481 4482 4483 4484 4485 4486 4487 4488 4489 4490 4491 4492 4493 4494 4495 4496 4497 4498 4499 4500 4501 4502 4503 4504 4505 4506 4507 4508 4509 4510 4511 4512 4513 4514 4515 4516 4517 4518 4519 4520 4521 4522 4523 4524 4525 4526 4527 4528 4529 4530 4531 4532 4533 4534 4535 4536 4537 4538 4539 4540 4541 4542 4543 4544 4545 4546 4547 4548 4549 4550 4551 4552 4553 4554 4555 4556 4557 4558 4559 4560 4561 4562 4563 4564 4565 4566 4567 4568 4569 4570 4571 4572 4573 4574 4575 4576 4577 4578 4579 4580 4581 4582 4583 4584 4585 4586 4587 4588 4589 4590 4591 4592 4593 4594 4595 4596 4597 4598 4599 4600 4601 4602 4603 4604 4605 4606 4607 4608 4609 4610 4611 4612 4613 4614 4615 4616 4617 4618 4619 4620 4621 4622 4623 4624 4625 4626 4627 4628 4629 4630 4631 4632 4633 4634 4635 4636 4637 4638 4639 4640 4641 4642 4643 4644 4645 4646 4647 4648 4649 4650 4651 4652 4653 4654 4655 4656 4657 4658 4659 4660 4661 4662 4663 4664 4665 4666 4667 4668 4669 4670 4671 4672 4673 4674 4675 4676 4677 4678 4679 4680 4681 4682 4683 4684 4685 4686 4687 4688 4689 4690 4691 4692 4693 4694 4695 4696 4697 4698 4699 4700 4701 4702 4703 4704 4705 4706 4707 4708 4709 4710 4711 4712 4713 4714 4715 4716 4717 4718 4719 4720 4721 4722 4723 4724 4725 4726 4727 4728 4729 4730 4731 4732 4733 4734 4735 4736 4737 4738 4739 4740 4741 4742 4743 4744 4745 4746 4747 4748 4749 4750 4751 4752 4753 4754 4755 4756 4757 4758 4759 4760 4761 4762 4763 4764 4765 4766 4767 4768 4769 4770 4771 4772 4773 4774 4775 4776 4777 4778 4779 4780 4781 4782 4783 4784 4785 4786 4787 4788 4789 4790 4791 4792 4793 4794 4795 4796 4797 4798 4799 4800 4801 4802 4803 4804 4805 4806 4807 4808 4809 4810 4811 4812 4813 4814 4815 4816 4817 4818 4819 4820 4821 4822 4823 4824 4825 4826 4827 4828 4829 4830 4831 4832 4833 4834 4835 4836 4837 4838 4839 4840 4841 4842 4843 4844 4845 4846 4847 4848 4849 4850 4851 4852 4853 4854 4855 4856 4857 4858 4859 4860 4861 4862 4863 4864 4865 4866 4867 4868 4869 4870 4871 4872 4873 4874 4875 4876 4877 4878 4879 4880 4881 4882 4883 4884 4885 4886 4887 4888 4889 4890 4891 4892 4893 4894 4895 4896 4897 4898 4899 4900 4901 4902 4903 4904 4905 4906 4907 4908 4909 4910 4911 4912 4913 4914 4915 4916 4917 4918 4919 4920 4921 4922 4923 4924 4925 4926 4927 4928 4929 4930 4931 4932 4933 4934 4935 4936 4937 4938 4939 4940 4941 4942 4943 4944 4945 4946 4947 4948 4949 4950 4951 4952 4953 4954 4955 4956 4957 4958 4959 4960 4961 4962 4963 4964 4965 4966 4967 4968 4969 4970 4971 4972 4973 4974 4975 4976 4977 4978 4979 4980 4981 4982 4983 4984 4985 4986 4987 4988 4989 4990 4991 4992 4993 4994 4995 4996 4997 4998 4999 5000 5001 5002 5003 5004 5005 5006 5007 5008 5009 5010 5011 5012 5013 5014 5015 5016 5017 5018 5019 5020 5021 5022 5023 5024 5025 5026 5027 5028 5029 5030 5031 5032 5033 5034 5035 5036 5037 5038 5039 5040 5041 5042 5043 5044 5045 5046 5047 5048 5049 5050 5051 5052 5053 5054 5055 5056 5057 5058 5059 5060 5061 5062 5063 5064 5065 5066 5067 5068 5069 5070 5071 5072 5073 5074 5075 5076 5077 5078 5079 5080 5081 5082 5083 5084 5085 5086 5087 5088 5089 5090 5091 5092 5093 5094 5095 5096 5097 5098 5099 5100 5101 5102 5103 5104 5105 5106 5107 5108 5109 5110 5111 5112 5113 5114 5115 5116 5117 5118 5119 5120 5121 5122 5123 5124 5125 5126 5127 5128 5129 5130 5131 5132 5133 5134 5135 5136 5137 5138 5139 5140 5141 5142 5143 5144 5145 5146 5147 5148 5149 5150 5151 5152 5153 5154 5155 5156 5157 5158 5159 5160 5161 5162 5163 5164 5165 5166 5167 5168 5169 5170 5171 5172 5173 5174 5175 5176 5177 5178 5179 5180 5181 5182 5183 5184 5185 5186 5187 5188 5189 5190 5191 5192 5193 5194 5195 5196 5197 5198 5199 5200 5201 5202 5203 5204 5205 5206 5207 5208 5209 5210 5211 5212 5213 5214 5215 5216 5217 5218 5219 5220 5221 5222 5223 5224 5225 5226 5227 5228 5229 5230 5231 5232 5233 5234 5235 5236 5237 5238 5239 5240 5241 5242 5243 5244 5245 5246 5247 5248 5249 5250 5251 5252 5253 5254 5255 5256 5257 5258 5259 5260 5261 5262 5263 5264 5265 5266 5267 5268 5269 5270 5271 5272 5273 5274 5275 5276 5277 5278 5279 5280 5281 5282 5283 5284 5285 5286 5287 5288 5289 5290 5291 5292 5293 5294 5295 5296 5297 5298 5299 5300 5301 5302 5303 5304 5305 5306 5307 5308 5309 5310 5311 5312 5313 5314 5315 5316 5317 5318 5319 5320 5321 5322 5323 5324 5325 5326 5327 5328 5329 5330 5331 5332 5333 5334 5335 5336 5337 5338 5339 5340 5341 5342 5343 5344 5345 5346 5347 5348 5349 5350 5351 5352 5353 5354 5355 5356 5357 5358 5359 5360 5361 5362 5363 5364 5365 5366 5367 5368 5369 5370 5371 5372 5373 5374 5375 5376 5377 5378 5379 5380 5381 5382 5383 5384 5385 5386 5387 5388 5389 5390 5391 5392 5393 5394 5395 5396 5397 5398 5399 5400 5401 5402 5403 5404 5405 5406 5407 5408 5409 5410 5411 5412 5413 5414 5415 5416 5417 5418 5419 5420 5421 5422 5423 5424 5425 5426 5427 5428 5429 5430 5431 5432 5433 5434 5435 5436 5437 5438 5439 5440 5441 5442 5443 5444 5445 5446 5447 5448 5449 5450 5451 5452 5453 5454 5455 5456 5457 5458 5459 5460 5461 5462 5463 5464 5465 5466 5467 5468 5469 5470 5471 5472 5473 5474 5475 5476 5477 5478 5479 5480 5481 5482 5483 5484 5485 5486 5487 5488 5489 5490 5491 5492 5493 5494 5495 5496 5497 5498 5499 5500 5501 5502 5503 5504 5505 5506 5507 5508 5509 5510 5511 5512 5513 5514 5515 5516 5517 5518 5519 5520 5521 5522 5523 5524 5525 5526 5527 5528 5529 5530 5531 5532 5533 5534 5535 5536 5537 5538 5539 5540 5541 5542 5543 5544 5545 5546 5547 5548 5549 5550 5551 5552 5553 5554 5555 5556 5557 5558 5559 5560 5561 5562 5563 5564 5565 5566 5567 5568 5569 5570 5571 5572 5573 5574 5575 5576 5577 5578 5579 5580 5581 5582 5583 5584 5585 5586 5587 5588 5589 5590 5591 5592 5593 5594 5595 5596 5597 5598 5599 5600 5601 5602 5603 5604 5605 5606 5607 5608 5609 5610 5611 5612 5613 5614 5615 5616 5617 5618 5619 5620 5621 5622 5623 5624 5625 5626 5627 5628 5629 5630 5631 5632 5633 5634 5635 5636 5637 5638 5639 5640 5641 5642 5643 5644 5645 5646 5647 5648 5649 5650 5651 5652 5653 5654 5655 5656 5657 5658 5659 5660 5661 5662 5663 5664 5665 5666 5667 5668 5669 5670 5671 5672 5673 5674 5675 5676 5677 5678 5679 5680 5681 5682 5683 5684 5685 5686 5687 5688 5689 5690 5691 5692 5693 5694 5695 5696 5697 5698 5699 5700 5701 5702 5703 5704 5705 5706 5707 5708 5709 5710 5711 5712 5713 5714 5715 5716 5717 5718 5719 5720 5721 5722 5723 5724 5725 5726 5727 5728 5729 5730 5731 5732 5733 5734 5735 5736 5737 5738 5739 5740 5741 5742 5743 5744 5745 5746 5747 5748 5749 5750 5751 5752 5753 5754 5755 5756 5757 5758 5759 5760 5761 5762 5763 5764 5765 5766 5767 5768 5769 5770 5771 5772 5773 5774 5775 5776 5777 5778 5779 5780 5781 5782 5783 5784 5785 5786 5787 5788 5789 5790 5791 5792 5793 5794 5795 5796 5797 5798 5799 5800 5801 5802 5803 5804 5805 5806 5807 5808 5809 5810 5811 5812 5813 5814 5815 5816 5817 5818 5819 5820 5821 5822 5823 5824 5825 5826 5827 5828 5829 5830 5831 5832 5833 5834 5835 5836 5837 5838 5839 5840 5841 5842 5843 5844 5845 5846 5847 5848 5849 5850 5851 5852 5853 5854 5855 5856 5857 5858 5859 5860 5861 5862 5863 5864 5865 5866 5867 5868 5869 5870 5871 5872 5873 5874 5875 5876 5877 5878 5879 5880 5881 5882 5883 5884 5885 5886 5887 5888 5889 5890 5891 5892 5893 5894 5895 5896 5897 5898 5899 5900 5901 5902 5903 5904 5905 5906 5907 5908 5909 5910 5911 5912 5913 5914 5915 5916 5917 5918 5919 5920 5921 5922 5923 5924 5925 5926 5927 5928 5929 5930 5931 5932 5933 5934 5935 5936 5937 5938 5939 5940 5941 5942 5943 5944 5945 5946 5947 5948 5949 5950 5951 5952 5953 5954 5955 5956 5957 5958 5959 5960 5961 5962 5963 5964 5965 5966 5967 5968 5969 5970 5971 5972 5973 5974 5975 5976 5977 5978 5979 5980 5981 5982 5983 5984 5985 5986 5987 5988 5989 5990 5991 5992 5993 5994 5995 5996 5997 5998 5999 6000 6001 6002 6003 6004 6005 6006 6007 6008 6009 6010 6011 6012 6013 6014 6015 6016 6017 6018 6019 6020 6021 6022 6023 6024 6025 6026 6027 6028 6029 6030 6031 6032 6033 6034 6035 6036 6037 6038 6039 6040 6041 6042 6043 6044 6045 6046 6047 6048 6049 6050 6051 6052 6053 6054 6055 6056 6057 6058 6059 6060 6061 6062 6063 6064 6065 6066 6067 6068 6069 6070 6071 6072 6073 6074 6075 6076 6077 6078 6079 6080 6081 6082 6083 6084 6085 6086 6087 6088 6089 6090 6091 6092 6093 6094 6095 6096 6097 6098 6099 6100 6101 6102 6103 6104 6105 6106 6107 6108 6109 6110 6111 6112 6113 6114 6115 6116 6117 6118 6119 6120 6121 6122 6123 6124 6125 6126 6127 6128 6129 6130 6131 6132 6133 6134 6135 6136 6137 6138 6139 6140 6141 6142 6143 6144 6145 6146 6147 6148 6149 6150 6151 6152 6153 6154 6155 6156 6157 6158 6159 6160 6161 6162 6163 6164 6165 6166 6167 6168 6169 6170 6171 6172 6173 6174 6175 6176 6177 6178 6179 6180 6181 6182 6183 6184 6185 6186 6187 6188 6189 6190 6191 6192 6193 6194 6195 6196 6197 6198 6199 6200 6201 6202 6203 6204 6205 6206 6207 6208 6209 6210 6211 6212 6213 6214 6215 6216 6217 6218 6219 6220 6221 6222 6223 6224 6225 6226 6227 6228 6229 6230 6231 6232 6233 6234 6235 6236 6237 6238 6239 6240 6241 6242 6243 6244 6245 6246 6247 6248 6249 6250 6251 6252 6253 6254 6255 6256 6257 6258 6259 6260 6261 6262 6263 6264 6265 6266 6267 6268 6269 6270 6271 6272 6273 6274 6275 6276 6277 6278 6279 6280 6281 6282 6283 6284 6285 6286 6287 6288 6289 6290 6291 6292 6293 6294 6295 6296 6297 6298 6299 6300 6301 6302 6303 6304 6305 6306 6307 6308 6309 6310 6311 6312 6313 6314 6315 6316 6317 6318 6319 6320 6321 6322 6323 6324 6325 6326 6327 6328 6329 6330 6331 6332 6333 6334 6335 6336 6337 6338 6339 6340 6341 6342 6343 6344 6345 6346 6347 6348 6349 6350 6351 6352 6353 6354 6355 6356 6357 6358 6359 6360 6361 6362 6363 6364 6365 6366 6367 6368 6369 6370 6371 6372 6373 6374 6375 6376 6377 6378 6379 6380 6381 6382 6383 6384 6385 6386 6387 6388 6389 6390 6391 6392 6393 6394 6395 6396 6397 6398 6399 6400 6401 6402 6403 6404 6405 6406 6407 6408 6409 6410 6411 6412 6413 6414 6415 6416 6417 6418 6419 6420 6421 6422 6423 6424 6425 6426 6427 6428 6429 6430 6431 6432 6433 6434 6435 6436 6437 6438 6439 6440 6441 6442 6443 6444 6445 6446 6447 6448 6449 6450 6451 6452 6453 6454 6455 6456 6457 6458 6459 6460 6461 6462 6463 6464 6465 6466 6467 6468 6469 6470 6471 6472 6473 6474 6475 6476 6477 6478 6479 6480 6481 6482 6483 6484 6485 6486 6487 6488 6489 6490 6491 6492 6493 6494 6495 6496 6497 6498 6499 6500 6501 6502 6503 6504 6505 6506 6507 6508 6509 6510 6511 6512 6513 6514 6515 6516 6517 6518 6519 6520 6521 6522 6523 6524 6525 6526 6527 6528 6529 6530 6531 6532 6533 6534 6535 6536 6537 6538 6539 6540 6541 6542 6543 6544 6545 6546 6547 6548 6549 6550 6551 6552 6553 6554 6555 6556 6557 6558 6559 6560 6561 6562 6563 6564 6565 6566 6567 6568 6569 6570 6571 6572 6573 6574 6575 6576 6577 6578 6579 6580 6581 6582 6583 6584 6585 6586 6587 6588 6589 6590 6591 6592 6593 6594 6595 6596 6597 6598 6599 6600 6601 6602 6603 6604 6605 6606 6607 6608 6609 6610 6611 6612 6613 6614 6615 6616 6617 6618 6619 6620 6621 6622 6623 6624 6625 6626 6627 6628 6629 6630 6631 6632 6633 6634 6635 6636 6637 6638 6639 6640 6641 6642 6643 6644 6645 6646 6647 6648 6649 6650 6651 6652 6653 6654 6655 6656 6657 6658 6659 6660 6661 6662 6663 6664 6665 6666 6667 6668 6669 6670 6671 6672 6673 6674 6675 6676 6677 6678 6679 6680 6681 6682 6683 6684 6685 6686 6687 6688 6689 6690 6691 6692 6693 6694 6695 6696 6697 6698 6699 6700 6701 6702 6703 6704 6705 6706 6707 6708 6709 6710 6711 6712 6713 6714 6715 6716 6717 6718 6719 6720 6721 6722 6723 6724 6725 6726 6727 6728 6729 6730 6731 6732 6733 6734 6735 6736 6737 6738 6739 6740 6741 6742 6743 6744 6745 6746 6747 6748 6749 6750 6751 6752 6753 6754 6755 6756 6757 6758 6759 6760 6761 6762 6763 6764 6765 6766 6767 6768 6769 6770 6771 6772 6773 6774 6775 6776 6777 6778 6779 6780 6781 6782 6783 6784 6785 6786 6787 6788 6789 6790 6791 6792 6793 6794 6795 6796 6797 6798 6799 6800 6801 6802 6803 6804 6805 6806 6807 6808 6809 6810 6811 6812 6813 6814 6815 6816 6817 6818 6819 6820 6821 6822 6823 6824 6825 6826 6827 6828 6829 6830 6831 6832 6833 6834 6835 6836 6837 6838 6839 6840 6841 6842 6843 6844 6845 6846 6847 6848 6849 6850 6851 6852 6853 6854 6855 6856 6857 6858 6859 6860 6861 6862 6863 6864 6865 6866 6867 6868 6869 6870 6871 6872 6873 6874 6875 6876 6877 6878 6879 6880 6881 6882 6883 6884 6885 6886 6887 6888 6889 6890 6891 6892 6893 6894 6895 6896 6897 6898 6899 6900 6901 6902 6903 6904 6905 6906 6907 6908 6909 6910 6911 6912 6913 6914 6915 6916 6917 6918 6919 6920 6921 6922 6923 6924 6925 6926 6927 6928 6929 6930 6931 6932 6933 6934 6935 6936 6937 6938 6939 6940 6941 6942 6943 6944 6945 6946 6947 6948 6949 6950 6951 6952 6953 6954 6955 6956 6957 6958 6959 6960 6961 6962 6963 6964 6965 6966 6967 6968 6969 6970 6971 6972 6973 6974 6975 6976 6977 6978 6979 6980 6981 6982 6983 6984 6985 6986 6987 6988 6989 6990 6991 6992 6993 6994 6995 6996 6997 6998 6999 7000 7001 7002 7003 7004 7005 7006 7007 7008 7009 7010 7011 7012 7013 7014 7015 7016 7017 7018 7019 7020 7021 7022 7023 7024 7025 7026 7027 7028 7029 7030 7031 7032 7033 7034 7035 7036 7037 7038 7039 7040 7041 7042 7043 7044 7045 7046 7047 7048 7049 7050 7051 7052 7053 7054 7055 7056 7057 7058 7059 7060 7061 7062 7063 7064 7065 7066 7067 7068 7069 7070 7071 7072 7073 7074 7075 7076 7077 7078 7079 7080 7081 7082 7083 7084 7085 7086 7087 7088 7089 7090 7091 7092 7093 7094 7095 7096 7097 7098 7099 7100 7101 7102 7103 7104 7105 7106 7107 7108 7109 7110 7111 7112 7113 7114 7115 7116 7117 7118 7119 7120 7121 7122 7123 7124 7125 7126 7127 7128 7129 7130 7131 7132 7133 7134 7135 7136 7137 7138 7139 7140 7141 7142 7143 7144 7145 7146 7147 7148 7149 7150 7151 7152 7153 7154 7155 7156 7157 7158 7159 7160 7161 7162 7163 7164 7165 7166 7167 7168 7169 7170 7171 7172 7173 7174 7175 7176 7177 7178 7179 7180 7181 7182 7183 7184 7185 7186 7187 7188 7189 7190 7191 7192 7193 7194 7195 7196 7197 7198 7199 7200 7201 7202 7203 7204 7205 7206 7207 7208 7209 7210 7211 7212 7213 7214 7215 7216 7217 7218 7219 7220 7221 7222 7223 7224 7225 7226 7227 7228 7229 7230 7231 7232 7233 7234 7235 7236 7237 7238 7239 7240 7241 7242 7243 7244 7245 7246 7247 7248 7249 7250 7251 7252 7253 7254 7255 7256 7257 7258 7259 7260 7261 7262 7263 7264 7265 7266 7267 7268 7269 7270 7271 7272 7273 7274 7275 7276 7277 7278 7279 7280 7281 7282 7283 7284 7285 7286 7287 7288 7289 7290 7291 7292 7293 7294 7295 7296 7297 7298 7299 7300 7301 7302 7303 7304 7305 7306 7307 7308 7309 7310 7311 7312 7313 7314 7315 7316 7317 7318 7319 7320 7321 7322 7323 7324 7325 7326 7327 7328 7329 7330 7331 7332 7333 7334 7335 7336 7337 7338 7339 7340 7341 7342 7343 7344 7345 7346 7347 7348 7349 7350 7351 7352 7353 7354 7355 7356 7357 7358 7359 7360 7361 7362 7363 7364 7365 7366 7367 7368 7369 7370 7371 7372 7373 7374 7375 7376 7377 7378 7379 7380 7381 7382 7383 7384 7385 7386 7387 7388 7389 7390 7391 7392 7393 7394 7395 7396 7397 7398 7399 7400 7401 7402 7403 7404 7405 7406 7407 7408 7409 7410 7411 7412 7413 7414 7415 7416 7417 7418 7419 7420 7421 7422 7423 7424 7425 7426 7427 7428 7429 7430 7431 7432 7433 7434 7435 7436 7437 7438 7439 7440 7441 7442 7443 7444 7445 7446 7447 7448 7449 7450 7451 7452 7453 7454 7455 7456 7457 7458 7459 7460 7461 7462 7463 7464 7465 7466 7467 7468 7469 7470 7471 7472 7473 7474 7475 7476 7477 7478 7479 7480 7481 7482 7483 7484 7485 7486 7487 7488 7489 7490 7491 7492 7493 7494 7495 7496 7497 7498 7499 7500 7501 7502 7503 7504 7505 7506 7507 7508 7509 7510 7511 7512 7513 7514 7515 7516 7517 7518 7519 7520 7521 7522 7523 7524 7525 7526 7527 7528 7529 7530 7531 7532 7533 7534 7535 7536 7537 7538 7539 7540 7541 7542 7543 7544 7545 7546 7547 7548 7549 7550 7551 7552 7553 7554 7555 7556 7557 7558 7559 7560 7561 7562 7563 7564 7565 7566 7567 7568 7569 7570 7571 7572 7573 7574 7575 7576 7577 7578 7579 7580 7581 7582 7583 7584 7585 7586 7587 7588 7589 7590 7591 7592 7593 7594 7595 7596 7597 7598 7599 7600 7601 7602 7603 7604 7605 7606 7607 7608 7609 7610 7611 7612 7613 7614 7615 7616 7617 7618 7619 7620 7621 7622 7623 7624 7625 7626 7627 7628 7629 7630 7631 7632 7633 7634 7635 7636 7637 7638 7639 7640 7641 7642 7643 7644 7645 7646 7647 7648 7649 7650 7651 7652 7653 7654 7655 7656 7657 7658 7659 7660 7661 7662 7663 7664 7665 7666 7667 7668 7669 7670 7671 7672 7673 7674 7675 7676 7677 7678 7679 7680 7681 7682 7683 7684 7685 7686 7687 7688 7689 7690 7691 7692 7693 7694 7695 7696 7697 7698 7699 7700 7701 7702 7703 7704 7705 7706 7707 7708 7709 7710 7711 7712 7713 7714 7715 7716 7717 7718 7719 7720 7721 7722 7723 7724 7725 7726 7727 7728 7729 7730 7731 7732 7733 7734 7735 7736 7737 7738 7739 7740 7741 7742 7743 7744 7745 7746 7747 7748 7749 7750 7751 7752 7753 7754 7755 7756 7757 7758 7759 7760 7761 7762 7763 7764 7765 7766 7767 7768 7769 7770 7771 7772 7773 7774 7775 7776 7777 7778 7779 7780 7781 7782 7783 7784 7785 7786 7787 7788 7789 7790 7791 7792 7793 7794 7795 7796 7797 7798 7799 7800 7801 7802 7803 7804 7805 7806 7807 7808 7809 7810 7811 7812 7813 7814 7815 7816 7817 7818 7819 7820 7821 7822 7823 7824 7825 7826 7827 7828 7829 7830 7831 7832 7833 7834 7835 7836 7837 7838 7839 7840 7841 7842 7843 7844 7845 7846 7847 7848 7849 7850 7851 7852 7853 7854 7855 7856 7857 7858 7859 7860 7861 7862 7863 7864 7865 7866 7867 7868 7869 7870 7871 7872 7873 7874 7875 7876 7877 7878 7879 7880 7881 7882 7883 7884 7885 7886 7887 7888 7889 7890 7891 7892 7893 7894 7895 7896 7897 7898 7899 7900 7901 7902 7903 7904 7905 7906 7907 7908 7909 7910 7911 7912 7913 7914 7915 7916 7917 7918 7919 7920 7921 7922 7923 7924 7925 7926 7927 7928 7929 7930 7931 7932 7933 7934 7935 7936 7937 7938 7939 7940 7941 7942 7943 7944 7945 7946 7947 7948 7949 7950 7951 7952 7953 7954 7955 7956 7957 7958 7959 7960 7961 7962 7963 7964 7965 7966 7967 7968 7969 7970 7971 7972 7973 7974 7975 7976 7977 7978 7979 7980 7981 7982 7983 7984 7985 7986 7987 7988 7989 7990 7991 7992 7993 7994 7995 7996 7997 7998 7999 8000 8001 8002 8003 8004 8005 8006 8007 8008 8009 8010 8011 8012 8013 8014 8015 8016 8017 8018 8019 8020 8021 8022 8023 8024 8025 8026 8027 8028 8029 8030 8031 8032 8033 8034 8035 8036 8037 8038 8039 8040 8041 8042 8043 8044 8045 8046 8047 8048 8049 8050 8051 8052 8053 8054 8055 8056 8057 8058 8059 8060 8061 8062 8063 8064 8065 8066 8067 8068 8069 8070 8071 8072 8073 8074 8075 8076 8077 8078 8079 8080 8081 8082 8083 8084 8085 8086 8087 8088 8089 8090 8091 8092 8093 8094 8095 8096 8097 8098 8099 8100 8101 8102 8103 8104 8105 8106 8107 8108 8109 8110 8111 8112 8113 8114 8115 8116 8117 8118 8119 8120 8121 8122 8123 8124 8125 8126 8127 8128 8129 8130 8131 8132 8133 8134 8135 8136 8137 8138 8139 8140 8141 8142 8143 8144 8145 8146 8147 8148 8149 8150 8151 8152 8153 8154 8155 8156 8157 8158 8159 8160 8161 8162 8163 8164 8165 8166 8167 8168 8169 8170 8171 8172 8173 8174 8175 8176 8177 8178 8179 8180 8181 8182 8183 8184 8185 8186 8187 8188 8189 8190 8191 8192 8193 8194 8195 8196 8197 8198 8199 8200 8201 8202 8203 8204 8205 8206 8207 8208 8209 8210 8211 8212 8213 8214 8215 8216 8217 8218 8219 8220 8221 8222 8223 8224 8225 8226 8227 8228 8229 8230 8231 8232 8233 8234 8235 8236 8237 8238 8239 8240 8241 8242 8243 8244 8245 8246 8247 8248 8249 8250 8251 8252 8253 8254 8255 8256 8257 8258 8259 8260 8261 8262 8263 8264 8265 8266 8267 8268 8269 8270 8271 8272 8273 8274 8275 8276 8277 8278 8279 8280 8281 8282 8283 8284 8285 8286 8287 8288 8289 8290 8291 8292 8293 8294 8295 8296 8297 8298 8299 8300 8301 8302 8303 8304 8305 8306 8307 8308 8309 8310 8311 8312 8313 8314 8315 8316 8317 8318 8319 8320 8321 8322 8323 8324 8325 8326 8327 8328 8329 8330 8331 8332 8333 8334 8335 8336 8337 8338 8339 8340 8341 8342 8343 8344 8345 8346 8347 8348 8349 8350 8351 8352 8353 8354 8355 8356 8357 8358 8359 8360 8361 8362 8363 8364 8365 8366 8367 8368 8369 8370 8371 8372 8373 8374 8375 8376 8377 8378 8379 8380 8381 8382 8383 8384 8385 8386 8387 8388 8389 8390 8391 8392 8393 8394 8395 8396 8397 8398 8399 8400 8401 8402 8403 8404 8405 8406 8407 8408 8409 8410 8411 8412 8413 8414 8415 8416 8417 8418 8419 8420 8421 8422 8423 8424 8425 8426 8427 8428 8429 8430 8431 8432 8433 8434 8435 8436 8437 8438 8439 8440 8441 8442 8443 8444 8445 8446 8447 8448 8449 8450 8451 8452 8453 8454 8455 8456 8457 8458 8459 8460 8461 8462 8463 8464 8465 8466 8467 8468 8469 8470 8471 8472 8473 8474 8475 8476 8477 8478 8479 8480 8481 8482 8483 8484 8485 8486 8487 8488 8489 8490 8491 8492 8493 8494 8495 8496 8497 8498 8499 8500 8501 8502 8503 8504 8505 8506 8507 8508 8509 8510 8511 8512 8513 8514 8515 8516 8517 8518 8519 8520 8521 8522 8523 8524 8525 8526 8527 8528 8529 8530 8531 8532 8533 8534 8535 8536 8537 8538 8539 8540 8541 8542 8543 8544 8545 8546 8547 8548 8549 8550 8551 8552 8553 8554 8555 8556 8557 8558 8559 8560 8561 8562 8563 8564 8565 8566 8567 8568 8569 8570 8571 8572 8573 8574 8575 8576 8577 8578 8579 8580 8581 8582 8583 8584 8585 8586 8587 8588 8589 8590 8591 8592 8593 8594 8595 8596 8597 8598 8599 8600 8601 8602 8603 8604 8605 8606 8607 8608 8609 8610 8611 8612 8613 8614 8615 8616 8617 8618 8619 8620 8621 8622 8623 8624 8625 8626 8627 8628 8629 8630 8631 8632 8633 8634 8635 8636 8637 8638 8639 8640 8641 8642 8643 8644 8645 8646 8647 8648 8649 8650 8651 8652 8653 8654 8655 8656 8657 8658 8659 8660 8661 8662 8663 8664 8665 8666 8667 8668 8669 8670 8671 8672 8673 8674 8675 8676 8677 8678 8679 8680 8681 8682 8683 8684 8685 8686 8687 8688 8689 8690 8691 8692 8693 8694 8695 8696 8697 8698 8699 8700 8701 8702 8703 8704 8705 8706 8707 8708 8709 8710 8711 8712 8713 8714 8715 8716 8717 8718 8719 8720 8721 8722 8723 8724 8725 8726 8727 8728 8729 8730 8731 8732 8733 8734 8735 8736 8737 8738 8739 8740 8741 8742 8743 8744 8745 8746 8747 8748 8749 8750 8751 8752 8753 8754 8755 8756 8757 8758 8759 8760 8761 8762 8763 8764 8765 8766 8767 8768 8769 8770 8771 8772 8773 8774 8775 8776 8777 8778 8779 8780 8781 8782 8783 8784 8785 8786 8787 8788 8789 8790 8791 8792 8793 8794 8795 8796 8797 8798 8799 8800 8801 8802 8803 8804 8805 8806 8807 8808 8809 8810 8811 8812 8813 8814 8815 8816 8817 8818 8819 8820 8821 8822 8823 8824 8825 8826 8827 8828 8829 8830 8831 8832 8833 8834 8835 8836 8837 8838 8839 8840 8841 8842 8843 8844 8845 8846 8847 8848 8849 8850 8851 8852 8853 8854 8855 8856 8857 8858 8859 8860 8861 8862 8863 8864 8865 8866 8867 8868 8869 8870 8871 8872 8873 8874 8875 8876 8877 8878 8879 8880 8881 8882 8883 8884 8885 8886 8887 8888 8889 8890 8891 8892 8893 8894 8895 8896 8897 8898 8899 8900 8901 8902 8903 8904 8905 8906 8907 8908 8909 8910 8911 8912 8913 8914 8915 8916 8917 8918 8919 8920 8921 8922 8923 8924 8925 8926 8927 8928 8929 8930 8931 8932 8933 8934 8935 8936 8937 8938 8939 8940 8941 8942 8943 8944 8945 8946 8947 8948 8949 8950 8951 8952 8953 8954 8955 8956 8957 8958 8959 8960 8961 8962 8963 8964 8965 8966 8967 8968 8969 8970 8971 8972 8973 8974 8975 8976 8977 8978 8979 8980 8981 8982 8983 8984 8985 8986 8987 8988 8989 8990 8991 8992 8993 8994 8995 8996 8997 8998 8999 9000 9001 9002 9003 9004 9005 9006 9007 9008 9009 9010 9011 9012 9013 9014 9015 9016 9017 9018 9019 9020 9021 9022 9023 9024 9025 9026 9027 9028 9029 9030 9031 9032 9033 9034 9035 9036 9037 9038 9039 9040 9041 9042 9043 9044 9045 9046 9047 9048 9049 9050 9051 9052 9053 9054 9055 9056 9057 9058 9059 9060 9061 9062 9063 9064 9065 9066 9067 9068 9069 9070 9071 9072 9073 9074 9075 9076 9077 9078 9079 9080 9081 9082 9083 9084 9085 9086 9087 9088 9089 9090 9091 9092 9093 9094 9095 9096 9097 9098 9099 9100 9101 9102 9103 9104 9105 9106 9107 9108 9109 9110 9111 9112 9113 9114 9115 9116 9117 9118 9119 9120 9121 9122 9123 9124 9125 9126 9127 9128 9129 9130 9131 9132 9133 9134 9135 9136 9137 9138 9139 9140 9141 9142 9143 9144 9145 9146 9147 9148 9149 9150 9151 9152 9153 9154 9155 9156 9157 9158 9159 9160 9161 9162 9163 9164 9165 9166 9167 9168 9169 9170 9171 9172 9173 9174 9175 9176 9177 9178 9179 9180 9181 9182 9183 9184 9185 9186 9187 9188 9189 9190 9191 9192 9193 9194 9195 9196 9197 9198 9199 9200 9201 9202 9203 9204 9205 9206 9207 9208 9209 9210 9211 9212 9213 9214 9215 9216 9217 9218 9219 9220 9221 9222 9223 9224 9225 9226 9227 9228 9229 9230 9231 9232 9233 9234 9235 9236 9237 9238 9239 9240 9241 9242 9243 9244 9245 9246 9247 9248 9249 9250 9251 9252 9253 9254 9255 9256 9257 9258 9259 9260 9261 9262 9263 9264 9265 9266 9267 9268 9269 9270 9271 9272 9273 9274 9275 9276 9277 9278 9279 9280 9281 9282 9283 9284 9285 9286 9287 9288 9289 9290 9291 9292 9293 9294 9295 9296 9297 9298 9299 9300 9301 9302 9303 9304 9305 9306 9307 9308 9309 9310 9311 9312 9313 9314 9315 9316 9317 9318 9319 9320 9321 9322 9323 9324 9325 9326 9327 9328 9329 9330 9331 9332 9333 9334 9335 9336 9337 9338 9339 9340 9341 9342 9343 9344 9345 9346 9347 9348 9349 9350 9351 9352 9353 9354 9355 9356 9357 9358 9359 9360 9361 9362 9363 9364 9365 9366 9367 9368 9369 9370 9371 9372 9373 9374 9375 9376 9377 9378 9379 9380 9381 9382 9383 9384 9385 9386 9387 9388 9389 9390 9391 9392 9393 9394 9395 9396 9397 9398 9399 9400 9401 9402 9403 9404 9405 9406 9407 9408 9409 9410 9411 9412 9413 9414 9415 9416 9417 9418 9419 9420 9421 9422 9423 9424 9425 9426 9427 9428 9429 9430 9431 9432 9433 9434 9435 9436 9437 9438 9439 9440 9441 9442 9443 9444 9445 9446 9447 9448 9449 9450 9451 9452 9453 9454 9455 9456 9457 9458 9459 9460 9461 9462 9463 9464 9465 9466 9467 9468 9469 9470 9471 9472 9473 9474 9475 9476 9477 9478 9479 9480 9481 9482 9483 9484 9485 9486 9487 9488 9489 9490 9491 9492 9493 9494 9495 9496 9497 9498 9499 9500 9501 9502 9503 9504 9505 9506 9507 9508 9509 9510 9511 9512 9513 9514 9515 9516 9517 9518 9519 9520 9521 9522 9523 9524 9525 9526 9527 9528 9529 9530 9531 9532 9533 9534 9535 9536 9537 9538 9539 9540 9541 9542 9543 9544 9545 9546 9547 9548 9549 9550 9551 9552 9553 9554 9555 9556 9557 9558 9559 9560 9561 9562 9563 9564 9565 9566 9567 9568 9569 9570 9571 9572 9573 9574 9575 9576 9577 9578 9579 9580 9581 9582 9583 9584 9585 9586 9587 9588 9589 9590 9591 9592 9593 9594 9595 9596 9597 9598 9599 9600 9601 9602 9603 9604 9605 9606 9607 9608 9609 9610 9611 9612 9613 9614 9615 9616 9617 9618 9619 9620 9621 9622 9623 9624 9625 9626 9627 9628 9629 9630 9631 9632 9633 9634 9635 9636 9637 9638 9639 9640 9641 9642 9643 9644 9645 9646 9647 9648 9649 9650 9651 9652 9653 9654 9655 9656 9657 9658 9659 9660 9661 9662 9663 9664 9665 9666 9667 9668 9669 9670 9671 9672 9673 9674 9675 9676 9677 9678 9679 9680 9681 9682 9683 9684 9685 9686 9687 9688 9689 9690 9691 9692 9693 9694 9695 9696 9697 9698 9699 9700 9701 9702 9703 9704 9705 9706 9707 9708 9709 9710 9711 9712 9713 9714 9715 9716 9717 9718 9719 9720 9721 9722 9723 9724 9725 9726 9727 9728 9729 9730 9731 9732 9733 9734 9735 9736 9737 9738 9739 9740 9741 9742 9743 9744 9745 9746 9747 9748 9749 9750 9751 9752 9753 9754 9755 9756 9757 9758 9759 9760 9761 9762 9763 9764 9765 9766 9767 9768 9769 9770 9771 9772 9773 9774 9775 9776 9777 9778 9779 9780 9781 9782 9783 9784 9785 9786 9787 9788 9789 9790 9791 9792 9793 9794 9795 9796 9797 9798 9799 9800 9801 9802 9803 9804 9805 9806 9807 9808 9809 9810 9811 9812 9813 9814 9815 9816 9817 9818 9819 9820 9821 9822 9823 9824 9825 9826 9827 9828 9829 9830 9831 9832 9833 9834 9835 9836 9837 9838 9839 9840 9841 9842 9843 9844 9845 9846 9847 9848 9849 9850 9851 9852 9853 9854 9855 9856 9857 9858 9859 9860 9861 9862 9863 9864 9865 9866 9867 9868 9869 9870 9871 9872 9873 9874 9875 9876 9877 9878 9879 9880 9881 9882 9883 9884 9885 9886 9887 9888 9889 9890 9891 9892 9893 9894 9895 9896 9897 9898 9899 9900 9901 9902 9903 9904 9905 9906 9907 9908 9909 9910 9911 9912 9913 9914 9915 9916 9917 9918 9919 9920 9921 9922 9923 9924 9925 9926 9927 9928 9929 9930 9931 9932 9933 9934 9935 9936 9937 9938 9939 9940 9941 9942 9943 9944 9945 9946 9947 9948 9949 9950 9951 9952 9953 9954 9955 9956 9957 9958 9959 9960 9961 9962 9963 9964 9965 9966 9967 9968 9969 9970 9971 9972 9973 9974 9975 9976 9977 9978 9979 9980 9981 9982 9983 9984 9985 9986 9987 9988 9989 9990 9991 9992 9993 9994 9995 9996 9997 9998 9999 10000 10001 10002 10003 10004 10005 10006 10007 10008 10009 10010 10011 10012 10013 10014 10015 10016 10017 10018 10019 10020 10021 10022 10023 10024 10025 10026 10027 10028 10029 10030 10031 10032 10033 10034 10035 10036 10037 10038 10039 10040 10041 10042 10043 10044 10045 10046 10047 10048 10049 10050 10051 10052 10053 10054 10055 10056 10057 10058 10059 10060 10061 10062 10063 10064 10065 10066 10067 10068 10069 10070 10071 10072 10073 10074 10075 10076 10077 10078 10079 10080 10081 10082 10083 10084 10085 10086 10087 10088 10089 10090 10091 10092 10093 10094 10095 10096 10097 10098 10099 10100 10101 10102 10103 10104 10105 10106 10107 10108 10109 10110 10111 10112 10113 10114 10115 10116 10117 10118 10119 10120 10121 10122 10123 10124 10125 10126 10127 10128 10129 10130 10131 10132 10133 10134 10135 10136 10137 10138 10139 10140 10141 10142 10143 10144 10145 10146 10147 10148 10149 10150 10151 10152 10153 10154 10155 10156 10157 10158 10159 10160 10161 10162 10163 10164 10165 10166 10167 10168 10169 10170 10171 10172 10173 10174 10175 10176 10177 10178 10179 10180 10181 10182 10183 10184 10185 10186 10187 10188 10189 10190 10191 10192 10193 10194 10195 10196 10197 10198 10199 10200 10201 10202 10203 10204 10205 10206 10207 10208 10209 10210 10211 10212 10213 10214 10215 10216 10217 10218 10219 10220 10221 10222 10223 10224 10225 10226 10227 10228 10229 10230 10231 10232 10233 10234 10235 10236 10237 10238 10239 10240 10241 10242 10243 10244 10245 10246 10247 10248 10249 10250 10251 10252 10253 10254 10255 10256 10257 10258 10259 10260 10261 10262 10263 10264 10265 10266 10267 10268 10269 10270 10271 10272 10273 10274 10275 10276 10277 10278 10279 10280 10281 10282 10283 10284 10285 10286 10287 10288 10289 10290 10291 10292 10293 10294 10295 10296 10297 10298 10299 10300 10301 10302 10303 10304 10305 10306 10307 10308 10309 10310 10311 10312 10313 10314 10315 10316 10317 10318 10319 10320 10321 10322 10323 10324 10325 10326 10327 10328 10329 10330 10331 10332 10333 10334 10335 10336 10337 10338 10339 10340 10341 10342 10343 10344 10345 10346 10347 10348 10349 10350 10351 10352 10353 10354 10355 10356 10357 10358 10359 10360 10361 10362 10363 10364 10365 10366 10367 10368 10369 10370 10371 10372 10373 10374 10375 10376 10377 10378 10379 10380 10381 10382 10383 10384 10385 10386 10387 10388 10389 10390 10391 10392 10393 10394 10395 10396 10397 10398 10399 10400 10401 10402 10403 10404 10405 10406 10407 10408 10409 10410 10411 10412 10413 10414 10415 10416 10417 10418 10419 10420 10421 10422 10423 10424 10425 10426 10427 10428 10429 10430 10431 10432 10433 10434 10435 10436 10437 10438 10439 10440 10441 10442 10443 10444 10445 10446 10447 10448 10449 10450 10451 10452 10453 10454 10455 10456 10457 10458 10459 10460 10461 10462 10463 10464 10465 10466 10467 10468 10469 10470 10471 10472 10473 10474 10475 10476 10477 10478 10479 10480 10481 10482 10483 10484 10485 10486 10487 10488 10489 10490 10491 10492 10493 10494 10495 10496 10497 10498 10499 10500 10501 10502 10503 10504 10505 10506 10507 10508 10509 10510 10511 10512 10513 10514 10515 10516 10517 10518 10519 10520 10521 10522 10523 10524 10525 10526 10527 10528 10529 10530 10531 10532 10533 10534 10535 10536 10537 10538 10539 10540 10541 10542 10543 10544 10545 10546 10547 10548 10549 10550 10551 10552 10553 10554 10555 10556 10557 10558 10559 10560 10561 10562 10563 10564 10565 10566 10567 10568 10569 10570 10571 10572 10573 10574 10575 10576 10577 10578 10579 10580 10581 10582 10583 10584 10585 10586 10587 10588 10589 10590 10591 10592 10593 10594 10595 10596 10597 10598 10599 10600 10601 10602 10603 10604 10605 10606 10607 10608 10609 10610 10611 10612 10613 10614 10615 10616 10617 10618 10619 10620 10621 10622 10623 10624 10625 10626 10627 10628 10629 10630 10631 10632 10633 10634 10635 10636 10637 10638 10639 10640 10641 10642 10643 10644 10645 10646 10647 10648 10649 10650 10651 10652 10653 10654 10655 10656 10657 10658 10659 10660 10661 10662 10663 10664 10665 10666 10667 10668 10669 10670 10671 10672 10673 10674 10675 10676 10677 10678 10679 10680 10681 10682 10683 10684 10685 10686 10687 10688 10689 10690 10691 10692 10693 10694 10695 10696 10697 10698 10699 10700 10701 10702 10703 10704 10705 10706 10707 10708 10709 10710 10711 10712 10713 10714 10715 10716 10717 10718 10719 10720 10721 10722 10723 10724 10725 10726 10727 10728 10729 10730 10731 10732 10733 10734 10735 10736 10737 10738 10739 10740 10741 10742 10743 10744 10745 10746 10747 10748 10749 10750 10751 10752 10753 10754 10755 10756 10757 10758 10759 10760 10761 10762 10763 10764 10765 10766 10767 10768 10769 10770 10771 10772 10773 10774 10775 10776 10777 10778 10779 10780 10781 10782 10783 10784 10785 10786 10787 10788 10789 10790 10791 10792 10793 10794 10795 10796 10797 10798 10799 10800 10801 10802 10803 10804 10805 10806 10807 10808 10809 10810 10811 10812 10813 10814 10815 10816 10817 10818 10819 10820 10821 10822 10823 10824 10825 10826 10827 10828 10829 10830 10831 10832 10833 10834 10835 10836 10837 10838 10839 10840 10841 10842 10843 10844 10845 10846 10847 10848 10849 10850 10851 10852 10853 10854 10855 10856 10857 10858 10859 10860 10861 10862 10863 10864 10865 10866 10867 10868 10869 10870 10871 10872 10873 10874 10875 10876 10877 10878 10879 10880 10881 10882 10883 10884 10885 10886 10887 10888 10889 10890 10891 10892 10893 10894 10895 10896 10897 10898 10899 10900 10901 10902 10903 10904 10905 10906 10907 10908 10909 10910 10911 10912 10913 10914 10915 10916 10917 10918 10919 10920 10921 10922 10923 10924 10925 10926 10927 10928 10929 10930 10931 10932 10933 10934 10935 10936 10937 10938 10939 10940 10941 10942 10943 10944 10945 10946 10947 10948 10949 10950 10951 10952 10953 10954 10955 10956 10957 10958 10959 10960 10961 10962 10963 10964 10965 10966 10967 10968 10969 10970 10971 10972 10973 10974 10975 10976 10977 10978 10979 10980 10981 10982 10983 10984 10985 10986 10987 10988 10989 10990 10991 10992 10993 10994 10995 10996 10997 10998 10999 11000 11001 11002 11003 11004 11005 11006 11007 11008 11009 11010 11011 11012 11013 11014 11015 11016 11017 11018 11019 11020 11021 11022 11023 11024 11025 11026 11027 11028 11029 11030 11031 11032 11033 11034 11035 11036 11037 11038 11039 11040 11041 11042 11043 11044 11045 11046 11047 11048 11049 11050 11051 11052 11053 11054 11055 11056 11057 11058 11059 11060 11061 11062 11063 11064 11065 11066 11067 11068 11069 11070 11071 11072 11073 11074 11075 11076 11077 11078 11079 11080 11081 11082 11083 11084 11085 11086 11087 11088 11089 11090 11091 11092 11093 11094 11095 11096 11097 11098 11099 11100 11101 11102 11103 11104 11105 11106 11107 11108 11109 11110 11111 11112 11113 11114 11115 11116 11117 11118 11119 11120 11121 11122 11123 11124 11125 11126 11127 11128 11129 11130 11131 11132 11133 11134 11135 11136 11137 11138 11139 11140 11141 11142 11143 11144 11145 11146 11147 11148 11149 11150 11151 11152 11153 11154 11155 11156 11157 11158 11159 11160 11161 11162 11163 11164 11165 11166 11167 11168 11169 11170 11171 11172 11173 11174 11175 11176 11177 11178 11179 11180 11181 11182 11183 11184 11185 11186 11187 11188 11189 11190 11191 11192 11193 11194 11195 11196 11197 11198 11199 11200 11201 11202 11203 11204 11205 11206 11207 11208 11209 11210 11211 11212 11213 11214 11215 11216 11217 11218 11219 11220 11221 11222 11223 11224 11225 11226 11227 11228 11229 11230 11231 11232 11233 11234 11235 11236 11237 11238 11239 11240 11241 11242 11243 11244 11245 11246 11247 11248 11249 11250 11251 11252 11253 11254 11255 11256 11257 11258 11259 11260 11261 11262 11263 11264 11265 11266 11267 11268 11269 11270 11271 11272 11273 11274 11275 11276 11277 11278 11279 11280 11281 11282 11283 11284 11285 11286 11287 11288 11289 11290 11291 11292 11293 11294 11295 11296 11297 11298 11299 11300 11301 11302 11303 11304 11305 11306 11307 11308 11309 11310 11311 11312 11313 11314 11315 11316 11317 11318 11319 11320 11321 11322 11323 11324 11325 11326 11327 11328 11329 11330 11331 11332 11333 11334 11335 11336 11337 11338 11339 11340 11341 11342 11343 11344 11345 11346 11347 11348 11349 11350 11351 11352 11353 11354 11355 11356 11357 11358 11359 11360 11361 11362 11363 11364 11365 11366 11367 11368 11369 11370 11371 11372 11373 11374 11375 11376 11377 11378 11379 11380 11381 11382 11383 11384 11385 11386 11387 11388 11389 11390 11391 11392 11393 11394 11395 11396 11397 11398 11399 11400 11401 11402 11403 11404 11405 11406 11407 11408 11409 11410 11411 11412 11413 11414 11415 11416 11417 11418 11419 11420 11421 11422 11423 11424 11425 11426 11427 11428 11429 11430 11431 11432 11433 11434 11435 11436 11437 11438 11439 11440 11441 11442 11443 11444 11445 11446 11447 11448 11449 11450 11451 11452 11453 11454 11455 11456 11457 11458 11459 11460 11461 11462 11463 11464 11465 11466 11467 11468 11469 11470 11471 11472 11473 11474 11475 11476 11477 11478 11479 11480 11481 11482 11483 11484 11485 11486 11487 11488 11489 11490 11491 11492 11493 11494 11495 11496 11497 11498 11499 11500 11501 11502 11503 11504 11505 11506 11507 11508 11509 11510 11511 11512 11513 11514 11515 11516 11517 11518 11519 11520 11521 11522 11523 11524 11525 11526 11527 11528 11529 11530 11531 11532 11533 11534 11535 11536 11537 11538 11539 11540 11541 11542 11543 11544 11545 11546 11547 11548 11549 11550 11551 11552 11553 11554 11555 11556 11557 11558 11559 11560 11561 11562 11563 11564 11565 11566 11567 11568 11569 11570 11571 11572 11573 11574 11575 11576 11577 11578 11579 11580 11581 11582 11583 11584 11585 11586 11587 11588 11589 11590 11591 11592 11593 11594 11595 11596 11597 11598 11599 11600 11601 11602 11603 11604 11605 11606 11607 11608 11609 11610 11611 11612 11613 11614 11615 11616 11617 11618 11619 11620 11621 11622 11623 11624 11625 11626 11627 11628 11629 11630 11631 11632 11633 11634 11635 11636 11637 11638 11639 11640 11641 11642 11643 11644 11645 11646 11647 11648 11649 11650 11651 11652 11653 11654 11655 11656 11657 11658 11659 11660 11661 11662 11663 11664 11665 11666 11667 11668 11669 11670 11671 11672 11673 11674 11675 11676 11677 11678 11679 11680 11681 11682 11683 11684 11685 11686 11687 11688 11689 11690 11691 11692 11693 11694 11695 11696 11697 11698 11699 11700 11701 11702 11703 11704 11705 11706 11707 11708 11709 11710 11711 11712 11713 11714 11715 11716 11717 11718 11719 11720 11721 11722 11723 11724 11725 11726 11727 11728 11729 11730 11731 11732 11733 11734 11735 11736 11737 11738 11739 11740 11741 11742 11743 11744 11745 11746 11747 11748 11749 11750 11751 11752 11753 11754 11755 11756 11757 11758 11759 11760 11761 11762 11763 11764 11765 11766 11767 11768 11769 11770 11771 11772 11773 11774 11775 11776 11777 11778 11779 11780 11781 11782 11783 11784 11785 11786 11787 11788 11789 11790 11791 11792 11793 11794 11795 11796 11797 11798 11799 11800 11801 11802 11803 11804 11805 11806 11807 11808 11809 11810 11811 11812 11813 11814 11815 11816 11817 11818 11819 11820 11821 11822 11823 11824 11825 11826 11827 11828 11829 11830 11831 11832 11833 11834 11835 11836 11837 11838 11839 11840 11841 11842 11843 11844 11845 11846 11847 11848 11849 11850 11851 11852 11853 11854 11855 11856 11857 11858 11859 11860 11861 11862 11863 11864 11865 11866 11867 11868 11869 11870 11871 11872 11873 11874 11875 11876 11877 11878 11879 11880 11881 11882 11883 11884 11885 11886 11887 11888 11889 11890 11891 11892 11893 11894 11895 11896 11897 11898 11899 11900 11901 11902 11903 11904 11905 11906 11907 11908 11909 11910 11911 11912 11913 11914 11915 11916 11917 11918 11919 11920 11921 11922 11923 11924 11925 11926 11927 11928 11929 11930 11931 11932 11933 11934 11935 11936 11937 11938 11939 11940 11941 11942 11943 11944 11945 11946 11947 11948 11949 11950 11951 11952 11953 11954 11955 11956 11957 11958 11959 11960 11961 11962 11963 11964 11965 11966 11967 11968 11969 11970 11971 11972 11973 11974 11975 11976 11977 11978 11979 11980 11981 11982 11983 11984 11985 11986 11987 11988 11989 11990 11991 11992 11993 11994 11995 11996 11997 11998 11999 12000 12001 12002 12003 12004 12005 12006 12007 12008 12009 12010 12011 12012 12013 12014 12015 12016 12017 12018 12019 12020 12021 12022 12023 12024 12025 12026 12027 12028 12029 12030 12031 12032 12033 12034 12035 12036 12037 12038 12039 12040 12041 12042 12043 12044 12045 12046 12047 12048 12049 12050 12051 12052 12053 12054 12055 12056 12057 12058 12059 12060 12061 12062 12063 12064 12065 12066 12067 12068 12069 12070 12071 12072 12073 12074 12075 12076 12077 12078 12079 12080 12081 12082 12083 12084 12085 12086 12087 12088 12089 12090 12091 12092 12093 12094 12095 12096 12097 12098 12099 12100 12101 12102 12103 12104 12105 12106 12107 12108 12109 12110 12111 12112 12113 12114 12115 12116 12117 12118 12119 12120 12121 12122 12123 12124 12125 12126 12127 12128 12129 12130 12131 12132 12133 12134 12135 12136 12137 12138 12139 12140 12141 12142 12143 12144 12145 12146 12147 12148 12149 12150 12151 12152 12153 12154 12155 12156 12157 12158 12159 12160 12161 12162 12163 12164 12165 12166 12167 12168 12169 12170 12171 12172 12173 12174 12175 12176 12177 12178 12179 12180 12181 12182 12183 12184 12185 12186 12187 12188 12189 12190 12191 12192 12193 12194 12195 12196 12197 12198 12199 12200 12201 12202 12203 12204 12205 12206 12207 12208 12209 12210 12211 12212 12213 12214 12215 12216 12217 12218 12219 12220 12221 12222 12223 12224 12225 12226 12227 12228 12229 12230 12231 12232 12233 12234 12235 12236 12237 12238 12239 12240 12241 12242 12243 12244 12245 12246 12247 12248 12249 12250 12251 12252 12253 12254 12255 12256 12257 12258 12259 12260 12261 12262 12263 12264 12265 12266 12267 12268 12269 12270 12271 12272 12273 12274 12275 12276 12277 12278 12279 12280 12281 12282 12283 12284 12285 12286 12287 12288 12289 12290 12291 12292 12293 12294 12295 12296 12297 12298 12299 12300 12301 12302 12303 12304 12305 12306 12307 12308 12309 12310 12311 12312 12313 12314 12315 12316 12317 12318 12319 12320 12321 12322 12323 12324 12325 12326 12327 12328 12329 12330 12331 12332 12333 12334 12335 12336 12337 12338 12339 12340 12341 12342 12343 12344 12345 12346 12347 12348 12349 12350 12351 12352 12353 12354 12355 12356 12357 12358 12359 12360 12361 12362 12363 12364 12365 12366 12367 12368 12369 12370 12371 12372 12373 12374 12375 12376 12377 12378 12379 12380 12381 12382 12383 12384 12385 12386 12387 12388 12389 12390 12391 12392 12393 12394 12395 12396 12397 12398 12399 12400 12401 12402 12403 12404 12405 12406 12407 12408 12409 12410 12411 12412 12413 12414 12415 12416 12417 12418 12419 12420 12421 12422 12423 12424 12425 12426 12427 12428 12429 12430 12431 12432 12433 12434 12435 12436 12437 12438 12439 12440 12441 12442 12443 12444 12445 12446 12447 12448 12449 12450 12451 12452 12453 12454 12455 12456 12457 12458 12459 12460 12461 12462 12463 12464 12465 12466 12467 12468 12469 12470 12471 12472 12473 12474 12475 12476 12477 12478 12479 12480 12481 12482 12483 12484 12485 12486 12487 12488 12489 12490 12491 12492 12493 12494 12495 12496 12497 12498 12499 12500 12501 12502 12503 12504 12505 12506 12507 12508 12509 12510 12511 12512 12513 12514 12515 12516 12517 12518 12519 12520 12521 12522 12523 12524 12525 12526 12527 12528 12529 12530 12531 12532 12533 12534 12535 12536 12537 12538 12539 12540 12541 12542 12543 12544 12545 12546 12547 12548 12549 12550 12551 12552 12553 12554 12555 12556 12557 12558 12559 12560 12561 12562 12563 12564 12565 12566 12567 12568 12569 12570 12571 12572 12573 12574 12575 12576 12577 12578 12579 12580 12581 12582 12583 12584 12585 12586 12587 12588 12589 12590 12591 12592 12593 12594 12595 12596 12597 12598 12599 12600 12601 12602 12603 12604 12605 12606 12607 12608 12609 12610 12611 12612 12613 12614 12615 12616 12617 12618 12619 12620 12621 12622 12623 12624 12625 12626 12627 12628 12629 12630 12631 12632 12633 12634 12635 12636 12637 12638 12639 12640 12641 12642 12643 12644 12645 12646 12647 12648 12649 12650 12651 12652 12653 12654 12655 12656 12657 12658 12659 12660 12661 12662 12663 12664 12665 12666 12667 12668 12669 12670 12671 12672 12673 12674 12675 12676 12677 12678 12679 12680 12681 12682 12683 12684 12685 12686 12687 12688 12689 12690 12691 12692 12693 12694 12695 12696 12697 12698 12699 12700 12701 12702 12703 12704 12705 12706 12707 12708 12709 12710 12711 12712 12713 12714 12715 12716 12717 12718 12719 12720 12721 12722 12723 12724 12725 12726 12727 12728 12729 12730 12731 12732 12733 12734 12735 12736 12737 12738 12739 12740 12741 12742 12743 12744 12745 12746 12747 12748 12749 12750 12751 12752 12753 12754 12755 12756 12757 12758 12759 12760 12761 12762 12763 12764 12765 12766 12767 12768 12769 12770 12771 12772 12773 12774 12775 12776 12777 12778 12779 12780 12781 12782 12783 12784 12785 12786 12787 12788 12789 12790 12791 12792 12793 12794 12795 12796 12797 12798 12799 12800 12801 12802 12803 12804 12805 12806 12807 12808 12809 12810 12811 12812 12813 12814 12815 12816 12817 12818 12819 12820 12821 12822 12823 12824 12825 12826 12827 12828 12829 12830 12831 12832 12833 12834 12835 12836 12837 12838 12839 12840 12841 12842 12843 12844 12845 12846 12847 12848 12849 12850 12851 12852 12853 12854 12855 12856 12857 12858 12859 12860 12861 12862 12863 12864 12865 12866 12867 12868 12869 12870 12871 12872 12873 12874 12875 12876 12877 12878 12879 12880 12881 12882 12883 12884 12885 12886 12887 12888 12889 12890 12891 12892 12893 12894 12895 12896 12897 12898 12899 12900 12901 12902 12903 12904 12905 12906 12907 12908 12909 12910 12911 12912 12913 12914 12915 12916 12917 12918 12919 12920 12921 12922 12923 12924 12925 12926 12927 12928 12929 12930 12931 12932 12933 12934 12935 12936 12937 12938 12939 12940 12941 12942 12943 12944 12945 12946 12947 12948 12949 12950 12951 12952 12953 12954 12955 12956 12957 12958 12959 12960 12961 12962 12963 12964 12965 12966 12967 12968 12969 12970 12971 12972 12973 12974 12975 12976 12977 12978 12979 12980 12981 12982 12983 12984 12985 12986 12987 12988 12989 12990 12991 12992 12993 12994 12995 12996 12997 12998 12999 13000 13001 13002 13003 13004 13005 13006 13007 13008 13009 13010 13011 13012 13013 13014 13015 13016 13017 13018 13019 13020 13021 13022 13023 13024 13025 13026 13027 13028 13029 13030 13031 13032 13033 13034 13035 13036 13037 13038 13039 13040 13041 13042 13043 13044 13045 13046 13047 13048 13049 13050 13051 13052 13053 13054 13055 13056 13057 13058 13059 13060 13061 13062 13063 13064 13065 13066 13067 13068 13069 13070 13071 13072 13073 13074 13075 13076 13077 13078 13079 13080 13081 13082 13083 13084 13085 13086 13087 13088 13089 13090 13091 13092 13093 13094 13095 13096 13097 13098 13099 13100 13101 13102 13103 13104 13105 13106 13107 13108 13109 13110 13111 13112 13113 13114 13115 13116 13117 13118 13119 13120 13121 13122 13123 13124 13125 13126 13127 13128 13129 13130 13131 13132 13133 13134 13135 13136 13137 13138 13139 13140 13141 13142 13143 13144 13145 13146 13147 13148 13149 13150 13151 13152 13153 13154 13155 13156 13157 13158 13159 13160 13161 13162 13163 13164 13165 13166 13167 13168 13169 13170 13171 13172 13173 13174 13175 13176 13177 13178 13179 13180 13181 13182 13183 13184 13185 13186 13187 13188 13189 13190 13191 13192 13193 13194 13195 13196 13197 13198 13199 13200 13201 13202 13203 13204 13205 13206 13207 13208 13209 13210 13211 13212 13213 13214 13215 13216 13217 13218 13219 13220 13221 13222 13223 13224 13225 13226 13227 13228 13229 13230 13231 13232 13233 13234 13235 13236 13237 13238 13239 13240 13241 13242 13243 13244 13245 13246 13247 13248 13249 13250 13251 13252 13253 13254 13255 13256 13257 13258 13259 13260 13261 13262 13263 13264 13265 13266 13267 13268 13269 13270 13271 13272 13273 13274 13275 13276 13277 13278 13279 13280 13281 13282 13283 13284 13285 13286 13287 13288 13289 13290 13291 13292 13293 13294 13295 13296 13297 13298 13299 13300 13301 13302 13303 13304 13305 13306 13307 13308 13309 13310 13311 13312 13313 13314 13315 13316 13317 13318 13319 13320 13321 13322 13323 13324 13325 13326 13327 13328 13329 13330 13331 13332 13333 13334 13335 13336 13337 13338 13339 13340 13341 13342 13343 13344 13345 13346 13347 13348 13349 13350 13351 13352 13353 13354 13355 13356 13357 13358 13359 13360 13361 13362 13363 13364 13365 13366 13367 13368 13369 13370 13371 13372 13373 13374 13375 13376 13377 13378 13379 13380 13381 13382 13383 13384 13385 13386 13387 13388 13389 13390 13391 13392 13393 13394 13395 13396 13397 13398 13399 13400 13401 13402 13403 13404 13405 13406 13407 13408 13409 13410 13411 13412 13413 13414 13415 13416 13417 13418 13419 13420 13421 13422 13423 13424 13425 13426 13427 13428 13429 13430 13431 13432 13433 13434 13435 13436 13437 13438 13439 13440 13441 13442 13443 13444 13445 13446 13447 13448 13449 13450 13451 13452 13453 13454 13455 13456 13457 13458 13459 13460 13461 13462 13463 13464 13465 13466 13467 13468 13469 13470 13471 13472 13473 13474 13475 13476 13477 13478 13479 13480 13481 13482 13483 13484 13485 13486 13487 13488 13489 13490 13491 13492 13493 13494 13495 13496 13497 13498 13499 13500 13501 13502 13503 13504 13505 13506 13507 13508 13509 13510 13511 13512 13513 13514 13515 13516 13517 13518 13519 13520 13521 13522 13523 13524 13525 13526 13527 13528 13529 13530 13531 13532 13533 13534 13535 13536 13537 13538 13539 13540 13541 13542 13543 13544 13545 13546 13547 13548 13549 13550 13551 13552 13553 13554 13555 13556 13557 13558 13559 13560 13561 13562 13563 13564 13565 13566 13567 13568 13569 13570 13571 13572 13573 13574 13575 13576 13577 13578 13579 13580 13581 13582 13583 13584 13585 13586 13587 13588 13589 13590 13591 13592 13593 13594 13595 13596 13597 13598 13599 13600 13601 13602 13603 13604 13605 13606 13607 13608 13609 13610 13611 13612 13613 13614 13615 13616 13617 13618 13619 13620 13621 13622 13623 13624 13625 13626 13627 13628 13629 13630 13631 13632 13633 13634 13635 13636 13637 13638 13639 13640 13641 13642 13643 13644 13645 13646 13647 13648 13649 13650 13651 13652 13653 13654 13655 13656 13657 13658 13659 13660 13661 13662 13663 13664 13665 13666 13667 13668 13669 13670 13671 13672 13673 13674 13675 13676 13677 13678 13679 13680 13681 13682 13683 13684 13685 13686 13687 13688 13689 13690 13691 13692 13693 13694 13695 13696 13697 13698 13699 13700 13701 13702 13703 13704 13705 13706 13707 13708 13709 13710 13711 13712 13713 13714 13715 13716 13717 13718 13719 13720 13721 13722 13723 13724 13725 13726 13727 13728 13729 13730 13731 13732 13733 13734 13735 13736 13737 13738 13739 13740 13741 13742 13743 13744 13745 13746 13747 13748 13749 13750 13751 13752 13753 13754 13755 13756 13757 13758 13759 13760 13761 13762 13763 13764 13765 13766 13767 13768 13769 13770 13771 13772 13773 13774 13775 13776 13777 13778 13779 13780 13781 13782 13783 13784 13785 13786 13787 13788 13789 13790 13791 13792 13793 13794 13795 13796 13797 13798 13799 13800 13801 13802 13803 13804 13805 13806 13807 13808 13809 13810 13811 13812 13813 13814 13815 13816 13817 13818 13819 13820 13821 13822 13823 13824 13825 13826 13827 13828 13829 13830 13831 13832 13833 13834 13835 13836 13837 13838 13839 13840 13841 13842 13843 13844 13845 13846 13847 13848 13849 13850 13851 13852 13853 13854 13855 13856 13857 13858 13859 13860 13861 13862 13863 13864 13865 13866 13867 13868 13869 13870 13871 13872 13873 13874 13875 13876 13877 13878 13879 13880 13881 13882 13883 13884 13885 13886 13887 13888 13889 13890 13891 13892 13893 13894 13895 13896 13897 13898 13899 13900 13901 13902 13903 13904 13905 13906 13907 13908 13909 13910 13911 13912 13913 13914 13915 13916 13917 13918 13919 13920 13921 13922 13923 13924 13925 13926 13927 13928 13929 13930 13931 13932 13933 13934 13935 13936 13937 13938 13939 13940 13941 13942 13943 13944 13945 13946 13947 13948 13949 13950 13951 13952 13953 13954 13955 13956 13957 13958 13959 13960 13961 13962 13963 13964 13965 13966 13967 13968 13969 13970 13971 13972 13973 13974 13975 13976 13977 13978 13979 13980 13981 13982 13983 13984 13985 13986 13987 13988 13989 13990 13991 13992 13993 13994 13995 13996 13997 13998 13999 14000 14001 14002 14003 14004 14005 14006 14007 14008 14009 14010 14011 14012 14013 14014 14015 14016 14017 14018 14019 14020 14021 14022 14023 14024 14025 14026 14027 14028 14029 14030 14031 14032 14033 14034 14035 14036 14037 14038 14039 14040 14041 14042 14043 14044 14045 14046 14047 14048 14049 14050 14051 14052 14053 14054 14055 14056 14057 14058 14059 14060 14061 14062 14063 14064 14065 14066 14067 14068 14069 14070 14071 14072 14073 14074 14075 14076 14077 14078 14079 14080 14081 14082 14083 14084 14085 14086 14087 14088 14089 14090 14091 14092 14093 14094 14095 14096 14097 14098 14099 14100 14101 14102 14103 14104 14105 14106 14107 14108 14109 14110 14111 14112 14113 14114 14115 14116 14117 14118 14119 14120 14121 14122 14123 14124 14125 14126 14127 14128 14129 14130 14131 14132 14133 14134 14135 14136 14137 14138 14139 14140 14141 14142 14143 14144 14145 14146 14147 14148 14149 14150 14151 14152 14153 14154 14155 14156 14157 14158 14159 14160 14161 14162 14163 14164 14165 14166 14167 14168 14169 14170 14171 14172 14173 14174 14175 14176 14177 14178 14179 14180 14181 14182 14183 14184 14185 14186 14187 14188 14189 14190 14191 14192 14193 14194 14195 14196 14197 14198 14199 14200 14201 14202 14203 14204 14205 14206 14207 14208 14209 14210 14211 14212 14213 14214 14215 14216 14217 14218 14219 14220 14221 14222 14223 14224 14225 14226 14227 14228 14229 14230 14231 14232 14233 14234 14235 14236 14237 14238 14239 14240 14241 14242 14243 14244 14245 14246 14247 14248 14249 14250 14251 14252 14253 14254 14255 14256 14257 14258 14259 14260 14261 14262 14263 14264 14265 14266 14267 14268 14269 14270 14271 14272 14273 14274 14275 14276 14277 14278 14279 14280 14281 14282 14283 14284 14285 14286 14287 14288 14289 14290 14291 14292 14293 14294 14295 14296 14297 14298 14299 14300 14301 14302 14303 14304 14305 14306 14307 14308 14309 14310 14311 14312 14313 14314 14315 14316 14317 14318 14319 14320 14321 14322 14323 14324 14325 14326 14327 14328 14329 14330 14331 14332 14333 14334 14335 14336 14337 14338 14339 14340 14341 14342 14343 14344 14345 14346 14347 14348 14349 14350 14351 14352 14353 14354 14355 14356 14357 14358 14359 14360 14361 14362 14363 14364 14365 14366 14367 14368 14369 14370 14371 14372 14373 14374 14375 14376 14377 14378 14379 14380 14381 14382 14383 14384 14385 14386 14387 14388 14389 14390 14391 14392 14393 14394 14395 14396 14397 14398 14399 14400 14401 14402 14403 14404 14405 14406 14407 14408 14409 14410 14411 14412 14413 14414 14415 14416 14417 14418 14419 14420 14421 14422 14423 14424 14425 14426 14427 14428 14429 14430 14431 14432 14433 14434 14435 14436 14437 14438 14439 14440 14441 14442 14443 14444 14445 14446 14447 14448 14449 14450 14451 14452 14453 14454 14455 14456 14457 14458 14459 14460 14461 14462 14463 14464 14465 14466 14467 14468 14469 14470 14471 14472 14473 14474 14475 14476 14477 14478 14479 14480 14481 14482 14483 14484 14485 14486 14487 14488 14489 14490 14491 14492 14493 14494 14495 14496 14497 14498 14499 14500 14501 14502 14503 14504 14505 14506 14507 14508 14509 14510 14511 14512 14513 14514 14515 14516 14517 14518 14519 14520 14521 14522 14523 14524 14525 14526 14527 14528 14529 14530 14531 14532 14533 14534 14535 14536 14537 14538 14539 14540 14541 14542 14543 14544 14545 14546 14547 14548 14549 14550 14551 14552 14553 14554 14555 14556 14557 14558 14559 14560 14561 14562 14563 14564 14565 14566 14567 14568 14569 14570 14571 14572 14573 14574 14575 14576 14577 14578 14579 14580 14581 14582 14583 14584 14585 14586 14587 14588 14589 14590 14591 14592 14593 14594 14595 14596 14597 14598 14599 14600 14601 14602 14603 14604 14605 14606 14607 14608 14609 14610 14611 14612 14613 14614 14615 14616 14617 14618 14619 14620 14621 14622 14623 14624 14625 14626 14627 14628 14629 14630 14631 14632 14633 14634 14635 14636 14637 14638 14639 14640 14641 14642 14643 14644 14645 14646 14647 14648 14649 14650 14651 14652 14653 14654 14655 14656 14657 14658 14659 14660 14661 14662 14663 14664 14665 14666 14667 14668 14669 14670 14671 14672 14673 14674 14675 14676 14677 14678 14679 14680 14681 14682 14683 14684 14685 14686 14687 14688 14689 14690 14691 14692 14693 14694 14695 14696 14697 14698 14699 14700 14701 14702 14703 14704 14705 14706 14707 14708 14709 14710 14711 14712 14713 14714 14715 14716 14717 14718 14719 14720 14721 14722 14723 14724 14725 14726 14727 14728 14729 14730 14731 14732 14733 14734 14735 14736 14737 14738 14739 14740 14741 14742 14743 14744 14745 14746 14747 14748 14749 14750 14751 14752 14753 14754 14755 14756 14757 14758 14759 14760 14761 14762 14763 14764 14765 14766 14767 14768 14769 14770 14771 14772 14773 14774 14775 14776 14777 14778 14779 14780 14781 14782 14783 14784 14785 14786 14787 14788 14789 14790 14791 14792 14793 14794 14795 14796 14797 14798 14799 14800 14801 14802 14803 14804 14805 14806 14807 14808 14809 14810 14811 14812 14813 14814 14815 14816 14817 14818 14819 14820 14821 14822 14823 14824 14825 14826 14827 14828 14829 14830 14831 14832 14833 14834 14835 14836 14837 14838 14839 14840 14841 14842 14843 14844 14845 14846 14847 14848 14849 14850 14851 14852 14853 14854 14855 14856 14857 14858 14859 14860 14861 14862 14863 14864 14865 14866 14867 14868 14869 14870 14871 14872 14873 14874 14875 14876 14877 14878 14879 14880 14881 14882 14883 14884 14885 14886 14887 14888 14889 14890 14891 14892 14893 14894 14895 14896 14897 14898 14899 14900 14901 14902 14903 14904 14905 14906 14907 14908 14909 14910 14911 14912 14913 14914 14915 14916 14917 14918 14919 14920 14921 14922 14923 14924 14925 14926 14927 14928 14929 14930 14931 14932 14933 14934 14935 14936 14937 14938 14939 14940 14941 14942 14943 14944 14945 14946 14947 14948 14949 14950 14951 14952 14953 14954 14955 14956 14957 14958 14959 14960 14961 14962 14963 14964 14965 14966 14967 14968 14969 14970 14971 14972 14973 14974 14975 14976 14977 14978 14979 14980 14981 14982 14983 14984 14985 14986 14987 14988 14989 14990 14991 14992 14993 14994 14995 14996 14997 14998 14999 15000 15001 15002 15003 15004 15005 15006 15007 15008 15009 15010 15011 15012 15013 15014 15015 15016 15017 15018 15019 15020 15021 15022 15023 15024 15025 15026 15027 15028 15029 15030 15031 15032 15033 15034 15035 15036 15037 15038 15039 15040 15041 15042 15043 15044 15045 15046 15047 15048 15049 15050 15051 15052 15053 15054 15055 15056 15057 15058 15059 15060 15061 15062 15063 15064 15065 15066 15067 15068 15069 15070 15071 15072 15073 15074 15075 15076 15077 15078 15079 15080 15081 15082 15083 15084 15085 15086 15087 15088 15089 15090 15091 15092 15093 15094 15095 15096 15097 15098 15099 15100 15101 15102 15103 15104 15105 15106 15107 15108 15109 15110 15111 15112 15113 15114 15115 15116 15117 15118 15119 15120 15121 15122 15123 15124 15125 15126 15127 15128 15129 15130 15131 15132 15133 15134 15135 15136 15137 15138 15139 15140 15141 15142 15143 15144 15145 15146 15147 15148 15149 15150 15151 15152 15153 15154 15155 15156 15157 15158 15159 15160 15161 15162 15163 15164 15165 15166 15167 15168 15169 15170 15171 15172 15173 15174 15175 15176 15177 15178 15179 15180 15181 15182 15183 15184 15185 15186 15187 15188 15189 15190 15191 15192 15193 15194 15195 15196 15197 15198 15199 15200 15201 15202 15203 15204 15205 15206 15207 15208 15209 15210 15211 15212 15213 15214 15215 15216 15217 15218 15219 15220 15221 15222 15223 15224 15225 15226 15227 15228 15229 15230 15231 15232 15233 15234 15235 15236 15237 15238 15239 15240 15241 15242 15243 15244 15245 15246 15247 15248 15249 15250 15251 15252 15253 15254 15255 15256 15257 15258 15259 15260 15261 15262 15263 15264 15265 15266 15267 15268 15269 15270 15271 15272 15273 15274 15275 15276 15277 15278 15279 15280 15281 15282 15283 15284 15285 15286 15287 15288 15289 15290 15291 15292 15293 15294 15295 15296 15297 15298 15299 15300 15301 15302 15303 15304 15305 15306 15307 15308 15309 15310 15311 15312 15313 15314 15315 15316 15317 15318 15319 15320 15321 15322 15323 15324 15325 15326 15327 15328 15329 15330 15331 15332 15333 15334 15335 15336 15337 15338 15339 15340 15341 15342 15343 15344 15345 15346 15347 15348 15349 15350 15351 15352 15353 15354 15355 15356 15357 15358 15359 15360 15361 15362 15363 15364 15365 15366 15367 15368 15369 15370 15371 15372 15373 15374 15375 15376 15377 15378 15379 15380 15381 15382 15383 15384 15385 15386 15387 15388 15389 15390 15391 15392 15393 15394 15395 15396 15397 15398 15399 15400 15401 15402 15403 15404 15405 15406 15407 15408 15409 15410 15411 15412 15413 15414 15415 15416 15417 15418 15419 15420 15421 15422 15423 15424 15425 15426 15427 15428 15429 15430 15431 15432 15433 15434 15435 15436 15437 15438 15439 15440 15441 15442 15443 15444 15445 15446 15447 15448 15449 15450 15451 15452 15453 15454 15455 15456 15457 15458 15459 15460 15461 15462 15463 15464 15465 15466 15467 15468 15469 15470 15471 15472 15473 15474 15475 15476 15477 15478 15479 15480 15481 15482 15483 15484 15485 15486 15487 15488 15489 15490 15491 15492 15493 15494 15495 15496 15497 15498 15499 15500 15501 15502 15503 15504 15505 15506 15507 15508 15509 15510 15511 15512 15513 15514 15515 15516 15517 15518 15519 15520 15521 15522 15523 15524 15525 15526 15527 15528 15529 15530 15531 15532 15533 15534 15535 15536 15537 15538 15539 15540 15541 15542 15543 15544 15545 15546 15547 15548 15549 15550 15551 15552 15553 15554 15555 15556 15557 15558 15559 15560 15561 15562 15563 15564 15565 15566 15567 15568 15569 15570 15571 15572 15573 15574 15575 15576 15577 15578 15579 15580 15581 15582 15583 15584 15585 15586 15587 15588 15589 15590 15591 15592 15593 15594 15595 15596 15597 15598 15599 15600 15601 15602 15603 15604 15605 15606 15607 15608 15609 15610 15611 15612 15613 15614 15615 15616 15617 15618 15619 15620 15621 15622 15623 15624 15625 15626 15627 15628 15629 15630 15631 15632 15633 15634 15635 15636 15637 15638 15639 15640 15641 15642 15643 15644 15645 15646 15647 15648 15649 15650 15651 15652 15653 15654 15655 15656 15657 15658 15659 15660 15661 15662 15663 15664 15665 15666 15667 15668 15669 15670 15671 15672 15673 15674 15675 15676 15677 15678 15679 15680 15681 15682 15683 15684 15685 15686 15687 15688 15689 15690 15691 15692 15693 15694 15695 15696 15697 15698 15699 15700 15701 15702 15703 15704 15705 15706 15707 15708 15709 15710 15711 15712 15713 15714 15715 15716 15717 15718 15719 15720 15721 15722 15723 15724 15725 15726 15727 15728 15729 15730 15731 15732 15733 15734 15735 15736 15737 15738 15739 15740 15741 15742 15743 15744 15745 15746 15747 15748 15749 15750 15751 15752 15753 15754 15755 15756 15757 15758 15759 15760 15761 15762 15763 15764 15765 15766 15767 15768 15769 15770 15771 15772 15773 15774 15775 15776 15777 15778 15779 15780 15781 15782 15783 15784 15785 15786 15787 15788 15789 15790 15791 15792 15793 15794 15795 15796 15797 15798 15799 15800 15801 15802 15803 15804 15805 15806 15807 15808 15809 15810 15811 15812 15813 15814 15815 15816 15817 15818 15819 15820 15821 15822 15823 15824 15825 15826 15827 15828 15829 15830 15831 15832 15833 15834 15835 15836 15837 15838 15839 15840 15841 15842 15843 15844 15845 15846 15847 15848 15849 15850 15851 15852 15853 15854 15855 15856 15857 15858 15859 15860 15861 15862 15863 15864 15865 15866 15867 15868 15869 15870 15871 15872 15873 15874 15875 15876 15877 15878 15879 15880 15881 15882 15883 15884 15885 15886 15887 15888 15889 15890 15891 15892 15893 15894 15895 15896 15897 15898 15899 15900 15901 15902 15903 15904 15905 15906 15907 15908 15909 15910 15911 15912 15913 15914 15915 15916 15917 15918 15919 15920 15921 15922 15923 15924 15925 15926 15927 15928 15929 15930 15931 15932 15933 15934 15935 15936 15937 15938 15939 15940 15941 15942 15943 15944 15945 15946 15947 15948 15949 15950 15951 15952 15953 15954 15955 15956 15957 15958 15959 15960 15961 15962 15963 15964 15965 15966 15967 15968 15969 15970 15971 15972 15973 15974 15975 15976 15977 15978 15979 15980 15981 15982 15983 15984 15985 15986 15987 15988 15989 15990 15991 15992 15993 15994 15995 15996 15997 15998 15999 16000 16001 16002 16003 16004 16005 16006 16007 16008 16009 16010 16011 16012 16013 16014 16015 16016 16017 16018 16019 16020 16021 16022 16023 16024 16025 16026 16027 16028 16029 16030 16031 16032 16033 16034 16035 16036 16037 16038 16039 16040 16041 16042 16043 16044 16045 16046 16047 16048 16049 16050 16051 16052 16053 16054 16055 16056 16057 16058 16059 16060 16061 16062 16063 16064 16065 16066 16067 16068 16069 16070 16071 16072 16073 16074 16075 16076 16077 16078 16079 16080 16081 16082 16083 16084 16085 16086 16087 16088 16089 16090 16091 16092 16093 16094 16095 16096 16097 16098 16099 16100 16101 16102 16103 16104 16105 16106 16107 16108 16109 16110 16111 16112 16113 16114 16115 16116 16117 16118 16119 16120 16121 16122 16123 16124 16125 16126 16127 16128 16129 16130 16131 16132 16133 16134 16135 16136 16137 16138 16139 16140 16141 16142 16143 16144 16145 16146 16147 16148 16149 16150 16151 16152 16153 16154 16155 16156 16157 16158 16159 16160 16161 16162 16163 16164 16165 16166 16167 16168 16169 16170 16171 16172 16173 16174 16175 16176 16177 16178 16179 16180 16181 16182 16183 16184 16185 16186 16187 16188 16189 16190 16191 16192 16193 16194 16195 16196 16197 16198 16199 16200 16201 16202 16203 16204 16205 16206 16207 16208 16209 16210 16211 16212 16213 16214 16215 16216 16217 16218 16219 16220 16221 16222 16223 16224 16225 16226 16227 16228 16229 16230 16231 16232 16233 16234 16235 16236 16237 16238 16239 16240 16241 16242 16243 16244 16245 16246 16247 16248 16249 16250 16251 16252 16253 16254 16255 16256 16257 16258 16259 16260 16261 16262 16263 16264 16265 16266 16267 16268 16269 16270 16271 16272 16273 16274 16275 16276 16277 16278 16279 16280 16281 16282 16283 16284 16285 16286 16287 16288 16289 16290 16291 16292 16293 16294 16295 16296 16297 16298 16299 16300 16301 16302 16303 16304 16305 16306 16307 16308 16309 16310 16311 16312 16313 16314 16315 16316 16317 16318 16319 16320 16321 16322 16323 16324 16325 16326 16327 16328 16329 16330 16331 16332 16333 16334 16335 16336 16337 16338 16339 16340 16341 16342 16343 16344 16345 16346 16347 16348 16349 16350 16351 16352 16353 16354 16355 16356 16357 16358 16359 16360 16361 16362 16363 16364 16365 16366 16367 16368 16369 16370 16371 16372 16373 16374 16375 16376 16377 16378 16379 16380 16381 16382 16383 16384 16385 16386 16387 16388 16389 16390 16391 16392 16393 16394 16395 16396 16397 16398 16399 16400 16401 16402 16403 16404 16405 16406 16407 16408 16409 16410 16411 16412 16413 16414 16415 16416 16417 16418 16419 16420 16421 16422 16423 16424 16425 16426 16427 16428 16429 16430 16431 16432 16433 16434 16435 16436 16437 16438 16439 16440 16441 16442 16443 16444 16445 16446 16447 16448 16449 16450 16451 16452 16453 16454 16455 16456 16457 16458 16459 16460 16461 16462 16463 16464 16465 16466 16467 16468 16469 16470 16471 16472 16473 16474 16475 16476 16477 16478 16479 16480 16481 16482 16483 16484 16485 16486 16487 16488 16489 16490 16491 16492 16493 16494 16495 16496 16497 16498 16499 16500 16501 16502 16503 16504 16505 16506 16507 16508 16509 16510 16511 16512 16513 16514 16515 16516 16517 16518 16519 16520 16521 16522 16523 16524 16525 16526 16527 16528 16529 16530 16531 16532 16533 16534 16535 16536 16537 16538 16539 16540 16541 16542 16543 16544 16545 16546 16547 16548 16549 16550 16551 16552 16553 16554 16555 16556 16557 16558 16559 16560 16561 16562 16563 16564 16565 16566 16567 16568 16569 16570 16571 16572 16573 16574 16575 16576 16577 16578 16579 16580 16581 16582 16583 16584 16585 16586 16587 16588 16589 16590 16591 16592 16593 16594 16595 16596 16597 16598 16599 16600 16601 16602 16603 16604 16605 16606 16607 16608 16609 16610 16611 16612 16613 16614 16615 16616 16617 16618 16619 16620 16621 16622 16623 16624 16625 16626 16627 16628 16629 16630 16631 16632 16633 16634 16635 16636 16637 16638 16639 16640 16641 16642 16643 16644 16645 16646 16647 16648 16649 16650 16651 16652 16653 16654 16655 16656 16657 16658 16659 16660 16661 16662 16663 16664 16665 16666 16667 16668 16669 16670 16671 16672 16673 16674 16675 16676 16677 16678 16679 16680 16681 16682 16683 16684 16685 16686 16687 16688 16689 16690 16691 16692 16693 16694 16695 16696 16697 16698 16699 16700 16701 16702 16703 16704 16705 16706 16707 16708 16709 16710 16711 16712 16713 16714 16715 16716 16717 16718 16719 16720 16721 16722 16723 16724 16725 16726 16727 16728 16729 16730 16731 16732 16733 16734 16735 16736 16737 16738 16739 16740 16741 16742 16743 16744 16745 16746 16747 16748 16749 16750 16751 16752 16753 16754 16755 16756 16757 16758 16759 16760 16761 16762 16763 16764 16765 16766 16767 16768 16769 16770 16771 16772 16773 16774 16775 16776 16777 16778 16779 16780 16781 16782 16783 16784 16785 16786 16787 16788 16789 16790 16791 16792 16793 16794 16795 16796 16797 16798 16799 16800 16801 16802 16803 16804 16805 16806 16807 16808 16809 16810 16811 16812 16813 16814 16815 16816 16817 16818 16819 16820 16821 16822 16823 16824 16825 16826 16827 16828 16829 16830 16831 16832 16833 16834 16835 16836 16837 16838 16839 16840 16841 16842 16843 16844 16845 16846 16847 16848 16849 16850 16851 16852 16853 16854 16855 16856 16857 16858 16859 16860 16861 16862 16863 16864 16865 16866 16867 16868 16869 16870 16871 16872 16873 16874 16875 16876 16877 16878 16879 16880 16881 16882 16883 16884 16885 16886 16887 16888 16889 16890 16891 16892 16893 16894 16895 16896 16897 16898 16899 16900 16901 16902 16903 16904 16905 16906 16907 16908 16909 16910 16911 16912 16913 16914 16915 16916 16917 16918 16919 16920 16921 16922 16923 16924 16925 16926 16927 16928 16929 16930 16931 16932 16933 16934 16935 16936 16937 16938 16939 16940 16941 16942 16943 16944 16945 16946 16947 16948 16949 16950 16951 16952 16953 16954 16955 16956 16957 16958 16959 16960 16961 16962 16963 16964 16965 16966 16967 16968 16969 16970 16971 16972 16973 16974 16975 16976 16977 16978 16979 16980 16981 16982 16983 16984 16985 16986 16987 16988 16989 16990 16991 16992 16993 16994 16995 16996 16997 16998 16999 17000 17001 17002 17003 17004 17005 17006 17007 17008 17009 17010 17011 17012 17013 17014 17015 17016 17017 17018 17019 17020 17021 17022 17023 17024 17025 17026 17027 17028 17029 17030 17031 17032 17033 17034 17035 17036 17037 17038 17039 17040 17041 17042 17043 17044 17045 17046 17047 17048 17049 17050 17051 17052 17053 17054 17055 17056 17057 17058 17059 17060 17061 17062 17063 17064 17065 17066 17067 17068 17069 17070 17071 17072 17073 17074 17075 17076 17077 17078 17079 17080 17081 17082 17083 17084 17085 17086 17087 17088 17089 17090 17091 17092 17093 17094 17095 17096 17097 17098 17099 17100 17101 17102 17103 17104 17105 17106 17107 17108 17109 17110 17111 17112 17113 17114 17115 17116 17117 17118 17119 17120 17121 17122 17123 17124 17125 17126 17127 17128 17129 17130 17131 17132 17133 17134 17135 17136 17137 17138 17139 17140 17141 17142 17143 17144 17145 17146 17147 17148 17149 17150 17151 17152 17153 17154 17155 17156 17157 17158 17159 17160 17161 17162 17163 17164 17165 17166 17167 17168 17169 17170 17171 17172 17173 17174 17175 17176 17177 17178 17179 17180 17181 17182 17183 17184 17185 17186 17187 17188 17189 17190 17191 17192 17193 17194 17195 17196 17197 17198 17199 17200 17201 17202 17203 17204 17205 17206 17207 17208 17209 17210 17211 17212 17213 17214 17215 17216 17217 17218 17219 17220 17221 17222 17223 17224 17225 17226 17227 17228 17229 17230 17231 17232 17233 17234 17235 17236 17237 17238 17239 17240 17241 17242 17243 17244 17245 17246 17247 17248 17249 17250 17251 17252 17253 17254 17255 17256 17257 17258 17259 17260 17261 17262 17263 17264 17265 17266 17267 17268 17269 17270 17271 17272 17273 17274 17275 17276 17277 17278 17279 17280 17281 17282 17283 17284 17285 17286 17287 17288 17289 17290 17291 17292 17293 17294 17295 17296 17297 17298 17299 17300 17301 17302 17303 17304 17305 17306 17307 17308 17309 17310 17311 17312 17313 17314 17315 17316 17317 17318 17319 17320 17321 17322 17323 17324 17325 17326 17327 17328 17329 17330 17331 17332 17333 17334 17335 17336 17337 17338 17339 17340 17341 17342 17343 17344 17345 17346 17347 17348 17349 17350 17351 17352 17353 17354 17355 17356 17357 17358 17359 17360 17361 17362 17363 17364 17365 17366 17367 17368 17369 17370 17371 17372 17373 17374 17375 17376 17377 17378 17379 17380 17381 17382 17383 17384 17385 17386 17387 17388 17389 17390 17391 17392 17393 17394 17395 17396 17397 17398 17399 17400 17401 17402 17403 17404 17405 17406 17407 17408 17409 17410 17411 17412 17413 17414 17415 17416 17417 17418 17419 17420 17421 17422 17423 17424 17425 17426 17427 17428 17429 17430 17431 17432 17433 17434 17435 17436 17437 17438 17439 17440 17441 17442 17443 17444 17445 17446 17447 17448 17449 17450 17451 17452 17453 17454 17455 17456 17457 17458 17459 17460 17461 17462 17463 17464 17465 17466 17467 17468 17469 17470 17471 17472 17473 17474 17475 17476 17477 17478 17479 17480 17481 17482 17483 17484 17485 17486 17487 17488 17489 17490 17491 17492 17493 17494 17495 17496 17497 17498 17499 17500 17501 17502 17503 17504 17505 17506 17507 17508 17509 17510 17511 17512 17513 17514 17515 17516 17517 17518 17519 17520 17521 17522 17523 17524 17525 17526 17527 17528 17529 17530 17531 17532 17533 17534 17535 17536 17537 17538 17539 17540 17541 17542 17543 17544 17545 17546 17547 17548 17549 17550 17551 17552 17553 17554 17555 17556 17557 17558 17559 17560 17561 17562 17563 17564 17565 17566 17567 17568 17569 17570 17571 17572 17573 17574 17575 17576 17577 17578 17579 17580 17581 17582 17583 17584 17585 17586 17587 17588 17589 17590 17591 17592 17593 17594 17595 17596 17597 17598 17599 17600 17601 17602 17603 17604 17605 17606 17607 17608 17609 17610 17611 17612 17613 17614 17615 17616 17617 17618 17619 17620 17621 17622 17623 17624 17625 17626 17627 17628 17629 17630 17631 17632 17633 17634 17635 17636 17637 17638 17639 17640 17641 17642 17643 17644 17645 17646 17647 17648 17649 17650 17651 17652 17653 17654 17655 17656 17657 17658 17659 17660 17661 17662 17663 17664 17665 17666 17667 17668 17669 17670 17671 17672 17673 17674 17675 17676 17677 17678 17679 17680 17681 17682 17683 17684 17685 17686 17687 17688 17689 17690 17691 17692 17693 17694 17695 17696 17697 17698 17699 17700 17701 17702 17703 17704 17705 17706 17707 17708 17709 17710 17711 17712 17713 17714 17715 17716 17717 17718 17719 17720 17721 17722 17723 17724 17725 17726 17727 17728 17729 17730 17731 17732 17733 17734 17735 17736 17737 17738 17739 17740 17741 17742 17743 17744 17745 17746 17747 17748 17749 17750 17751 17752 17753 17754 17755 17756 17757 17758 17759 17760 17761 17762 17763 17764 17765 17766 17767 17768 17769 17770 17771 17772 17773 17774 17775 17776 17777 17778 17779 17780 17781 17782 17783 17784 17785 17786 17787 17788 17789 17790 17791 17792 17793 17794 17795 17796 17797 17798 17799 17800 17801 17802 17803 17804 17805 17806 17807 17808 17809 17810 17811 17812 17813 17814 17815 17816 17817 17818 17819 17820 17821 17822 17823 17824 17825 17826 17827 17828 17829 17830 17831 17832 17833 17834 17835 17836 17837 17838 17839 17840 17841 17842 17843 17844 17845 17846 17847 17848 17849 17850 17851 17852 17853 17854 17855 17856 17857 17858 17859 17860 17861 17862 17863 17864 17865 17866 17867 17868 17869 17870 17871 17872 17873 17874 17875 17876 17877 17878 17879 17880 17881 17882 17883 17884 17885 17886 17887 17888 17889 17890 17891 17892 17893 17894 17895 17896 17897 17898 17899 17900 17901 17902 17903 17904 17905 17906 17907 17908 17909 17910 17911 17912 17913 17914 17915 17916 17917 17918 17919 17920 17921 17922 17923 17924 17925 17926 17927 17928 17929 17930 17931 17932 17933 17934 17935 17936 17937 17938 17939 17940 17941 17942 17943 17944 17945 17946 17947 17948 17949 17950 17951 17952 17953 17954 17955 17956 17957 17958 17959 17960 17961 17962 17963 17964 17965 17966 17967 17968 17969 17970 17971 17972 17973 17974 17975 17976 17977 17978 17979 17980 17981 17982 17983 17984 17985 17986 17987 17988 17989 17990 17991 17992 17993 17994 17995 17996 17997 17998 17999 18000 18001 18002 18003 18004 18005 18006 18007 18008 18009 18010 18011 18012 18013 18014 18015 18016 18017 18018 18019 18020 18021 18022 18023 18024 18025 18026 18027 18028 18029 18030 18031 18032 18033 18034 18035 18036 18037 18038 18039 18040 18041 18042 18043 18044 18045 18046 18047 18048 18049 18050 18051 18052 18053 18054 18055 18056 18057 18058 18059 18060 18061 18062 18063 18064 18065 18066 18067 18068 18069 18070 18071 18072 18073 18074 18075 18076 18077 18078 18079 18080 18081 18082 18083 18084 18085 18086 18087 18088 18089 18090 18091 18092 18093 18094 18095 18096 18097 18098 18099 18100 18101 18102 18103 18104 18105 18106 18107 18108 18109 18110 18111 18112 18113 18114 18115 18116 18117 18118 18119 18120 18121 18122 18123 18124 18125 18126 18127 18128 18129 18130 18131 18132 18133 18134 18135 18136 18137 18138 18139 18140 18141 18142 18143 18144 18145 18146 18147 18148 18149 18150 18151 18152 18153 18154 18155 18156 18157 18158 18159 18160 18161 18162 18163 18164 18165 18166 18167 18168 18169 18170 18171 18172 18173 18174 18175 18176 18177 18178 18179 18180 18181 18182 18183 18184 18185 18186 18187 18188 18189 18190 18191 18192 18193 18194 18195 18196 18197 18198 18199 18200 18201 18202 18203 18204 18205 18206 18207 18208 18209 18210 18211 18212 18213 18214 18215 18216 18217 18218 18219 18220 18221 18222 18223 18224 18225 18226 18227 18228 18229 18230 18231 18232 18233 18234 18235 18236 18237 18238 18239 18240 18241 18242 18243 18244 18245 18246 18247 18248 18249 18250 18251 18252 18253 18254 18255 18256 18257 18258 18259 18260 18261 18262 18263 18264 18265 18266 18267 18268 18269 18270 18271 18272 18273 18274 18275 18276 18277 18278 18279 18280 18281 18282 18283 18284 18285 18286 18287 18288 18289 18290 18291 18292 18293 18294 18295 18296 18297 18298 18299 18300 18301 18302 18303 18304 18305 18306 18307 18308 18309 18310 18311 18312 18313 18314 18315 18316 18317 18318 18319 18320 18321 18322 18323 18324 18325 18326 18327 18328 18329 18330 18331 18332 18333 18334 18335 18336 18337 18338 18339 18340 18341 18342 18343 18344 18345 18346 18347 18348 18349 18350 18351 18352 18353 18354 18355 18356 18357 18358 18359 18360 18361 18362 18363 18364 18365 18366 18367 18368 18369 18370 18371 18372 18373 18374 18375 18376 18377 18378 18379 18380 18381 18382 18383 18384 18385 18386 18387 18388 18389 18390 18391 18392 18393 18394 18395 18396 18397 18398 18399 18400 18401 18402 18403 18404 18405 18406 18407 18408 18409 18410 18411 18412 18413 18414 18415 18416 18417 18418 18419 18420 18421 18422 18423 18424 18425 18426 18427 18428 18429 18430 18431 18432 18433 18434 18435 18436 18437 18438 18439 18440 18441 18442 18443 18444 18445 18446 18447 18448 18449 18450 18451 18452 18453 18454 18455 18456 18457 18458 18459 18460 18461 18462 18463 18464 18465 18466 18467 18468 18469 18470 18471 18472 18473 18474 18475 18476 18477 18478 18479 18480 18481 18482 18483 18484 18485 18486 18487 18488 18489 18490 18491 18492 18493 18494 18495 18496 18497 18498 18499 18500 18501 18502 18503 18504 18505 18506 18507 18508 18509 18510 18511 18512 18513 18514 18515 18516 18517 18518 18519 18520 18521 18522 18523 18524 18525 18526 18527 18528 18529 18530 18531 18532 18533 18534 18535 18536 18537 18538 18539 18540 18541 18542 18543 18544 18545 18546 18547 18548 18549 18550 18551 18552 18553 18554 18555 18556 18557 18558 18559 18560 18561 18562 18563 18564 18565 18566 18567 18568 18569 18570 18571 18572 18573 18574 18575 18576 18577 18578 18579 18580 18581 18582 18583 18584 18585 18586 18587 18588 18589 18590 18591 18592 18593 18594 18595 18596 18597 18598 18599 18600 18601 18602 18603 18604 18605 18606 18607 18608 18609 18610 18611 18612 18613 18614 18615 18616 18617 18618 18619 18620 18621 18622 18623 18624 18625 18626 18627 18628 18629 18630 18631 18632 18633 18634 18635 18636 18637 18638 18639 18640 18641 18642 18643 18644 18645 18646 18647 18648 18649 18650 18651 18652 18653 18654 18655 18656 18657 18658 18659 18660 18661 18662 18663 18664 18665 18666 18667 18668 18669 18670 18671 18672 18673 18674 18675 18676 18677 18678 18679 18680 18681 18682 18683 18684 18685 18686 18687 18688 18689 18690 18691 18692 18693 18694 18695 18696 18697 18698 18699 18700 18701 18702 18703 18704 18705 18706 18707 18708 18709 18710 18711 18712 18713 18714 18715 18716 18717 18718 18719 18720 18721 18722 18723 18724 18725 18726 18727 18728 18729 18730 18731 18732 18733 18734 18735 18736 18737 18738 18739 18740 18741 18742 18743 18744 18745 18746 18747 18748 18749 18750 18751 18752 18753 18754 18755 18756 18757 18758 18759 18760 18761 18762 18763 18764 18765 18766 18767 18768 18769 18770 18771 18772 18773 18774 18775 18776 18777 18778 18779 18780 18781 18782 18783 18784 18785 18786 18787 18788 18789 18790 18791 18792 18793 18794 18795 18796 18797 18798 18799 18800 18801 18802 18803 18804 18805 18806 18807 18808 18809 18810 18811 18812 18813 18814 18815 18816 18817 18818 18819 18820 18821 18822 18823 18824 18825 18826 18827 18828 18829 18830 18831 18832 18833 18834 18835 18836 18837 18838 18839 18840 18841 18842 18843 18844 18845 18846 18847 18848 18849 18850 18851 18852 18853 18854 18855 18856 18857 18858 18859 18860 18861 18862 18863 18864 18865 18866 18867 18868 18869 18870 18871 18872 18873 18874 18875 18876 18877 18878 18879 18880 18881 18882 18883 18884 18885 18886 18887 18888 18889 18890 18891 18892 18893 18894 18895 18896 18897 18898 18899 18900 18901 18902 18903 18904 18905 18906 18907 18908 18909 18910 18911 18912 18913 18914 18915 18916 18917 18918 18919 18920 18921 18922 18923 18924 18925 18926 18927 18928 18929 18930 18931 18932 18933 18934 18935 18936 18937 18938 18939 18940 18941 18942 18943 18944 18945 18946 18947 18948 18949 18950 18951 18952 18953 18954 18955 18956 18957 18958 18959 18960 18961 18962 18963 18964 18965 18966 18967 18968 18969 18970 18971 18972 18973 18974 18975 18976 18977 18978 18979 18980 18981 18982 18983 18984 18985 18986 18987 18988 18989 18990 18991 18992 18993 18994 18995 18996 18997 18998 18999 19000 19001 19002 19003 19004 19005 19006 19007 19008 19009 19010 19011 19012 19013 19014 19015 19016 19017 19018 19019 19020 19021 19022 19023 19024 19025 19026 19027 19028 19029 19030 19031 19032 19033 19034 19035 19036 19037 19038 19039 19040 19041 19042 19043 19044 19045 19046 19047 19048 19049 19050 19051 19052 19053 19054 19055 19056 19057 19058 19059 19060 19061 19062 19063 19064 19065 19066 19067 19068 19069 19070 19071 19072 19073 19074 19075 19076 19077 19078 19079 19080 19081 19082 19083 19084 19085 19086 19087 19088 19089 19090 19091 19092 19093 19094 19095 19096 19097 19098 19099 19100 19101 19102 19103 19104 19105 19106 19107 19108 19109 19110 19111 19112 19113 19114 19115 19116 19117 19118 19119 19120 19121 19122 19123 19124 19125 19126 19127 19128 19129 19130 19131 19132 19133 19134 19135 19136 19137 19138 19139 19140 19141 19142 19143 19144 19145 19146 19147 19148 19149 19150 19151 19152 19153 19154 19155 19156 19157 19158 19159 19160 19161 19162 19163 19164 19165 19166 19167 19168 19169 19170 19171 19172 19173 19174 19175 19176 19177 19178 19179 19180 19181 19182 19183 19184 19185 19186 19187 19188 19189 19190 19191 19192 19193 19194 19195 19196 19197 19198 19199 19200 19201 19202 19203 19204 19205 19206 19207 19208 19209 19210 19211 19212 19213 19214 19215 19216 19217 19218 19219 19220 19221 19222 19223 19224 19225 19226 19227 19228 19229 19230 19231 19232 19233 19234 19235 19236 19237 19238 19239 19240 19241 19242 19243 19244 19245 19246 19247 19248 19249 19250 19251 19252 19253 19254 19255 19256 19257 19258 19259 19260 19261 19262 19263 19264 19265 19266 19267 19268 19269 19270 19271 19272 19273 19274 19275 19276 19277 19278 19279 19280 19281 19282 19283 19284 19285 19286 19287 19288 19289 19290 19291 19292 19293 19294 19295 19296 19297 19298 19299 19300 19301 19302 19303 19304 19305 19306 19307 19308 19309 19310 19311 19312 19313 19314 19315 19316 19317 19318 19319 19320 19321 19322 19323 19324 19325 19326 19327 19328 19329 19330 19331 19332 19333 19334 19335 19336 19337 19338 19339 19340 19341 19342 19343 19344 19345 19346 19347 19348 19349 19350 19351 19352 19353 19354 19355 19356 19357 19358 19359 19360 19361 19362 19363 19364 19365 19366 19367 19368 19369 19370 19371 19372 19373 19374 19375 19376 19377 19378 19379 19380 19381 19382 19383 19384 19385 19386 19387 19388 19389 19390 19391 19392 19393 19394 19395 19396 19397 19398 19399 19400 19401 19402 19403 19404 19405 19406 19407 19408 19409 19410 19411 19412 19413 19414 19415 19416 19417 19418 19419 19420 19421 19422 19423 19424 19425 19426 19427 19428 19429 19430 19431 19432 19433 19434 19435 19436 19437 19438 19439 19440 19441 19442 19443 19444 19445 19446 19447 19448 19449 19450 19451 19452 19453 19454 19455 19456 19457 19458 19459 19460 19461 19462 19463 19464 19465 19466 19467 19468 19469 19470 19471 19472 19473 19474 19475 19476 19477 19478 19479 19480 19481 19482 19483 19484 19485 19486 19487 19488 19489 19490 19491 19492 19493 19494 19495 19496 19497 19498 19499 19500 19501 19502 19503 19504 19505 19506 19507 19508 19509 19510 19511 19512 19513 19514 19515 19516 19517 19518 19519 19520 19521 19522 19523 19524 19525 19526 19527 19528 19529 19530 19531 19532 19533 19534 19535 19536 19537 19538 19539 19540 19541 19542 19543 19544 19545 19546 19547 19548 19549 19550 19551 19552 19553 19554 19555 19556 19557 19558 19559 19560 19561 19562 19563 19564 19565 19566 19567 19568 19569 19570 19571 19572 19573 19574 19575 19576 19577 19578 19579 19580 19581 19582 19583 19584 19585 19586 19587 19588 19589 19590 19591 19592 19593 19594 19595 19596 19597 19598 19599 19600 19601 19602 19603 19604 19605 19606 19607 19608 19609 19610 19611 19612 19613 19614 19615 19616 19617 19618 19619 19620 19621 19622 19623 19624 19625 19626 19627 19628 19629 19630 19631 19632 19633 19634 19635 19636 19637 19638 19639 19640 19641 19642 19643 19644 19645 19646 19647 19648 19649 19650 19651 19652 19653 19654 19655 19656 19657 19658 19659 19660 19661 19662 19663 19664 19665 19666 19667 19668 19669 19670 19671 19672 19673 19674 19675 19676 19677 19678 19679 19680 19681 19682 19683 19684 19685 19686 19687 19688 19689 19690 19691 19692 19693 19694 19695 19696 19697 19698 19699 19700 19701 19702 19703 19704 19705 19706 19707 19708 19709 19710 19711 19712 19713 19714 19715 19716 19717 19718 19719 19720 19721 19722 19723 19724 19725 19726 19727 19728 19729 19730 19731 19732 19733 19734 19735 19736 19737 19738 19739 19740 19741 19742 19743 19744 19745 19746 19747 19748 19749 19750 19751 19752 19753 19754 19755 19756 19757 19758 19759 19760 19761 19762 19763 19764 19765 19766 19767 19768 19769 19770 19771 19772 19773 19774 19775 19776 19777 19778 19779 19780 19781 19782 19783 19784 19785 19786 19787 19788 19789 19790 19791 19792 19793 19794 19795 19796 19797 19798 19799 19800 19801 19802 19803 19804 19805 19806 19807 19808 19809 19810 19811 19812 19813 19814 19815 19816 19817 19818 19819 19820 19821 19822 19823 19824 19825 19826 19827 19828 19829 19830 19831 19832 19833 19834 19835 19836 19837 19838 19839 19840 19841 19842 19843 19844 19845 19846 19847 19848 19849 19850 19851 19852 19853 19854 19855 19856 19857 19858 19859 19860 19861 19862 19863 19864 19865 19866 19867 19868 19869 19870 19871 19872 19873 19874 19875 19876 19877 19878 19879 19880 19881 19882 19883 19884 19885 19886 19887 19888 19889 19890 19891 19892 19893 19894 19895 19896 19897 19898 19899 19900 19901 19902 19903 19904 19905 19906 19907 19908 19909 19910 19911 19912 19913 19914 19915 19916 19917 19918 19919 19920 19921 19922 19923 19924 19925 19926 19927 19928 19929 19930 19931 19932 19933 19934 19935 19936 19937 19938 19939 19940 19941 19942 19943 19944 19945 19946 19947 19948 19949 19950 19951 19952 19953 19954 19955 19956 19957 19958 19959 19960 19961 19962 19963 19964 19965 19966 19967 19968 19969 19970 19971 19972 19973 19974 19975 19976 19977 19978 19979 19980 19981 19982 19983 19984 19985 19986 19987 19988 19989 19990 19991 19992 19993 19994 19995 19996 19997 19998 19999 20000 20001 20002 20003 20004 20005 20006 20007 20008 20009 20010 20011 20012 20013 20014 20015 20016 20017 20018 20019 20020 20021 20022 20023 20024 20025 20026 20027 20028 20029 20030 20031 20032 20033 20034 20035 20036 20037 20038 20039 20040 20041 20042 20043 20044 20045 20046 20047 20048 20049 20050 20051 20052 20053 20054 20055 20056 20057 20058 20059 20060 20061 20062 20063 20064 20065 20066 20067 20068 20069 20070 20071 20072 20073 20074 20075 20076 20077 20078 20079 20080 20081 20082 20083 20084 20085 20086 20087 20088 20089 20090 20091 20092 20093 20094 20095 20096 20097 20098 20099 20100 20101 20102 20103 20104 20105 20106 20107 20108 20109 20110 20111 20112 20113 20114 20115 20116 20117 20118 20119 20120 20121 20122 20123 20124 20125 20126 20127 20128 20129 20130 20131 20132 20133 20134 20135 20136 20137 20138 20139 20140 20141 20142 20143 20144 20145 20146 20147 20148 20149 20150 20151 20152 20153 20154 20155 20156 20157 20158 20159 20160 20161 20162 20163 20164 20165 20166 20167 20168 20169 20170 20171 20172 20173 20174 20175 20176 20177 20178 20179 20180 20181 20182 20183 20184 20185 20186 20187 20188 20189 20190 20191 20192 20193 20194 20195 20196 20197 20198 20199 20200 20201 20202 20203 20204 20205 20206 20207 20208 20209 20210 20211 20212 20213 20214 20215 20216 20217 20218 20219 20220 20221 20222 20223 20224 20225 20226 20227 20228 20229 20230 20231 20232 20233 20234 20235 20236 20237 20238 20239 20240 20241 20242 20243 20244 20245 20246 20247 20248 20249 20250 20251 20252 20253 20254 20255 20256 20257 20258 20259 20260 20261 20262 20263 20264 20265 20266 20267 20268 20269 20270 20271 20272 20273 20274 20275 20276 20277 20278 20279 20280 20281 20282 20283 20284 20285 20286 20287 20288 20289 20290 20291 20292 20293 20294 20295 20296 20297 20298 20299 20300 20301 20302 20303 20304 20305 20306 20307 20308 20309 20310 20311 20312 20313 20314 20315 20316 20317 20318 20319 20320 20321 20322 20323 20324 20325 20326 20327 20328 20329 20330 20331 20332 20333 20334 20335 20336 20337 20338 20339 20340 20341 20342 20343 20344 20345 20346 20347 20348 20349 20350 20351 20352 20353 20354 20355 20356 20357 20358 20359 20360 20361 20362 20363 20364 20365 20366 20367 20368 20369 20370 20371 20372 20373 20374 20375 20376 20377 20378 20379 20380 20381 20382 20383 20384 20385 20386 20387 20388 20389 20390 20391 20392 20393 20394 20395 20396 20397 20398 20399 20400 20401 20402 20403 20404 20405 20406 20407 20408 20409 20410 20411 20412 20413 20414 20415 20416 20417 20418 20419 20420 20421 20422 20423 20424 20425 20426 20427 20428 20429 20430 20431 20432 20433 20434 20435 20436 20437 20438 20439 20440 20441 20442 20443 20444 20445 20446 20447 20448 20449 20450 20451 20452 20453 20454 20455 20456 20457 20458 20459 20460 20461 20462 20463 20464 20465 20466 20467 20468 20469 20470 20471 20472 20473 20474 20475 20476 20477 20478 20479 20480 20481 20482 20483 20484 20485 20486 20487 20488 20489 20490 20491 20492 20493 20494 20495 20496 20497 20498 20499 20500 20501 20502 20503 20504 20505 20506 20507 20508 20509 20510 20511 20512 20513 20514 20515 20516 20517 20518 20519 20520 20521 20522 20523 20524 20525 20526 20527 20528 20529 20530 20531 20532 20533 20534 20535 20536 20537 20538 20539 20540 20541 20542 20543 20544 20545 20546 20547 20548 20549 20550 20551 20552 20553 20554 20555 20556 20557 20558 20559 20560 20561 20562 20563 20564 20565 20566 20567 20568 20569 20570 20571 20572 20573 20574 20575 20576 20577 20578 20579 20580 20581 20582 20583 20584 20585 20586 20587 20588 20589 20590 20591 20592 20593 20594 20595 20596 20597 20598 20599 20600 20601 20602 20603 20604 20605 20606 20607 20608 20609 20610 20611 20612 20613 20614 20615 20616 20617 20618 20619 20620 20621 20622 20623 20624 20625 20626 20627 20628 20629 20630 20631 20632 20633 20634 20635 20636 20637 20638 20639 20640 20641 20642 20643 20644 20645 20646 20647 20648 20649 20650 20651 20652 20653 20654 20655 20656 20657 20658 20659 20660 20661 20662 20663 20664 20665 20666 20667 20668 20669 20670 20671 20672 20673 20674 20675 20676 20677 20678 20679 20680 20681 20682 20683 20684 20685 20686 20687 20688 20689 20690 20691 20692 20693 20694 20695 20696 20697 20698 20699 20700 20701 20702 20703 20704 20705 20706 20707 20708 20709 20710 20711 20712 20713 20714 20715 20716 20717 20718 20719 20720 20721 20722 20723 20724 20725 20726 20727 20728 20729 20730 20731 20732 20733 20734 20735 20736 20737 20738 20739 20740 20741 20742 20743 20744 20745 20746 20747 20748 20749 20750 20751 20752 20753 20754 20755 20756 20757 20758 20759 20760 20761 20762 20763 20764 20765 20766 20767 20768 20769 20770 20771 20772 20773 20774 20775 20776 20777 20778 20779 20780 20781 20782 20783 20784 20785 20786 20787 20788 20789 20790 20791 20792 20793 20794 20795 20796 20797 20798 20799 20800 20801 20802 20803 20804 20805 20806 20807 20808 20809 20810 20811 20812 20813 20814 20815 20816 20817 20818 20819 20820 20821 20822 20823 20824 20825 20826 20827 20828 20829 20830 20831 20832 20833 20834 20835 20836 20837 20838 20839 20840 20841 20842 20843 20844 20845 20846 20847 20848 20849 20850 20851 20852 20853 20854 20855 20856 20857 20858 20859 20860 20861 20862 20863 20864 20865 20866 20867 20868 20869 20870 20871 20872 20873 20874 20875 20876 20877 20878 20879 20880 20881 20882 20883 20884 20885 20886 20887 20888 20889 20890 20891 20892 20893 20894 20895 20896 20897 20898 20899 20900 20901 20902 20903 20904 20905 20906 20907 20908 20909 20910 20911 20912 20913 20914 20915 20916 20917 20918 20919 20920 20921 20922 20923 20924 20925 20926 20927 20928 20929 20930 20931 20932 20933 20934 20935 20936 20937 20938 20939 20940 20941 20942 20943 20944 20945 20946 20947 20948 20949 20950 20951 20952 20953 20954 20955 20956 20957 20958 20959 20960 20961 20962 20963 20964 20965 20966 20967 20968 20969 20970 20971 20972 20973 20974 20975 20976 20977 20978 20979 20980 20981 20982 20983 20984 20985 20986 20987 20988 20989 20990 20991 20992 20993 20994 20995 20996 20997 20998 20999 21000 21001 21002 21003 21004 21005 21006 21007 21008 21009 21010 21011 21012 21013 21014 21015 21016 21017 21018 21019 21020 21021 21022 21023 21024 21025 21026 21027 21028 21029 21030 21031 21032 21033 21034 21035 21036 21037 21038 21039 21040 21041 21042 21043 21044 21045 21046 21047 21048 21049 21050 21051 21052 21053 21054 21055 21056 21057 21058 21059 21060 21061 21062 21063 21064 21065 21066 21067 21068 21069 21070 21071 21072 21073 21074 21075 21076 21077 21078 21079 21080 21081 21082 21083 21084 21085 21086 21087 21088 21089 21090 21091 21092 21093 21094 21095 21096 21097 21098 21099 21100 21101 21102 21103 21104 21105 21106 21107 21108 21109 21110 21111 21112 21113 21114 21115 21116 21117 21118 21119 21120 21121 21122 21123 21124 21125 21126 21127 21128 21129 21130 21131 21132 21133 21134 21135 21136 21137 21138 21139 21140 21141 21142 21143 21144 21145 21146 21147 21148 21149 21150 21151 21152 21153 21154 21155 21156 21157 21158 21159 21160 21161 21162 21163 21164 21165 21166 21167 21168 21169 21170 21171 21172 21173 21174 21175 21176 21177 21178 21179 21180 21181 21182 21183 21184 21185 21186 21187 21188 21189 21190 21191 21192 21193 21194 21195 21196 21197 21198 21199 21200 21201 21202 21203 21204 21205 21206 21207 21208 21209 21210 21211 21212 21213 21214 21215 21216 21217 21218 21219 21220 21221 21222 21223 21224 21225 21226 21227 21228 21229 21230 21231 21232 21233 21234 21235 21236 21237 21238 21239 21240 21241 21242 21243 21244 21245 21246 21247 21248 21249 21250 21251 21252 21253 21254 21255 21256 21257 21258 21259 21260 21261 21262 21263 21264 21265 21266 21267 21268 21269 21270 21271 21272 21273 21274 21275 21276 21277 21278 21279 21280 21281 21282 21283 21284 21285 21286 21287 21288 21289 21290 21291 21292 21293 21294 21295 21296 21297 21298 21299 21300 21301 21302 21303 21304 21305 21306 21307 21308 21309 21310 21311 21312 21313 21314 21315 21316 21317 21318 21319 21320 21321 21322 21323 21324 21325 21326 21327 21328 21329 21330 21331 21332 21333 21334 21335 21336 21337 21338 21339 21340 21341 21342 21343 21344 21345 21346 21347 21348 21349 21350 21351 21352 21353 21354 21355 21356 21357 21358 21359 21360 21361 21362 21363 21364 21365 21366 21367 21368 21369 21370 21371 21372 21373 21374 21375 21376 21377 21378 21379 21380 21381 21382 21383 21384 21385 21386 21387 21388 21389 21390 21391 21392 21393 21394 21395 21396 21397 21398 21399 21400 21401 21402 21403 21404 21405 21406 21407 21408 21409 21410 21411 21412 21413 21414 21415 21416 21417 21418 21419 21420 21421 21422 21423 21424 21425 21426 21427 21428 21429 21430 21431 21432 21433 21434 21435 21436 21437 21438 21439 21440 21441 21442 21443 21444 21445 21446 21447 21448 21449 21450 21451 21452 21453 21454 21455 21456 21457 21458 21459 21460 21461 21462 21463 21464 21465 21466 21467 21468 21469 21470 21471 21472 21473 21474 21475 21476 21477 21478 21479 21480 21481 21482 21483 21484 21485 21486 21487 21488 21489 21490 21491 21492 21493 21494 21495 21496 21497 21498 21499 21500 21501 21502 21503 21504 21505 21506 21507 21508 21509 21510 21511 21512 21513 21514 21515 21516 21517 21518 21519 21520 21521 21522 21523 21524 21525 21526 21527 21528 21529 21530 21531 21532 21533 21534 21535 21536 21537 21538 21539 21540 21541 21542 21543 21544 21545 21546 21547 21548 21549 21550 21551 21552 21553 21554 21555 21556 21557 21558 21559 21560 21561 21562 21563 21564 21565 21566 21567 21568 21569 21570 21571 21572 21573 21574 21575 21576 21577 21578 21579 21580 21581 21582 21583 21584 21585 21586 21587 21588 21589 21590 21591 21592 21593 21594 21595 21596 21597 21598 21599 21600 21601 21602 21603 21604 21605 21606 21607 21608 21609 21610 21611 21612 21613 21614 21615 21616 21617 21618 21619 21620 21621 21622 21623 21624 21625 21626 21627 21628 21629 21630 21631 21632 21633 21634 21635 21636 21637 21638 21639 21640 21641 21642 21643 21644 21645 21646 21647 21648 21649 21650 21651 21652 21653 21654 21655 21656 21657 21658 21659 21660 21661 21662 21663 21664 21665 21666 21667 21668 21669 21670 21671 21672 21673 21674 21675 21676 21677 21678 21679 21680 21681 21682 21683 21684 21685 21686 21687 21688 21689 21690 21691 21692 21693 21694 21695 21696 21697 21698 21699 21700 21701 21702 21703 21704 21705 21706 21707 21708 21709 21710 21711 21712 21713 21714 21715 21716 21717 21718 21719 21720 21721 21722 21723 21724 21725 21726 21727 21728 21729 21730 21731 21732 21733 21734 21735 21736 21737 21738 21739 21740 21741 21742 21743 21744 21745 21746 21747 21748 21749 21750 21751 21752 21753 21754 21755 21756 21757 21758 21759 21760 21761 21762 21763 21764 21765 21766 21767 21768 21769 21770 21771 21772 21773 21774 21775 21776 21777 21778 21779 21780 21781 21782 21783 21784 21785 21786 21787 21788 21789 21790 21791 21792 21793 21794 21795 21796 21797 21798 21799 21800 21801 21802 21803 21804 21805 21806 21807 21808 21809 21810 21811 21812 21813 21814 21815 21816 21817 21818 21819 21820 21821 21822 21823 21824 21825 21826 21827 21828 21829 21830 21831 21832 21833 21834 21835 21836 21837 21838 21839 21840 21841 21842 21843 21844 21845 21846 21847 21848 21849 21850 21851 21852 21853 21854 21855 21856 21857 21858 21859 21860 21861 21862 21863 21864 21865 21866 21867 21868 21869 21870 21871 21872 21873 21874 21875 21876 21877 21878 21879 21880 21881 21882 21883 21884 21885 21886 21887 21888 21889 21890 21891 21892 21893 21894 21895 21896 21897 21898 21899 21900 21901 21902 21903 21904 21905 21906 21907 21908 21909 21910 21911 21912 21913 21914 21915 21916 21917 21918 21919 21920 21921 21922 21923 21924 21925 21926 21927 21928 21929 21930 21931 21932 21933 21934 21935 21936 21937 21938 21939 21940 21941 21942 21943 21944 21945 21946 21947 21948 21949 21950 21951 21952 21953 21954 21955 21956 21957 21958 21959 21960 21961 21962 21963 21964 21965 21966 21967 21968 21969 21970 21971 21972 21973 21974 21975 21976 21977 21978 21979 21980 21981 21982 21983 21984 21985 21986 21987 21988 21989 21990 21991 21992 21993 21994 21995 21996 21997 21998 21999 22000 22001 22002 22003 22004 22005 22006 22007 22008 22009 22010 22011 22012 22013 22014 22015 22016 22017 22018 22019 22020 22021 22022 22023 22024 22025 22026 22027 22028 22029 22030 22031 22032 22033 22034 22035 22036 22037 22038 22039 22040 22041 22042 22043 22044 22045 22046 22047 22048 22049 22050 22051 22052 22053 22054 22055 22056 22057 22058 22059 22060 22061 22062 22063 22064 22065 22066 22067 22068 22069 22070 22071 22072 22073 22074 22075 22076 22077 22078 22079 22080 22081 22082 22083 22084 22085 22086 22087 22088 22089 22090 22091 22092 22093 22094 22095 22096 22097 22098 22099 22100 22101 22102 22103 22104 22105 22106 22107 22108 22109 22110 22111 22112 22113 22114 22115 22116 22117 22118 22119 22120 22121 22122 22123 22124 22125 22126 22127 22128 22129 22130 22131 22132 22133 22134 22135 22136 22137 22138 22139 22140 22141 22142 22143 22144 22145 22146 22147 22148 22149 22150 22151 22152 22153 22154 22155 22156 22157 22158 22159 22160 22161 22162 22163 22164 22165 22166 22167 22168 22169 22170 22171 22172 22173 22174 22175 22176 22177 22178 22179 22180 22181 22182 22183 22184 22185 22186 22187 22188 22189 22190 22191 22192 22193 22194 22195 22196 22197 22198 22199 22200 22201 22202 22203 22204 22205 22206 22207 22208 22209 22210 22211 22212 22213 22214 22215 22216 22217 22218 22219 22220 22221 22222 22223 22224 22225 22226 22227 22228 22229 22230 22231 22232 22233 22234 22235 22236 22237 22238 22239 22240 22241 22242 22243 22244 22245 22246 22247 22248 22249 22250 22251 22252 22253 22254 22255 22256 22257 22258 22259 22260 22261 22262 22263 22264 22265 22266 22267 22268 22269 22270 22271 22272 22273 22274 22275 22276 22277 22278 22279 22280 22281 22282 22283 22284 22285 22286 22287 22288 22289 22290 22291 22292 22293 22294 22295 22296 22297 22298 22299 22300 22301 22302 22303 22304 22305 22306 22307 22308 22309 22310 22311 22312 22313 22314 22315 22316 22317 22318 22319 22320 22321 22322 22323 22324 22325 22326 22327 22328 22329 22330 22331 22332 22333 22334 22335 22336 22337 22338 22339 22340 22341 22342 22343 22344 22345 22346 22347 22348 22349 22350 22351 22352 22353 22354 22355 22356 22357 22358 22359 22360 22361 22362 22363 22364 22365 22366 22367 22368 22369 22370 22371 22372 22373 22374 22375 22376 22377 22378 22379 22380 22381 22382 22383 22384 22385 22386 22387 22388 22389 22390 22391 22392 22393 22394 22395 22396 22397 22398 22399 22400 22401 22402 22403 22404 22405 22406 22407 22408 22409 22410 22411 22412 22413 22414 22415 22416 22417 22418 22419 22420 22421 22422 22423 22424 22425 22426 22427 22428 22429 22430 22431 22432 22433 22434 22435 22436 22437 22438 22439 22440 22441 22442 22443 22444 22445 22446 22447 22448 22449 22450 22451 22452 22453 22454 22455 22456 22457 22458 22459 22460 22461 22462 22463 22464 22465 22466 22467 22468 22469 22470 22471 22472 22473 22474 22475 22476 22477 22478 22479 22480 22481 22482 22483 22484 22485 22486 22487 22488 22489 22490 22491 22492 22493 22494 22495 22496 22497 22498 22499 22500 22501 22502 22503 22504 22505 22506 22507 22508 22509 22510 22511 22512 22513 22514 22515 22516 22517 22518 22519 22520 22521 22522 22523 22524 22525 22526 22527 22528 22529 22530 22531 22532 22533 22534 22535 22536 22537 22538 22539 22540 22541 22542 22543 22544 22545 22546 22547 22548 22549 22550 22551 22552 22553 22554 22555 22556 22557 22558 22559 22560 22561 22562 22563 22564 22565 22566 22567 22568 22569 22570 22571 22572 22573 22574 22575 22576 22577 22578 22579 22580 22581 22582 22583 22584 22585 22586 22587 22588 22589 22590 22591 22592 22593 22594 22595 22596 22597 22598 22599 22600 22601 22602 22603 22604 22605 22606 22607 22608 22609 22610 22611 22612 22613 22614 22615 22616 22617 22618 22619 22620 22621 22622 22623 22624 22625 22626 22627 22628 22629 22630 22631 22632 22633 22634 22635 22636 22637 22638 22639 22640 22641 22642 22643 22644 22645 22646 22647 22648 22649 22650 22651 22652 22653 22654 22655 22656 22657 22658 22659 22660 22661 22662 22663 22664 22665 22666 22667 22668 22669 22670 22671 22672 22673 22674 22675 22676 22677 22678 22679 22680 22681 22682 22683 22684 22685 22686 22687 22688 22689 22690 22691 22692 22693 22694 22695 22696 22697 22698 22699 22700 22701 22702 22703 22704 22705 22706 22707 22708 22709 22710 22711 22712 22713 22714 22715 22716 22717 22718 22719 22720 22721 22722 22723 22724 22725 22726 22727 22728 22729 22730 22731 22732 22733 22734 22735 22736 22737 22738 22739 22740 22741 22742 22743 22744 22745 22746 22747 22748 22749 22750 22751 22752 22753 22754 22755 22756 22757 22758 22759 22760 22761 22762 22763 22764 22765 22766 22767 22768 22769 22770 22771 22772 22773 22774 22775 22776 22777 22778 22779 22780 22781 22782 22783 22784 22785 22786 22787 22788 22789 22790 22791 22792 22793 22794 22795 22796 22797 22798 22799 22800 22801 22802 22803 22804 22805 22806 22807 22808 22809 22810 22811 22812 22813 22814 22815 22816 22817 22818 22819 22820 22821 22822 22823 22824 22825 22826 22827 22828 22829 22830 22831 22832 22833 22834 22835 22836 22837 22838 22839 22840 22841 22842 22843 22844 22845 22846 22847 22848 22849 22850 22851 22852 22853 22854 22855 22856 22857 22858 22859 22860 22861 22862 22863 22864 22865 22866 22867 22868 22869 22870 22871 22872 22873 22874 22875 22876 22877 22878 22879 22880 22881 22882 22883 22884 22885 22886 22887 22888 22889 22890 22891 22892 22893 22894 22895 22896 22897 22898 22899 22900 22901 22902 22903 22904 22905 22906 22907 22908 22909 22910 22911 22912 22913 22914 22915 22916 22917 22918 22919 22920 22921 22922 22923 22924 22925 22926 22927 22928 22929 22930 22931 22932 22933 22934 22935 22936 22937 22938 22939 22940 22941 22942 22943 22944 22945 22946 22947 22948 22949 22950 22951 22952 22953 22954 22955 22956 22957 22958 22959 22960 22961 22962 22963 22964 22965 22966 22967 22968 22969 22970 22971 22972 22973 22974 22975 22976 22977 22978 22979 22980 22981 22982 22983 22984 22985 22986 22987 22988 22989 22990 22991 22992 22993 22994 22995 22996 22997 22998 22999 23000 23001 23002 23003 23004 23005 23006 23007 23008 23009 23010 23011 23012 23013 23014 23015 23016 23017 23018 23019 23020 23021 23022 23023 23024 23025 23026 23027 23028 23029 23030 23031 23032 23033 23034 23035 23036 23037 23038 23039 23040 23041 23042 23043 23044 23045 23046 23047 23048 23049 23050 23051 23052 23053 23054 23055 23056 23057 23058 23059 23060 23061 23062 23063 23064 23065 23066 23067 23068 23069 23070 23071 23072 23073 23074 23075 23076 23077 23078 23079 23080 23081 23082 23083 23084 23085 23086 23087 23088 23089 23090 23091 23092 23093 23094 23095 23096 23097 23098 23099 23100 23101 23102 23103 23104 23105 23106 23107 23108 23109 23110 23111 23112 23113 23114 23115 23116 23117 23118 23119 23120 23121 23122 23123 23124 23125 23126 23127 23128 23129 23130 23131 23132 23133 23134 23135 23136 23137 23138 23139 23140 23141 23142 23143 23144 23145 23146 23147 23148 23149 23150 23151 23152 23153 23154 23155 23156 23157 23158 23159 23160 23161 23162 23163 23164 23165 23166 23167 23168 23169 23170 23171 23172 23173 23174 23175 23176 23177 23178 23179 23180 23181 23182 23183 23184 23185 23186 23187 23188 23189 23190 23191 23192 23193 23194 23195 23196 23197 23198 23199 23200 23201 23202 23203 23204 23205 23206 23207 23208 23209 23210 23211 23212 23213 23214 23215 23216 23217 23218 23219 23220 23221 23222 23223 23224 23225 23226 23227 23228 23229 23230 23231 23232 23233 23234 23235 23236 23237 23238 23239 23240 23241 23242 23243 23244 23245 23246 23247 23248 23249 23250 23251 23252 23253 23254 23255 23256 23257 23258 23259 23260 23261 23262 23263 23264 23265 23266 23267 23268 23269 23270 23271 23272 23273 23274 23275 23276 23277 23278 23279 23280 23281 23282 23283 23284 23285 23286 23287 23288 23289 23290 23291 23292 23293 23294 23295 23296 23297 23298 23299 23300 23301 23302 23303 23304 23305 23306 23307 23308 23309 23310 23311 23312 23313 23314 23315 23316 23317 23318 23319 23320 23321 23322 23323 23324 23325 23326 23327 23328 23329 23330 23331 23332 23333 23334 23335 23336 23337 23338 23339 23340 23341 23342 23343 23344 23345 23346 23347 23348 23349 23350 23351 23352 23353 23354 23355 23356 23357 23358 23359 23360 23361 23362 23363 23364 23365 23366 23367 23368 23369 23370 23371 23372 23373 23374 23375 23376 23377 23378 23379 23380 23381 23382 23383 23384 23385 23386 23387 23388 23389 23390 23391 23392 23393 23394 23395 23396 23397 23398 23399 23400 23401 23402 23403 23404 23405 23406 23407 23408 23409 23410 23411 23412 23413 23414 23415 23416 23417 23418 23419 23420 23421 23422 23423 23424 23425 23426 23427 23428 23429 23430 23431 23432 23433 23434 23435 23436 23437 23438 23439 23440 23441 23442 23443 23444 23445 23446 23447 23448 23449 23450 23451 23452 23453 23454 23455 23456 23457 23458 23459 23460 23461 23462 23463 23464 23465 23466 23467 23468 23469 23470 23471 23472 23473 23474 23475 23476 23477 23478 23479 23480 23481 23482 23483 23484 23485 23486 23487 23488 23489 23490 23491 23492 23493 23494 23495 23496 23497 23498 23499 23500 23501 23502 23503 23504 23505 23506 23507 23508 23509 23510 23511 23512 23513 23514 23515 23516 23517 23518 23519 23520 23521 23522 23523 23524 23525 23526 23527 23528 23529 23530 23531 23532 23533 23534 23535 23536 23537 23538 23539 23540 23541 23542 23543 23544 23545 23546 23547 23548 23549 23550 23551 23552 23553 23554 23555 23556 23557 23558 23559 23560 23561 23562 23563 23564 23565 23566 23567 23568 23569 23570 23571 23572 23573 23574 23575 23576 23577 23578 23579 23580 23581 23582 23583 23584 23585 23586 23587 23588 23589 23590 23591 23592 23593 23594 23595 23596 23597 23598 23599 23600 23601 23602 23603 23604 23605 23606 23607 23608 23609 23610 23611 23612 23613 23614 23615 23616 23617 23618 23619 23620 23621 23622 23623 23624 23625 23626 23627 23628 23629 23630 23631 23632 23633 23634 23635 23636 23637 23638 23639 23640 23641 23642 23643 23644 23645 23646 23647 23648 23649 23650 23651 23652 23653 23654 23655 23656 23657 23658 23659 23660 23661 23662 23663 23664 23665 23666 23667 23668 23669 23670 23671 23672 23673 23674 23675 23676 23677 23678 23679 23680 23681 23682 23683 23684 23685 23686 23687 23688 23689 23690 23691 23692 23693 23694 23695 23696 23697 23698 23699 23700 23701 23702 23703 23704 23705 23706 23707 23708 23709 23710 23711 23712 23713 23714 23715 23716 23717 23718 23719 23720 23721 23722 23723 23724 23725 23726 23727 23728 23729 23730 23731 23732 23733 23734 23735 23736 23737 23738 23739 23740 23741 23742 23743 23744 23745 23746 23747 23748 23749 23750 23751 23752 23753 23754 23755 23756 23757 23758 23759 23760 23761 23762 23763 23764 23765 23766 23767 23768 23769 23770 23771 23772 23773 23774 23775 23776 23777 23778 23779 23780 23781 23782 23783 23784 23785 23786 23787 23788 23789 23790 23791 23792 23793 23794 23795 23796 23797 23798 23799 23800 23801 23802 23803 23804 23805 23806 23807 23808 23809 23810 23811 23812 23813 23814 23815 23816 23817 23818 23819 23820 23821 23822 23823 23824 23825 23826 23827 23828 23829 23830 23831 23832 23833 23834 23835 23836 23837 23838 23839 23840 23841 23842 23843 23844 23845 23846 23847 23848 23849 23850 23851 23852 23853 23854 23855 23856 23857 23858 23859 23860 23861 23862 23863 23864 23865 23866 23867 23868 23869 23870 23871 23872 23873 23874 23875 23876 23877 23878 23879 23880 23881 23882 23883 23884 23885 23886 23887 23888 23889 23890 23891 23892 23893 23894 23895 23896 23897 23898 23899 23900 23901 23902 23903 23904 23905 23906 23907 23908 23909 23910 23911 23912 23913 23914 23915 23916 23917 23918 23919 23920 23921 23922 23923 23924 23925 23926 23927 23928 23929 23930 23931 23932 23933 23934 23935 23936 23937 23938 23939 23940 23941 23942 23943 23944 23945 23946 23947 23948 23949 23950 23951 23952 23953 23954 23955 23956 23957 23958 23959 23960 23961 23962 23963 23964 23965 23966 23967 23968 23969 23970 23971 23972 23973 23974 23975 23976 23977 23978 23979 23980 23981 23982 23983 23984 23985 23986 23987 23988 23989 23990 23991 23992 23993 23994 23995 23996 23997 23998 23999 24000 24001 24002 24003 24004 24005 24006 24007 24008 24009 24010 24011 24012 24013 24014 24015 24016 24017 24018 24019 24020 24021 24022 24023 24024 24025 24026 24027 24028 24029 24030 24031 24032 24033 24034 24035 24036 24037 24038 24039 24040 24041 24042 24043 24044 24045 24046 24047 24048 24049 24050 24051 24052 24053 24054 24055 24056 24057 24058 24059 24060 24061 24062 24063 24064 24065 24066 24067 24068 24069 24070 24071 24072 24073 24074 24075 24076 24077 24078 24079 24080 24081 24082 24083 24084 24085 24086 24087 24088 24089 24090 24091 24092 24093 24094 24095 24096 24097 24098 24099 24100 24101 24102 24103 24104 24105 24106 24107 24108 24109 24110 24111 24112 24113 24114 24115 24116 24117 24118 24119 24120 24121 24122 24123 24124 24125 24126 24127 24128 24129 24130 24131 24132 24133 24134 24135 24136 24137 24138 24139 24140 24141 24142 24143 24144 24145 24146 24147 24148 24149 24150 24151 24152 24153 24154 24155 24156 24157 24158 24159 24160 24161 24162 24163 24164 24165 24166 24167 24168 24169 24170 24171 24172 24173 24174 24175 24176 24177 24178 24179 24180 24181 24182 24183 24184 24185 24186 24187 24188 24189 24190 24191 24192 24193 24194 24195 24196 24197 24198 24199 24200 24201 24202 24203 24204 24205 24206 24207 24208 24209 24210 24211 24212 24213 24214 24215 24216 24217 24218 24219 24220 24221 24222 24223 24224 24225 24226 24227 24228 24229 24230 24231 24232 24233 24234 24235 24236 24237 24238 24239 24240 24241 24242 24243 24244 24245 24246 24247 24248 24249 24250 24251 24252 24253 24254 24255 24256 24257 24258 24259 24260 24261 24262 24263 24264 24265 24266 24267 24268 24269 24270 24271 24272 24273 24274 24275 24276 24277 24278 24279 24280 24281 24282 24283 24284 24285 24286 24287 24288 24289 24290 24291 24292 24293 24294 24295 24296 24297 24298 24299 24300 24301 24302 24303 24304 24305 24306 24307 24308 24309 24310 24311 24312 24313 24314 24315 24316 24317 24318 24319 24320 24321 24322 24323 24324 24325 24326 24327 24328 24329 24330 24331 24332 24333 24334 24335 24336 24337 24338 24339 24340 24341 24342 24343 24344 24345 24346 24347 24348 24349 24350 24351 24352 24353 24354 24355 24356 24357 24358 24359 24360 24361 24362 24363 24364 24365 24366 24367 24368 24369 24370 24371 24372 24373 24374 24375 24376 24377 24378 24379 24380 24381 24382 24383 24384 24385 24386 24387 24388 24389 24390 24391 24392 24393 24394 24395 24396 24397 24398 24399 24400 24401 24402 24403 24404 24405 24406 24407 24408 24409 24410 24411 24412 24413 24414 24415 24416 24417 24418 24419 24420 24421 24422 24423 24424 24425 24426 24427 24428 24429 24430 24431 24432 24433 24434 24435 24436 24437 24438 24439 24440 24441 24442 24443 24444 24445 24446 24447 24448 24449 24450 24451 24452 24453 24454 24455 24456 24457 24458 24459 24460 24461 24462 24463 24464 24465 24466 24467 24468 24469 24470 24471 24472 24473 24474 24475 24476 24477 24478 24479 24480 24481 24482 24483 24484 24485 24486 24487 24488 24489 24490 24491 24492 24493 24494 24495 24496 24497 24498 24499 24500 24501 24502 24503 24504 24505 24506 24507 24508 24509 24510 24511 24512 24513 24514 24515 24516 24517 24518 24519 24520 24521 24522 24523 24524 24525 24526 24527 24528 24529 24530 24531 24532 24533 24534 24535 24536 24537 24538 24539 24540 24541 24542 24543 24544 24545 24546 24547 24548 24549 24550 24551 24552 24553 24554 24555 24556 24557 24558 24559 24560 24561 24562 24563 24564 24565 24566 24567 24568 24569 24570 24571 24572 24573 24574 24575 24576 24577 24578 24579 24580 24581 24582 24583 24584 24585 24586 24587 24588 24589 24590 24591 24592 24593 24594 24595 24596 24597 24598 24599 24600 24601 24602 24603 24604 24605 24606 24607 24608 24609 24610 24611 24612 24613 24614 24615 24616 24617 24618 24619 24620 24621 24622 24623 24624 24625 24626 24627 24628 24629 24630 24631 24632 24633 24634 24635 24636 24637 24638 24639 24640 24641 24642 24643 24644 24645 24646 24647 24648 24649 24650 24651 24652 24653 24654 24655 24656 24657 24658 24659 24660 24661 24662 24663 24664 24665 24666 24667 24668 24669 24670 24671 24672 24673 24674 24675 24676 24677 24678 24679 24680 24681 24682 24683 24684 24685 24686 24687 24688 24689 24690 24691 24692 24693 24694 24695 24696 24697 24698 24699 24700 24701 24702 24703 24704 24705 24706 24707 24708 24709 24710 24711 24712 24713 24714 24715 24716 24717 24718 24719 24720 24721 24722 24723 24724 24725 24726 24727 24728 24729 24730 24731 24732 24733 24734 24735 24736 24737 24738 24739 24740 24741 24742 24743 24744 24745 24746 24747 24748 24749 24750 24751 24752 24753 24754 24755 24756 24757 24758 24759 24760 24761 24762 24763 24764 24765 24766 24767 24768 24769 24770 24771 24772 24773 24774 24775 24776 24777 24778 24779 24780 24781 24782 24783 24784 24785 24786 24787 24788 24789 24790 24791 24792 24793 24794 24795 24796 24797 24798 24799 24800 24801 24802 24803 24804 24805 24806 24807 24808 24809 24810 24811 24812 24813 24814 24815 24816 24817 24818 24819 24820 24821 24822 24823 24824 24825 24826 24827 24828 24829 24830 24831 24832 24833 24834 24835 24836 24837 24838 24839 24840 24841 24842 24843 24844 24845 24846 24847 24848 24849 24850 24851 24852 24853 24854 24855 24856 24857 24858 24859 24860 24861 24862 24863 24864 24865 24866 24867 24868 24869 24870 24871 24872 24873 24874 24875 24876 24877 24878 24879 24880 24881 24882 24883 24884 24885 24886 24887 24888 24889 24890 24891 24892 24893 24894 24895 24896 24897 24898 24899 24900 24901 24902 24903 24904 24905 24906 24907 24908 24909 24910 24911 24912 24913 24914 24915 24916 24917 24918 24919 24920 24921 24922 24923 24924 24925 24926 24927 24928 24929 24930 24931 24932 24933 24934 24935 24936 24937 24938 24939 24940 24941 24942 24943 24944 24945 24946 24947 24948 24949 24950 24951 24952 24953 24954 24955 24956 24957 24958 24959 24960 24961 24962 24963 24964 24965 24966 24967 24968 24969 24970 24971 24972 24973 24974 24975 24976 24977 24978 24979 24980 24981 24982 24983 24984 24985 24986 24987 24988 24989 24990 24991 24992 24993 24994 24995 24996 24997 24998 24999 25000 25001 25002 25003 25004 25005 25006 25007 25008 25009 25010 25011 25012 25013 25014 25015 25016 25017 25018 25019 25020 25021 25022 25023 25024 25025 25026 25027 25028 25029 25030 25031 25032 25033 25034 25035 25036 25037 25038 25039 25040 25041 25042 25043 25044 25045 25046 25047 25048 25049 25050 25051 25052 25053 25054 25055 25056 25057 25058 25059 25060 25061 25062 25063 25064 25065 25066 25067 25068 25069 25070 25071 25072 25073 25074 25075 25076 25077 25078 25079 25080 25081 25082 25083 25084 25085 25086 25087 25088 25089 25090 25091 25092 25093 25094 25095 25096 25097 25098 25099 25100 25101 25102 25103 25104 25105 25106 25107 25108 25109 25110 25111 25112 25113 25114 25115 25116 25117 25118 25119 25120 25121 25122 25123 25124 25125 25126 25127 25128 25129 25130 25131 25132 25133 25134 25135 25136 25137 25138 25139 25140 25141 25142 25143 25144 25145 25146 25147 25148 25149 25150 25151 25152 25153 25154 25155 25156 25157 25158 25159 25160 25161 25162 25163 25164 25165 25166 25167 25168 25169 25170 25171 25172 25173 25174 25175 25176 25177 25178 25179 25180 25181 25182 25183 25184 25185 25186 25187 25188 25189 25190 25191 25192 25193 25194 25195 25196 25197 25198 25199 25200 25201 25202 25203 25204 25205 25206 25207 25208 25209 25210 25211 25212 25213 25214 25215 25216 25217 25218 25219 25220 25221 25222 25223 25224 25225 25226 25227 25228 25229 25230 25231 25232 25233 25234 25235 25236 25237 25238 25239 25240 25241 25242 25243 25244 25245 25246 25247 25248 25249 25250 25251 25252 25253 25254 25255 25256 25257 25258 25259 25260 25261 25262 25263 25264 25265 25266 25267 25268 25269 25270 25271 25272 25273 25274 25275 25276 25277 25278 25279 25280 25281 25282 25283 25284 25285 25286 25287 25288 25289 25290 25291 25292 25293 25294 25295 25296 25297 25298 25299 25300 25301 25302 25303 25304 25305 25306 25307 25308 25309 25310 25311 25312 25313 25314 25315 25316 25317 25318 25319 25320 25321 25322 25323 25324 25325 25326 25327 25328 25329 25330 25331 25332 25333 25334 25335 25336 25337 25338 25339 25340 25341 25342 25343 25344 25345 25346 25347 25348 25349 25350 25351 25352 25353 25354 25355 25356 25357 25358 25359 25360 25361 25362 25363 25364 25365 25366 25367 25368 25369 25370 25371 25372 25373 25374 25375 25376 25377 25378 25379 25380 25381 25382 25383 25384 25385 25386 25387 25388 25389 25390 25391 25392 25393 25394 25395 25396 25397 25398 25399 25400 25401 25402 25403 25404 25405 25406 25407 25408 25409 25410 25411 25412 25413 25414 25415 25416 25417 25418 25419 25420 25421 25422 25423 25424 25425 25426 25427 25428 25429 25430 25431 25432 25433 25434 25435 25436 25437 25438 25439 25440 25441 25442 25443 25444 25445 25446 25447 25448 25449 25450 25451 25452 25453 25454 25455 25456 25457 25458 25459 25460 25461 25462 25463 25464 25465 25466 25467 25468 25469 25470 25471 25472 25473 25474 25475 25476 25477 25478 25479 25480 25481 25482 25483 25484 25485 25486 25487 25488 25489 25490 25491 25492 25493 25494 25495 25496 25497 25498 25499 25500 25501 25502 25503 25504 25505 25506 25507 25508 25509 25510 25511 25512 25513 25514 25515 25516 25517 25518 25519 25520 25521 25522 25523 25524 25525 25526 25527 25528 25529 25530 25531 25532 25533 25534 25535 25536 25537 25538 25539 25540 25541 25542 25543 25544 25545 25546 25547 25548 25549 25550 25551 25552 25553 25554 25555 25556 25557 25558 25559 25560 25561 25562 25563 25564 25565 25566 25567 25568 25569 25570 25571 25572 25573 25574 25575 25576 25577 25578 25579 25580 25581 25582 25583 25584 25585 25586 25587 25588 25589 25590 25591 25592 25593 25594 25595 25596 25597 25598 25599 25600 25601 25602 25603 25604 25605 25606 25607 25608 25609 25610 25611 25612 25613 25614 25615 25616 25617 25618 25619 25620 25621 25622 25623 25624 25625 25626 25627 25628 25629 25630 25631 25632 25633 25634 25635 25636 25637 25638 25639 25640 25641 25642 25643 25644 25645 25646 25647 25648 25649 25650 25651 25652 25653 25654 25655 25656 25657 25658 25659 25660 25661 25662 25663 25664 25665 25666 25667 25668 25669 25670 25671 25672 25673 25674 25675 25676 25677 25678 25679 25680 25681 25682 25683 25684 25685 25686 25687 25688 25689 25690 25691 25692 25693 25694 25695 25696 25697 25698 25699 25700 25701 25702 25703 25704 25705 25706 25707 25708 25709 25710 25711 25712 25713 25714 25715 25716 25717 25718 25719 25720 25721 25722 25723 25724 25725 25726 25727 25728 25729 25730 25731 25732 25733 25734 25735 25736 25737 25738 25739 25740 25741 25742 25743 25744 25745 25746 25747 25748 25749 25750 25751 25752 25753 25754 25755 25756 25757 25758 25759 25760 25761 25762 25763 25764 25765 25766 25767 25768 25769 25770 25771 25772 25773 25774 25775 25776 25777 25778 25779 25780 25781 25782 25783 25784 25785 25786 25787 25788 25789 25790 25791 25792 25793 25794 25795 25796 25797 25798 25799 25800 25801 25802 25803 25804 25805 25806 25807 25808 25809 25810 25811 25812 25813 25814 25815 25816 25817 25818 25819 25820 25821 25822 25823 25824 25825 25826 25827 25828 25829 25830 25831 25832 25833 25834 25835 25836 25837 25838 25839 25840 25841 25842 25843 25844 25845 25846 25847 25848 25849 25850 25851 25852 25853 25854 25855 25856 25857 25858 25859 25860 25861 25862 25863 25864 25865 25866 25867 25868 25869 25870 25871 25872 25873 25874 25875 25876 25877 25878 25879 25880 25881 25882 25883 25884 25885 25886 25887 25888 25889 25890 25891 25892 25893 25894 25895 25896 25897 25898 25899 25900 25901 25902 25903 25904 25905 25906 25907 25908 25909 25910 25911 25912 25913 25914 25915 25916 25917 25918 25919 25920 25921 25922 25923 25924 25925 25926 25927 25928 25929 25930 25931 25932 25933 25934 25935 25936 25937 25938 25939 25940 25941 25942 25943 25944 25945 25946 25947 25948 25949 25950 25951 25952 25953 25954 25955 25956 25957 25958 25959 25960 25961 25962 25963 25964 25965 25966 25967 25968 25969 25970 25971 25972 25973 25974 25975 25976 25977 25978 25979 25980 25981 25982 25983 25984 25985 25986 25987 25988 25989 25990 25991 25992 25993 25994 25995 25996 25997 25998 25999 26000 26001 26002 26003 26004 26005 26006 26007 26008 26009 26010 26011 26012 26013 26014 26015 26016 26017 26018 26019 26020 26021 26022 26023 26024 26025 26026 26027 26028 26029 26030 26031 26032 26033 26034 26035 26036 26037 26038 26039 26040 26041 26042 26043 26044 26045 26046 26047 26048 26049 26050 26051 26052 26053 26054 26055 26056 26057 26058 26059 26060 26061 26062 26063 26064 26065 26066 26067 26068 26069 26070 26071 26072 26073 26074 26075 26076 26077 26078 26079 26080 26081 26082 26083 26084 26085 26086 26087 26088 26089 26090 26091 26092 26093 26094 26095 26096 26097 26098 26099 26100 26101 26102 26103 26104 26105 26106 26107 26108 26109 26110 26111 26112 26113 26114 26115 26116 26117 26118 26119 26120 26121 26122 26123 26124 26125 26126 26127 26128 26129 26130 26131 26132 26133 26134 26135 26136 26137 26138 26139 26140 26141 26142 26143 26144 26145 26146 26147 26148 26149 26150 26151 26152 26153 26154 26155 26156 26157 26158 26159 26160 26161 26162 26163 26164 26165 26166 26167 26168 26169 26170 26171 26172 26173 26174 26175 26176 26177 26178 26179 26180 26181 26182 26183 26184 26185 26186 26187 26188 26189 26190 26191 26192 26193 26194 26195 26196 26197 26198 26199 26200 26201 26202 26203 26204 26205 26206 26207 26208 26209 26210 26211 26212 26213 26214 26215 26216 26217 26218 26219 26220 26221 26222 26223 26224 26225 26226 26227 26228 26229 26230 26231 26232 26233 26234 26235 26236 26237 26238 26239 26240 26241 26242 26243 26244 26245 26246 26247 26248 26249 26250 26251 26252 26253 26254 26255 26256 26257 26258 26259 26260 26261 26262 26263 26264 26265 26266 26267 26268 26269 26270 26271 26272 26273 26274 26275 26276 26277 26278 26279 26280 26281 26282 26283 26284 26285 26286 26287 26288 26289 26290 26291 26292 26293 26294 26295 26296 26297 26298 26299 26300 26301 26302 26303 26304 26305 26306 26307 26308 26309 26310 26311 26312 26313 26314 26315 26316 26317 26318 26319 26320 26321 26322 26323 26324 26325 26326 26327 26328 26329 26330 26331 26332 26333 26334 26335 26336 26337 26338 26339 26340 26341 26342 26343 26344 26345 26346 26347 26348 26349 26350 26351 26352 26353 26354 26355 26356 26357 26358 26359 26360 26361 26362 26363 26364 26365 26366 26367 26368 26369 26370 26371 26372 26373 26374 26375 26376 26377 26378 26379 26380 26381 26382 26383 26384 26385 26386 26387 26388 26389 26390 26391 26392 26393 26394 26395 26396 26397 26398 26399 26400 26401 26402 26403 26404 26405 26406 26407 26408 26409 26410 26411 26412 26413 26414 26415 26416 26417 26418 26419 26420 26421 26422 26423 26424 26425 26426 26427 26428 26429 26430 26431 26432 26433 26434 26435 26436 26437 26438 26439 26440 26441 26442 26443 26444 26445 26446 26447 26448 26449 26450 26451 26452 26453 26454 26455 26456 26457 26458 26459 26460 26461 26462 26463 26464 26465 26466 26467 26468 26469 26470 26471 26472 26473 26474 26475 26476 26477 26478 26479 26480 26481 26482 26483 26484 26485 26486 26487 26488 26489 26490 26491 26492 26493 26494 26495 26496 26497 26498 26499 26500 26501 26502 26503 26504 26505 26506 26507 26508 26509 26510 26511 26512 26513 26514 26515 26516 26517 26518 26519 26520 26521 26522 26523 26524 26525 26526 26527 26528 26529 26530 26531 26532 26533 26534 26535 26536 26537 26538 26539 26540 26541 26542 26543 26544 26545 26546 26547 26548 26549 26550 26551 26552 26553 26554 26555 26556 26557 26558 26559 26560 26561 26562 26563 26564 26565 26566 26567 26568 26569 26570 26571 26572 26573 26574 26575 26576 26577 26578 26579 26580 26581 26582 26583 26584 26585 26586 26587 26588 26589 26590 26591 26592 26593 26594 26595 26596 26597 26598 26599 26600 26601 26602 26603 26604 26605 26606 26607 26608 26609 26610 26611 26612 26613 26614 26615 26616 26617 26618 26619 26620 26621 26622 26623 26624 26625 26626 26627 26628 26629 26630 26631 26632 26633 26634 26635 26636 26637 26638 26639 26640 26641 26642 26643 26644 26645 26646 26647 26648 26649 26650 26651 26652 26653 26654 26655 26656 26657 26658 26659 26660 26661 26662 26663 26664 26665 26666 26667 26668 26669 26670 26671 26672 26673 26674 26675 26676 26677 26678 26679 26680 26681 26682 26683 26684 26685 26686 26687 26688 26689 26690 26691 26692 26693 26694 26695 26696 26697 26698 26699 26700 26701 26702 26703 26704 26705 26706 26707 26708 26709 26710 26711 26712 26713 26714 26715 26716 26717 26718 26719 26720 26721 26722 26723 26724 26725 26726 26727 26728 26729 26730 26731 26732 26733 26734 26735 26736 26737 26738 26739 26740 26741 26742 26743 26744 26745 26746 26747 26748 26749 26750 26751 26752 26753 26754 26755 26756 26757 26758 26759 26760 26761 26762 26763 26764 26765 26766 26767 26768 26769 26770 26771 26772 26773 26774 26775 26776 26777 26778 26779 26780 26781 26782 26783 26784 26785 26786 26787 26788 26789 26790 26791 26792 26793 26794 26795 26796 26797 26798 26799 26800 26801 26802 26803 26804 26805 26806 26807 26808 26809 26810 26811 26812 26813 26814 26815 26816 26817 26818 26819 26820 26821 26822 26823 26824 26825 26826 26827 26828 26829 26830 26831 26832 26833 26834 26835 26836 26837 26838 26839 26840 26841 26842 26843 26844 26845 26846 26847 26848 26849 26850 26851 26852 26853 26854 26855 26856 26857 26858 26859 26860 26861 26862 26863 26864 26865 26866 26867 26868 26869 26870 26871 26872 26873 26874 26875 26876 26877 26878 26879 26880 26881 26882 26883 26884 26885 26886 26887 26888 26889 26890 26891 26892 26893 26894 26895 26896 26897 26898 26899 26900 26901 26902 26903 26904 26905 26906 26907 26908 26909 26910 26911 26912 26913 26914 26915 26916 26917 26918 26919 26920 26921 26922 26923 26924 26925 26926 26927 26928 26929 26930 26931 26932 26933 26934 26935 26936 26937 26938 26939 26940 26941 26942 26943 26944 26945 26946 26947 26948 26949 26950 26951 26952 26953 26954 26955 26956 26957 26958 26959 26960 26961 26962 26963 26964 26965 26966 26967 26968 26969 26970 26971 26972 26973 26974 26975 26976 26977 26978 26979 26980 26981 26982 26983 26984 26985 26986 26987 26988 26989 26990 26991 26992 26993 26994 26995 26996 26997 26998 26999 27000 27001 27002 27003 27004 27005 27006 27007 27008 27009 27010 27011 27012 27013 27014 27015 27016 27017 27018 27019 27020 27021 27022 27023 27024 27025 27026 27027 27028 27029 27030 27031 27032 27033 27034 27035 27036 27037 27038 27039 27040 27041 27042 27043 27044 27045 27046 27047 27048 27049 27050 27051 27052 27053 27054 27055 27056 27057 27058 27059 27060 27061 27062 27063 27064 27065 27066 27067 27068 27069 27070 27071 27072 27073 27074 27075 27076 27077 27078 27079 27080 27081 27082 27083 27084 27085 27086 27087 27088 27089 27090 27091 27092 27093 27094 27095 27096 27097 27098 27099 27100 27101 27102 27103 27104 27105 27106 27107 27108 27109 27110 27111 27112 27113 27114 27115 27116 27117 27118 27119 27120 27121 27122 27123 27124 27125 27126 27127 27128 27129 27130 27131 27132 27133 27134 27135 27136 27137 27138 27139 27140 27141 27142 27143 27144 27145 27146 27147 27148 27149 27150 27151 27152 27153 27154 27155 27156 27157 27158 27159 27160 27161 27162 27163 27164 27165 27166 27167 27168 27169 27170 27171 27172 27173 27174 27175 27176 27177 27178 27179 27180 27181 27182 27183 27184 27185 27186 27187 27188 27189 27190 27191 27192 27193 27194 27195 27196 27197 27198 27199 27200 27201 27202 27203 27204 27205 27206 27207 27208 27209 27210 27211 27212 27213 27214 27215 27216 27217 27218 27219 27220 27221 27222 27223 27224 27225 27226 27227 27228 27229 27230 27231 27232 27233 27234 27235 27236 27237 27238 27239 27240 27241 27242 27243 27244 27245 27246 27247 27248 27249 27250 27251 27252 27253 27254 27255 27256 27257 27258 27259 27260 27261 27262 27263 27264 27265 27266 27267 27268 27269 27270 27271 27272 27273 27274 27275 27276 27277 27278 27279 27280 27281 27282 27283 27284 27285 27286 27287 27288 27289 27290 27291 27292 27293 27294 27295 27296 27297 27298 27299 27300 27301 27302 27303 27304 27305 27306 27307 27308 27309 27310 27311 27312 27313 27314 27315 27316 27317 27318 27319 27320 27321 27322 27323 27324 27325 27326 27327 27328 27329 27330 27331 27332 27333 27334 27335 27336 27337 27338 27339 27340 27341 27342 27343 27344 27345 27346 27347 27348 27349 27350 27351 27352 27353 27354 27355 27356 27357 27358 27359 27360 27361 27362 27363 27364 27365 27366 27367 27368 27369 27370 27371 27372 27373 27374 27375 27376 27377 27378 27379 27380 27381 27382 27383 27384 27385 27386 27387 27388 27389 27390 27391 27392 27393 27394 27395 27396 27397 27398 27399 27400 27401 27402 27403 27404 27405 27406 27407 27408 27409 27410 27411 27412 27413 27414 27415 27416 27417 27418 27419 27420 27421 27422 27423 27424 27425 27426 27427 27428 27429 27430 27431 27432 27433 27434 27435 27436 27437 27438 27439 27440 27441 27442 27443 27444 27445 27446 27447 27448 27449 27450 27451 27452 27453 27454 27455 27456 27457 27458 27459 27460 27461 27462 27463 27464 27465 27466 27467 27468 27469 27470 27471 27472 27473 27474 27475 27476 27477 27478 27479 27480 27481 27482 27483 27484 27485 27486 27487 27488 27489 27490 27491 27492 27493 27494 27495 27496 27497 27498 27499 27500 27501 27502 27503 27504 27505 27506 27507 27508 27509 27510 27511 27512 27513 27514 27515 27516 27517 27518 27519 27520 27521 27522 27523 27524 27525 27526 27527 27528 27529 27530 27531 27532 27533 27534 27535 27536 27537 27538 27539 27540 27541 27542 27543 27544 27545 27546 27547 27548 27549 27550 27551 27552 27553 27554 27555 27556 27557 27558 27559 27560 27561 27562 27563 27564 27565 27566 27567 27568 27569 27570 27571 27572 27573 27574 27575 27576 27577 27578 27579 27580 27581 27582 27583 27584 27585 27586 27587 27588 27589 27590 27591 27592 27593 27594 27595 27596 27597 27598 27599 27600 27601 27602 27603 27604 27605 27606 27607 27608 27609 27610 27611 27612 27613 27614 27615 27616 27617 27618 27619 27620 27621 27622 27623 27624 27625 27626 27627 27628 27629 27630 27631 27632 27633 27634 27635 27636 27637 27638 27639 27640 27641 27642 27643 27644 27645 27646 27647 27648 27649 27650 27651 27652 27653 27654 27655 27656 27657 27658 27659 27660 27661 27662 27663 27664 27665 27666 27667 27668 27669 27670 27671 27672 27673 27674 27675 27676 27677 27678 27679 27680 27681 27682 27683 27684 27685 27686 27687 27688 27689 27690 27691 27692 27693 27694 27695 27696 27697 27698 27699 27700 27701 27702 27703 27704 27705 27706 27707 27708 27709 27710 27711 27712 27713 27714 27715 27716 27717 27718 27719 27720 27721 27722 27723 27724 27725 27726 27727 27728 27729 27730 27731 27732 27733 27734 27735 27736 27737 27738 27739 27740 27741 27742 27743 27744 27745 27746 27747 27748 27749 27750 27751 27752 27753 27754 27755 27756 27757 27758 27759 27760 27761 27762 27763 27764 27765 27766 27767 27768 27769 27770 27771 27772 27773 27774 27775 27776 27777 27778 27779 27780 27781 27782 27783 27784 27785 27786 27787 27788 27789 27790 27791 27792 27793 27794 27795 27796 27797 27798 27799 27800 27801 27802 27803 27804 27805 27806 27807 27808 27809 27810 27811 27812 27813 27814 27815 27816 27817 27818 27819 27820 27821 27822 27823 27824 27825 27826 27827 27828 27829 27830 27831 27832 27833 27834 27835 27836 27837 27838 27839 27840 27841 27842 27843 27844 27845 27846 27847 27848 27849 27850 27851 27852 27853 27854 27855 27856 27857 27858 27859 27860 27861 27862 27863 27864 27865 27866 27867 27868 27869 27870 27871 27872 27873 27874 27875 27876 27877 27878 27879 27880 27881 27882 27883 27884 27885 27886 27887 27888 27889 27890 27891 27892 27893 27894 27895 27896 27897 27898 27899 27900 27901 27902 27903 27904 27905 27906 27907 27908 27909 27910 27911 27912 27913 27914 27915 27916 27917 27918 27919 27920 27921 27922 27923 27924 27925 27926 27927 27928 27929 27930 27931 27932 27933 27934 27935 27936 27937 27938 27939 27940 27941 27942 27943 27944 27945 27946 27947 27948 27949 27950 27951 27952 27953 27954 27955 27956 27957 27958 27959 27960 27961 27962 27963 27964 27965 27966 27967 27968 27969 27970 27971 27972 27973 27974 27975 27976 27977 27978 27979 27980 27981 27982 27983 27984 27985 27986 27987 27988 27989 27990 27991 27992 27993 27994 27995 27996 27997 27998 27999 28000 28001 28002 28003 28004 28005 28006 28007 28008 28009 28010 28011 28012 28013 28014 28015 28016 28017 28018 28019 28020 28021 28022 28023 28024 28025 28026 28027 28028 28029 28030 28031 28032 28033 28034 28035 28036 28037 28038 28039 28040 28041 28042 28043 28044 28045 28046 28047 28048 28049 28050 28051 28052 28053 28054 28055 28056 28057 28058 28059 28060 28061 28062 28063 28064 28065 28066 28067 28068 28069 28070 28071 28072 28073 28074 28075 28076 28077 28078 28079 28080 28081 28082 28083 28084 28085 28086 28087 28088 28089 28090 28091 28092 28093 28094 28095 28096 28097 28098 28099 28100 28101 28102 28103 28104 28105 28106 28107 28108 28109 28110 28111 28112 28113 28114 28115 28116 28117 28118 28119 28120 28121 28122 28123 28124 28125 28126 28127 28128 28129 28130 28131 28132 28133 28134 28135 28136 28137 28138 28139 28140 28141 28142 28143 28144 28145 28146 28147 28148 28149 28150 28151 28152 28153 28154 28155 28156 28157 28158 28159 28160 28161 28162 28163 28164 28165 28166 28167 28168 28169 28170 28171 28172 28173 28174 28175 28176 28177 28178 28179 28180 28181 28182 28183 28184 28185 28186 28187 28188 28189 28190 28191 28192 28193 28194 28195 28196 28197 28198 28199 28200 28201 28202 28203 28204 28205 28206 28207 28208 28209 28210 28211 28212 28213 28214 28215 28216 28217 28218 28219 28220 28221 28222 28223 28224 28225 28226 28227 28228 28229 28230 28231 28232 28233 28234 28235 28236 28237 28238 28239 28240 28241 28242 28243 28244 28245 28246 28247 28248 28249 28250 28251 28252 28253 28254 28255 28256 28257 28258 28259 28260 28261 28262 28263 28264 28265 28266 28267 28268 28269 28270 28271 28272 28273 28274 28275 28276 28277 28278 28279 28280 28281 28282 28283 28284 28285 28286 28287 28288 28289 28290 28291 28292 28293 28294 28295 28296 28297 28298 28299 28300 28301 28302 28303 28304 28305 28306 28307 28308 28309 28310 28311 28312 28313 28314 28315 28316 28317 28318 28319 28320 28321 28322 28323 28324 28325 28326 28327 28328 28329 28330 28331 28332 28333 28334 28335 28336 28337 28338 28339 28340 28341 28342 28343 28344 28345 28346 28347 28348 28349 28350 28351 28352 28353 28354 28355 28356 28357 28358 28359 28360 28361 28362 28363 28364 28365 28366 28367 28368 28369 28370 28371 28372 28373 28374 28375 28376 28377 28378 28379 28380 28381 28382 28383 28384 28385 28386 28387 28388 28389 28390 28391 28392 28393 28394 28395 28396 28397 28398 28399 28400 28401 28402 28403 28404 28405 28406 28407 28408 28409 28410 28411 28412 28413 28414 28415 28416 28417 28418 28419 28420 28421 28422 28423 28424 28425 28426 28427 28428 28429 28430 28431 28432 28433 28434 28435 28436 28437 28438 28439 28440 28441 28442 28443 28444 28445 28446 28447 28448 28449 28450 28451 28452 28453 28454 28455 28456 28457 28458 28459 28460 28461 28462 28463 28464 28465 28466 28467 28468 28469 28470 28471 28472 28473 28474 28475 28476 28477 28478 28479 28480 28481 28482 28483 28484 28485 28486 28487 28488 28489 28490 28491 28492 28493 28494 28495 28496 28497 28498 28499 28500 28501 28502 28503 28504 28505 28506 28507 28508 28509 28510 28511 28512 28513 28514 28515 28516 28517 28518 28519 28520 28521 28522 28523 28524 28525 28526 28527 28528 28529 28530 28531 28532 28533 28534 28535 28536 28537 28538 28539 28540 28541 28542 28543 28544 28545 28546 28547 28548 28549 28550 28551 28552 28553 28554 28555 28556 28557 28558 28559 28560 28561 28562 28563 28564 28565 28566 28567 28568 28569 28570 28571 28572 28573 28574 28575 28576 28577 28578 28579 28580 28581 28582 28583 28584 28585 28586 28587 28588 28589 28590 28591 28592 28593 28594 28595 28596 28597 28598 28599 28600 28601 28602 28603 28604 28605 28606 28607 28608 28609 28610 28611 28612 28613 28614 28615 28616 28617 28618 28619 28620 28621 28622 28623 28624 28625 28626 28627 28628 28629 28630 28631 28632 28633 28634 28635 28636 28637 28638 28639 28640 28641 28642 28643 28644 28645 28646 28647 28648 28649 28650 28651 28652 28653 28654 28655 28656 28657 28658 28659 28660 28661 28662 28663 28664 28665 28666 28667 28668 28669 28670 28671 28672 28673 28674 28675 28676 28677 28678 28679 28680 28681 28682 28683 28684 28685 28686 28687 28688 28689 28690 28691 28692 28693 28694 28695 28696 28697 28698 28699 28700 28701 28702 28703 28704 28705 28706 28707 28708 28709 28710 28711 28712 28713 28714 28715 28716 28717 28718 28719 28720 28721 28722 28723 28724 28725 28726 28727 28728 28729 28730 28731 28732 28733 28734 28735 28736 28737 28738 28739 28740 28741 28742 28743 28744 28745 28746 28747 28748 28749 28750 28751 28752 28753 28754 28755 28756 28757 28758 28759 28760 28761 28762 28763 28764 28765 28766 28767 28768 28769 28770 28771 28772 28773 28774 28775 28776 28777 28778 28779 28780 28781 28782 28783 28784 28785 28786 28787 28788 28789 28790 28791 28792 28793 28794 28795 28796 28797 28798 28799 28800 28801 28802 28803 28804 28805 28806 28807 28808 28809 28810 28811 28812 28813 28814 28815 28816 28817 28818 28819 28820 28821 28822 28823 28824 28825 28826 28827 28828 28829 28830 28831 28832 28833 28834 28835 28836 28837 28838 28839 28840 28841 28842 28843 28844 28845 28846 28847 28848 28849 28850 28851 28852 28853 28854 28855 28856 28857 28858 28859 28860 28861 28862 28863 28864 28865 28866 28867 28868 28869 28870 28871 28872 28873 28874 28875 28876 28877 28878 28879 28880 28881 28882 28883 28884 28885 28886 28887 28888 28889 28890 28891 28892 28893 28894 28895 28896 28897 28898 28899 28900 28901 28902 28903 28904 28905 28906 28907 28908 28909 28910 28911 28912 28913 28914 28915 28916 28917 28918 28919 28920 28921 28922 28923 28924 28925 28926 28927 28928 28929 28930 28931 28932 28933 28934 28935 28936 28937 28938 28939 28940 28941 28942 28943 28944 28945 28946 28947 28948 28949 28950 28951 28952 28953 28954 28955 28956 28957 28958 28959 28960 28961 28962 28963 28964 28965 28966 28967 28968 28969 28970 28971 28972 28973 28974 28975 28976 28977 28978 28979 28980 28981 28982 28983 28984 28985 28986 28987 28988 28989 28990 28991 28992 28993 28994 28995 28996 28997 28998 28999 29000 29001 29002 29003 29004 29005 29006 29007 29008 29009 29010 29011 29012 29013 29014 29015 29016 29017 29018 29019 29020 29021 29022 29023 29024 29025 29026 29027 29028 29029 29030 29031 29032 29033 29034 29035 29036 29037 29038 29039 29040 29041 29042 29043 29044 29045 29046 29047 29048 29049 29050 29051 29052 29053 29054 29055 29056 29057 29058 29059 29060 29061 29062 29063 29064 29065 29066 29067 29068 29069 29070 29071 29072 29073 29074 29075 29076 29077 29078 29079 29080 29081 29082 29083 29084 29085 29086 29087 29088 29089 29090 29091 29092 29093 29094 29095 29096 29097 29098 29099 29100 29101 29102 29103 29104 29105 29106 29107 29108 29109 29110 29111 29112 29113 29114 29115 29116 29117 29118 29119 29120 29121 29122 29123 29124 29125 29126 29127 29128 29129 29130 29131 29132 29133 29134 29135 29136 29137 29138 29139 29140 29141 29142 29143 29144 29145 29146 29147 29148 29149 29150 29151 29152 29153 29154 29155 29156 29157 29158 29159 29160 29161 29162 29163 29164 29165 29166 29167 29168 29169 29170 29171 29172 29173 29174 29175 29176 29177 29178 29179 29180 29181 29182 29183 29184 29185 29186 29187 29188 29189 29190 29191 29192 29193 29194 29195 29196 29197 29198 29199 29200 29201 29202 29203 29204 29205 29206 29207 29208 29209 29210 29211 29212 29213 29214 29215 29216 29217 29218 29219 29220 29221 29222 29223 29224 29225 29226 29227 29228 29229 29230 29231 29232 29233 29234 29235 29236 29237 29238 29239 29240 29241 29242 29243 29244 29245 29246 29247 29248 29249 29250 29251 29252 29253 29254 29255 29256 29257 29258 29259 29260 29261 29262 29263 29264 29265 29266 29267 29268 29269 29270 29271 29272 29273 29274 29275 29276 29277 29278 29279 29280 29281 29282 29283 29284 29285 29286 29287 29288 29289 29290 29291 29292 29293 29294 29295 29296 29297 29298 29299 29300 29301 29302 29303 29304 29305 29306 29307 29308 29309 29310 29311 29312 29313 29314 29315 29316 29317 29318 29319 29320 29321 29322 29323 29324 29325 29326 29327 29328 29329 29330 29331 29332 29333 29334 29335 29336 29337 29338 29339 29340 29341 29342 29343 29344 29345 29346 29347 29348 29349 29350 29351 29352 29353 29354 29355 29356 29357 29358 29359 29360 29361 29362 29363 29364 29365 29366 29367 29368 29369 29370 29371 29372 29373 29374 29375 29376 29377 29378 29379 29380 29381 29382 29383 29384 29385 29386 29387 29388 29389 29390 29391 29392 29393 29394 29395 29396 29397 29398 29399 29400 29401 29402 29403 29404 29405 29406 29407 29408 29409 29410 29411 29412 29413 29414 29415 29416 29417 29418 29419 29420 29421 29422 29423 29424 29425 29426 29427 29428 29429 29430 29431 29432 29433 29434 29435 29436 29437 29438 29439 29440 29441 29442 29443 29444 29445 29446 29447 29448 29449 29450 29451 29452 29453 29454 29455 29456 29457 29458 29459 29460 29461 29462 29463 29464 29465 29466 29467 29468 29469 29470 29471 29472 29473 29474 29475 29476 29477 29478 29479 29480 29481 29482 29483 29484 29485 29486 29487 29488 29489 29490 29491 29492 29493 29494 29495 29496 29497 29498 29499 29500 29501 29502 29503 29504 29505 29506 29507 29508 29509 29510 29511 29512 29513 29514 29515 29516 29517 29518 29519 29520 29521 29522 29523 29524 29525 29526 29527 29528 29529 29530 29531 29532 29533 29534 29535 29536 29537 29538 29539 29540 29541 29542 29543 29544 29545 29546 29547 29548 29549 29550 29551 29552 29553 29554 29555 29556 29557 29558 29559 29560 29561 29562 29563 29564 29565 29566 29567 29568 29569 29570 29571 29572 29573 29574 29575 29576 29577 29578 29579 29580 29581 29582 29583 29584 29585 29586 29587 29588 29589 29590 29591 29592 29593 29594 29595 29596 29597 29598 29599 29600 29601 29602 29603 29604 29605 29606 29607 29608 29609 29610 29611 29612 29613 29614 29615 29616 29617 29618 29619 29620 29621 29622 29623 29624 29625 29626 29627 29628 29629 29630 29631 29632 29633 29634 29635 29636 29637 29638 29639 29640 29641 29642 29643 29644 29645 29646 29647 29648 29649 29650 29651 29652 29653 29654 29655 29656 29657 29658 29659 29660 29661 29662 29663 29664 29665 29666 29667 29668 29669 29670 29671 29672 29673 29674 29675 29676 29677 29678 29679 29680 29681 29682 29683 29684 29685 29686 29687 29688 29689 29690 29691 29692 29693 29694 29695 29696 29697 29698 29699 29700 29701 29702 29703 29704 29705 29706 29707 29708 29709 29710 29711 29712 29713 29714 29715 29716 29717 29718 29719 29720 29721 29722 29723 29724 29725 29726 29727 29728 29729 29730 29731 29732 29733 29734 29735 29736 29737 29738 29739 29740 29741 29742 29743 29744 29745 29746 29747 29748 29749 29750 29751 29752 29753 29754 29755 29756 29757 29758 29759 29760 29761 29762 29763 29764 29765 29766 29767 29768 29769 29770 29771 29772 29773 29774 29775 29776 29777 29778 29779 29780 29781 29782 29783 29784 29785 29786 29787 29788 29789 29790 29791 29792 29793 29794 29795 29796 29797 29798 29799 29800 29801 29802 29803 29804 29805 29806 29807 29808 29809 29810 29811 29812 29813 29814 29815 29816 29817 29818 29819 29820 29821 29822 29823 29824 29825 29826 29827 29828 29829 29830 29831 29832 29833 29834 29835 29836 29837 29838 29839 29840 29841 29842 29843 29844 29845 29846 29847 29848 29849 29850 29851 29852 29853 29854 29855 29856 29857 29858 29859 29860 29861 29862 29863 29864 29865 29866 29867 29868 29869 29870 29871 29872 29873 29874 29875 29876 29877 29878 29879 29880 29881 29882 29883 29884 29885 29886 29887 29888 29889 29890 29891 29892 29893 29894 29895 29896 29897 29898 29899 29900 29901 29902 29903 29904 29905 29906 29907 29908 29909 29910 29911 29912 29913 29914 29915 29916 29917 29918 29919 29920 29921 29922 29923 29924 29925 29926 29927 29928 29929 29930 29931 29932 29933 29934 29935 29936 29937 29938 29939 29940 29941 29942 29943 29944 29945 29946 29947 29948 29949 29950 29951 29952 29953 29954 29955 29956 29957 29958 29959 29960 29961 29962 29963 29964 29965 29966 29967 29968 29969 29970 29971 29972 29973 29974 29975 29976 29977 29978 29979 29980 29981 29982 29983 29984 29985 29986 29987 29988 29989 29990 29991 29992 29993 29994 29995 29996 29997 29998 29999 30000 30001 30002 30003 30004 30005 30006 30007 30008 30009 30010 30011 30012 30013 30014 30015 30016 30017 30018 30019 30020 30021 30022 30023 30024 30025 30026 30027 30028 30029 30030 30031 30032 30033 30034 30035 30036 30037 30038 30039 30040 30041 30042 30043 30044 30045 30046 30047 30048 30049 30050 30051 30052 30053 30054 30055 30056 30057 30058 30059 30060 30061 30062 30063 30064 30065 30066 30067 30068 30069 30070 30071 30072 30073 30074 30075 30076 30077 30078 30079 30080 30081 30082 30083 30084 30085 30086 30087 30088 30089 30090 30091 30092 30093 30094 30095 30096 30097 30098 30099 30100 30101 30102 30103 30104 30105 30106 30107 30108 30109 30110 30111 30112 30113 30114 30115 30116 30117 30118 30119 30120 30121 30122 30123 30124 30125 30126 30127 30128 30129 30130 30131 30132 30133 30134 30135 30136 30137 30138 30139 30140 30141 30142 30143 30144 30145 30146 30147 30148 30149 30150 30151 30152 30153 30154 30155 30156 30157 30158 30159 30160 30161 30162 30163 30164 30165 30166 30167 30168 30169 30170 30171 30172 30173 30174 30175 30176 30177 30178 30179 30180 30181 30182 30183 30184 30185 30186 30187 30188 30189 30190 30191 30192 30193 30194 30195 30196 30197 30198 30199 30200 30201 30202 30203 30204 30205 30206 30207 30208 30209 30210 30211 30212 30213 30214 30215 30216 30217 30218 30219 30220 30221 30222 30223 30224 30225 30226 30227 30228 30229 30230 30231 30232 30233 30234 30235 30236 30237 30238 30239 30240 30241 30242 30243 30244 30245 30246 30247 30248 30249 30250 30251 30252 30253 30254 30255 30256 30257 30258 30259 30260 30261 30262 30263 30264 30265 30266 30267 30268 30269 30270 30271 30272 30273 30274 30275 30276 30277 30278 30279 30280 30281 30282 30283 30284 30285 30286 30287 30288 30289 30290 30291 30292 30293 30294 30295 30296 30297 30298 30299 30300 30301 30302 30303 30304 30305 30306 30307 30308 30309 30310 30311 30312 30313 30314 30315 30316 30317 30318 30319 30320 30321 30322 30323 30324 30325 30326 30327 30328 30329 30330 30331 30332 30333 30334 30335 30336 30337 30338 30339 30340 30341 30342 30343 30344 30345 30346 30347 30348 30349 30350 30351 30352 30353 30354 30355 30356 30357 30358 30359 30360 30361 30362 30363 30364 30365 30366 30367 30368 30369 30370 30371 30372 30373 30374 30375 30376 30377 30378 30379 30380 30381 30382 30383 30384 30385 30386 30387 30388 30389 30390 30391 30392 30393 30394 30395 30396 30397 30398 30399 30400 30401 30402 30403 30404 30405 30406 30407 30408 30409 30410 30411 30412 30413 30414 30415 30416 30417 30418 30419 30420 30421 30422 30423 30424 30425 30426 30427 30428 30429 30430 30431 30432 30433 30434 30435 30436 30437 30438 30439 30440 30441 30442 30443 30444 30445 30446 30447 30448 30449 30450 30451 30452 30453 30454 30455 30456 30457 30458 30459 30460 30461 30462 30463 30464 30465 30466 30467 30468 30469 30470 30471 30472 30473 30474 30475 30476 30477 30478 30479 30480 30481 30482 30483 30484 30485 30486 30487 30488 30489 30490 30491 30492 30493 30494 30495 30496 30497 30498 30499 30500 30501 30502 30503 30504 30505 30506 30507 30508 30509 30510 30511 30512 30513 30514 30515 30516 30517 30518 30519 30520 30521 30522 30523 30524 30525 30526 30527 30528 30529 30530 30531 30532 30533 30534 30535 30536 30537 30538 30539 30540 30541 30542 30543 30544 30545 30546 30547 30548 30549 30550 30551 30552 30553 30554 30555 30556 30557 30558 30559 30560 30561 30562 30563 30564 30565 30566 30567 30568 30569 30570 30571 30572 30573 30574 30575 30576 30577 
</DataArray>
<DataArray type="UInt32" Name="offsets" format="ascii">
3 6 9 12 15 18 20 23 26 29 31 34 37 40 42 45 48 51 54 57 60 62 64 67 70 73 76 78 80 83 85 87 90 92 95 98 101 103 106 109 111 114 117 120 123 126 129 132 134 137 140 143 146 149 152 155 158 160 163 166 168 171 173 176 178 181 183 186 189 192 195 198 201 204 207 210 213 216 219 222 225 228 231 233 236 239 242 245 248 251 254 257 259 262 265 267 269 272 275 278 281 284 287 290 293 296 299 302 305 307 310 313 316 319 322 324 327 330 332 335 338 341 344 347 350 353 356 359 362 365 368 371 374 377 380 383 386 389 391 394 397 400 403 406 408 411 414 417 420 423 426 429 432 435 438 441 444 447 450 453 456 459 462 465 468 471 474 477 480 482 485 487 490 493 496 498 501 504 507 509 512 515 518 520 522 525 528 530 533 536 539 542 544 547 550 553 556 559 561 564 567 570 573 575 578 580 583 586 588 591 594 597 599 602 605 607 610 613 616 619 622 625 628 631 634 637 639 642 645 647 650 653 656 659 662 665 668 670 673 676 679 682 685 688 691 694 697 700 703 706 709 712 715 718 721 724 727 730 733 735 738 740 743 746 749 752 755 757 760 763 766 769 772 775 778 781 783 786 789 792 794 797 800 802 805 808 811 814 816 819 822 824 827 830 833 836 839 841 844 846 849 852 855 858 861 864 867 870 873 876 879 882 885 888 891 894 897 900 902 905 908 911 914 917 919 921 924 927 930 933 936 939 942 945 948 951 953 956 959 962 965 968 971 974 977 980 982 985 988 990 992 995 998 1001 1003 1006 1009 1011 1014 1017 1020 1023 1026 1029 1032 1035 1038 1041 1044 1047 1050 1053 1056 1058 1061 1064 1067 1070 1073 1076 1079 1082 1084 1087 1090 1092 1095 1098 1101 1104 1106 1109 1112 1115 1118 1121 1124 1127 1130 1133 1136 1139 1142 1145 1148 1150 1152 1155 1158 1160 1162 1165 1167 1170 1172 1175 1177 1180 1183 1185 1188 1191 1194 1197 1200 1203 1206 1209 1212 1214 1216 1219 1222 1224 1227 1230 1233 1236 1239 1241 1244 1247 1249 1252 1255 1258 1261 1263 1266 1269 1272 1274 1277 1280 1283 1285 1288 1290 1293 1296 1298 1301 1304 1307 1310 1313 1316 1319 1322 1325 1328 1331 1333 1336 1339 1342 1345 1348 1351 1353 1356 1359 1362 1364 1367 1370 1373 1376 1379 1382 1385 1387 1390 1393 1396 1399 1402 1404 1407 1409 1412 1415 1418 1421 1424 1426 1428 1431 1434 1437 1439 1441 1444 1446 1449 1452 1455 1458 1461 1464 1467 1469 1472 1475 1478 1481 1484 1487 1490 1493 1496 1499 1502 1505 1508 1511 1513 1516 1519 1521 1524 1526 1529 1532 1535 1538 1541 1544 1547 1550 1553 1556 1559 1562 1565 1568 1570 1573 1576 1579 1582 1585 1588 1591 1594 1597 1600 1603 1606 1609 1612 1615 1618 1620 1623 1626 1629 1632 1635 1638 1641 1644 1647 1650 1653 1655 1657 1660 1663 1666 1669 1672 1675 1678 1681 1684 1687 1690 1693 1696 1699 1702 1705 1707 1710 1713 1716 1719 1722 1725 1728 1730 1733 1736 1739 1742 1745 1748 1751 1754 1756 1759 1762 1765 1767 1770 1773 1776 1779 1782 1785 1788 1791 1794 1797 1800 1803 1806 1809 1812 1815 1818 1821 1824 1827 1830 1833 1836 1839 1842 1845 1848 1851 1853 1856 1858 1861 1864 1867 1870 1873 1876 1879 1882 1885 1888 1891 1894 1897 1899 1902 1905 1908 1910 1913 1916 1919 1922 1925 1928 1931 1934 1937 1940 1943 1946 1949 1951 1953 1956 1959 1962 1965 1968 1971 1974 1976 1979 1982 1985 1988 1991 1994 1997 2000 2003 2006 2009 2011 2014 2017 2020 2023 2026 2029 2032 2034 2037 2040 2043 2046 2049 2052 2055 2058 2061 2064 2067 2070 2073 2076 2079 2082 2085 2087 2090 2093 2096 2099 2102 2105 2108 2111 2114 2117 2119 2122 2125 2128 2131 2134 2136 2139 2142 2145 2147 2150 2153 2156 2159 2161 2164 2167 2170 2173 2176 2179 2182 2184 2187 2189 2192 2195 2197 2200 2202 2205 2208 2211 2214 2217 2220 2223 2226 2229 2232 2235 2238 2241 2244 2247 2250 2253 2256 2259 2262 2265 2268 2271 2274 2277 2280 2283 2286 2289 2292 2295 2298 2301 2304 2307 2309 2312 2314 2316 2319 2322 2325 2328 2331 2334 2337 2340 2343 2346 2349 2351 2354 2357 2360 2363 2366 2369 2372 2374 2377 2379 2382 2384 2387 2390 2393 2396 2399 2402 2404 2407 2409 2411 2414 2417 2420 2423 2426 2429 2432 2435 2438 2441 2444 2447 2450 2453 2456 2459 2462 2464 2467 2470 2473 2476 2479 2482 2485 2488 2491 2494 2497 2500 2503 2506 2508 2511 2514 2517 2520 2523 2526 2529 2532 2535 2538 2541 2544 2547 2549 2552 2555 2558 2561 2564 2567 2570 2573 2576 2578 2581 2584 2587 2590 2593 2595 2597 2600 2603 2606 2609 2611 2613 2616 2619 2622 2625 2628 2631 2634 2637 2640 2643 2646 2648 2651 2654 2657 2660 2662 2665 2668 2671 2674 2677 2680 2682 2685 2688 2690 2693 2695 2698 2701 2704 2706 2709 2712 2715 2718 2721 2724 2727 2729 2732 2735 2738 2741 2743 2745 2748 2751 2753 2756 2759 2762 2764 2766 2768 2770 2773 2776 2778 2781 2784 2787 2790 2793 2796 2799 2802 2804 2806 2809 2812 2815 2818 2821 2824 2826 2829 2831 2834 2837 2840 2842 2845 2848 2851 2854 2857 2860 2863 2866 2869 2872 2875 2878 2881 2884 2887 2890 2893 2896 2899 2902 2905 2908 2911 2914 2917 2920 2923 2926 2928 2931 2934 2937 2940 2943 2946 2949 2952 2955 2958 2961 2964 2967 2970 2973 2976 2979 2982 2985 2988 2991 2993 2996 2999 3002 3005 3008 3011 3014 3017 3020 3022 3025 3028 3031 3034 3037 3040 3042 3045 3048 3051 3054 3057 3059 3062 3065 3068 3071 3074 3076 3079 3082 3085 3088 3091 3094 3097 3100 3103 3106 3108 3111 3114 3117 3120 3122 3124 3127 3130 3132 3135 3138 3141 3144 3146 3149 3152 3154 3157 3160 3163 3166 3169 3171 3173 3176 3179 3182 3185 3188 3191 3193 3196 3199 3202 3205 3208 3211 3214 3216 3218 3221 3224 3227 3229 3232 3235 3238 3240 3243 3246 3248 3251 3253 3256 3259 3262 3264 3267 3270 3272 3274 3277 3280 3283 3286 3289 3292 3294 3297 3299 3302 3304 3307 3310 3313 3315 3317 3320 3322 3325 3328 3331 3334 3337 3340 3343 3346 3349 3352 3355 3358 3361 3364 3367 3370 3372 3375 3378 3381 3384 3387 3390 3393 3395 3398 3401 3404 3407 3410 3412 3415 3418 3421 3423 3426 3429 3432 3435 3437 3440 3442 3445 3447 3450 3453 3456 3459 3461 3464 3467 3469 3472 3475 3478 3481 3484 3487 3490 3493 3496 3499 3502 3504 3507 3510 3513 3516 3518 3521 3524 3527 3530 3532 3535 3538 3541 3544 3547 3550 3552 3555 3558 3561 3563 3566 3568 3570 3573 3576 3579 3582 3585 3588 3591 3594 3597 3600 3603 3606 3609 3612 3615 3618 3621 3624 3627 3630 3633 3636 3639 3642 3645 3648 3651 3654 3656 3659 3662 3664 3666 3669 3671 3674 3677 3680 3683 3685 3688 3691 3693 3696 3699 3702 3705 3708 3711 3714 3717 3720 3723 3726 3729 3732 3735 3738 3741 3744 3747 3750 3753 3756 3759 3762 3765 3768 3771 3774 3777 3779 3782 3785 3788 3791 3794 3797 3800 3803 3805 3808 3811 3814 3817 3820 3823 3826 3828 3831 3833 3836 3839 3842 3844 3847 3850 3853 3856 3859 3862 3865 3867 3870 3872 3875 3878 3881 3884 3887 3889 3892 3895 3898 3901 3904 3907 3910 3913 3916 3919 3922 3925 3928 3931 3934 3937 3940 3943 3946 3949 3952 3955 3958 3961 3964 3967 3970 3973 3976 3979 3982 3985 3988 3991 3994 3997 4000 4003 4006 4008 4010 4013 4016 4018 4021 4024 4027 4029 4032 4035 4038 4040 4042 4045 4048 4050 4053 4056 4059 4062 4065 4068 4071 4074 4077 4080 4083 4086 4089 4092 4095 4098 4101 4104 4107 4110 4113 4115 4118 4120 4123 4126 4129 4132 4135 4138 4141 4144 4147 4150 4153 4156 4159 4162 4165 4168 4171 4174 4177 4180 4183 4186 4189 4192 4195 4198 4201 4204 4207 4210 4213 4216 4219 4222 4225 4228 4231 4234 4237 4240 4243 4246 4249 4252 4255 4257 4260 4262 4265 4267 4270 4273 4275 4278 4281 4284 4287 4290 4293 4296 4299 4302 4305 4308 4311 4314 4317 4320 4323 4326 4329 4332 4335 4338 4341 4344 4347 4350 4353 4356 4358 4361 4364 4367 4370 4373 4376 4379 4382 4385 4388 4391 4394 4397 4400 4403 4406 4409 4412 4415 4418 4421 4424 4427 4430 4433 4436 4439 4442 4445 4448 4451 4454 4457 4460 4463 4466 4469 4472 4475 4478 4481 4484 4487 4490 4493 4496 4499 4502 4505 4507 4510 4513 4516 4519 4521 4524 4527 4530 4533 4536 4539 4542 4545 4547 4550 4553 4556 4559 4562 4564 4566 4568 4571 4574 4577 4580 4582 4584 4587 4590 4592 4595 4598 4601 4604 4607 4610 4613 4616 4619 4622 4625 4628 4631 4634 4636 4638 4641 4643 4646 4649 4652 4655 4658 4661 4664 4667 4670 4673 4676 4679 4682 4685 4688 4691 4694 4697 4699 4702 4705 4708 4711 4714 4717 4719 4722 4725 4728 4731 4734 4737 4740 4743 4746 4749 4752 4755 4758 4761 4764 4767 4770 4773 4775 4778 4781 4784 4787 4790 4793 4796 4799 4802 4804 4807 4810 4812 4815 4818 4821 4824 4827 4830 4833 4836 4839 4842 4845 4848 4851 4854 4857 4860 4862 4865 4867 4870 4873 4876 4879 4881 4884 4886 4889 4892 4894 4896 4899 4902 4904 4907 4910 4913 4915 4918 4921 4924 4927 4930 4933 4935 4938 4941 4944 4946 4949 4952 4955 4958 4960 4963 4966 4969 4972 4975 4978 4981 4983 4986 4989 4992 4995 4998 5000 5003 5006 5008 5011 5014 5017 5020 5023 5026 5029 5031 5034 5037 5040 5042 5044 5047 5050 5053 5055 5058 5061 5064 5067 5070 5072 5074 5076 5079 5082 5085 5088 5091 5094 5097 5100 5103 5105 5107 5110 5112 5115 5118 5121 5124 5127 5129 5132 5135 5137 5140 5142 5145 5148 5151 5153 5156 5159 5161 5164 5167 5170 5173 5176 5179 5182 5184 5187 5190 5192 5194 5197 5200 5202 5205 5207 5210 5213 5215 5218 5221 5223 5226 5228 5231 5234 5237 5239 5242 5245 5247 5250 5252 5255 5258 5260 5263 5265 5268 5271 5274 5277 5279 5281 5284 5287 5290 5293 5296 5299 5302 5305 5308 5310 5313 5316 5319 5322 5325 5328 5331 5334 5337 5340 5343 5346 5349 5352 5355 5358 5361 5364 5366 5368 5371 5374 5377 5379 5382 5385 5388 5391 5393 5396 5399 5401 5404 5407 5410 5412 5415 5418 5420 5423 5426 5429 5432 5434 5437 5440 5443 5446 5449 5451 5454 5457 5460 5462 5464 5467 5470 5472 5475 5478 5481 5484 5487 5489 5491 5494 5497 5500 5503 5505 5508 5511 5514 5517 5519 5522 5525 5528 5531 5534 5537 5540 5543 5546 5549 5552 5555 5558 5561 5564 5567 5570 5573 5576 5579 5582 5585 5588 5591 5594 5597 5600 5603 5605 5608 5611 5614 5617 5620 5623 5626 5629 5632 5635 5638 5640 5643 5646 5649 5652 5654 5657 5660 5663 5665 5668 5671 5673 5676 5679 5682 5685 5688 5690 5693 5696 5699 5702 5705 5708 5711 5714 5717 5720 5723 5726 5729 5732 5735 5738 5741 5744 5747 5750 5752 5755 5758 5761 5764 5767 5769 5772 5775 5778 5781 5784 5787 5790 5792 5795 5798 5801 5804 5807 5810 5813 5816 5819 5822 5825 5828 5831 5833 5836 5839 5842 5845 5848 5850 5852 5855 5858 5861 5864 5866 5869 5871 5874 5877 5880 5882 5884 5887 5890 5892 5895 5898 5901 5903 5906 5909 5912 5915 5917 5920 5923 5925 5927 5930 5933 5936 5939 5942 5945 5947 5950 5953 5955 5958 5961 5964 5967 5969 5972 5975 5978 5981 5984 5987 5990 5993 5996 5999 6002 6005 6008 6011 6014 6017 6020 6023 6026 6028 6031 6033 6036 6039 6042 6044 6047 6049 6052 6054 6057 6060 6062 6065 6068 6070 6072 6074 6077 6080 6083 6085 6088 6091 6094 6097 6100 6103 6105 6108 6111 6114 6117 6120 6123 6126 6128 6131 6133 6136 6139 6142 6145 6148 6151 6154 6156 6159 6162 6165 6168 6171 6174 6177 6180 6183 6186 6189 6191 6194 6197 6199 6202 6205 6208 6211 6214 6217 6220 6223 6226 6229 6232 6235 6238 6241 6244 6247 6249 6252 6255 6258 6261 6264 6267 6270 6273 6276 6279 6282 6285 6288 6291 6294 6297 6300 6303 6306 6309 6312 6314 6317 6320 6323 6325 6328 6331 6334 6337 6340 6343 6346 6349 6352 6355 6357 6360 6363 6366 6369 6372 6375 6378 6381 6384 6387 6389 6392 6395 6398 6401 6404 6407 6409 6412 6415 6418 6420 6423 6426 6429 6432 6435 6438 6441 6444 6447 6450 6453 6456 6459 6462 6465 6468 6471 6474 6477 6480 6483 6485 6488 6491 6494 6497 6500 6502 6505 6508 6510 6513 6516 6519 6522 6525 6528 6530 6533 6536 6539 6542 6544 6547 6550 6553 6556 6559 6562 6565 6568 6571 6574 6577 6580 6583 6586 6589 6592 6595 6598 6600 6603 6606 6609 6612 6615 6617 6620 6623 6626 6628 6631 6633 6636 6639 6642 6645 6648 6651 6654 6656 6659 6662 6665 6667 6669 6672 6675 6678 6681 6684 6686 6689 6692 6695 6697 6700 6703 6706 6709 6712 6715 6718 6721 6724 6727 6730 6733 6736 6739 6742 6744 6747 6750 6753 6756 6759 6762 6764 6767 6770 6773 6776 6779 6782 6785 6788 6791 6794 6797 6799 6802 6805 6808 6811 6814 6817 6820 6823 6826 6828 6831 6834 6837 6840 6842 6844 6847 6850 6853 6856 6859 6862 6865 6868 6870 6872 6875 6877 6880 6883 6886 6889 6892 6894 6897 6900 6903 6906 6909 6912 6914 6917 6919 6922 6925 6928 6931 6934 6937 6940 6943 6946 6949 6951 6954 6957 6960 6963 6966 6969 6971 6974 6977 6980 6983 6986 6989 6992 6995 6997 7000 7003 7006 7009 7012 7014 7017 7020 7022 7025 7028 7031 7034 7037 7040 7042 7045 7048 7051 7054 7057 7060 7063 7066 7068 7071 7074 7077 7080 7082 7085 7088 7091 7094 7097 7100 7103 7106 7109 7112 7114 7117 7120 7123 7126 7129 7132 7135 7138 7141 7143 7146 7149 7152 7155 7157 7160 7163 7166 7169 7172 7175 7178 7181 7183 7186 7188 7191 7194 7197 7199 7202 7205 7208 7211 7214 7217 7220 7223 7225 7228 7231 7234 7236 7239 7242 7245 7247 7250 7253 7255 7258 7261 7264 7267 7270 7273 7276 7279 7282 7285 7288 7291 7294 7297 7300 7303 7306 7309 7312 7315 7318 7321 7324 7327 7330 7333 7336 7339 7342 7345 7348 7351 7354 7357 7360 7363 7366 7369 7372 7375 7378 7381 7384 7387 7390 7393 7396 7399 7402 7405 7408 7411 7414 7416 7419 7422 7425 7427 7430 7433 7436 7439 7442 7445 7447 7450 7452 7455 7458 7461 7464 7466 7468 7471 7474 7477 7480 7483 7486 7489 7492 7495 7498 7501 7504 7507 7510 7513 7516 7519 7522 7525 7528 7531 7534 7536 7539 7542 7544 7547 7550 7553 7555 7558 7561 7564 7567 7570 7573 7576 7579 7582 7585 7588 7591 7594 7597 7599 7602 7604 7607 7609 7612 7615 7618 7621 7624 7627 7630 7633 7636 7639 7642 7645 7648 7651 7654 7657 7660 7662 7665 7668 7671 7674 7677 7680 7683 7686 7689 7692 7695 7698 7701 7704 7707 7710 7713 7716 7719 7722 7725 7728 7731 7734 7737 7740 7743 7746 7749 7752 7755 7758 7761 7763 7766 7769 7772 7775 7778 7781 7783 7786 7789 7791 7794 7796 7799 7802 7804 7807 7810 7813 7815 7818 7821 7824 7827 7830 7833 7836 7839 7842 7845 7848 7851 7854 7857 7860 7863 7866 7869 7872 7875 7878 7881 7884 7887 7890 7892 7895 7898 7901 7904 7906 7909 7912 7914 7917 7920 7923 7926 7929 7932 7935 7938 7941 7944 7947 7950 7953 7956 7959 7962 7965 7968 7971 7974 7977 7980 7983 7986 7989 7992 7995 7998 8001 8004 8006 8009 8012 8015 8017 8020 8023 8026 8029 8031 8034 8037 8040 8043 8046 8048 8051 8054 8057 8060 8062 8065 8068 8071 8074 8077 8080 8083 8086 8089 8092 8095 8098 8101 8104 8106 8108 8111 8113 8116 8118 8121 8124 8127 8130 8133 8136 8139 8142 8145 8148 8151 8154 8157 8160 8163 8166 8169 8172 8175 8178 8181 8184 8187 8190 8193 8195 8197 8200 8203 8205 8208 8211 8213 8216 8219 8222 8225 8228 8231 8234 8237 8240 8243 8246 8248 8251 8254 8256 8259 8262 8265 8268 8271 8274 8277 8280 8283 8286 8289 8292 8295 8298 8300 8302 8305 8307 8309 8312 8315 8318 8321 8323 8326 8329 8332 8334 8336 8339 8342 8345 8348 8351 8354 8357 8359 8362 8365 8368 8371 8374 8377 8380 8383 8386 8389 8392 8395 8398 8401 8404 8407 8409 8412 8415 8418 8421 8423 8426 8429 8432 8435 8438 8441 8444 8446 8449 8452 8455 8458 8461 8464 8467 8469 8472 8475 8477 8480 8483 8486 8489 8492 8495 8498 8501 8504 8507 8510 8513 8516 8519 8522 8524 8527 8530 8533 8536 8539 8542 8545 8548 8550 8553 8556 8559 8562 8565 8568 8571 8573 8576 8579 8582 8585 8588 8590 8593 8596 8599 8602 8604 8607 8610 8613 8616 8619 8622 8625 8628 8631 8634 8637 8640 8642 8645 8648 8651 8654 8657 8660 8663 8666 8669 8672 8675 8678 8681 8684 8686 8689 8692 8695 8698 8701 8704 8707 8710 8713 8716 8719 8722 8725 8727 8729 8732 8735 8737 8740 8743 8746 8749 8751 8754 8757 8760 8762 8765 8768 8770 8773 8776 8779 8782 8784 8787 8790 8793 8796 8799 8802 8805 8808 8811 8814 8817 8820 8823 8826 8829 8832 8835 8838 8841 8844 8847 8850 8853 8856 8859 8862 8865 8868 8871 8874 8877 8880 8883 8886 8888 8891 8894 8897 8899 8902 8904 8907 8910 8913 8916 8919 8922 8925 8928 8931 8934 8937 8940 8943 8946 8948 8951 8954 8957 8960 8963 8966 8969 8972 8974 8977 8980 8983 8985 8988 8991 8994 8997 9000 9003 9006 9008 9011 9013 9016 9019 9022 9025 9028 9031 9034 9037 9040 9043 9046 9049 9052 9055 9057 9060 9063 9065 9068 9071 9074 9077 9080 9083 9086 9088 9091 9094 9097 9100 9103 9106 9109 9112 9115 9118 9121 9124 9127 9130 9133 9136 9139 9142 9145 9148 9151 9154 9157 9160 9163 9166 9169 9171 9174 9177 9179 9182 9185 9188 9190 9193 9196 9198 9201 9204 9207 9210 9213 9216 9219 9222 9225 9228 9231 9234 9237 9240 9243 9246 9249 9252 9255 9257 9260 9263 9266 9269 9272 9275 9278 9281 9284 9287 9290 9293 9296 9298 9301 9304 9307 9310 9313 9316 9319 9322 9325 9328 9331 9334 9337 9340 9343 9346 9349 9352 9355 9357 9360 9363 9366 9369 9372 9375 9378 9381 9384 9387 9390 9393 9396 9399 9402 9405 9407 9410 9413 9415 9418 9421 9424 9426 9429 9432 9434 9437 9440 9443 9446 9449 9452 9455 9458 9461 9464 9467 9470 9473 9476 9478 9481 9484 9486 9489 9492 9495 9498 9501 9504 9507 9510 9513 9516 9519 9522 9525 9528 9531 9534 9537 9540 9543 9546 9549 9552 9555 9558 9561 9564 9567 9570 9573 9576 9579 9582 9585 9588 9591 9594 9596 9599 9602 9605 9608 9610 9613 9616 9619 9622 9625 9628 9631 9634 9637 9640 9643 9646 9649 9652 9655 9657 9660 9662 9664 9667 9670 9672 9675 9677 9680 9683 9686 9689 9692 9695 9698 9701 9703 9706 9709 9711 9714 9717 9720 9723 9725 9727 9730 9732 9735 9738 9741 9744 9747 9750 9753 9756 9759 9762 9765 9768 9771 9774 9777 9780 9783 9786 9789 9792 9795 9797 9800 9803 9806 9809 9812 9815 9818 9821 9824 9827 9830 9833 9836 9839 9842 9845 9848 9851 9854 9857 9860 9863 9866 9869 9872 9874 9877 9880 9883 9886 9889 9891 9894 9897 9900 9903 9906 9909 9912 9915 9918 9920 9923 9926 9929 9932 9935 9938 9941 9944 9947 9950 9953 9956 9959 9962 9965 9968 9971 9973 9975 9978 9981 9983 9986 9989 9992 9994 9997 10000 10003 10006 10009 10012 10015 10018 10021 10024 10026 10029 10032 10034 10037 10039 10042 10045 10048 10051 10053 10056 10059 10062 10064 10067 10070 10073 10076 10079 10082 10084 10087 10090 10093 10096 10099 10102 10104 10107 10110 10113 10116 10119 10122 10125 10128 10131 10134 10137 10140 10143 10146 10148 10151 10154 10156 10159 10162 10165 10167 10169 10172 10175 10178 10181 10184 10187 10190 10193 10196 10199 10201 10204 10207 10210 10212 10215 10218 10221 10224 10226 10229 10232 10235 10238 10241 10244 10247 10250 10252 10255 10258 10261 10264 10267 10269 10271 10274 10277 10280 10282 10285 10287 10289 10292 10295 10298 10301 10304 10306 10309 10312 10315 10318 10321 10324 10326 10329 10332 10335 10338 10341 10344 10347 10349 10352 10355 10357 10360 10363 10365 10368 10371 10374 10377 10380 10383 10386 10389 10392 10395 10398 10401 10404 10407 10409 10412 10415 10418 10420 10423 10426 10428 10431 10434 10437 10440 10442 10445 10448 10451 10454 10457 10460 10463 10466 10468 10471 10474 10477 10480 10482 10485 10488 10491 10494 10497 10500 10503 10506 10508 10511 10514 10517 10520 10523 10526 10529 10532 10535 10537 10540 10543 10546 10548 10551 10554 10556 10559 10562 10564 10567 10570 10573 10576 10579 10582 10585 10588 10591 10593 10596 10599 10602 10605 10608 10611 10614 10617 10620 10623 10626 10629 10632 10635 10638 10641 10643 10646 10649 10652 10655 10658 10661 10664 10667 10670 10673 10676 10679 10682 10685 10688 10691 10694 10697 10700 10703 10706 10709 10712 10715 10718 10721 10723 10726 10728 10731 10734 10737 10740 10743 10746 10749 10752 10755 10758 10760 10763 10766 10768 10771 10774 10777 10780 10783 10786 10789 10792 10795 10798 10801 10804 10807 10810 10813 10816 10819 10822 10825 10828 10831 10833 10836 10839 10842 10845 10848 10851 10854 10857 10860 10862 10865 10867 10870 10873 10876 10879 10882 10885 10888 10890 10893 10895 10898 10901 10904 10907 10910 10913 10916 10919 10922 10925 10928 10930 10933 10936 10939 10942 10944 10947 10949 10952 10955 10958 10961 10964 10967 10969 10972 10975 10977 10980 10983 10985 10988 10991 10994 10996 10998 11000 11003 11006 11009 11012 11015 11018 11021 11024 11027 11030 11033 11036 11039 11041 11044 11047 11050 11053 11056 11059 11062 11064 11067 11069 11072 11074 11077 11080 11082 11084 11087 11090 11093 11096 11099 11102 11104 11107 11110 11113 11116 11118 11121 11123 11126 11128 11131 11133 11136 11139 11142 11145 11147 11150 11153 11156 11159 11162 11164 11167 11170 11173 11176 11179 11182 11185 11188 11191 11194 11197 11200 11203 11206 11208 11211 11214 11217 11220 11223 11225 11228 11231 11234 11236 11239 11242 11245 11248 11251 11254 11257 11260 11263 11266 11269 11272 11275 11278 11281 11284 11287 11289 11292 11295 11298 11301 11303 11306 11309 11312 11315 11318 11321 11323 11326 11329 11332 11335 11338 11341 11344 11347 11350 11353 11355 11358 11361 11363 11366 11368 11371 11374 11377 11380 11383 11386 11389 11392 11395 11398 11401 11403 11406 11409 11412 11415 11418 11421 11423 11426 11428 11430 11433 11435 11438 11441 11444 11447 11450 11453 11456 11458 11461 11464 11467 11470 11473 11476 11479 11482 11485 11488 11491 11494 11497 11500 11503 11506 11508 11511 11514 11517 11520 11523 11526 11529 11532 11535 11538 11540 11543 11546 11549 11552 11555 11558 11561 11564 11567 11570 11572 11575 11578 11581 11584 11586 11589 11592 11595 11598 11601 11603 11606 11609 11612 11615 11617 11620 11623 11626 11629 11632 11635 11638 11641 11644 11647 11650 11653 11656 11659 11662 11665 11668 11671 11673 11676 11679 11682 11685 11688 11691 11694 11697 11699 11702 11704 11706 11709 11712 11715 11718 11721 11723 11726 11729 11732 11735 11738 11741 11744 11747 11750 11753 11756 11759 11762 11765 11767 11770 11773 11775 11778 11780 11782 11785 11788 11791 11794 11797 11800 11802 11805 11808 11811 11814 11816 11819 11821 11824 11827 11829 11832 11835 11838 11841 11844 11847 11849 11851 11854 11857 11860 11863 11866 11869 11872 11875 11878 11881 11884 11887 11890 11893 11896 11898 11901 11904 11907 11910 11913 11916 11919 11921 11924 11926 11929 11932 11935 11937 11940 11942 11945 11948 11951 11954 11957 11960 11963 11966 11968 11971 11974 11977 11980 11983 11985 11988 11990 11993 11996 11999 12002 12004 12007 12010 12013 12016 12019 12021 12024 12027 12030 12033 12036 12039 12042 12045 12048 12051 12054 12057 12060 12063 12066 12069 12072 12075 12078 12081 12084 12087 12090 12093 12095 12098 12101 12104 12106 12109 12111 12114 12117 12120 12122 12125 12128 12131 12134 12137 12140 12143 12146 12149 12152 12155 12158 12161 12164 12167 12170 12173 12175 12177 12179 12181 12184 12187 12190 12193 12196 12199 12201 12204 12207 12210 12212 12215 12218 12221 12224 12227 12230 12233 12236 12239 12242 12244 12246 12248 12251 12254 12256 12258 12261 12264 12267 12270 12273 12276 12279 12282 12285 12287 12290 12293 12296 12299 12302 12305 12308 12311 12313 12315 12318 12321 12324 12326 12329 12332 12335 12338 12341 12344 12347 12350 12353 12356 12359 12361 12364 12366 12369 12372 12375 12378 12381 12383 12385 12388 12391 12393 12395 12398 12401 12404 12407 12410 12413 12416 12419 12422 12425 12428 12431 12434 12437 12440 12443 12446 12449 12452 12455 12458 12461 12464 12467 12470 12473 12476 12479 12482 12485 12488 12491 12494 12497 12500 12503 12506 12509 12512 12515 12518 12521 12523 12525 12528 12531 12534 12537 12540 12543 12546 12549 12552 12555 12558 12561 12564 12567 12570 12573 12576 12579 12582 12585 12587 12590 12593 12596 12599 12602 12605 12608 12611 12614 12617 12620 12623 12626 12629 12632 12635 12637 12640 12642 12645 12648 12651 12654 12657 12660 12663 12666 12668 12671 12674 12677 12680 12683 12686 12689 12692 12695 12698 12701 12703 12706 12709 12711 12714 12717 12719 12722 12725 12728 12731 12733 12736 12739 12742 12745 12747 12750 12753 12755 12758 12760 12763 12766 12769 12772 12775 12777 12780 12783 12786 12789 12792 12795 12798 12800 12803 12806 12809 12812 12815 12818 12821 12824 12827 12830 12833 12836 12839 12842 12845 12848 12851 12854 12857 12860 12863 12866 12869 12872 12874 12877 12880 12883 12885 12888 12891 12893 12896 12899 12902 12904 12907 12910 12913 12916 12918 12921 12923 12926 12929 12932 12935 12938 12941 12944 12947 12949 12952 12955 12958 12961 12964 12967 12970 12973 12976 12979 12981 12984 12987 12989 12992 12995 12997 13000 13003 13005 13007 13010 13013 13016 13019 13022 13025 13028 13030 13032 13035 13038 13041 13043 13046 13049 13051 13053 13056 13059 13062 13064 13066 13069 13071 13074 13077 13079 13082 13085 13088 13091 13093 13096 13098 13100 13103 13106 13109 13111 13114 13116 13118 13121 13123 13125 13127 13129 13132 13134 13137 13139 13142 13144 13147 13150 13153 13155 13158 13161 13163 13166 13168 13170 13173 13176 13179 13182 13184 13187 13189 13191 13194 13197 13200 13202 13204 13207 13210 13212 13214 13217 13220 13223 13226 13228 13231 13234 13237 13240 13242 13245 13248 13251 13254 13256 13259 13261 13264 13266 13269 13271 13274 13276 13279 13281 13284 13287 13290 13293 13296 13298 13301 13304 13306 13308 13310 13313 13316 13318 13320 13323 13325 13328 13331 13333 13336 13339 13342 13345 13348 13351 13353 13356 13359 13361 13364 13366 13369 13372 13375 13378 13380 13383 13385 13388 13390 13393 13396 13399 13401 13404 13407 13409 13412 13414 13417 13419 13422 13425 13428 13431 13434 13436 13439 13442 13445 13448 13451 13454 13457 13460 13463 13466 13468 13471 13474 13477 13480 13482 13485 13488 13490 13493 13496 13499 13502 13505 13507 13510 13513 13515 13518 13521 13524 13526 13529 13531 13534 13537 13540 13542 13545 13548 13551 13554 13556 13559 13562 13565 13568 13570 13572 13575 13578 13581 13584 13587 13590 13592 13595 13598 13600 13603 13606 13609 13612 13615 13618 13621 13624 13627 13630 13633 13636 13639 13642 13645 13648 13651 13654 13657 13660 13663 13666 13669 13672 13675 13678 13681 13684 13687 13690 13693 13696 13699 13702 13705 13708 13711 13714 13717 13720 13723 13726 13729 13732 13735 13738 13741 13744 13747 13750 13753 13756 13759 13762 13765 13768 13771 13774 13776 13779 13782 13785 13788 13791 13794 13797 13800 13803 13806 13809 13812 13814 13817 13820 13822 13825 13828 13831 13833 13836 13839 13842 13845 13848 13851 13854 13857 13860 13863 13866 13869 13872 13875 13878 13880 13883 13886 13889 13892 13895 13898 13901 13904 13907 13910 13913 13916 13919 13922 13925 13928 13930 13933 13936 13939 13942 13945 13948 13951 13954 13957 13960 13963 13966 13969 13971 13974 13977 13979 13982 13985 13987 13990 13992 13995 13998 14001 14004 14007 14010 14013 14015 14018 14021 14024 14027 14030 14033 14036 14039 14042 14045 14048 14051 14053 14056 14059 14062 14064 14067 14070 14073 14076 14079 14082 14085 14088 14091 14093 14096 14099 14102 14105 14108 14111 14113 14116 14119 14122 14125 14128 14131 14133 14136 14139 14142 14144 14147 14150 14153 14156 14159 14162 14165 14167 14170 14173 14176 14179 14182 14185 14188 14191 14194 14197 14199 14202 14205 14208 14211 14214 14217 14220 14223 14226 14229 14232 14235 14238 14241 14244 14247 14249 14252 14254 14257 14260 14263 14266 14269 14272 14275 14278 14281 14284 14286 14289 14291 14294 14297 14300 14303 14306 14309 14312 14315 14318 14321 14324 14326 14329 14332 14335 14338 14341 14344 14347 14350 14353 14356 14359 14361 14364 14367 14370 14373 14376 14379 14382 14384 14387 14390 14393 14396 14399 14402 14405 14407 14410 14413 14416 14419 14422 14425 14428 14431 14434 14437 14440 14442 14445 14448 14451 14454 14457 14460 14463 14466 14468 14471 14473 14476 14479 14482 14485 14488 14491 14494 14497 14500 14503 14505 14508 14511 14514 14516 14519 14522 14525 14528 14531 14534 14537 14540 14543 14545 14548 14551 14554 14557 14560 14563 14566 14569 14572 14575 14578 14581 14584 14587 14590 14593 14595 14598 14601 14604 14607 14610 14613 14616 14619 14622 14625 14628 14631 14634 14637 14640 14643 14646 14649 14651 14654 14657 14659 14662 14665 14667 14670 14673 14676 14679 14682 14684 14687 14690 14693 14696 14699 14702 14705 14708 14711 14714 14717 14720 14723 14726 14729 14732 14735 14738 14741 14744 14747 14750 14753 14756 14759 14762 14765 14768 14771 14774 14777 14780 14783 14786 14789 14792 14795 14798 14801 14804 14807 14810 14813 14816 14819 14822 14825 14828 14831 14834 14837 14840 14843 14846 14849 14852 14855 14858 14861 14863 14866 14869 14871 14874 14877 14880 14883 14886 14889 14892 14895 14898 14901 14904 14907 14910 14913 14916 14919 14922 14925 14928 14931 14934 14937 14940 14943 14945 14947 14950 14953 14956 14959 14962 14965 14968 14971 14974 14977 14980 14983 14986 14989 14992 14995 14997 14999 15002 15005 15008 15011 15014 15017 15020 15022 15025 15027 15030 15033 15035 15037 15040 15043 15046 15049 15052 15055 15058 15061 15064 15067 15070 15072 15075 15077 15080 15083 15086 15088 15091 15094 15097 15099 15102 15104 15107 15110 15113 15116 15119 15121 15123 15126 15129 15132 15135 15138 15141 15144 15147 15150 15153 15156 15159 15162 15165 15168 15171 15174 15177 15180 15183 15186 15189 15192 15195 15198 15201 15204 15207 15210 15213 15216 15219 15222 15225 15228 15231 15234 15237 15240 15243 15246 15249 15252 15255 15258 15261 15264 15267 15270 15273 15276 15279 15282 15285 15288 15291 15294 15297 15300 15303 15306 15309 15312 15315 15318 15321 15324 15327 15330 15333 15336 15339 15342 15345 15348 15351 15354 15357 15360 15363 15366 15369 15372 15375 15378 15381 15384 15387 15390 15393 15396 15399 15402 15405 15408 15411 15414 15417 15420 15423 15426 15429 15432 15435 15437 15439 15442 15444 15447 15449 15452 15455 15457 15460 15463 15466 15469 15471 15474 15477 15480 15483 15486 15489 15492 15494 15496 15498 15501 15504 15507 15510 15513 15515 15517 15520 15523 15526 15529 15532 15535 15538 15541 15544 15547 15550 15553 15556 15559 15562 15565 15568 15571 15574 15577 15580 15583 15586 15589 15592 15595 15598 15601 15604 15607 15610 15613 15616 15619 15621 15624 15627 15629 15632 15635 15638 15641 15644 15647 15650 15653 15656 15659 15662 15664 15667 15670 15673 15676 15679 15682 15685 15687 15690 15693 15696 15699 15702 15705 15708 15711 15714 15717 15720 15723 15726 15729 15732 15735 15737 15740 15743 15745 15748 15751 15754 15757 15760 15763 15766 15769 15772 15775 15778 15781 15784 15787 15790 15793 15796 15799 15802 15805 15808 15811 15814 15816 15819 15822 15824 15827 15830 15832 15835 15838 15841 15844 15847 15850 15853 15855 15858 15861 15864 15867 15870 15873 15875 15878 15881 15883 15886 15889 15892 15895 15897 15900 15902 15905 15908 15910 15913 15916 15919 15922 15924 15927 15929 15932 15935 15937 15940 15943 15946 15949 15952 15955 15958 15961 15964 15967 15970 15973 15975 15978 15981 15984 15986 15989 15992 15994 15997 16000 16003 16006 16008 16011 16014 16017 16020 16023 16026 16029 16032 16035 16038 16040 16043 16046 16049 16052 16055 16058 16061 16064 16067 16070 16072 16075 16078 16081 16084 16087 16090 16093 16096 16099 16102 16105 16108 16110 16113 16116 16118 16121 16124 16127 16130 16133 16136 16139 16142 16145 16148 16150 16153 16156 16159 16162 16165 16167 16170 16172 16174 16177 16180 16182 16185 16188 16191 16194 16197 16200 16203 16206 16209 16211 16213 16216 16219 16222 16225 16228 16231 16233 16236 16239 16242 16245 16248 16251 16254 16257 16260 16263 16266 16269 16272 16275 16278 16281 16284 16287 16290 16293 16296 16299 16302 16305 16308 16310 16313 16316 16319 16322 16325 16328 16331 16334 16337 16340 16343 16346 16349 16352 16355 16358 16361 16364 16367 16370 16373 16376 16379 16382 16385 16388 16391 16394 16397 16400 16403 16406 16409 16412 16415 16418 16421 16424 16427 16430 16432 16435 16438 16441 16444 16447 16450 16453 16456 16459 16462 16464 16467 16470 16473 16475 16478 16480 16483 16486 16489 16491 16494 16497 16500 16502 16505 16507 16510 16512 16515 16517 16519 16522 16525 16527 16530 16533 16536 16538 16541 16544 16547 16550 16553 16555 16558 16561 16564 16567 16569 16572 16575 16578 16580 16583 16586 16589 16592 16594 16597 16599 16602 16605 16608 16611 16614 16617 16620 16623 16626 16629 16632 16635 16638 16641 16643 16646 16649 16652 16655 16657 16660 16663 16665 16668 16671 16673 16675 16678 16681 16683 16686 16688 16691 16694 16697 16699 16701 16703 16705 16708 16711 16713 16716 16719 16722 16725 16727 16730 16732 16735 16738 16740 16742 16744 16747 16749 16752 16755 16757 16759 16761 16764 16767 16770 16773 16776 16779 16782 16785 16788 16790 16792 16795 16798 16801 16804 16806 16808 16811 16814 16817 16819 16822 16824 16827 16830 16833 16836 16839 16842 16845 16848 16851 16854 16857 16859 16862 16865 16868 16871 16874 16877 16880 16883 16886 16889 16892 16895 16898 16901 16904 16907 16910 16913 16916 16919 16922 16925 16928 16930 16933 16936 16939 16942 16945 16948 16951 16954 16957 16960 16963 16966 16969 16972 16975 16978 16980 16983 16986 16988 16991 16994 16997 17000 17003 17006 17009 17012 17015 17017 17020 17023 17026 17028 17030 17033 17036 17038 17041 17044 17047 17050 17053 17055 17058 17060 17063 17066 17069 17071 17074 17077 17080 17083 17086 17089 17092 17094 17097 17100 17102 17105 17108 17111 17114 17116 17119 17122 17125 17127 17129 17132 17135 17137 17140 17143 17146 17148 17151 17154 17157 17160 17163 17166 17169 17171 17174 17177 17179 17182 17184 17186 17188 17191 17193 17196 17198 17200 17203 17206 17209 17212 17215 17218 17220 17223 17226 17228 17231 17234 17237 17240 17243 17246 17249 17252 17255 17258 17261 17264 17267 17270 17273 17276 17279 17282 17285 17288 17291 17294 17297 17300 17303 17306 17309 17312 17315 17318 17321 17324 17327 17330 17333 17335 17337 17340 17343 17346 17349 17352 17355 17358 17361 17363 17365 17367 17369 17372 17375 17377 17380 17383 17386 17389 17392 17395 17398 17401 17403 17406 17409 17411 17414 17417 17420 17422 17425 17428 17431 17434 17436 17439 17442 17445 17448 17451 17454 17457 17460 17463 17466 17469 17472 17475 17478 17480 17483 17486 17489 17492 17495 17497 17500 17503 17506 17509 17512 17515 17518 17521 17523 17526 17529 17532 17534 17536 17539 17542 17544 17546 17549 17552 17555 17558 17561 17563 17566 17569 17572 17575 17578 17581 17583 17586 17588 17591 17594 17597 17600 17603 17606 17609 17612 17614 17616 17619 17621 17623 17625 17628 17630 17633 17636 17639 17642 17645 17648 17650 17653 17656 17659 17662 17665 17668 17671 17673 17676 17679 17682 17685 17688 17691 17694 17697 17700 17703 17706 17709 17712 17715 17718 17721 17724 17727 17730 17733 17736 17739 17742 17745 17748 17751 17754 17757 17760 17763 17766 17769 17772 17775 17778 17781 17784 17787 17790 17793 17796 17799 17802 17805 17808 17811 17814 17817 17820 17823 17826 17829 17832 17835 17838 17841 17844 17846 17849 17852 17855 17858 17861 17864 17867 17869 17872 17875 17877 17880 17883 17886 17888 17891 17893 17896 17899 17901 17904 17907 17910 17913 17916 17919 17922 17924 17927 17930 17933 17935 17938 17941 17944 17947 17950 17953 17956 17958 17961 17963 17966 17969 17972 17975 17978 17981 17984 17987 17990 17993 17996 17999 18002 18005 18008 18011 18014 18017 18020 18023 18026 18029 18032 18035 18038 18040 18042 18045 18047 18050 18053 18056 18059 18062 18065 18068 18070 18073 18075 18078 18080 18082 18084 18087 18090 18092 18095 18098 18100 18103 18106 18109 18111 18114 18117 18120 18123 18126 18129 18132 18134 18136 18139 18142 18144 18147 18150 18153 18155 18158 18161 18164 18167 18169 18172 18174 18177 18180 18183 18186 18189 18192 18194 18197 18199 18202 18205 18208 18211 18214 18216 18219 18222 18224 18227 18230 18233 18236 18239 18242 18245 18248 18251 18254 18257 18260 18263 18266 18269 18272 18274 18277 18280 18282 18284 18287 18289 18292 18295 18298 18301 18304 18307 18310 18313 18315 18318 18321 18324 18327 18330 18333 18336 18339 18342 18345 18348 18351 18354 18357 18360 18363 18365 18368 18371 18374 18376 18379 18382 18384 18387 18390 18393 18396 18399 18402 18404 18407 18410 18413 18416 18419 18422 18425 18428 18431 18434 18437 18440 18443 18446 18449 18452 18455 18458 18461 18463 18465 18468 18471 18474 18477 18480 18483 18486 18488 18491 18494 18497 18499 18502 18505 18507 18510 18512 18515 18518 18520 18523 18525 18527 18530 18532 18535 18537 18540 18542 18545 18548 18551 18554 18557 18560 18563 18566 18569 18572 18575 18578 18581 18584 18587 18589 18591 18594 18597 18600 18603 18606 18609 18612 18614 18617 18620 18623 18626 18629 18632 18635 18638 18641 18644 18647 18650 18653 18656 18659 18661 18664 18666 18669 18672 18675 18678 18681 18684 18686 18689 18692 18695 18697 18700 18703 18706 18708 18711 18714 18717 18720 18723 18726 18729 18732 18735 18738 18741 18744 18747 18750 18753 18756 18759 18762 18765 18768 18771 18773 18776 18779 18782 18785 18787 18790 18793 18796 18799 18802 18804 18807 18810 18813 18815 18818 18821 18824 18827 18830 18833 18836 18839 18842 18845 18848 18851 18853 18856 18859 18862 18865 18867 18870 18873 18876 18879 18882 18885 18888 18891 18893 18896 18899 18902 18905 18908 18911 18914 18916 18919 18922 18925 18928 18930 18933 18936 18939 18942 18945 18948 18951 18954 18956 18959 18962 18965 18968 18971 18974 18977 18980 18983 18985 18988 18991 18994 18997 19000 19003 19006 19009 19012 19015 19018 19021 19024 19027 19030 19033 19036 19039 19042 19045 19048 19051 19054 19057 19060 19063 19066 19069 19071 19074 19077 19080 19083 19086 19089 19092 19094 19097 19100 19103 19106 19109 19112 19115 19118 19121 19124 19127 19130 19133 19136 19139 19142 19145 19148 19151 19154 19157 19160 19163 19166 19169 19172 19175 19178 19181 19183 19186 19189 19192 19195 19198 19201 19204 19207 19210 19213 19216 19219 19222 19225 19228 19231 19234 19237 19240 19243 19246 19249 19252 19255 19258 19261 19264 19267 19270 19273 19276 19279 19281 19284 19287 19289 19292 19295 19298 19301 19303 19306 19309 19311 19314 19317 19320 19323 19325 19328 19331 19334 19336 19339 19342 19345 19347 19350 19353 19356 19359 19362 19365 19368 19371 19374 19377 19379 19382 19385 19387 19390 19393 19396 19399 19402 19405 19407 19410 19413 19416 19419 19422 19424 19427 19430 19433 19436 19438 19441 19444 19447 19450 19453 19456 19459 19462 19465 19468 19470 19473 19476 19479 19482 19485 19488 19491 19494 19497 19499 19502 19505 19508 19511 19514 19517 19520 19523 19526 19529 19532 19535 19538 19540 19543 19546 19549 19552 19555 19558 19561 19563 19566 19569 19572 19575 19578 19580 19583 19586 19589 19592 19595 19598 19601 19604 19607 19610 19613 19616 19619 19622 19624 19627 19630 19633 19636 19639 19642 19645 19648 19650 19653 19656 19659 19662 19665 19668 19671 19674 19677 19680 19683 19686 19689 19692 19695 19698 19701 19704 19707 19710 19713 19716 19719 19722 19725 19728 19731 19734 19737 19740 19743 19746 19749 19751 19754 19757 19760 19763 19765 19767 19770 19773 19775 19778 19781 19783 19786 19789 19791 19794 19797 19800 19803 19806 19809 19812 19815 19818 19821 19824 19827 19830 19833 19836 19839 19842 19845 19848 19850 19853 19856 19859 19862 19864 19867 19870 19873 19876 19879 19882 19885 19888 19891 19894 19897 19900 19903 19906 19909 19912 19915 19918 19921 19924 19927 19930 19933 19936 19939 19942 19945 19948 19951 19954 19957 19960 19963 19966 19969 19972 19975 19978 19981 19984 19987 19990 19993 19996 19999 20002 20005 20008 20011 20014 20017 20020 20023 20026 20029 20032 20035 20038 20041 20044 20047 20050 20053 20056 20059 20062 20065 20068 20071 20074 20077 20079 20082 20085 20088 20091 20093 20096 20098 20101 20104 20106 20109 20112 20115 20118 20120 20123 20126 20128 20131 20134 20137 20140 20143 20146 20149 20152 20155 20158 20161 20164 20167 20170 20173 20176 20179 20182 20185 20188 20191 20194 20197 20200 20203 20206 20209 20212 20215 20218 20221 20224 20227 20230 20233 20236 20239 20242 20245 20248 20251 20254 20257 20260 20263 20266 20269 20272 20275 20278 20281 20284 20287 20290 20293 20296 20299 20302 20305 20308 20310 20313 20316 20319 20322 20325 20328 20331 20334 20337 20339 20342 20345 20348 20351 20354 20357 20360 20362 20365 20368 20371 20374 20377 20380 20383 20386 20389 20392 20395 20398 20401 20404 20407 20410 20413 20416 20419 20421 20423 20426 20429 20431 20434 20436 20439 20442 20445 20448 20451 20454 20457 20460 20463 20466 20469 20472 20475 20478 20481 20484 20487 20490 20493 20496 20499 20502 20505 20508 20511 20514 20517 20520 20523 20526 20529 20532 20535 20538 20541 20544 20547 20550 20553 20556 20559 20562 20565 20568 20571 20574 20577 20580 20583 20586 20589 20592 20595 20598 20601 20603 20605 20608 20611 20614 20617 20620 20623 20626 20629 20632 20635 20638 20641 20644 20647 20650 20653 20656 20659 20662 20665 20667 20670 20673 20676 20679 20682 20685 20688 20691 20694 20697 20699 20702 20705 20708 20710 20713 20716 20719 20722 20725 20728 20730 20733 20736 20739 20742 20745 20748 20751 20754 20757 20760 20763 20766 20769 20771 20774 20777 20780 20783 20786 20789 20791 20793 20796 20798 20801 20804 20806 20809 20812 20815 20817 20820 20823 20826 20828 20831 20834 20837 20840 20843 20845 20848 20850 20853 20856 20859 20862 20864 20867 20870 20873 20876 20878 20881 20883 20886 20889 20891 20893 20896 20899 20902 20905 20908 20910 20913 20916 20919 20922 20925 20927 20929 20931 20934 20936 20939 20941 20944 20947 20950 20953 20956 20958 20961 20964 20967 20970 20973 20976 20979 20982 20984 20986 20989 20992 20994 20997 21000 21003 21006 21008 21011 21014 21016 21019 21022 21024 21027 21030 21033 21036 21039 21042 21045 21048 21051 21053 21056 21059 21062 21065 21068 21071 21074 21077 21079 21082 21085 21088 21091 21094 21097 21100 21103 21106 21108 21110 21113 21116 21119 21122 21125 21128 21131 21134 21137 21140 21143 21146 21149 21152 21155 21158 21161 21164 21167 21170 21173 21176 21179 21182 21185 21188 21191 21194 21197 21200 21203 21206 21209 21212 21215 21217 21220 21223 21226 21229 21231 21234 21237 21240 21243 21246 21249 21252 21255 21258 21261 21264 21267 21270 21273 21276 21279 21281 21283 21286 21289 21292 21295 21298 21301 21304 21307 21310 21312 21315 21318 21321 21324 21326 21329 21332 21334 21337 21340 21343 21346 21349 21352 21355 21358 21361 21364 21367 21370 21373 21375 21378 21381 21384 21387 21390 21393 21396 21399 21402 21405 21408 21411 21414 21417 21420 21423 21426 21429 21432 21435 21438 21441 21444 21447 21450 21452 21455 21458 21461 21464 21467 21469 21472 21475 21478 21480 21483 21486 21489 21491 21493 21496 21499 21502 21505 21508 21511 21514 21517 21520 21523 21526 21529 21532 21535 21537 21540 21543 21546 21548 21551 21554 21557 21560 21562 21564 21567 21570 21573 21576 21579 21582 21585 21588 21591 21594 21597 21600 21603 21606 21609 21612 21615 21618 21621 21624 21627 21630 21633 21635 21638 21641 21644 21647 21650 21653 21656 21659 21662 21664 21667 21670 21673 21676 21678 21681 21683 21686 21689 21692 21695 21697 21700 21703 21706 21709 21712 21715 21718 21721 21724 21727 21730 21733 21736 21739 21742 21744 21747 21750 21752 21755 21758 21761 21764 21767 21770 21773 21776 21779 21782 21784 21786 21789 21792 21795 21798 21800 21803 21806 21809 21811 21814 21817 21820 21823 21825 21827 21830 21832 21835 21837 21840 21842 21845 21848 21850 21853 21856 21858 21861 21864 21866 21869 21872 21875 21877 21880 21883 21885 21888 21890 21893 21895 21898 21901 21903 21906 21909 21912 21915 21918 21921 21924 21927 21930 21933 21936 21939 21942 21944 21947 21950 21953 21956 21959 21962 21965 21968 21971 21974 21977 21980 21983 21986 21989 21992 21994 21996 21999 22002 22005 22008 22011 22013 22016 22019 22022 22025 22027 22030 22033 22035 22038 22041 22044 22047 22049 22052 22055 22058 22061 22064 22067 22070 22073 22076 22079 22082 22085 22088 22091 22094 22097 22100 22103 22106 22109 22112 22115 22118 22121 22124 22127 22130 22133 22136 22139 22142 22145 22148 22151 22154 22157 22160 22163 22165 22168 22171 22174 22177 22180 22183 22186 22189 22192 22195 22198 22201 22204 22206 22209 22211 22214 22217 22220 22223 22225 22228 22231 22234 22237 22240 22243 22246 22249 22252 22255 22258 22261 22264 22267 22270 22273 22276 22279 22281 22284 22286 22289 22292 22294 22297 22300 22303 22305 22308 22311 22314 22317 22320 22323 22326 22329 22332 22335 22338 22341 22344 22347 22350 22353 22356 22359 22362 22365 22368 22371 22374 22377 22380 22383 22386 22388 22391 22394 22396 22399 22402 22405 22408 22411 22414 22417 22420 22423 22426 22429 22432 22435 22438 22441 22444 22447 22450 22453 22456 22459 22462 22465 22468 22471 22474 22477 22480 22483 22486 22489 22492 22495 22498 22501 22503 22506 22508 22511 22514 22517 22520 22523 22526 22529 22532 22535 22538 22541 22544 22547 22550 22553 22556 22559 22561 22563 22566 22569 22572 22575 22578 22580 22583 22586 22589 22592 22594 22597 22600 22603 22606 22608 22611 22614 22617 22620 22623 22626 22629 22632 22635 22638 22641 22644 22647 22650 22653 22656 22659 22662 22664 22667 22670 22673 22676 22679 22682 22684 22687 22690 22692 22695 22698 22701 22704 22707 22710 22713 22716 22719 22722 22725 22728 22730 22733 22736 22738 22741 22744 22747 22750 22753 22756 22759 22762 22764 22767 22770 22773 22776 22779 22782 22784 22787 22790 22792 22795 22798 22801 22804 22807 22810 22813 22816 22819 22822 22825 22828 22831 22834 22837 22840 22843 22846 22849 22852 22855 22858 22861 22864 22867 22870 22873 22876 22879 22882 22885 22888 22891 22894 22897 22900 22902 22905 22908 22911 22913 22916 22919 22921 22924 22927 22930 22933 22936 22939 22941 22944 22947 22950 22953 22956 22958 22961 22964 22967 22970 22973 22976 22978 22981 22984 22987 22990 22992 22995 22997 23000 23003 23005 23008 23011 23014 23016 23019 23022 23025 23028 23031 23034 23037 23040 23043 23046 23049 23052 23055 23057 23060 23063 23066 23069 23072 23075 23078 23081 23084 23087 23090 23093 23096 23099 23102 23105 23108 23111 23114 23117 23120 23123 23126 23129 23131 23134 23136 23139 23141 23144 23146 23149 23152 23155 23158 23160 23163 23166 23169 23172 23174 23177 23180 23183 23186 23189 23192 23195 23198 23201 23204 23207 23210 23213 23216 23218 23221 23224 23227 23229 23232 23235 23238 23240 23243 23246 23248 23251 23254 23257 23259 23262 23265 23268 23271 23273 23276 23279 23282 23285 23287 23290 23293 23296 23299 23302 23305 23308 23311 23314 23317 23319 23322 23325 23328 23331 23334 23336 23339 23341 23344 23347 23350 23353 23356 23358 23360 23363 23366 23368 23371 23373 23376 23379 23381 23384 23387 23390 23393 23396 23399 23402 23405 23408 23411 23414 23417 23420 23422 23425 23428 23431 23434 23437 23439 23442 23445 23448 23451 23454 23457 23460 23463 23466 23469 23471 23474 23476 23479 23482 23484 23487 23490 23492 23495 23497 23500 23502 23505 23508 23511 23514 23517 23519 23521 23524 23527 23530 23533 23536 23539 23542 23545 23548 23551 23554 23556 23559 23562 23565 23568 23571 23573 23576 23579 23582 23584 23587 23589 23592 23595 23598 23601 23604 23607 23610 23613 23616 23619 23622 23625 23628 23631 23634 23636 23639 23642 23645 23648 23650 23653 23656 23659 23662 23665 23668 23671 23674 23677 23680 23683 23686 23689 23692 23695 23698 23701 23704 23707 23710 23713 23716 23719 23721 23724 23727 23729 23732 23735 23738 23741 23744 23747 23750 23752 23755 23758 23760 23763 23765 23768 23771 23774 23777 23780 23783 23786 23789 23792 23794 23797 23800 23802 23805 23808 23811 23813 23816 23819 23822 23825 23828 23831 23834 23836 23839 23842 23845 23848 23850 23852 23855 23858 23861 23864 23867 23870 23873 23876 23879 23881 23884 23887 23890 23893 23896 23899 23902 23905 23908 23911 23914 23917 23920 23923 23926 23929 23931 23934 23936 23939 23942 23945 23947 23950 23953 23956 23959 23962 23965 23968 23971 23974 23977 23980 23983 23986 23988 23991 23994 23997 24000 24003 24005 24008 24011 24014 24016 24018 24021 24024 24027 24029 24032 24035 24037 24040 24043 24046 24049 24051 24053 24056 24059 24062 24064 24067 24070 24072 24075 24078 24081 24084 24086 24089 24091 24094 24097 24100 24102 24105 24108 24111 24114 24117 24120 24123 24126 24129 24132 24135 24138 24141 24144 24147 24150 24153 24156 24159 24162 24165 24167 24170 24173 24176 24179 24182 24185 24188 24191 24194 24196 24199 24202 24205 24207 24210 24212 24215 24218 24221 24224 24227 24230 24233 24236 24239 24242 24245 24247 24250 24253 24256 24259 24262 24264 24267 24270 24273 24276 24279 24281 24284 24287 24290 24293 24296 24299 24302 24305 24308 24311 24314 24317 24320 24323 24326 24329 24331 24334 24337 24340 24343 24346 24349 24352 24355 24358 24360 24363 24366 24369 24372 24375 24378 24381 24384 24387 24390 24393 24396 24399 24402 24405 24407 24410 24413 24416 24419 24422 24425 24428 24431 24434 24437 24440 24443 24446 24449 24452 24455 24458 24461 24464 24467 24470 24473 24476 24479 24482 24485 24488 24491 24494 24496 24499 24502 24505 24508 24510 24513 24515 24517 24520 24523 24526 24529 24532 24535 24537 24540 24542 24545 24548 24551 24553 24556 24559 24561 24564 24567 24570 24573 24576 24579 24581 24584 24587 24590 24593 24596 24599 24602 24604 24607 24610 24613 24616 24618 24621 24624 24627 24630 24633 24636 24638 24641 24644 24647 24650 24653 24656 24659 24662 24665 24668 24671 24674 24676 24679 24681 24684 24687 24690 24693 24696 24699 24702 24704 24706 24709 24712 24715 24718 24721 24724 24727 24730 24732 24735 24738 24741 24743 24746 24749 24751 24754 24757 24760 24763 24766 24769 24772 24775 24778 24781 24784 24787 24790 24793 24796 24799 24802 24805 24808 24811 24814 24817 24820 24823 24826 24828 24831 24834 24836 24839 24842 24845 24848 24851 24853 24856 24859 24861 24864 24866 24869 24872 24875 24877 24880 24883 24886 24889 24891 24894 24897 24899 24901 24904 24907 24910 24913 24916 24918 24921 24924 24926 24929 24932 24935 24938 24941 24943 24946 24949 24952 24955 24958 24961 24964 24967 24970 24972 24975 24978 24981 24984 24986 24989 24992 24995 24998 25001 25004 25006 25009 25011 25014 25017 25020 25022 25025 25027 25030 25033 25035 25038 25040 25043 25046 25049 25051 25054 25057 25060 25063 25066 25069 25072 25075 25078 25081 25084 25087 25090 25092 25095 25098 25101 25104 25106 25109 25112 25115 25118 25121 25124 25126 25129 25132 25135 25138 25141 25144 25147 25149 25152 25155 25158 25161 25164 25167 25169 25172 25175 25178 25181 25184 25187 25190 25192 25195 25198 25200 25203 25206 25209 25212 25215 25218 25221 25224 25227 25229 25231 25234 25237 25240 25243 25246 25249 25252 25255 25258 25261 25264 25267 25269 25272 25275 25278 25281 25284 25287 25290 25292 25295 25298 25301 25303 25306 25308 25311 25314 25316 25319 25322 25325 25328 25331 25333 25336 25339 25342 25344 25347 25350 25353 25356 25358 25361 25364 25367 25369 25372 25375 25378 25381 25384 25387 25390 25392 25395 25398 25400 25403 25406 25409 25411 25414 25417 25420 25422 25425 25428 25431 25434 25436 25439 25442 25445 25447 25450 25453 25456 25459 25462 25465 25468 25471 25474 25476 25479 25482 25485 25488 25491 25494 25497 25500 25503 25505 25508 25511 25514 25517 25519 25522 25525 25527 25530 25533 25536 25539 25542 25545 25548 25551 25554 25557 25560 25563 25566 25569 25572 25575 25578 25581 25584 25587 25590 25593 25596 25599 25602 25605 25607 25610 25613 25616 25619 25622 25625 25628 25631 25634 25637 25640 25642 25645 25648 25651 25653 25656 25659 25662 25665 25668 25671 25673 25676 25679 25682 25685 25688 25691 25694 25697 25700 25703 25706 25709 25712 25715 25718 25721 25724 25727 25730 25733 25736 25739 25742 25745 25748 25751 25753 25756 25758 25761 25764 25766 25768 25771 25774 25777 25780 25783 25786 25789 25792 25795 25798 25801 25804 25807 25810 25813 25816 25819 25821 25824 25827 25830 25833 25836 25839 25842 25845 25848 25851 25854 25857 25860 25863 25866 25869 25872 25875 25878 25881 25884 25887 25890 25893 25896 25899 25902 25905 25908 25911 25914 25917 25920 25923 25926 25929 25932 25935 25938 25941 25944 25947 25950 25953 25956 25959 25962 25965 25968 25971 25974 25977 25980 25983 25986 25989 25992 25995 25998 26001 26004 26006 26009 26012 26014 26017 26020 26023 26026 26028 26031 26034 26037 26040 26043 26046 26049 26052 26055 26058 26060 26063 26065 26068 26071 26074 26076 26079 26082 26085 26087 26090 26092 26095 26098 26101 26103 26106 26108 26111 26113 26116 26119 26122 26124 26127 26130 26133 26136 26138 26141 26143 26146 26149 26152 26155 26158 26160 26163 26165 26167 26170 26173 26176 26179 26182 26185 26187 26190 26193 26196 26198 26201 26204 26207 26210 26213 26216 26219 26222 26225 26228 26231 26234 26237 26240 26243 26246 26249 26252 26255 26257 26260 26263 26266 26268 26270 26273 26276 26279 26282 26285 26287 26290 26293 26296 26299 26302 26305 26308 26311 26314 26317 26320 26323 26326 26329 26331 26334 26337 26339 26342 26344 26347 26350 26353 26355 26358 26360 26363 26366 26368 26371 26374 26377 26380 26383 26386 26389 26392 26395 26398 26401 26403 26406 26409 26412 26415 26418 26421 26424 26427 26430 26433 26435 26437 26440 26443 26446 26449 26452 26455 26458 26460 26463 26466 26469 26472 26475 26478 26481 26484 26487 26490 26493 26496 26499 26502 26504 26507 26510 26513 26516 26519 26522 26525 26528 26531 26534 26536 26539 26542 26545 26547 26550 26552 26554 26557 26560 26563 26566 26569 26572 26575 26578 26580 26583 26586 26589 26592 26595 26598 26601 26604 26607 26609 26612 26614 26617 26619 26622 26625 26628 26631 26634 26637 26640 26643 26645 26648 26650 26653 26656 26659 26662 26665 26668 26670 26673 26676 26678 26681 26683 26686 26689 26692 26695 26698 26701 26704 26707 26710 26713 26716 26719 26722 26725 26727 26730 26733 26736 26739 26742 26745 26748 26751 26754 26757 26759 26762 26765 26768 26771 26774 26777 26779 26782 26785 26788 26791 26794 26797 26800 26803 26806 26809 26812 26815 26818 26821 26824 26827 26830 26833 26836 26839 26842 26845 26848 26851 26854 26856 26859 26862 26865 26868 26871 26873 26876 26879 26882 26885 26888 26891 26894 26897 26900 26903 26906 26908 26911 26914 26917 26920 26922 26925 26928 26931 26934 26937 26939 26942 26945 26948 26951 26954 26956 26959 26962 26964 26967 26970 26973 26976 26979 26982 26985 26988 26991 26994 26997 27000 27003 27006 27009 27012 27015 27018 27021 27024 27027 27030 27033 27036 27039 27042 27044 27047 27050 27052 27055 27058 27061 27064 27067 27070 27073 27076 27079 27082 27085 27088 27091 27094 27097 27099 27102 27105 27108 27111 27114 27117 27120 27123 27126 27128 27131 27134 27137 27140 27143 27146 27149 27151 27154 27157 27160 27163 27166 27168 27171 27174 27177 27180 27183 27186 27188 27191 27194 27197 27200 27202 27205 27208 27211 27214 27217 27220 27223 27225 27228 27231 27233 27236 27239 27241 27244 27247 27250 27253 27255 27258 27261 27264 27267 27270 27273 27276 27279 27281 27284 27287 27289 27292 27295 27298 27301 27304 27307 27310 27313 27316 27318 27321 27324 27327 27330 27333 27335 27338 27341 27344 27347 27349 27352 27355 27358 27360 27363 27366 27369 27372 27375 27378 27381 27384 27387 27390 27393 27395 27397 27400 27403 27406 27409 27412 27415 27418 27421 27424 27427 27430 27432 27435 27438 27441 27444 27447 27449 27452 27454 27456 27459 27461 27463 27466 27469 27471 27474 27477 27480 27483 27486 27489 27491 27494 27496 27498 27501 27504 27507 27510 27513 27515 27518 27521 27524 27527 27530 27533 27536 27539 27541 27544 27547 27550 27553 27555 27558 27561 27564 27567 27570 27572 27575 27578 27580 27583 27586 27589 27592 27595 27598 27601 27603 27606 27608 27611 27614 27617 27620 27623 27626 27629 27631 27633 27636 27639 27642 27645 27648 27651 27654 27656 27659 27662 27665 27668 27671 27674 27676 27679 27682 27685 27688 27691 27694 27697 27700 27703 27706 27709 27712 27715 27718 27720 27723 27726 27728 27731 27734 27737 27740 27742 27745 27748 27751 27754 27756 27759 27762 27765 27768 27771 27774 27776 27779 27782 27785 27788 27791 27794 27797 27799 27802 27805 27808 27810 27813 27816 27819 27822 27824 27827 27830 27832 27835 27838 27841 27844 27847 27850 27853 27855 27858 27861 27864 27867 27869 27872 27874 27877 27880 27883 27886 27889 27892 27895 27898 27901 27904 27907 27910 27913 27916 27918 27921 27924 27927 27930 27933 27936 27939 27941 27944 27947 27949 27952 27955 27957 27960 27963 27966 27969 27972 27975 27978 27981 27984 27986 27989 27992 27995 27997 28000 28003 28006 28009 28012 28015 28018 28021 28024 28026 28029 28032 28035 28038 28041 28044 28047 28050 28053 28056 28059 28061 28064 28067 28070 28072 28075 28078 28081 28084 28087 28090 28093 28096 28099 28102 28105 28107 28110 28113 28116 28119 28122 28125 28128 28131 28134 28137 28139 28142 28145 28148 28151 28154 28156 28159 28162 28165 28168 28171 28174 28177 28180 28182 28185 28188 28190 28193 28196 28198 28201 28204 28207 28210 28212 28214 28217 28220 28223 28226 28228 28231 28234 28237 28240 28242 28245 28248 28250 28253 28256 28259 28262 28264 28267 28270 28272 28275 28278 28281 28284 28287 28289 28292 28295 28298 28301 28304 28307 28310 28313 28315 28318 28320 28323 28326 28329 28332 28335 28338 28341 28344 28347 28349 28351 28354 28357 28360 28363 28366 28369 28371 28374 28377 28379 28382 28385 28387 28390 28392 28395 28398 28401 28403 28406 28409 28411 28414 28417 28420 28423 28426 28429 28432 28435 28437 28439 28442 28445 28447 28449 28452 28455 28458 28461 28463 28466 28469 28472 28474 28477 28479 28482 28484 28486 28488 28491 28493 28496 28499 28502 28504 28507 28510 28513 28516 28519 28522 28525 28528 28531 28533 28536 28539 28541 28544 28547 28550 28553 28556 28559 28561 28564 28567 28570 28573 28576 28579 28581 28583 28585 28588 28591 28594 28597 28600 28603 28606 28609 28612 28615 28618 28620 28623 28626 28629 28632 28634 28637 28640 28643 28646 28649 28652 28655 28658 28660 28663 28666 28668 28671 28674 28677 28679 28682 28685 28688 28691 28694 28697 28700 28703 28706 28708 28711 28714 28717 28720 28723 28726 28729 28732 28734 28737 28740 28743 28745 28748 28751 28753 28756 28759 28762 28764 28767 28769 28772 28775 28777 28780 28782 28785 28788 28790 28793 28796 28799 28802 28805 28808 28810 28813 28816 28818 28821 28824 28827 28830 28833 28836 28839 28842 28845 28848 28851 28854 28857 28860 28863 28866 28869 28872 28875 28878 28881 28884 28887 28890 28893 28896 28899 28902 28905 28908 28911 28914 28917 28920 28923 28926 28929 28932 28935 28938 28941 28944 28947 28950 28953 28956 28959 28962 28965 28968 28971 28974 28977 28980 28983 28986 28989 28992 28995 28998 29001 29004 29007 29010 29013 29016 29019 29022 29025 29028 29031 29034 29037 29040 29043 29046 29049 29052 29055 29058 29061 29064 29067 29070 29073 29076 29079 29082 29085 29088 29091 29094 29097 29100 29103 29106 29108 29111 29114 29117 29120 29122 29125 29128 29131 29134 29137 29140 29143 29146 29149 29152 29155 29158 29160 29162 29165 29168 29171 29174 29177 29180 29183 29186 29189 29192 29195 29198 29201 29204 29207 29209 29212 29215 29218 29220 29223 29226 29229 29232 29235 29238 29241 29244 29247 29250 29252 29255 29257 29260 29263 29266 29269 29272 29275 29278 29281 29284 29287 29290 29293 29296 29299 29302 29305 29308 29311 29314 29317 29320 29323 29326 29329 29331 29334 29337 29340 29343 29345 29348 29351 29354 29357 29360 29363 29366 29369 29371 29374 29377 29380 29383 29386 29389 29392 29395 29398 29401 29404 29407 29410 29413 29416 29419 29422 29425 29428 29431 29434 29437 29440 29443 29446 29449 29452 29455 29458 29461 29464 29467 29470 29473 29476 29479 29482 29485 29488 29491 29494 29497 29500 29503 29506 29509 29512 29515 29518 29520 29523 29526 29529 29532 29535 29538 29541 29544 29547 29550 29553 29556 29559 29562 29565 29568 29571 29574 29577 29580 29583 29586 29589 29592 29595 29598 29601 29604 29607 29610 29613 29616 29618 29621 29624 29627 29630 29633 29636 29638 29641 29644 29647 29650 29653 29656 29658 29661 29664 29666 29669 29671 29674 29676 29679 29682 29685 29688 29690 29693 29696 29699 29702 29705 29707 29710 29713 29716 29718 29720 29723 29726 29729 29731 29734 29737 29740 29743 29745 29747 29750 29753 29756 29759 29762 29765 29768 29771 29774 29777 29780 29783 29786 29789 29791 29794 29797 29799 29802 29805 29807 29809 29812 29815 29818 29821 29824 29827 29830 29833 29836 29839 29841 29844 29846 29849 29852 29855 29858 29861 29864 29867 29870 29873 29876 29879 29881 29884 29887 29890 29893 29896 29899 29902 29904 29907 29910 29913 29916 29919 29922 29925 29928 29931 29934 29937 29940 29943 29946 29949 29952 29955 29958 29960 29962 29965 29968 29971 29974 29977 29980 29983 29986 29989 29992 29995 29998 30001 30004 30007 30010 30013 30015 30018 30021 30024 30027 30030 30033 30036 30039 30042 30044 30047 30050 30053 30056 30059 30062 30065 30068 30071 30074 30077 30080 30082 30085 30088 30091 30094 30096 30099 30101 30104 30107 30110 30113 30116 30119 30122 30125 30128 30130 30133 30136 30139 30142 30144 30147 30150 30153 30156 30158 30161 30163 30166 30169 30172 30175 30178 30181 30184 30187 30190 30193 30196 30199 30201 30204 30207 30210 30213 30216 30219 30222 30225 30228 30231 30234 30237 30240 30243 30246 30248 30251 30253 30256 30259 30261 30264 30267 30270 30272 30275 30277 30280 30283 30285 30288 30291 30293 30296 30298 30301 30304 30307 30310 30313 30316 30319 30321 30323 30326 30329 30332 30335 30337 30339 30342 30345 30347 30349 30352 30354 30357 30360 30362 30364 30367 30370 30372 30375 30378 30380 30383 30386 30389 30392 30395 30398 30401 30404 30406 30409 30412 30414 30417 30419 30422 30425 30428 30430 30433 30436 30439 30442 30445 30448 30451 30454 30456 30459 30462 30465 30468 30471 30474 30477 30480 30483 30486 30489 30492 30495 30498 30501 30504 30507 30510 30513 30516 30519 30522 30524 30527 30530 30533 30536 30539 30542 30545 30548 30551 30554 30557 30560 30563 30566 30569 30572 30575 30578 
</DataArray>
<DataArray type="UInt32" Name="types" format="ascii">
5 5 5 5 5 5 3 5 5 5 3 5 5 5 3 5 5 5 5 5 5 3 3 5 5 5 5 3 3 5 3 3 5 3 5 5 5 3 5 5 3 5 5 5 5 5 5 5 3 5 5 5 5 5 5 5 5 3 5 5 3 5 3 5 3 5 3 5 5 5 5 5 5 5 5 5 5 5 5 5 5 5 5 3 5 5 5 5 5 5 5 5 3 5 5 3 3 5 5 5 5 5 5 5 5 5 5 5 5 3 5 5 5 5 5 3 5 5 3 5 5 5 5 5 5 5 5 5 5 5 5 5 5 5 5 5 5 5 3 5 5 5 5 5 3 5 5 5 5 5 5 5 5 5 5 5 5 5 5 5 5 5 5 5 5 5 5 5 5 3 5 3 5 5 5 3 5 5 5 3 5 5 5 3 3 5 5 3 5 5 5 5 3 5 5 5 5 5 3 5 5 5 5 3 5 3 5 5 3 5 5 5 3 5 5 3 5 5 5 5 5 5 5 5 5 5 3 5 5 3 5 5 5 5 5 5 5 3 5 5 5 5 5 5 5 5 5 5 5 5 5 5 5 5 5 5 5 5 5 3 5 3 5 5 5 5 5 3 5 5 5 5 5 5 5 5 3 5 5 5 3 5 5 3 5 5 5 5 3 5 5 3 5 5 5 5 5 3 5 3 5 5 5 5 5 5 5 5 5 5 5 5 5 5 5 5 5 5 3 5 5 5 5 5 3 3 5 5 5 5 5 5 5 5 5 5 3 5 5 5 5 5 5 5 5 5 3 5 5 3 3 5 5 5 3 5 5 3 5 5 5 5 5 5 5 5 5 5 5 5 5 5 5 3 5 5 5 5 5 5 5 5 3 5 5 3 5 5 5 5 3 5 5 5 5 5 5 5 5 5 5 5 5 5 5 3 3 5 5 3 3 5 3 5 3 5 3 5 5 3 5 5 5 5 5 5 5 5 5 3 3 5 5 3 5 5 5 5 5 3 5 5 3 5 5 5 5 3 5 5 5 3 5 5 5 3 5 3 5 5 3 5 5 5 5 5 5 5 5 5 5 5 3 5 5 5 5 5 5 3 5 5 5 3 5 5 5 5 5 5 5 3 5 5 5 5 5 3 5 3 5 5 5 5 5 3 3 5 5 5 3 3 5 3 5 5 5 5 5 5 5 3 5 5 5 5 5 5 5 5 5 5 5 5 5 5 3 5 5 3 5 3 5 5 5 5 5 5 5 5 5 5 5 5 5 5 3 5 5 5 5 5 5 5 5 5 5 5 5 5 5 5 5 3 5 5 5 5 5 5 5 5 5 5 5 3 3 5 5 5 5 5 5 5 5 5 5 5 5 5 5 5 5 3 5 5 5 5 5 5 5 3 5 5 5 5 5 5 5 5 3 5 5 5 3 5 5 5 5 5 5 5 5 5 5 5 5 5 5 5 5 5 5 5 5 5 5 5 5 5 5 5 5 3 5 3 5 5 5 5 5 5 5 5 5 5 5 5 5 3 5 5 5 3 5 5 5 5 5 5 5 5 5 5 5 5 5 3 3 5 5 5 5 5 5 5 3 5 5 5 5 5 5 5 5 5 5 5 3 5 5 5 5 5 5 5 3 5 5 5 5 5 5 5 5 5 5 5 5 5 5 5 5 5 3 5 5 5 5 5 5 5 5 5 5 3 5 5 5 5 5 3 5 5 5 3 5 5 5 5 3 5 5 5 5 5 5 5 3 5 3 5 5 3 5 3 5 5 5 5 5 5 5 5 5 5 5 5 5 5 5 5 5 5 5 5 5 5 5 5 5 5 5 5 5 5 5 5 5 5 5 3 5 3 3 5 5 5 5 5 5 5 5 5 5 5 3 5 5 5 5 5 5 5 3 5 3 5 3 5 5 5 5 5 5 3 5 3 3 5 5 5 5 5 5 5 5 5 5 5 5 5 5 5 5 5 3 5 5 5 5 5 5 5 5 5 5 5 5 5 5 3 5 5 5 5 5 5 5 5 5 5 5 5 5 3 5 5 5 5 5 5 5 5 5 3 5 5 5 5 5 3 3 5 5 5 5 3 3 5 5 5 5 5 5 5 5 5 5 5 3 5 5 5 5 3 5 5 5 5 5 5 3 5 5 3 5 3 5 5 5 3 5 5 5 5 5 5 5 3 5 5 5 5 3 3 5 5 3 5 5 5 3 3 3 3 5 5 3 5 5 5 5 5 5 5 5 3 3 5 5 5 5 5 5 3 5 3 5 5 5 3 5 5 5 5 5 5 5 5 5 5 5 5 5 5 5 5 5 5 5 5 5 5 5 5 5 5 5 5 3 5 5 5 5 5 5 5 5 5 5 5 5 5 5 5 5 5 5 5 5 5 3 5 5 5 5 5 5 5 5 5 3 5 5 5 5 5 5 3 5 5 5 5 5 3 5 5 5 5 5 3 5 5 5 5 5 5 5 5 5 5 3 5 5 5 5 3 3 5 5 3 5 5 5 5 3 5 5 3 5 5 5 5 5 3 3 5 5 5 5 5 5 3 5 5 5 5 5 5 5 3 3 5 5 5 3 5 5 5 3 5 5 3 5 3 5 5 5 3 5 5 3 3 5 5 5 5 5 5 3 5 3 5 3 5 5 5 3 3 5 3 5 5 5 5 5 5 5 5 5 5 5 5 5 5 5 5 3 5 5 5 5 5 5 5 3 5 5 5 5 5 3 5 5 5 3 5 5 5 5 3 5 3 5 3 5 5 5 5 3 5 5 3 5 5 5 5 5 5 5 5 5 5 5 3 5 5 5 5 3 5 5 5 5 3 5 5 5 5 5 5 3 5 5 5 3 5 3 3 5 5 5 5 5 5 5 5 5 5 5 5 5 5 5 5 5 5 5 5 5 5 5 5 5 5 5 5 3 5 5 3 3 5 3 5 5 5 5 3 5 5 3 5 5 5 5 5 5 5 5 5 5 5 5 5 5 5 5 5 5 5 5 5 5 5 5 5 5 5 5 3 5 5 5 5 5 5 5 5 3 5 5 5 5 5 5 5 3 5 3 5 5 5 3 5 5 5 5 5 5 5 3 5 3 5 5 5 5 5 3 5 5 5 5 5 5 5 5 5 5 5 5 5 5 5 5 5 5 5 5 5 5 5 5 5 5 5 5 5 5 5 5 5 5 5 5 5 5 5 3 3 5 5 3 5 5 5 3 5 5 5 3 3 5 5 3 5 5 5 5 5 5 5 5 5 5 5 5 5 5 5 5 5 5 5 5 5 3 5 3 5 5 5 5 5 5 5 5 5 5 5 5 5 5 5 5 5 5 5 5 5 5 5 5 5 5 5 5 5 5 5 5 5 5 5 5 5 5 5 5 5 5 5 5 5 3 5 3 5 3 5 5 3 5 5 5 5 5 5 5 5 5 5 5 5 5 5 5 5 5 5 5 5 5 5 5 5 5 5 5 3 5 5 5 5 5 5 5 5 5 5 5 5 5 5 5 5 5 5 5 5 5 5 5 5 5 5 5 5 5 5 5 5 5 5 5 5 5 5 5 5 5 5 5 5 5 5 5 5 5 3 5 5 5 5 3 5 5 5 5 5 5 5 5 3 5 5 5 5 5 3 3 3 5 5 5 5 3 3 5 5 3 5 5 5 5 5 5 5 5 5 5 5 5 5 5 3 3 5 3 5 5 5 5 5 5 5 5 5 5 5 5 5 5 5 5 5 5 3 5 5 5 5 5 5 3 5 5 5 5 5 5 5 5 5 5 5 5 5 5 5 5 5 5 3 5 5 5 5 5 5 5 5 5 3 5 5 3 5 5 5 5 5 5 5 5 5 5 5 5 5 5 5 5 3 5 3 5 5 5 5 3 5 3 5 5 3 3 5 5 3 5 5 5 3 5 5 5 5 5 5 3 5 5 5 3 5 5 5 5 3 5 5 5 5 5 5 5 3 5 5 5 5 5 3 5 5 3 5 5 5 5 5 5 5 3 5 5 5 3 3 5 5 5 3 5 5 5 5 5 3 3 3 5 5 5 5 5 5 5 5 5 3 3 5 3 5 5 5 5 5 3 5 5 3 5 3 5 5 5 3 5 5 3 5 5 5 5 5 5 5 3 5 5 3 3 5 5 3 5 3 5 5 3 5 5 3 5 3 5 5 5 3 5 5 3 5 3 5 5 3 5 3 5 5 5 5 3 3 5 5 5 5 5 5 5 5 5 3 5 5 5 5 5 5 5 5 5 5 5 5 5 5 5 5 5 5 3 3 5 5 5 3 5 5 5 5 3 5 5 3 5 5 5 3 5 5 3 5 5 5 5 3 5 5 5 5 5 3 5 5 5 3 3 5 5 3 5 5 5 5 5 3 3 5 5 5 5 3 5 5 5 5 3 5 5 5 5 5 5 5 5 5 5 5 5 5 5 5 5 5 5 5 5 5 5 5 5 5 5 5 5 3 5 5 5 5 5 5 5 5 5 5 5 3 5 5 5 5 3 5 5 5 3 5 5 3 5 5 5 5 5 3 5 5 5 5 5 5 5 5 5 5 5 5 5 5 5 5 5 5 5 5 3 5 5 5 5 5 3 5 5 5 5 5 5 5 3 5 5 5 5 5 5 5 5 5 5 5 5 5 3 5 5 5 5 5 3 3 5 5 5 5 3 5 3 5 5 5 3 3 5 5 3 5 5 5 3 5 5 5 5 3 5 5 3 3 5 5 5 5 5 5 3 5 5 3 5 5 5 5 3 5 5 5 5 5 5 5 5 5 5 5 5 5 5 5 5 5 5 5 3 5 3 5 5 5 3 5 3 5 3 5 5 3 5 5 3 3 3 5 5 5 3 5 5 5 5 5 5 3 5 5 5 5 5 5 5 3 5 3 5 5 5 5 5 5 5 3 5 5 5 5 5 5 5 5 5 5 5 3 5 5 3 5 5 5 5 5 5 5 5 5 5 5 5 5 5 5 5 3 5 5 5 5 5 5 5 5 5 5 5 5 5 5 5 5 5 5 5 5 5 3 5 5 5 3 5 5 5 5 5 5 5 5 5 5 3 5 5 5 5 5 5 5 5 5 5 3 5 5 5 5 5 5 3 5 5 5 3 5 5 5 5 5 5 5 5 5 5 5 5 5 5 5 5 5 5 5 5 5 3 5 5 5 5 5 3 5 5 3 5 5 5 5 5 5 3 5 5 5 5 3 5 5 5 5 5 5 5 5 5 5 5 5 5 5 5 5 5 5 3 5 5 5 5 5 3 5 5 5 3 5 3 5 5 5 5 5 5 5 3 5 5 5 3 3 5 5 5 5 5 3 5 5 5 3 5 5 5 5 5 5 5 5 5 5 5 5 5 5 5 3 5 5 5 5 5 5 3 5 5 5 5 5 5 5 5 5 5 5 3 5 5 5 5 5 5 5 5 5 3 5 5 5 5 3 3 5 5 5 5 5 5 5 5 3 3 5 3 5 5 5 5 5 3 5 5 5 5 5 5 3 5 3 5 5 5 5 5 5 5 5 5 5 3 5 5 5 5 5 5 3 5 5 5 5 5 5 5 5 3 5 5 5 5 5 3 5 5 3 5 5 5 5 5 5 3 5 5 5 5 5 5 5 5 3 5 5 5 5 3 5 5 5 5 5 5 5 5 5 5 3 5 5 5 5 5 5 5 5 5 3 5 5 5 5 3 5 5 5 5 5 5 5 5 3 5 3 5 5 5 3 5 5 5 5 5 5 5 5 3 5 5 5 3 5 5 5 3 5 5 3 5 5 5 5 5 5 5 5 5 5 5 5 5 5 5 5 5 5 5 5 5 5 5 5 5 5 5 5 5 5 5 5 5 5 5 5 5 5 5 5 5 5 5 5 5 5 5 5 5 5 5 5 5 3 5 5 5 3 5 5 5 5 5 5 3 5 3 5 5 5 5 3 3 5 5 5 5 5 5 5 5 5 5 5 5 5 5 5 5 5 5 5 5 5 5 3 5 5 3 5 5 5 3 5 5 5 5 5 5 5 5 5 5 5 5 5 5 3 5 3 5 3 5 5 5 5 5 5 5 5 5 5 5 5 5 5 5 5 5 3 5 5 5 5 5 5 5 5 5 5 5 5 5 5 5 5 5 5 5 5 5 5 5 5 5 5 5 5 5 5 5 5 5 3 5 5 5 5 5 5 3 5 5 3 5 3 5 5 3 5 5 5 3 5 5 5 5 5 5 5 5 5 5 5 5 5 5 5 5 5 5 5 5 5 5 5 5 5 3 5 5 5 5 3 5 5 3 5 5 5 5 5 5 5 5 5 5 5 5 5 5 5 5 5 5 5 5 5 5 5 5 5 5 5 5 5 5 3 5 5 5 3 5 5 5 5 3 5 5 5 5 5 3 5 5 5 5 3 5 5 5 5 5 5 5 5 5 5 5 5 5 5 3 3 5 3 5 3 5 5 5 5 5 5 5 5 5 5 5 5 5 5 5 5 5 5 5 5 5 5 5 5 5 3 3 5 5 3 5 5 3 5 5 5 5 5 5 5 5 5 5 5 3 5 5 3 5 5 5 5 5 5 5 5 5 5 5 5 5 5 3 3 5 3 3 5 5 5 5 3 5 5 5 3 3 5 5 5 5 5 5 5 3 5 5 5 5 5 5 5 5 5 5 5 5 5 5 5 5 3 5 5 5 5 3 5 5 5 5 5 5 5 3 5 5 5 5 5 5 5 3 5 5 3 5 5 5 5 5 5 5 5 5 5 5 5 5 5 5 3 5 5 5 5 5 5 5 5 3 5 5 5 5 5 5 5 3 5 5 5 5 5 3 5 5 5 5 3 5 5 5 5 5 5 5 5 5 5 5 5 3 5 5 5 5 5 5 5 5 5 5 5 5 5 5 3 5 5 5 5 5 5 5 5 5 5 5 5 5 3 3 5 5 3 5 5 5 5 3 5 5 5 3 5 5 3 5 5 5 5 3 5 5 5 5 5 5 5 5 5 5 5 5 5 5 5 5 5 5 5 5 5 5 5 5 5 5 5 5 5 5 5 5 5 5 3 5 5 5 3 5 3 5 5 5 5 5 5 5 5 5 5 5 5 5 5 3 5 5 5 5 5 5 5 5 3 5 5 5 3 5 5 5 5 5 5 5 3 5 3 5 5 5 5 5 5 5 5 5 5 5 5 5 5 3 5 5 3 5 5 5 5 5 5 5 3 5 5 5 5 5 5 5 5 5 5 5 5 5 5 5 5 5 5 5 5 5 5 5 5 5 5 5 3 5 5 3 5 5 5 3 5 5 3 5 5 5 5 5 5 5 5 5 5 5 5 5 5 5 5 5 5 5 3 5 5 5 5 5 5 5 5 5 5 5 5 5 3 5 5 5 5 5 5 5 5 5 5 5 5 5 5 5 5 5 5 5 3 5 5 5 5 5 5 5 5 5 5 5 5 5 5 5 5 3 5 5 3 5 5 5 3 5 5 3 5 5 5 5 5 5 5 5 5 5 5 5 5 5 3 5 5 3 5 5 5 5 5 5 5 5 5 5 5 5 5 5 5 5 5 5 5 5 5 5 5 5 5 5 5 5 5 5 5 5 5 5 5 5 3 5 5 5 5 3 5 5 5 5 5 5 5 5 5 5 5 5 5 5 5 3 5 3 3 5 5 3 5 3 5 5 5 5 5 5 5 5 3 5 5 3 5 5 5 5 3 3 5 3 5 5 5 5 5 5 5 5 5 5 5 5 5 5 5 5 5 5 5 5 5 3 5 5 5 5 5 5 5 5 5 5 5 5 5 5 5 5 5 5 5 5 5 5 5 5 5 3 5 5 5 5 5 3 5 5 5 5 5 5 5 5 5 3 5 5 5 5 5 5 5 5 5 5 5 5 5 5 5 5 5 3 3 5 5 3 5 5 5 3 5 5 5 5 5 5 5 5 5 5 3 5 5 3 5 3 5 5 5 5 3 5 5 5 3 5 5 5 5 5 5 3 5 5 5 5 5 5 3 5 5 5 5 5 5 5 5 5 5 5 5 5 5 3 5 5 3 5 5 5 3 3 5 5 5 5 5 5 5 5 5 5 3 5 5 5 3 5 5 5 5 3 5 5 5 5 5 5 5 5 3 5 5 5 5 5 3 3 5 5 5 3 5 3 3 5 5 5 5 5 3 5 5 5 5 5 5 3 5 5 5 5 5 5 5 3 5 5 3 5 5 3 5 5 5 5 5 5 5 5 5 5 5 5 5 5 3 5 5 5 3 5 5 3 5 5 5 5 3 5 5 5 5 5 5 5 5 3 5 5 5 5 3 5 5 5 5 5 5 5 5 3 5 5 5 5 5 5 5 5 5 3 5 5 5 3 5 5 3 5 5 3 5 5 5 5 5 5 5 5 5 3 5 5 5 5 5 5 5 5 5 5 5 5 5 5 5 5 3 5 5 5 5 5 5 5 5 5 5 5 5 5 5 5 5 5 5 5 5 5 5 5 5 5 5 3 5 3 5 5 5 5 5 5 5 5 5 5 3 5 5 3 5 5 5 5 5 5 5 5 5 5 5 5 5 5 5 5 5 5 5 5 5 3 5 5 5 5 5 5 5 5 5 3 5 3 5 5 5 5 5 5 5 3 5 3 5 5 5 5 5 5 5 5 5 5 5 3 5 5 5 5 3 5 3 5 5 5 5 5 5 3 5 5 3 5 5 3 5 5 5 3 3 3 5 5 5 5 5 5 5 5 5 5 5 5 5 3 5 5 5 5 5 5 5 3 5 3 5 3 5 5 3 3 5 5 5 5 5 5 3 5 5 5 5 3 5 3 5 3 5 3 5 5 5 5 3 5 5 5 5 5 3 5 5 5 5 5 5 5 5 5 5 5 5 5 5 3 5 5 5 5 5 3 5 5 5 3 5 5 5 5 5 5 5 5 5 5 5 5 5 5 5 5 5 3 5 5 5 5 3 5 5 5 5 5 5 3 5 5 5 5 5 5 5 5 5 5 3 5 5 3 5 3 5 5 5 5 5 5 5 5 5 5 5 3 5 5 5 5 5 5 3 5 3 3 5 3 5 5 5 5 5 5 5 3 5 5 5 5 5 5 5 5 5 5 5 5 5 5 5 5 3 5 5 5 5 5 5 5 5 5 5 3 5 5 5 5 5 5 5 5 5 5 3 5 5 5 5 3 5 5 5 5 5 3 5 5 5 5 3 5 5 5 5 5 5 5 5 5 5 5 5 5 5 5 5 5 5 3 5 5 5 5 5 5 5 5 3 5 3 3 5 5 5 5 5 3 5 5 5 5 5 5 5 5 5 5 5 5 5 5 3 5 5 3 5 3 3 5 5 5 5 5 5 3 5 5 5 5 3 5 3 5 5 3 5 5 5 5 5 5 3 3 5 5 5 5 5 5 5 5 5 5 5 5 5 5 5 3 5 5 5 5 5 5 5 3 5 3 5 5 5 3 5 3 5 5 5 5 5 5 5 5 3 5 5 5 5 5 3 5 3 5 5 5 5 3 5 5 5 5 5 3 5 5 5 5 5 5 5 5 5 5 5 5 5 5 5 5 5 5 5 5 5 5 5 5 3 5 5 5 3 5 3 5 5 5 3 5 5 5 5 5 5 5 5 5 5 5 5 5 5 5 5 5 3 3 3 3 5 5 5 5 5 5 3 5 5 5 3 5 5 5 5 5 5 5 5 5 5 3 3 3 5 5 3 3 5 5 5 5 5 5 5 5 5 3 5 5 5 5 5 5 5 5 3 3 5 5 5 3 5 5 5 5 5 5 5 5 5 5 5 3 5 3 5 5 5 5 5 3 3 5 5 3 3 5 5 5 5 5 5 5 5 5 5 5 5 5 5 5 5 5 5 5 5 5 5 5 5 5 5 5 5 5 5 5 5 5 5 5 5 5 5 5 5 5 5 3 3 5 5 5 5 5 5 5 5 5 5 5 5 5 5 5 5 5 5 5 5 3 5 5 5 5 5 5 5 5 5 5 5 5 5 5 5 5 3 5 3 5 5 5 5 5 5 5 5 3 5 5 5 5 5 5 5 5 5 5 5 3 5 5 3 5 5 3 5 5 5 5 3 5 5 5 5 3 5 5 3 5 3 5 5 5 5 5 3 5 5 5 5 5 5 5 3 5 5 5 5 5 5 5 5 5 5 5 5 5 5 5 5 5 5 5 5 5 5 5 5 3 5 5 5 3 5 5 3 5 5 5 3 5 5 5 5 3 5 3 5 5 5 5 5 5 5 5 3 5 5 5 5 5 5 5 5 5 5 3 5 5 3 5 5 3 5 5 3 3 5 5 5 5 5 5 5 3 3 5 5 5 3 5 5 3 3 5 5 5 3 3 5 3 5 5 3 5 5 5 5 3 5 3 3 5 5 5 3 5 3 3 5 3 3 3 3 5 3 5 3 5 3 5 5 5 3 5 5 3 5 3 3 5 5 5 5 3 5 3 3 5 5 5 3 3 5 5 3 3 5 5 5 5 3 5 5 5 5 3 5 5 5 5 3 5 3 5 3 5 3 5 3 5 3 5 5 5 5 5 3 5 5 3 3 3 5 5 3 3 5 3 5 5 3 5 5 5 5 5 5 3 5 5 3 5 3 5 5 5 5 3 5 3 5 3 5 5 5 3 5 5 3 5 3 5 3 5 5 5 5 5 3 5 5 5 5 5 5 5 5 5 5 3 5 5 5 5 3 5 5 3 5 5 5 5 5 3 5 5 3 5 5 5 3 5 3 5 5 5 3 5 5 5 5 3 5 5 5 5 3 3 5 5 5 5 5 5 3 5 5 3 5 5 5 5 5 5 5 5 5 5 5 5 5 5 5 5 5 5 5 5 5 5 5 5 5 5 5 5 5 5 5 5 5 5 5 5 5 5 5 5 5 5 5 5 5 5 5 5 5 5 5 5 5 5 5 5 5 5 3 5 5 5 5 5 5 5 5 5 5 5 5 3 5 5 3 5 5 5 3 5 5 5 5 5 5 5 5 5 5 5 5 5 5 5 3 5 5 5 5 5 5 5 5 5 5 5 5 5 5 5 5 3 5 5 5 5 5 5 5 5 5 5 5 5 5 3 5 5 3 5 5 3 5 3 5 5 5 5 5 5 5 3 5 5 5 5 5 5 5 5 5 5 5 5 3 5 5 5 3 5 5 5 5 5 5 5 5 5 3 5 5 5 5 5 5 3 5 5 5 5 5 5 3 5 5 5 3 5 5 5 5 5 5 5 3 5 5 5 5 5 5 5 5 5 5 3 5 5 5 5 5 5 5 5 5 5 5 5 5 5 5 5 3 5 3 5 5 5 5 5 5 5 5 5 5 3 5 3 5 5 5 5 5 5 5 5 5 5 5 3 5 5 5 5 5 5 5 5 5 5 5 3 5 5 5 5 5 5 5 3 5 5 5 5 5 5 5 3 5 5 5 5 5 5 5 5 5 5 5 3 5 5 5 5 5 5 5 5 3 5 3 5 5 5 5 5 5 5 5 5 5 3 5 5 5 3 5 5 5 5 5 5 5 5 5 3 5 5 5 5 5 5 5 5 5 5 5 5 5 5 5 5 3 5 5 5 5 5 5 5 5 5 5 5 5 5 5 5 5 5 5 3 5 5 3 5 5 3 5 5 5 5 5 3 5 5 5 5 5 5 5 5 5 5 5 5 5 5 5 5 5 5 5 5 5 5 5 5 5 5 5 5 5 5 5 5 5 5 5 5 5 5 5 5 5 5 5 5 5 5 5 5 5 5 5 5 5 5 5 5 5 5 5 3 5 5 3 5 5 5 5 5 5 5 5 5 5 5 5 5 5 5 5 5 5 5 5 5 5 5 5 3 3 5 5 5 5 5 5 5 5 5 5 5 5 5 5 5 5 3 3 5 5 5 5 5 5 5 3 5 3 5 5 3 3 5 5 5 5 5 5 5 5 5 5 5 3 5 3 5 5 5 3 5 5 5 3 5 3 5 5 5 5 5 3 3 5 5 5 5 5 5 5 5 5 5 5 5 5 5 5 5 5 5 5 5 5 5 5 5 5 5 5 5 5 5 5 5 5 5 5 5 5 5 5 5 5 5 5 5 5 5 5 5 5 5 5 5 5 5 5 5 5 5 5 5 5 5 5 5 5 5 5 5 5 5 5 5 5 5 5 5 5 5 5 5 5 5 5 5 5 5 5 5 5 5 5 5 5 5 5 5 5 5 5 5 5 5 5 5 3 3 5 3 5 3 5 5 3 5 5 5 5 3 5 5 5 5 5 5 5 3 3 3 5 5 5 5 5 3 3 5 5 5 5 5 5 5 5 5 5 5 5 5 5 5 5 5 5 5 5 5 5 5 5 5 5 5 5 5 5 5 5 5 5 3 5 5 3 5 5 5 5 5 5 5 5 5 5 5 3 5 5 5 5 5 5 5 3 5 5 5 5 5 5 5 5 5 5 5 5 5 5 5 5 3 5 5 3 5 5 5 5 5 5 5 5 5 5 5 5 5 5 5 5 5 5 5 5 5 5 5 3 5 5 3 5 5 3 5 5 5 5 5 5 5 3 5 5 5 5 5 5 3 5 5 3 5 5 5 5 3 5 3 5 5 3 5 5 5 5 3 5 3 5 5 3 5 5 5 5 5 5 5 5 5 5 5 5 3 5 5 5 3 5 5 3 5 5 5 5 3 5 5 5 5 5 5 5 5 5 5 3 5 5 5 5 5 5 5 5 5 5 3 5 5 5 5 5 5 5 5 5 5 5 5 3 5 5 3 5 5 5 5 5 5 5 5 5 5 3 5 5 5 5 5 3 5 3 3 5 5 3 5 5 5 5 5 5 5 5 5 3 3 5 5 5 5 5 5 3 5 5 5 5 5 5 5 5 5 5 5 5 5 5 5 5 5 5 5 5 5 5 5 5 5 3 5 5 5 5 5 5 5 5 5 5 5 5 5 5 5 5 5 5 5 5 5 5 5 5 5 5 5 5 5 5 5 5 5 5 5 5 5 5 5 5 3 5 5 5 5 5 5 5 5 5 5 3 5 5 5 3 5 3 5 5 5 3 5 5 5 3 5 3 5 3 5 3 3 5 5 3 5 5 5 3 5 5 5 5 5 3 5 5 5 5 3 5 5 5 3 5 5 5 5 3 5 3 5 5 5 5 5 5 5 5 5 5 5 5 5 5 3 5 5 5 5 3 5 5 3 5 5 3 3 5 5 3 5 3 5 5 5 3 3 3 3 5 5 3 5 5 5 5 3 5 3 5 5 3 3 3 5 3 5 5 3 3 3 5 5 5 5 5 5 5 5 5 3 3 5 5 5 5 3 3 5 5 5 3 5 3 5 5 5 5 5 5 5 5 5 5 5 3 5 5 5 5 5 5 5 5 5 5 5 5 5 5 5 5 5 5 5 5 5 5 5 3 5 5 5 5 5 5 5 5 5 5 5 5 5 5 5 5 3 5 5 3 5 5 5 5 5 5 5 5 5 3 5 5 5 3 3 5 5 3 5 5 5 5 5 3 5 3 5 5 5 3 5 5 5 5 5 5 5 3 5 5 3 5 5 5 5 3 5 5 5 3 3 5 5 3 5 5 5 3 5 5 5 5 5 5 5 3 5 5 3 5 3 3 3 5 3 5 3 3 5 5 5 5 5 5 3 5 5 3 5 5 5 5 5 5 5 5 5 5 5 5 5 5 5 5 5 5 5 5 5 5 5 5 5 5 5 5 5 5 5 5 5 5 5 3 3 5 5 5 5 5 5 5 5 3 3 3 3 5 5 3 5 5 5 5 5 5 5 5 3 5 5 3 5 5 5 3 5 5 5 5 3 5 5 5 5 5 5 5 5 5 5 5 5 5 5 3 5 5 5 5 5 3 5 5 5 5 5 5 5 5 3 5 5 5 3 3 5 5 3 3 5 5 5 5 5 3 5 5 5 5 5 5 3 5 3 5 5 5 5 5 5 5 5 3 3 5 3 3 3 5 3 5 5 5 5 5 5 3 5 5 5 5 5 5 5 3 5 5 5 5 5 5 5 5 5 5 5 5 5 5 5 5 5 5 5 5 5 5 5 5 5 5 5 5 5 5 5 5 5 5 5 5 5 5 5 5 5 5 5 5 5 5 5 5 5 5 5 5 5 5 5 5 5 3 5 5 5 5 5 5 5 3 5 5 3 5 5 5 3 5 3 5 5 3 5 5 5 5 5 5 5 3 5 5 5 3 5 5 5 5 5 5 5 3 5 3 5 5 5 5 5 5 5 5 5 5 5 5 5 5 5 5 5 5 5 5 5 5 5 5 5 3 3 5 3 5 5 5 5 5 5 5 3 5 3 5 3 3 3 5 5 3 5 5 3 5 5 5 3 5 5 5 5 5 5 5 3 3 5 5 3 5 5 5 3 5 5 5 5 3 5 3 5 5 5 5 5 5 3 5 3 5 5 5 5 5 3 5 5 3 5 5 5 5 5 5 5 5 5 5 5 5 5 5 5 5 3 5 5 3 3 5 3 5 5 5 5 5 5 5 5 3 5 5 5 5 5 5 5 5 5 5 5 5 5 5 5 5 3 5 5 5 3 5 5 3 5 5 5 5 5 5 3 5 5 5 5 5 5 5 5 5 5 5 5 5 5 5 5 5 5 5 3 3 5 5 5 5 5 5 5 3 5 5 5 3 5 5 3 5 3 5 5 3 5 3 3 5 3 5 3 5 3 5 5 5 5 5 5 5 5 5 5 5 5 5 5 5 3 3 5 5 5 5 5 5 5 3 5 5 5 5 5 5 5 5 5 5 5 5 5 5 5 3 5 3 5 5 5 5 5 5 3 5 5 5 3 5 5 5 3 5 5 5 5 5 5 5 5 5 5 5 5 5 5 5 5 5 5 5 5 5 3 5 5 5 5 3 5 5 5 5 5 3 5 5 5 3 5 5 5 5 5 5 5 5 5 5 5 5 3 5 5 5 5 3 5 5 5 5 5 5 5 5 3 5 5 5 5 5 5 5 3 5 5 5 5 3 5 5 5 5 5 5 5 5 3 5 5 5 5 5 5 5 5 5 3 5 5 5 5 5 5 5 5 5 5 5 5 5 5 5 5 5 5 5 5 5 5 5 5 5 5 5 5 3 5 5 5 5 5 5 5 3 5 5 5 5 5 5 5 5 5 5 5 5 5 5 5 5 5 5 5 5 5 5 5 5 5 5 5 5 5 3 5 5 5 5 5 5 5 5 5 5 5 5 5 5 5 5 5 5 5 5 5 5 5 5 5 5 5 5 5 5 5 5 3 5 5 3 5 5 5 5 3 5 5 3 5 5 5 5 3 5 5 5 3 5 5 5 3 5 5 5 5 5 5 5 5 5 5 3 5 5 3 5 5 5 5 5 5 3 5 5 5 5 5 3 5 5 5 5 3 5 5 5 5 5 5 5 5 5 5 3 5 5 5 5 5 5 5 5 5 3 5 5 5 5 5 5 5 5 5 5 5 5 5 3 5 5 5 5 5 5 5 3 5 5 5 5 5 3 5 5 5 5 5 5 5 5 5 5 5 5 5 5 3 5 5 5 5 5 5 5 5 3 5 5 5 5 5 5 5 5 5 5 5 5 5 5 5 5 5 5 5 5 5 5 5 5 5 5 5 5 5 5 5 5 5 3 5 5 5 5 3 3 5 5 3 5 5 3 5 5 3 5 5 5 5 5 5 5 5 5 5 5 5 5 5 5 5 5 5 5 3 5 5 5 5 3 5 5 5 5 5 5 5 5 5 5 5 5 5 5 5 5 5 5 5 5 5 5 5 5 5 5 5 5 5 5 5 5 5 5 5 5 5 5 5 5 5 5 5 5 5 5 5 5 5 5 5 5 5 5 5 5 5 5 5 5 5 5 5 5 5 5 5 5 5 5 5 3 5 5 5 5 3 5 3 5 5 3 5 5 5 5 3 5 5 3 5 5 5 5 5 5 5 5 5 5 5 5 5 5 5 5 5 5 5 5 5 5 5 5 5 5 5 5 5 5 5 5 5 5 5 5 5 5 5 5 5 5 5 5 5 5 5 5 5 5 5 5 5 5 5 5 5 5 5 5 3 5 5 5 5 5 5 5 5 5 3 5 5 5 5 5 5 5 3 5 5 5 5 5 5 5 5 5 5 5 5 5 5 5 5 5 5 5 3 3 5 5 3 5 3 5 5 5 5 5 5 5 5 5 5 5 5 5 5 5 5 5 5 5 5 5 5 5 5 5 5 5 5 5 5 5 5 5 5 5 5 5 5 5 5 5 5 5 5 5 5 5 5 5 5 5 5 5 5 5 3 3 5 5 5 5 5 5 5 5 5 5 5 5 5 5 5 5 5 5 5 5 3 5 5 5 5 5 5 5 5 5 5 3 5 5 5 3 5 5 5 5 5 5 3 5 5 5 5 5 5 5 5 5 5 5 5 5 3 5 5 5 5 5 5 3 3 5 3 5 5 3 5 5 5 3 5 5 5 3 5 5 5 5 5 3 5 3 5 5 5 5 3 5 5 5 5 3 5 3 5 5 3 3 5 5 5 5 5 3 5 5 5 5 5 3 3 3 5 3 5 3 5 5 5 5 5 3 5 5 5 5 5 5 5 5 3 3 5 5 3 5 5 5 5 3 5 5 3 5 5 3 5 5 5 5 5 5 5 5 5 3 5 5 5 5 5 5 5 5 3 5 5 5 5 5 5 5 5 5 3 3 5 5 5 5 5 5 5 5 5 5 5 5 5 5 5 5 5 5 5 5 5 5 5 5 5 5 5 5 5 5 5 5 5 5 5 3 5 5 5 5 3 5 5 5 5 5 5 5 5 5 5 5 5 5 5 5 5 3 3 5 5 5 5 5 5 5 5 5 3 5 5 5 5 3 5 5 3 5 5 5 5 5 5 5 5 5 5 5 5 5 3 5 5 5 5 5 5 5 5 5 5 5 5 5 5 5 5 5 5 5 5 5 5 5 5 5 3 5 5 5 5 5 3 5 5 5 3 5 5 5 3 3 5 5 5 5 5 5 5 5 5 5 5 5 5 5 3 5 5 5 3 5 5 5 5 3 3 5 5 5 5 5 5 5 5 5 5 5 5 5 5 5 5 5 5 5 5 5 5 5 3 5 5 5 5 5 5 5 5 5 3 5 5 5 5 3 5 3 5 5 5 5 3 5 5 5 5 5 5 5 5 5 5 5 5 5 5 5 3 5 5 3 5 5 5 5 5 5 5 5 5 5 3 3 5 5 5 5 3 5 5 5 3 5 5 5 5 3 3 5 3 5 3 5 3 5 5 3 5 5 3 5 5 3 5 5 5 3 5 5 3 5 3 5 3 5 5 3 5 5 5 5 5 5 5 5 5 5 5 5 5 3 5 5 5 5 5 5 5 5 5 5 5 5 5 5 5 5 3 3 5 5 5 5 5 3 5 5 5 5 3 5 5 3 5 5 5 5 3 5 5 5 5 5 5 5 5 5 5 5 5 5 5 5 5 5 5 5 5 5 5 5 5 5 5 5 5 5 5 5 5 5 5 5 5 5 5 3 5 5 5 5 5 5 5 5 5 5 5 5 5 3 5 3 5 5 5 5 3 5 5 5 5 5 5 5 5 5 5 5 5 5 5 5 5 5 5 3 5 3 5 5 3 5 5 5 3 5 5 5 5 5 5 5 5 5 5 5 5 5 5 5 5 5 5 5 5 5 5 5 5 5 5 5 3 5 5 3 5 5 5 5 5 5 5 5 5 5 5 5 5 5 5 5 5 5 5 5 5 5 5 5 5 5 5 5 5 5 5 5 5 5 5 3 5 3 5 5 5 5 5 5 5 5 5 5 5 5 5 5 5 5 5 3 3 5 5 5 5 5 3 5 5 5 5 3 5 5 5 5 3 5 5 5 5 5 5 5 5 5 5 5 5 5 5 5 5 5 5 3 5 5 5 5 5 5 3 5 5 3 5 5 5 5 5 5 5 5 5 5 5 5 3 5 5 3 5 5 5 5 5 5 5 5 3 5 5 5 5 5 5 3 5 5 3 5 5 5 5 5 5 5 5 5 5 5 5 5 5 5 5 5 5 5 5 5 5 5 5 5 5 5 5 5 5 5 5 5 5 5 5 3 5 5 5 3 5 5 3 5 5 5 5 5 5 3 5 5 5 5 5 3 5 5 5 5 5 5 3 5 5 5 5 3 5 3 5 5 3 5 5 5 3 5 5 5 5 5 5 5 5 5 5 5 5 5 3 5 5 5 5 5 5 5 5 5 5 5 5 5 5 5 5 5 5 5 5 5 5 5 5 3 5 3 5 3 5 3 5 5 5 5 3 5 5 5 5 3 5 5 5 5 5 5 5 5 5 5 5 5 5 5 3 5 5 5 3 5 5 5 3 5 5 3 5 5 5 3 5 5 5 5 3 5 5 5 5 3 5 5 5 5 5 5 5 5 5 5 3 5 5 5 5 5 3 5 3 5 5 5 5 5 3 3 5 5 3 5 3 5 5 3 5 5 5 5 5 5 5 5 5 5 5 5 5 3 5 5 5 5 5 3 5 5 5 5 5 5 5 5 5 5 3 5 3 5 5 3 5 5 3 5 3 5 3 5 5 5 5 5 3 3 5 5 5 5 5 5 5 5 5 5 5 3 5 5 5 5 5 3 5 5 5 3 5 3 5 5 5 5 5 5 5 5 5 5 5 5 5 5 5 3 5 5 5 5 3 5 5 5 5 5 5 5 5 5 5 5 5 5 5 5 5 5 5 5 5 5 5 5 3 5 5 3 5 5 5 5 5 5 5 3 5 5 3 5 3 5 5 5 5 5 5 5 5 5 3 5 5 3 5 5 5 3 5 5 5 5 5 5 5 3 5 5 5 5 3 3 5 5 5 5 5 5 5 5 5 3 5 5 5 5 5 5 5 5 5 5 5 5 5 5 5 5 3 5 3 5 5 5 3 5 5 5 5 5 5 5 5 5 5 5 5 5 3 5 5 5 5 5 3 5 5 5 3 3 5 5 5 3 5 5 3 5 5 5 5 3 3 5 5 5 3 5 5 3 5 5 5 5 3 5 3 5 5 5 3 5 5 5 5 5 5 5 5 5 5 5 5 5 5 5 5 5 5 5 5 5 3 5 5 5 5 5 5 5 5 5 3 5 5 5 3 5 3 5 5 5 5 5 5 5 5 5 5 5 3 5 5 5 5 5 3 5 5 5 5 5 3 5 5 5 5 5 5 5 5 5 5 5 5 5 5 5 5 3 5 5 5 5 5 5 5 5 5 3 5 5 5 5 5 5 5 5 5 5 5 5 5 5 5 3 5 5 5 5 5 5 5 5 5 5 5 5 5 5 5 5 5 5 5 5 5 5 5 5 5 5 5 5 5 3 5 5 5 5 3 5 3 3 5 5 5 5 5 5 3 5 3 5 5 5 3 5 5 3 5 5 5 5 5 5 3 5 5 5 5 5 5 5 3 5 5 5 5 3 5 5 5 5 5 5 3 5 5 5 5 5 5 5 5 5 5 5 5 3 5 3 5 5 5 5 5 5 5 3 3 5 5 5 5 5 5 5 5 3 5 5 5 3 5 5 3 5 5 5 5 5 5 5 5 5 5 5 5 5 5 5 5 5 5 5 5 5 5 5 5 5 3 5 5 3 5 5 5 5 5 3 5 5 3 5 3 5 5 5 3 5 5 5 5 3 5 5 3 3 5 5 5 5 5 3 5 5 3 5 5 5 5 5 3 5 5 5 5 5 5 5 5 5 3 5 5 5 5 3 5 5 5 5 5 5 3 5 3 5 5 5 3 5 3 5 5 3 5 3 5 5 5 3 5 5 5 5 5 5 5 5 5 5 5 5 5 3 5 5 5 5 3 5 5 5 5 5 5 3 5 5 5 5 5 5 5 3 5 5 5 5 5 5 3 5 5 5 5 5 5 5 3 5 5 3 5 5 5 5 5 5 5 5 5 3 3 5 5 5 5 5 5 5 5 5 5 5 5 3 5 5 5 5 5 5 5 3 5 5 5 3 5 3 5 5 3 5 5 5 5 5 3 5 5 5 3 5 5 5 5 3 5 5 5 3 5 5 5 5 5 5 5 3 5 5 3 5 5 5 3 5 5 5 3 5 5 5 5 3 5 5 5 3 5 5 5 5 5 5 5 5 5 3 5 5 5 5 5 5 5 5 5 3 5 5 5 5 3 5 5 3 5 5 5 5 5 5 5 5 5 5 5 5 5 5 5 5 5 5 5 5 5 5 5 5 5 5 3 5 5 5 5 5 5 5 5 5 5 5 3 5 5 5 3 5 5 5 5 5 5 3 5 5 5 5 5 5 5 5 5 5 5 5 5 5 5 5 5 5 5 5 5 5 5 5 5 5 3 5 3 5 5 3 3 5 5 5 5 5 5 5 5 5 5 5 5 5 5 5 5 5 3 5 5 5 5 5 5 5 5 5 5 5 5 5 5 5 5 5 5 5 5 5 5 5 5 5 5 5 5 5 5 5 5 5 5 5 5 5 5 5 5 5 5 5 5 5 5 5 5 5 5 5 5 5 5 5 5 5 5 5 5 5 3 5 5 3 5 5 5 5 3 5 5 5 5 5 5 5 5 5 5 3 5 3 5 5 5 3 5 5 5 3 5 3 5 5 5 3 5 3 5 3 5 5 5 3 5 5 5 5 3 5 3 5 5 5 5 5 3 5 3 3 5 5 5 5 5 5 3 5 5 5 3 5 5 5 5 5 5 5 5 5 5 5 5 5 5 5 5 5 5 5 3 5 5 5 3 3 5 5 5 5 5 3 5 5 5 5 5 5 5 5 5 5 5 5 5 5 3 5 5 3 5 3 5 5 5 3 5 3 5 5 3 5 5 5 5 5 5 5 5 5 5 5 3 5 5 5 5 5 5 5 5 5 5 3 3 5 5 5 5 5 5 5 3 5 5 5 5 5 5 5 5 5 5 5 5 5 5 3 5 5 5 5 5 5 5 5 5 5 3 5 5 5 3 5 3 3 5 5 5 5 5 5 5 5 3 5 5 5 5 5 5 5 5 5 3 5 3 5 3 5 5 5 5 5 5 5 5 3 5 3 5 5 5 5 5 5 3 5 5 3 5 3 5 5 5 5 5 5 5 5 5 5 5 5 5 5 3 5 5 5 5 5 5 5 5 5 5 3 5 5 5 5 5 5 3 5 5 5 5 5 5 5 5 5 5 5 5 5 5 5 5 5 5 5 5 5 5 5 5 5 3 5 5 5 5 5 3 5 5 5 5 5 5 5 5 5 5 5 3 5 5 5 5 3 5 5 5 5 5 3 5 5 5 5 5 3 5 5 3 5 5 5 5 5 5 5 5 5 5 5 5 5 5 5 5 5 5 5 5 5 5 5 5 5 5 3 5 5 3 5 5 5 5 5 5 5 5 5 5 5 5 5 5 5 3 5 5 5 5 5 5 5 5 5 3 5 5 5 5 5 5 5 3 5 5 5 5 5 3 5 5 5 5 5 5 3 5 5 5 5 3 5 5 5 5 5 5 5 3 5 5 3 5 5 3 5 5 5 5 3 5 5 5 5 5 5 5 5 3 5 5 3 5 5 5 5 5 5 5 5 5 3 5 5 5 5 5 3 5 5 5 5 3 5 5 5 3 5 5 5 5 5 5 5 5 5 5 5 3 3 5 5 5 5 5 5 5 5 5 5 5 3 5 5 5 5 5 3 5 3 3 5 3 3 5 5 3 5 5 5 5 5 5 3 5 3 3 5 5 5 5 5 3 5 5 5 5 5 5 5 5 3 5 5 5 5 3 5 5 5 5 5 3 5 5 3 5 5 5 5 5 5 5 3 5 3 5 5 5 5 5 5 5 3 3 5 5 5 5 5 5 5 3 5 5 5 5 5 5 3 5 5 5 5 5 5 5 5 5 5 5 5 5 5 3 5 5 3 5 5 5 5 3 5 5 5 5 3 5 5 5 5 5 5 3 5 5 5 5 5 5 5 3 5 5 5 3 5 5 5 5 3 5 5 3 5 5 5 5 5 5 5 3 5 5 5 5 3 5 3 5 5 5 5 5 5 5 5 5 5 5 5 5 5 3 5 5 5 5 5 5 5 3 5 5 3 5 5 3 5 5 5 5 5 5 5 5 5 3 5 5 5 3 5 5 5 5 5 5 5 5 5 3 5 5 5 5 5 5 5 5 5 5 5 3 5 5 5 3 5 5 5 5 5 5 5 5 5 5 5 3 5 5 5 5 5 5 5 5 5 5 3 5 5 5 5 5 3 5 5 5 5 5 5 5 5 3 5 5 3 5 5 3 5 5 5 5 3 3 5 5 5 5 3 5 5 5 5 3 5 5 3 5 5 5 5 3 5 5 3 5 5 5 5 5 3 5 5 5 5 5 5 5 5 3 5 3 5 5 5 5 5 5 5 5 5 3 3 5 5 5 5 5 5 3 5 5 3 5 5 3 5 3 5 5 5 3 5 5 3 5 5 5 5 5 5 5 5 3 3 5 5 3 3 5 5 5 5 3 5 5 5 3 5 3 5 3 3 3 5 3 5 5 5 3 5 5 5 5 5 5 5 5 5 3 5 5 3 5 5 5 5 5 5 3 5 5 5 5 5 5 3 3 3 5 5 5 5 5 5 5 5 5 5 5 3 5 5 5 5 3 5 5 5 5 5 5 5 5 3 5 5 3 5 5 5 3 5 5 5 5 5 5 5 5 5 3 5 5 5 5 5 5 5 5 3 5 5 5 3 5 5 3 5 5 5 3 5 3 5 5 3 5 3 5 5 3 5 5 5 5 5 5 3 5 5 3 5 5 5 5 5 5 5 5 5 5 5 5 5 5 5 5 5 5 5 5 5 5 5 5 5 5 5 5 5 5 5 5 5 5 5 5 5 5 5 5 5 5 5 5 5 5 5 5 5 5 5 5 5 5 5 5 5 5 5 5 5 5 5 5 5 5 5 5 5 5 5 5 5 5 5 5 5 5 5 5 5 5 5 5 5 5 5 5 5 5 5 5 5 5 5 5 3 5 5 5 5 3 5 5 5 5 5 5 5 5 5 5 5 5 3 3 5 5 5 5 5 5 5 5 5 5 5 5 5 5 5 3 5 5 5 3 5 5 5 5 5 5 5 5 5 5 3 5 3 5 5 5 5 5 5 5 5 5 5 5 5 5 5 5 5 5 5 5 5 5 5 5 5 3 5 5 5 5 3 5 5 5 5 5 5 5 5 3 5 5 5 5 5 5 5 5 5 5 5 5 5 5 5 5 5 5 5 5 5 5 5 5 5 5 5 5 5 5 5 5 5 5 5 5 5 5 5 5 5 5 5 5 5 5 5 5 5 3 5 5 5 5 5 5 5 5 5 5 5 5 5 5 5 5 5 5 5 5 5 5 5 5 5 5 5 5 5 5 5 5 3 5 5 5 5 5 5 3 5 5 5 5 5 5 3 5 5 3 5 3 5 3 5 5 5 5 3 5 5 5 5 5 3 5 5 5 3 3 5 5 5 3 5 5 5 5 3 3 5 5 5 5 5 5 5 5 5 5 5 5 5 5 3 5 5 3 5 5 3 3 5 5 5 5 5 5 5 5 5 5 3 5 3 5 5 5 5 5 5 5 5 5 5 5 3 5 5 5 5 5 5 5 3 5 5 5 5 5 5 5 5 5 5 5 5 5 5 5 5 5 5 3 3 5 5 5 5 5 5 5 5 5 5 5 5 5 5 5 5 5 3 5 5 5 5 5 5 5 5 5 3 5 5 5 5 5 5 5 5 5 5 5 5 3 5 5 5 5 3 5 3 5 5 5 5 5 5 5 5 5 3 5 5 5 5 3 5 5 5 5 3 5 3 5 5 5 5 5 5 5 5 5 5 5 5 3 5 5 5 5 5 5 5 5 5 5 5 5 5 5 5 3 5 3 5 5 3 5 5 5 3 5 3 5 5 3 5 5 3 5 3 5 5 5 5 5 5 5 3 3 5 5 5 5 3 3 5 5 3 3 5 3 5 5 3 3 5 5 3 5 5 3 5 5 5 5 5 5 5 5 3 5 5 3 5 3 5 5 5 3 5 5 5 5 5 5 5 5 3 5 5 5 5 5 5 5 5 5 5 5 5 5 5 5 5 5 5 5 5 5 5 3 5 5 5 5 5 5 5 5 5 5 5 5 5 5 5 5 5 5 
</DataArray>
</Cells>
<PointData Scalars="" Vectors="displacement," Tensors="">
<DataArray type="Float64" Name="displacement" NumberOfComponents="3" format="ascii">
0.054996151183890944 0.054996191989915448 0 0.053871288731659799 0.053383333692266485 0 0.049249398039441096 0.054996669692940738 0 0.054996151183890944 0.054996191989915448 0 0.053871288731659799 0.053383333692266485 0 0.054995756188015173 0.048084783518955343 0 0.053871288731659799 0.053383333692266485 0 0.053862259988908083 0.051813933147370095 0 0.054995756188015173 0.048084783518955343 0 0.053871288731659799 0.053383333692266485 0 0.053862259988908083 0.051813933147370095 0 0.052632352798952439 0.052828962467623877 0 0.053862259988908083 0.051813933147370095 0 0.053495429043201238 0.05193993335649448 0 0.052632352798952439 0.052828962467623877 0 0.053862259988908083 0.051813933147370095 0 0.053495429043201238 0.05193993335649448 0 0.054995756188015173 0.048084783518955343 0 0.055330010033377341 0.04836934926395562 0 0.054999939146361594 0.048074233680598433 0 0.056617785969073332 0.04923511944174596 0 0.056872407485309459 0.048827600646772627 0 0.056728946690926305 0.048482740065053938 0 0.053495429043201238 0.05193993335649448 0 0.053012487858801922 0.052075647183802899 0 0.052632352798952439 0.052828962467623877 0 0.056813373390761562 0.04845430314442932 0 0.056617785969073332 0.04923511944174596 0 0.056728946690926305 0.048482740065053938 0 0.055330010033377341 0.04836934926395562 0 0.055923487399159241 0.048655103411569693 0 0.052632352798952439 0.052828962467623877 0 0.051342258904148216 0.054727339210152583 0 0.053470923672858321 0.053221596309655846 0 0.053012487858801922 0.052075647183802899 0 0.052632352798952439 0.052828962467623877 0 0.053470923672858321 0.053221596309655846 0 0.051342258904148216 0.054727339210152583 0 0.054908510133899024 0.055174706022143818 0 0.053470923672858321 0.053221596309655846 0 0.045315404008143705 0.053818266215292829 0 0.04513480589226547 0.053788003511856197 0 0.053871288731659799 0.053383333692266485 0 0.051342258904148216 0.054727339210152583 0 0.049249398039441096 0.054996669692940738 0 0.053871288731659799 0.053383333692266485 0 0.052632352798952439 0.052828962467623877 0 0.051342258904148216 0.054727339210152583 0 0.051342258904148216 0.054727339210152583 0 0.049249398039441096 0.054996669692940738 0 0.047813076519447301 0.055911943135713425 0 0.049249398039441096 0.054996669692940738 0 0.046491464971806735 0.055264978002429743 0 0.047813076519447301 0.055911943135713425 0 0.049249398039441096 0.054996669692940738 0 0.046491464971806735 0.055264978002429743 0 0.041692898209379596 0.05500093638079407 0 0.046491464971806735 0.055264978002429743 0 0.046196278492450636 0.055910453763878883 0 0.047813076519447301 0.055911943135713425 0 0.0445106740627325 0.053693469368342323 0 0.044490844703868049 0.053672731472782093 0 0.044490844703868049 0.053672731472782093 0 0.04513480589226547 0.053788003511856197 0 0.058430772840389368 0.055406495776465878 0 0.054908510133899024 0.055174706022143818 0 0.057444208547584703 0.051326171936434073 0 0.046491464971806735 0.055264978002429743 0 0.044830706045053577 0.057027453517627599 0 0.041692898209379596 0.05500093638079407 0 0.041695078200206785 0.054999977397816778 0 0.04232927274725639 0.056680962954801205 0 0.040489818080638701 0.056399541479959195 0 0.044830706045053577 0.057027453517627599 0 0.041692898209379596 0.05500093638079407 0 0.042356744913437265 0.056688937064514548 0 0.043061001050904324 0.054075051083467225 0 0.043014831338304228 0.054087189833573489 0 0.041712391773749628 0.05499110466705813 0 0.043061001050904324 0.054075051083467225 0 0.042505661586713796 0.055350718571450359 0 0.044239355674266546 0.055612101403016444 0 0.043678573334213287 0.054132976278663494 0 0.044490844703868049 0.053672731472782093 0 0.043061001050904324 0.054075051083467225 0 0.044490844703868049 0.053672731472782093 0 0.044090549940494085 0.053508532787847438 0 0.042277286465466593 0.05666932422749156 0 0.041705760122701947 0.058042965311825824 0 0.043048631545549707 0.058695105164246447 0 0.043061001050904324 0.054075051083467225 0 0.044090549940494085 0.053508532787847438 0 0.042277286465466593 0.05666932422749156 0 0.041705760122701947 0.058042965311825824 0 0.040489818080638701 0.056399541479959195 0 0.059418165132796713 0.050678378967540329 0 0.059500594269448363 0.049872447556921086 0 0.060064089964453837 0.049977143105448638 0 0.041705760122701947 0.058042965311825824 0 0.043048631545549707 0.058695105164246447 0 0.041517312637737364 0.060280399979115884 0 0.044090549940494085 0.053508532787847438 0 0.044985693411180291 0.051855017918379452 0 0.058430772840389368 0.055406495776465878 0 0.060598804908256226 0.052735041795552273 0 0.057444208547584703 0.051326171936434073 0 0.060598804908256226 0.052735041795552273 0 0.058970798848770517 0.049590966227108631 0 0.057444208547584703 0.051326171936434073 0 0.044090549940494085 0.053508532787847438 0 0.044367250309213548 0.053578823845550586 0 0.059418165132796713 0.050678378967540329 0 0.058970798848770517 0.049590966227108631 0 0.059500594269448363 0.049872447556921086 0 0.058970798848770517 0.049590966227108631 0 0.059287451189719079 0.049472275772171538 0 0.059500594269448363 0.049872447556921086 0 0.059798159306981596 0.049560500177965233 0 0.060064089964453837 0.049977143105448638 0 0.060682738980327909 0.049311974304057621 0 0.059500594269448363 0.049872447556921086 0 0.059798159306981596 0.049560500177965233 0 0.060064089964453837 0.049977143105448638 0 0.059287451189719079 0.049472275772171538 0 0.059798159306981596 0.049560500177965233 0 0.059601427357941099 0.049030742430815281 0 0.059287451189719079 0.049472275772171538 0 0.059500594269448363 0.049872447556921086 0 0.059798159306981596 0.049560500177965233 0 0.054908510133899024 0.055174706022143818 0 0.053470923672858321 0.053221596309655846 0 0.057444208547584703 0.051326171936434073 0 0.055923487399159241 0.048655103411569693 0 0.056253012090709015 0.048782308330264861 0 0.053012487858801922 0.052075647183802899 0 0.053470923672858321 0.053221596309655846 0 0.057444208547584703 0.051326171936434073 0 0.058970798848770517 0.049590966227108631 0 0.057444208547584703 0.051326171936434073 0 0.057299322710086642 0.0494885134047666 0 0.056617785969073332 0.04923511944174596 0 0.057444208547584703 0.051326171936434073 0 0.057299322710086642 0.0494885134047666 0 0.056617785969073332 0.04923511944174596 0 0.057299322710086642 0.0494885134047666 0 0.056872407485309459 0.048827600646772627 0 0.056872407485309459 0.048827600646772627 0 0.057800490885907378 0.048319331822873582 0 0.056749692769806438 0.048220611919876838 0 0.057299322710086642 0.0494885134047666 0 0.056872407485309459 0.048827600646772627 0 0.057800490885907378 0.048319331822873582 0 0.058970798848770517 0.049590966227108631 0 0.057299322710086642 0.0494885134047666 0 0.057800490885907378 0.048319331822873582 0 0.063579781740426278 0.04497637370820512 0 0.065276007904004743 0.043769143276535014 0 0.06332731349789851 0.04283504695837119 0 0.052113281212009435 0.047503375472666358 0 0.053814161754212324 0.046419915258554156 0 0.063579781740426278 0.04497637370820512 0 0.06332731349789851 0.04283504695837119 0 0.061138084635333677 0.044338065370947338 0 0.059798159306981596 0.049560500177965233 0 0.059601427357941099 0.049030742430815281 0 0.060682738980327909 0.049311974304057621 0 0.049158203312766192 0.04837665851261836 0 0.045689074126646148 0.050208429324007507 0 0.059287451189719079 0.049472275772171538 0 0.057800490885907378 0.048319331822873582 0 0.05981116214739822 0.048727340086575796 0 0.052113281212009435 0.047503375472666358 0 0.049158203312766192 0.04837665851261836 0 0.058970798848770517 0.049590966227108631 0 0.059287451189719079 0.049472275772171538 0 0.057800490885907378 0.048319331822873582 0 0.049233730275584635 0.048330680244473748 0 0.049158203312766192 0.04837665851261836 0 0.063579781740426278 0.04497637370820512 0 0.066030649239326084 0.04561882916448258 0 0.065276007904004743 0.043769143276535014 0 0.049158203312766192 0.04837665851261836 0 0.047042007843386593 0.048386360877702636 0 0.066030649239326084 0.04561882916448258 0 0.065276007904004743 0.043769143276535014 0 0.067519652040949646 0.043526842966122525 0 0.065276007904004743 0.043769143276535014 0 0.066818776585423539 0.042029755188640223 0 0.067519652040949646 0.043526842966122525 0 0.065276007904004743 0.043769143276535014 0 0.066818776585423539 0.042029755188640223 0 0.065177215749734327 0.042184324630444435 0 0.065276007904004743 0.043769143276535014 0 0.065177215749734327 0.042184324630444435 0 0.06332731349789851 0.04283504695837119 0 0.065177215749734327 0.042184324630444435 0 0.064173344591631543 0.04102469523245262 0 0.065857011793173895 0.039524218115922709 0 0.066818776585423539 0.042029755188640223 0 0.067426395884344723 0.040484169740937818 0 0.065857011793173895 0.039524218115922709 0 0.066818776585423539 0.042029755188640223 0 0.065177215749734327 0.042184324630444435 0 0.065857011793173895 0.039524218115922709 0 0.06332731349789851 0.04283504695837119 0 0.061298105455268356 0.04228239887783642 0 0.061138084635333677 0.044338065370947338 0 0.06332731349789851 0.04283504695837119 0 0.062723860065176149 0.040962492005563671 0 0.061298105455268356 0.04228239887783642 0 0.065177215749734327 0.042184324630444435 0 0.06332731349789851 0.04283504695837119 0 0.064173344591631543 0.04102469523245262 0 0.06332731349789851 0.04283504695837119 0 0.064173344591631543 0.04102469523245262 0 0.062723860065176149 0.040962492005563671 0 0.064173344591631543 0.04102469523245262 0 0.062723860065176149 0.040962492005563671 0 0.063786127042720048 0.039604914853271563 0 0.062723860065176149 0.040962492005563671 0 0.061298105455268356 0.04228239887783642 0 0.061221727622714973 0.040250849870229186 0 0.061298105455268356 0.04228239887783642 0 0.059564883035147564 0.041193178045272658 0 0.061221727622714973 0.040250849870229186 0 0.060175726576377847 0.042878466110443936 0 0.061298105455268356 0.04228239887783642 0 0.059564883035147564 0.041193178045272658 0 0.060175726576377847 0.042878466110443936 0 0.061298105455268356 0.04228239887783642 0 0.061138084635333677 0.044338065370947338 0 0.055279737495775111 0.04422841443721251 0 0.054746819015984501 0.045192751780801739 0 0.059505471094842097 0.04198962799179249 0 0.057812099400716396 0.043259956344804756 0 0.058497513571343862 0.04502087208643165 0 0.060175726576377847 0.042878466110443936 0 0.059564883035147564 0.041193178045272658 0 0.058703597755879966 0.043704092629109917 0 0.059505471094842097 0.04198962799179249 0 0.057916020944096432 0.042024718698086161 0 0.057812099400716396 0.043259956344804756 0 0.057916020944096432 0.042024718698086161 0 0.056473709334575371 0.042707032417293275 0 0.056634990177238984 0.040303834308455848 0 0.057916020944096432 0.042024718698086161 0 0.056473709334575371 0.042707032417293275 0 0.057812099400716396 0.043259956344804756 0 0.054999972661915628 0.04125052582334586 0 0.056473709334575371 0.042707032417293275 0 0.054999941301602052 0.044153939985431608 0 0.054999972661915628 0.04125052582334586 0 0.056473709334575371 0.042707032417293275 0 0.056634990177238984 0.040303834308455848 0 0.056473709334575371 0.042707032417293275 0 0.054999941301602052 0.044153939985431608 0 0.05672856700433522 0.044553097790642135 0 0.054998605134068235 0.044160243008047627 0 0.054903463174675218 0.044682020567309723 0 0.05672856700433522 0.044553097790642135 0 0.057812099400716396 0.043259956344804756 0 0.058497513571343862 0.04502087208643165 0 0.056473709334575371 0.042707032417293275 0 0.05672856700433522 0.044553097790642135 0 0.057812099400716396 0.043259956344804756 0 0.054903463174675218 0.044682020567309723 0 0.054746819015984501 0.045192751780801739 0 0.054757600447344033 0.045243745045215437 0 0.054746819015984501 0.045192751780801739 0 0.0560735514134666 0.046536316371423102 0 0.056901238787502022 0.04769726002530373 0 0.057816979229108514 0.045571654716860754 0 0.056319950388746196 0.04501066105090399 0 0.0560735514134666 0.046536316371423102 0 0.057816979229108514 0.045571654716860754 0 0.056319950388746196 0.04501066105090399 0 0.0560735514134666 0.046536316371423102 0 0.054999449790371364 0.046114129392835559 0 0.054999977425461352 0.044154616614135583 0 0.056319950388746196 0.04501066105090399 0 0.054999449790371364 0.046114129392835559 0 0.0560735514134666 0.046536316371423102 0 0.054999449790371364 0.046114129392835559 0 0.055000345196221628 0.048071977486805702 0 0.0560735514134666 0.046536316371423102 0 0.055000345196221628 0.048071977486805702 0 0.056901238787502022 0.04769726002530373 0 0.056813373390761562 0.04845430314442932 0 0.055000345196221628 0.048071977486805702 0 0.056901238787502022 0.04769726002530373 0 0.056901238787502022 0.04769726002530373 0 0.056725315221392215 0.048177508801712593 0 0.056728946690926305 0.048482740065053938 0 0.056813373390761562 0.04845430314442932 0 0.056901238787502022 0.04769726002530373 0 0.056728946690926305 0.048482740065053938 0 0.056872407485309459 0.048827600646772627 0 0.056728946690926305 0.048482740065053938 0 0.056749692769806438 0.048220611919876838 0 0.056725315221392215 0.048177508801712593 0 0.056728946690926305 0.048482740065053938 0 0.056749692769806438 0.048220611919876838 0 0.056725315221392215 0.048177508801712593 0 0.056749692769806438 0.048220611919876838 0 0.056786575903113604 0.04825203992679173 0 0.053814161754212324 0.046419915258554156 0 0.054746819015984501 0.045192751780801739 0 0.060175726576377847 0.042878466110443936 0 0.061138084635333677 0.044338065370947338 0 0.058703597755879966 0.043704092629109917 0 0.056901238787502022 0.04769726002530373 0 0.056725315221392215 0.048177508801712593 0 0.056786575903113604 0.04825203992679173 0 0.026465657913138717 0.057164989500904387 0 0.026316303027806406 0.057631808696599007 0 0.026067930068696808 0.057216099358893581 0 0.02671520534771055 0.05754962683637934 0 0.026465657913138717 0.057164989500904387 0 0.026316303027806406 0.057631808696599007 0 0.0304310880891638 0.061363239078536656 0 0.030702157913298139 0.059589131746463124 0 0.02876098241748053 0.059429495174278264 0 0.024179882826615155 0.052742075061705161 0 0.024808912755048967 0.053642487039561482 0 0.030702157913298139 0.059589131746463124 0 0.029577855095220221 0.057284212520516943 0 0.03185565697682613 0.058101841532932498 0 0.030702157913298139 0.059589131746463124 0 0.02876098241748053 0.059429495174278264 0 0.029577855095220221 0.057284212520516943 0 0.024808912755048967 0.053642487039561482 0 0.025066176792534752 0.054023359670590992 0 0.02876098241748053 0.059429495174278264 0 0.029577855095220221 0.057284212520516943 0 0.027049157169854472 0.057386289212729057 0 0.028192368275482806 0.056371294880291849 0 0.029577855095220221 0.057284212520516943 0 0.027049157169854472 0.057386289212729057 0 0.028192368275482806 0.056371294880291849 0 0.027506898440161798 0.054999835058516564 0 0.030344713188052971 0.055000014039283444 0 0.028192368275482806 0.056371294880291849 0 0.027506898440161798 0.054999835058516564 0 0.02702191783136278 0.055993485739991376 0 0.028192368275482806 0.056371294880291849 0 0.030344713188052971 0.055000014039283444 0 0.029577855095220221 0.057284212520516943 0 0.030344713188052971 0.055000014039283444 0 0.029577855095220221 0.057284212520516943 0 0.031708142049427249 0.056377495131702211 0 0.029577855095220221 0.057284212520516943 0 0.03185565697682613 0.058101841532932498 0 0.031708142049427249 0.056377495131702211 0 0.03185565697682613 0.058101841532932498 0 0.031708142049427249 0.056377495131702211 0 0.033483738545086711 0.056982874588056086 0 0.030344713188052971 0.055000014039283444 0 0.031708142049427249 0.056377495131702211 0 0.033182202455055342 0.054999972108988708 0 0.031708142049427249 0.056377495131702211 0 0.033182202455055342 0.054999972108988708 0 0.033483738545086711 0.056982874588056086 0 0.033182202455055342 0.054999972108988708 0 0.033483738545086711 0.056982874588056086 0 0.036019803674129797 0.05499996940827722 0 0.03185565697682613 0.058101841532932498 0 0.033483738545086711 0.056982874588056086 0 0.03333372713553414 0.059362774998614969 0 0.033483738545086711 0.056982874588056086 0 0.03333372713553414 0.059362774998614969 0 0.035414172844974882 0.057555642113649767 0 0.030702157913298139 0.059589131746463124 0 0.03185565697682613 0.058101841532932498 0 0.03333372713553414 0.059362774998614969 0 0.030702157913298139 0.059589131746463124 0 0.03333372713553414 0.059362774998614969 0 0.032479404175489598 0.061282142119421651 0 0.0304310880891638 0.061363239078536656 0 0.030702157913298139 0.059589131746463124 0 0.032479404175489598 0.061282142119421651 0 0.03333372713553414 0.059362774998614969 0 0.032479404175489598 0.061282142119421651 0 0.034075492232872186 0.061197339315016162 0 0.034075492232872186 0.061197339315016162 0 0.035292382143517938 0.060033832820536023 0 0.035061269493435 0.062262747601199347 0 0.03333372713553414 0.059362774998614969 0 0.034075492232872186 0.061197339315016162 0 0.035292382143517938 0.060033832820536023 0 0.041894615610729102 0.054345658443629707 0 0.042155785160564979 0.053522486869794925 0 0.035588453560133584 0.060190283769190743 0 0.037156452902393618 0.06127875199671836 0 0.037114035244586854 0.059198497551629599 0 0.037156452902393618 0.06127875199671836 0 0.037114035244586854 0.059198497551629599 0 0.038327214453442372 0.06029883014905181 0 0.035588453560133584 0.060190283769190743 0 0.037156452902393618 0.06127875199671836 0 0.035724358557051986 0.062766317238892505 0 0.03333372713553414 0.059362774998614969 0 0.035292382143517938 0.060033832820536023 0 0.035414172844974882 0.057555642113649767 0 0.035588453560133584 0.060190283769190743 0 0.037114035244586854 0.059198497551629599 0 0.035414172844974882 0.057555642113649767 0 0.041894615610729102 0.054345658443629707 0 0.041806334094715202 0.054546882191189965 0 0.033483738545086711 0.056982874588056086 0 0.035414172844974882 0.057555642113649767 0 0.036019803674129797 0.05499996940827722 0 0.035414172844974882 0.057555642113649767 0 0.036019803674129797 0.05499996940827722 0 0.037525406975656456 0.057055262211842261 0 0.036019803674129797 0.05499996940827722 0 0.037525406975656456 0.057055262211842261 0 0.038857489040577273 0.05499999081992811 0 0.037114035244586854 0.059198497551629599 0 0.037525406975656456 0.057055262211842261 0 0.038646819619428521 0.0587494983213806 0 0.037114035244586854 0.059198497551629599 0 0.035414172844974882 0.057555642113649767 0 0.037525406975656456 0.057055262211842261 0 0.037525406975656456 0.057055262211842261 0 0.039162523076748078 0.057145647222956147 0 0.038646819619428521 0.0587494983213806 0 0.039162523076748078 0.057145647222956147 0 0.040284476399944154 0.058519365470189953 0 0.038646819619428521 0.0587494983213806 0 0.039162523076748078 0.057145647222956147 0 0.038857489040577273 0.05499999081992811 0 0.040489818080638701 0.056399541479959195 0 0.037525406975656456 0.057055262211842261 0 0.039162523076748078 0.057145647222956147 0 0.038857489040577273 0.05499999081992811 0 0.041695078200206785 0.054999977397816778 0 0.038857489040577273 0.05499999081992811 0 0.040489818080638701 0.056399541479959195 0 0.041705760122701947 0.058042965311825824 0 0.040489818080638701 0.056399541479959195 0 0.040284476399944154 0.058519365470189953 0 0.039162523076748078 0.057145647222956147 0 0.040489818080638701 0.056399541479959195 0 0.040284476399944154 0.058519365470189953 0 0.041517312637737364 0.060280399979115884 0 0.040284476399944154 0.058519365470189953 0 0.039816792321979169 0.060189228664430723 0 0.041705760122701947 0.058042965311825824 0 0.041517312637737364 0.060280399979115884 0 0.040284476399944154 0.058519365470189953 0 0.040284476399944154 0.058519365470189953 0 0.038646819619428521 0.0587494983213806 0 0.039816792321979169 0.060189228664430723 0 0.037114035244586854 0.059198497551629599 0 0.038646819619428521 0.0587494983213806 0 0.038327214453442372 0.06029883014905181 0 0.038646819619428521 0.0587494983213806 0 0.038327214453442372 0.06029883014905181 0 0.039816792321979169 0.060189228664430723 0 0.039074472996847173 0.060856548022458157 0 0.038327214453442372 0.06029883014905181 0 0.039816792321979169 0.060189228664430723 0 0.039074472996847173 0.060856548022458157 0 0.038327214453442372 0.06029883014905181 0 0.038311116810632297 0.061255187703798467 0 0.037156452902393618 0.06127875199671836 0 0.038311116810632297 0.061255187703798467 0 0.037981490210646535 0.062145360361333828 0 0.038311116810632297 0.061255187703798467 0 0.039184701966384634 0.061654551079119144 0 0.037981490210646535 0.062145360361333828 0 0.037156452902393618 0.06127875199671836 0 0.038327214453442372 0.06029883014905181 0 0.038311116810632297 0.061255187703798467 0 0.039074472996847173 0.060856548022458157 0 0.038311116810632297 0.061255187703798467 0 0.039184701966384634 0.061654551079119144 0 0.039074472996847173 0.060856548022458157 0 0.039184701966384634 0.061654551079119144 0 0.039975350974420461 0.061861225749965859 0 0.045667849273667148 0.050221119152232693 0 0.045689074126646148 0.050208429324007507 0 0.039074472996847173 0.060856548022458157 0 0.039816792321979169 0.060189228664430723 0 0.039975350974420461 0.061861225749965859 0 0.044985693411180291 0.051855017918379452 0 0.045689074126646148 0.050208429324007507 0 0.041517312637737364 0.060280399979115884 0 0.039816792321979169 0.060189228664430723 0 0.039975350974420461 0.061861225749965859 0 0.04318016183824433 0.051852065979439053 0 0.044740796048335314 0.052258283826170093 0 0.044198767484836393 0.050412139348700313 0 0.039184701966384634 0.061654551079119144 0 0.039955065072772016 0.061851987866836884 0 0.038112869274729996 0.063729063790980062 0 0.045689074126646148 0.050208429324007507 0 0.043965555468797553 0.051061585996439118 0 0.039184701966384634 0.061654551079119144 0 0.037981490210646535 0.062145360361333828 0 0.038112869274729996 0.063729063790980062 0 0.045833647469551687 0.051121816954844385 0 0.044198767484836393 0.050412139348700313 0 0.04528566849242982 0.050004862161991591 0 0.044740796048335314 0.052258283826170093 0 0.045833647469551687 0.051121816954844385 0 0.044198767484836393 0.050412139348700313 0 0.047042007843386593 0.048386360877702636 0 0.044165769088875199 0.049048125548207325 0 0.044198767484836393 0.050412139348700313 0 0.045217115457289583 0.048973922756070168 0 0.04528566849242982 0.050004862161991591 0 0.066818776585423539 0.042029755188640223 0 0.067519652040949646 0.043526842966122525 0 0.069000312643808487 0.041431315952713224 0 0.066818776585423539 0.042029755188640223 0 0.067426395884344723 0.040484169740937818 0 0.069000312643808487 0.041431315952713224 0 0.045807945977899125 0.049386200337730557 0 0.044165769088875199 0.049048125548207325 0 0.044165769088875199 0.049048125548207325 0 0.040509229709800761 0.046727917377309199 0 0.035580640563926763 0.063921446646796526 0 0.035159190222719884 0.063678002801009367 0 0.034821510462301468 0.064102236853003425 0 0.035580640563926763 0.063921446646796526 0 0.034821510462301468 0.064102236853003425 0 0.035151723246716081 0.064517128022620676 0 0.044165769088875199 0.049048125548207325 0 0.043421883457378074 0.050231524590496346 0 0.045833647469551687 0.051121816954844385 0 0.04528566849242982 0.050004862161991591 0 0.046071866686176507 0.049480581602941068 0 0.045217115457289583 0.048973922756070168 0 0.04528566849242982 0.050004862161991591 0 0.046071866686176507 0.049480581602941068 0 0.045833647469551687 0.051121816954844385 0 0.046925162537987779 0.049986945225716881 0 0.046071866686176507 0.049480581602941068 0 0.034738596797666742 0.063428717354801281 0 0.034736939452831093 0.063772038498094319 0 0.035159190222719884 0.063678002801009367 0 0.042686048738324316 0.051323527190775049 0 0.043421883457378074 0.050231524590496346 0 0.034736939452831093 0.063772038498094319 0 0.035159190222719884 0.063678002801009367 0 0.034821510462301468 0.064102236853003425 0 0.034821510462301468 0.064102236853003425 0 0.034373331515439927 0.063823585149480416 0 0.034485191065681389 0.064376372988329697 0 0.034373331515439927 0.063823585149480416 0 0.0338646556659499 0.064011169453064634 0 0.034485191065681389 0.064376372988329697 0 0.034736939452831093 0.063772038498094319 0 0.034821510462301468 0.064102236853003425 0 0.034373331515439927 0.063823585149480416 0 0.034373331515439927 0.063823585149480416 0 0.034404745115956127 0.063483234330925176 0 0.034098130972905309 0.063648971094806134 0 0.042686048738324316 0.051323527190775049 0 0.042426231055955985 0.051619621187613922 0 0.034727834770702036 0.063482330219710448 0 0.034373331515439927 0.063823585149480416 0 0.034597702221500569 0.063530884948900579 0 0.034373331515439927 0.063823585149480416 0 0.034597702221500569 0.063530884948900579 0 0.034404745115956127 0.063483234330925176 0 0.034738596797666742 0.063428717354801281 0 0.034736939452831093 0.063772038498094319 0 0.034373331515439927 0.063823585149480416 0 0.034727834770702036 0.063482330219710448 0 0.034597702221500569 0.063530884948900579 0 0.034593482252411302 0.063398898984893259 0 0.042584683896956577 0.051719264881950035 0 0.042587814640144939 0.051697665939583221 0 0.034597702221500569 0.063530884948900579 0 0.034590039678275362 0.063419278013396141 0 0.034404745115956127 0.063483234330925176 0 0.042686048738324316 0.051323527190775049 0 0.042587814640144939 0.051697665939583221 0 0.034404745115956127 0.063483234330925176 0 0.034414566860009467 0.063303011433624573 0 0.034068980869756106 0.063360412289897042 0 0.034590039678275362 0.063419278013396141 0 0.034404745115956127 0.063483234330925176 0 0.034414566860009467 0.063303011433624573 0 0.042587814640144939 0.051697665939583221 0 0.042155785160564979 0.053522486869794925 0 0.034414566860009467 0.063303011433624573 0 0.035061269493435 0.062262747601199347 0 0.03412432388310218 0.063014408170648836 0 0.034884549287020096 0.063580364747275867 0 0.034414566860009467 0.063303011433624573 0 0.035061269493435 0.062262747601199347 0 0.035833022459775703 0.06531173796055853 0 0.036607364712242872 0.064032484994504701 0 0.035724358557051986 0.062766317238892505 0 0.042587814640144939 0.051697665939583221 0 0.042562953350034856 0.051721071097857813 0 0.036300801835350303 0.06558858521506894 0 0.035833022459775703 0.06531173796055853 0 0.036607364712242872 0.064032484994504701 0 0.038112869274729996 0.063729063790980062 0 0.036300801835350303 0.06558858521506894 0 0.036607364712242872 0.064032484994504701 0 0.043965555468797553 0.051061585996439118 0 0.042686048738324316 0.051323527190775049 0 0.038112869274729996 0.063729063790980062 0 0.036607364712242872 0.064032484994504701 0 0.037141601947010598 0.062800217250652546 0 0.036607364712242872 0.064032484994504701 0 0.037141601947010598 0.062800217250652546 0 0.035724358557051986 0.062766317238892505 0 0.037981490210646535 0.062145360361333828 0 0.038112869274729996 0.063729063790980062 0 0.037141601947010598 0.062800217250652546 0 0.037156452902393618 0.06127875199671836 0 0.037981490210646535 0.062145360361333828 0 0.037141601947010598 0.062800217250652546 0 0.037156452902393618 0.06127875199671836 0 0.037141601947010598 0.062800217250652546 0 0.035724358557051986 0.062766317238892505 0 0.034075492232872186 0.061197339315016162 0 0.035061269493435 0.062262747601199347 0 0.034046899842507618 0.062628479072772095 0 0.035061269493435 0.062262747601199347 0 0.034046899842507618 0.062628479072772095 0 0.03412432388310218 0.063014408170648836 0 0.032479404175489598 0.061282142119421651 0 0.034046899842507618 0.062628479072772095 0 0.031991395825353798 0.063211891506678511 0 0.032479404175489598 0.061282142119421651 0 0.034075492232872186 0.061197339315016162 0 0.034046899842507618 0.062628479072772095 0 0.0304310880891638 0.061363239078536656 0 0.032479404175489598 0.061282142119421651 0 0.031991395825353798 0.063211891506678511 0 0.024179882826615155 0.052742075061705161 0 0.022979050131966636 0.051058627259222146 0 0.033474220550491783 0.062949038916867595 0 0.033403135672410593 0.062997021870770276 0 0.033461284483066449 0.063112499088779347 0 0.033420708930658349 0.062870465174375278 0 0.033474220550491783 0.062949038916867595 0 0.033403135672410593 0.062997021870770276 0 0.022979050131966636 0.051058627259222146 0 0.022988627643745554 0.051070790811607841 0 0.033420708930658349 0.062870465174375278 0 0.033403135672410593 0.062997021870770276 0 0.033254873229422943 0.063059272506084493 0 0.033254873229422943 0.063059272506084493 0 0.033338066609693996 0.063281952665371302 0 0.033067728703768791 0.063341116807744111 0 0.033403135672410593 0.062997021870770276 0 0.033254873229422943 0.063059272506084493 0 0.033461284483066449 0.063112499088779347 0 0.033254873229422943 0.063059272506084493 0 0.033338066609693996 0.063281952665371302 0 0.033461284483066449 0.063112499088779347 0 0.033474220550491783 0.062949038916867595 0 0.033461284483066449 0.063112499088779347 0 0.033704103862743882 0.063072179804852774 0 0.033338066609693996 0.063281952665371302 0 0.033461284483066449 0.063112499088779347 0 0.033553503235956704 0.063322260393758434 0 0.033461284483066449 0.063112499088779347 0 0.033704103862743882 0.063072179804852774 0 0.033553503235956704 0.063322260393758434 0 0.023330459669277354 0.051131373407570624 0 0.022979050131966636 0.051058627259222146 0 0.034046899842507618 0.062628479072772095 0 0.033474220550491783 0.062949038916867595 0 0.033704103862743882 0.063072179804852774 0 0.034046899842507618 0.062628479072772095 0 0.033412378757172984 0.062869565653444953 0 0.033474220550491783 0.062949038916867595 0 0.033783597645211876 0.063273362886105772 0 0.033704103862743882 0.063072179804852774 0 0.033553503235956704 0.063322260393758434 0 0.033783597645211876 0.063273362886105772 0 0.033704103862743882 0.063072179804852774 0 0.033933013556584575 0.063091063162899655 0 0.034046899842507618 0.062628479072772095 0 0.033704103862743882 0.063072179804852774 0 0.033933013556584575 0.063091063162899655 0 0.034046899842507618 0.062628479072772095 0 0.03412432388310218 0.063014408170648836 0 0.033933013556584575 0.063091063162899655 0 0.034414566860009467 0.063303011433624573 0 0.03412432388310218 0.063014408170648836 0 0.034068980869756106 0.063360412289897042 0 0.03412432388310218 0.063014408170648836 0 0.033933013556584575 0.063091063162899655 0 0.034068980869756106 0.063360412289897042 0 0.033783597645211876 0.063273362886105772 0 0.033933013556584575 0.063091063162899655 0 0.034068980869756106 0.063360412289897042 0 0.034404745115956127 0.063483234330925176 0 0.034068980869756106 0.063360412289897042 0 0.034098130972905309 0.063648971094806134 0 0.034068980869756106 0.063360412289897042 0 0.033770850684282615 0.063564760702289183 0 0.034098130972905309 0.063648971094806134 0 0.033783597645211876 0.063273362886105772 0 0.034068980869756106 0.063360412289897042 0 0.033770850684282615 0.063564760702289183 0 0.033783597645211876 0.063273362886105772 0 0.033770850684282615 0.063564760702289183 0 0.033553503235956704 0.063322260393758434 0 0.033770850684282615 0.063564760702289183 0 0.034098130972905309 0.063648971094806134 0 0.0338646556659499 0.064011169453064634 0 0.034373331515439927 0.063823585149480416 0 0.034098130972905309 0.063648971094806134 0 0.0338646556659499 0.064011169453064634 0 0.0338646556659499 0.064011169453064634 0 0.033376620989132286 0.063645132452246594 0 0.033168907372184531 0.064298698723359582 0 0.033770850684282615 0.063564760702289183 0 0.0338646556659499 0.064011169453064634 0 0.033376620989132286 0.063645132452246594 0 0.033770850684282615 0.063564760702289183 0 0.033376620989132286 0.063645132452246594 0 0.033553503235956704 0.063322260393758434 0 0.033338066609693996 0.063281952665371302 0 0.033376620989132286 0.063645132452246594 0 0.033553503235956704 0.063322260393758434 0 0.033338066609693996 0.063281952665371302 0 0.033376620989132286 0.063645132452246594 0 0.033067728703768791 0.063341116807744111 0 0.033067728703768791 0.063341116807744111 0 0.032862812803032042 0.063681766002203211 0 0.03256772529388767 0.06305106386977144 0 0.020434112473512581 0.046926616811540138 0 0.01923499764128183 0.049712164126629141 0 0.033376620989132286 0.063645132452246594 0 0.033067728703768791 0.063341116807744111 0 0.032862812803032042 0.063681766002203211 0 0.020434112473512581 0.046926616811540138 0 0.021964363203747846 0.043693699547955607 0 0.033376620989132286 0.063645132452246594 0 0.032862812803032042 0.063681766002203211 0 0.033168907372184531 0.064298698723359582 0 -0.028447766748970506 0.053053618142289989 0 -0.029331560675901137 0.049676662496118247 0 -0.03007546321871651 0.04925295511185903 0 -0.028447766748970506 0.053053618142289989 0 -0.027458280081919376 0.049589841119531776 0 -0.02622227500117259 0.051091823689884894 0 -0.028447766748970506 0.053053618142289989 0 -0.027458280081919376 0.049589841119531776 0 -0.029331560675901137 0.049676662496118247 0 -0.027458280081919376 0.049589841119531776 0 -0.029331560675901137 0.049676662496118247 0 -0.028690655408269393 0.048963482750316825 0 0.021883223919700115 0.043666129725341694 0 0.021964363203747846 0.043693699547955607 0 -0.02622227500117259 0.051091823689884894 0 -0.025129297813024296 0.049207692913586724 0 -0.024098416680700476 0.05091045762381715 0 -0.027458280081919376 0.049589841119531776 0 -0.02622227500117259 0.051091823689884894 0 -0.025129297813024296 0.049207692913586724 0 -0.02622227500117259 0.051091823689884894 0 -0.02572390154436037 0.053241186448165112 0 -0.024098416680700476 0.05091045762381715 0 -0.02572390154436037 0.053241186448165112 0 -0.023151081969882976 0.053030045820751742 0 -0.024098416680700476 0.05091045762381715 0 -0.028447766748970506 0.053053618142289989 0 -0.02572390154436037 0.053241186448165112 0 -0.026753035670765531 0.056839598299183731 0 -0.02572390154436037 0.053241186448165112 0 -0.026753035670765531 0.056839598299183731 0 -0.022698188028717783 0.055983410155824774 0 -0.028447766748970506 0.053053618142289989 0 -0.02622227500117259 0.051091823689884894 0 -0.02572390154436037 0.053241186448165112 0 0.025574322133654181 0.060254315536296968 0 0.024460724307488819 0.058899215413389577 0 0.023746163978494588 0.06071182658918238 0 0.01923499764128183 0.049712164126629141 0 0.015110114728236881 0.051400901547749026 0 0.033420708930658349 0.062870465174375278 0 0.033254873229422943 0.063059272506084493 0 0.03256772529388767 0.06305106386977144 0 0.033254873229422943 0.063059272506084493 0 0.033067728703768791 0.063341116807744111 0 0.03256772529388767 0.06305106386977144 0 0.02696659206504242 0.057894800882875144 0 0.026500277346287831 0.058001559001453984 0 0.026650205537273777 0.057785647697145483 0 0.022979050131966636 0.051058627259222146 0 0.01923499764128183 0.049712164126629141 0 0.02671520534771055 0.05754962683637934 0 0.026650205537273777 0.057785647697145483 0 0.026316303027806406 0.057631808696599007 0 0.02671520534771055 0.05754962683637934 0 0.02696659206504242 0.057894800882875144 0 0.026650205537273777 0.057785647697145483 0 0.01923499764128183 0.049712164126629141 0 0.021028665731148109 0.051883235163010064 0 0.026500277346287831 0.058001559001453984 0 0.026650205537273777 0.057785647697145483 0 0.026316303027806406 0.057631808696599007 0 0.025574322133654181 0.060254315536296968 0 0.024712157319105418 0.058495545370694749 0 0.024460724307488819 0.058899215413389577 0 0.0067723280747346024 0.03144877739183314 0 0.0068709136276272967 0.031394624494323037 0 0.0068013993694608418 0.031571962380071754 0 0.0067723280747346024 0.03144877739183314 0 0.0068709136276272967 0.031394624494323037 0 0.0067164768848909477 0.031369758106972505 0 0.0059215028203116636 0.031648481836515224 0 0.006558631058836307 0.030384030300305218 0 0.0067723280747346024 0.03144877739183314 0 0.0067164768848909477 0.031369758106972505 0 0.0066813646431688727 0.031459435572293096 0 0.0067723280747346024 0.03144877739183314 0 0.0068013993694608418 0.031571962380071754 0 0.0066813646431688727 0.031459435572293096 0 0.006558631058836307 0.030384030300305218 0 0.0049205310300838023 0.030190096819719053 0 -0.023487380430598354 0.038289473810043821 0 -0.024965960966005618 0.03795630330073374 0 -0.023403172800077563 0.03949362482971415 0 0.010472629028026634 0.032239876536126366 0 0.012864012950323783 0.037394555788354267 0 0.015537881485329658 0.030597257708812844 0 0.010472629028026634 0.032239876536126366 0 0.012864012950323783 0.037394555788354267 0 0.0037215047380195518 0.036000717019863029 0 -0.027722137754271813 0.040698185601182664 0 -0.026482356032096806 0.042417472377306004 0 -0.028878617175140064 0.043618678989904139 0 -0.027515112073691166 0.040527709424220328 0 -0.028711184457947615 0.04353424560471577 0 -0.030012982704174507 0.04128356766876224 0 0.0059215028203116636 0.031648481836515224 0 0.0046837347282865658 0.033209928876676703 0 -0.028711184457947615 0.04353424560471577 0 -0.030519658841288582 0.043534155741800314 0 -0.030012982704174507 0.04128356766876224 0 0.0059215028203116636 0.031648481836515224 0 0.0044589778514693579 0.030870264348758784 0 -0.027722137754271813 0.040698185601182664 0 -0.026482356032096806 0.042417472377306004 0 -0.02478131337044406 0.041157365691028 0 -0.026482356032096806 0.042417472377306004 0 -0.026033561709267152 0.044433718955598223 0 -0.023911063215519439 0.043123058366856176 0 -0.026482356032096806 0.042417472377306004 0 -0.02478131337044406 0.041157365691028 0 -0.023911063215519439 0.043123058366856176 0 -0.026033561709267152 0.044433718955598223 0 -0.023860997868076762 0.045070946553670929 0 -0.023911063215519439 0.043123058366856176 0 -0.026033561709267152 0.044433718955598223 0 -0.025333850419111282 0.046037129591053327 0 -0.027473798117465902 0.04599639172333829 0 -0.026033561709267152 0.044433718955598223 0 -0.025333850419111282 0.046037129591053327 0 -0.023860997868076762 0.045070946553670929 0 -0.025333850419111282 0.046037129591053327 0 -0.023952938246265782 0.047187230185477443 0 -0.023860997868076762 0.045070946553670929 0 -0.025333850419111282 0.046037129591053327 0 -0.026300998021597681 0.047592345426895666 0 -0.023952938246265782 0.047187230185477443 0 -0.025333850419111282 0.046037129591053327 0 -0.026300998021597681 0.047592345426895666 0 -0.027473798117465902 0.04599639172333829 0 -0.027458280081919376 0.049589841119531776 0 -0.026300998021597681 0.047592345426895666 0 -0.025129297813024296 0.049207692913586724 0 -0.026300998021597681 0.047592345426895666 0 -0.025129297813024296 0.049207692913586724 0 -0.023952938246265782 0.047187230185477443 0 -0.028690655408269393 0.048963482750316825 0 -0.028321469773485881 0.04776713801600084 0 -0.030042798667158532 0.049251763352965432 0 -0.029331560675901137 0.049676662496118247 0 -0.028690655408269393 0.048963482750316825 0 -0.030042798667158532 0.049251763352965432 0 -0.027458280081919376 0.049589841119531776 0 -0.028690655408269393 0.048963482750316825 0 -0.028321469773485881 0.04776713801600084 0 -0.027458280081919376 0.049589841119531776 0 -0.026300998021597681 0.047592345426895666 0 -0.028321469773485881 0.04776713801600084 0 -0.026300998021597681 0.047592345426895666 0 -0.028321469773485881 0.04776713801600084 0 -0.027473798117465902 0.04599639172333829 0 -0.028321469773485881 0.04776713801600084 0 -0.027473798117465902 0.04599639172333829 0 -0.030000267151988232 0.046547266632316564 0 -0.028321469773485881 0.04776713801600084 0 -0.030000267151988232 0.046547266632316564 0 -0.030042798667158532 0.049251763352965432 0 0.0046837347282865658 0.033209928876676703 0 0.0042622737192538999 0.033755201728068909 0 -0.027473798117465902 0.04599639172333829 0 -0.028878617175140064 0.043618678989904139 0 -0.030000267151988232 0.046547266632316564 0 -0.028711184457947615 0.04353424560471577 0 -0.030519658841288582 0.043534155741800314 0 -0.030000267151988232 0.046547266632316564 0 -0.026033561709267152 0.044433718955598223 0 -0.027473798117465902 0.04599639172333829 0 -0.028878617175140064 0.043618678989904139 0 -0.026482356032096806 0.042417472377306004 0 -0.026033561709267152 0.044433718955598223 0 -0.028878617175140064 0.043618678989904139 0 -0.030519658841288582 0.043534155741800314 0 -0.032089130886553914 0.044378185256284834 0 -0.030000267151988232 0.046547266632316564 0 0.021964363203747846 0.043693699547955607 0 0.029438274153203142 0.044311004652926811 0 0.018761128552998066 0.038698972377983275 0 0.021964363203747846 0.043693699547955607 0 -0.032089130886553914 0.044378185256284834 0 -0.030000267151988232 0.046547266632316564 0 -0.030042798667158532 0.049251763352965432 0 0.0338646556659499 0.064011169453064634 0 0.033168907372184531 0.064298698723359582 0 0.03396275398129376 0.064701231796329181 0 0.027662843050591288 0.036784066963931279 0 0.027270842059770477 0.035972064955997467 0 0.028078260582857142 0.036387852111019831 0 0.0338646556659499 0.064011169453064634 0 0.03396275398129376 0.064701231796329181 0 0.034485191065681389 0.064376372988329697 0 0.028078260582857142 0.036387852111019831 0 0.028044312685082794 0.036756772028363638 0 0.028392573672547803 0.036875925109704721 0 0.027662843050591288 0.036784066963931279 0 0.028078260582857142 0.036387852111019831 0 0.028044312685082794 0.036756772028363638 0 0.027662843050591288 0.036784066963931279 0 0.028044312685082794 0.036756772028363638 0 0.028149031792130106 0.037086408982657505 0 0.028044312685082794 0.036756772028363638 0 0.028149031792130106 0.037086408982657505 0 0.028392573672547803 0.036875925109704721 0 0.027662843050591288 0.036784066963931279 0 0.028149031792130106 0.037086408982657505 0 0.028049418545423151 0.0376178282044555 0 0.028149031792130106 0.037086408982657505 0 0.028276692490199366 0.037396859492207335 0 0.028049418545423151 0.0376178282044555 0 0.018761128552998066 0.038698972377983275 0 0.016722264903586987 0.034382916594471832 0 0.028149031792130106 0.037086408982657505 0 0.028276692490199366 0.037396859492207335 0 0.028461872184937738 0.03717342284787542 0 -0.032089130886553914 0.044378185256284834 0 -0.031794767317810092 0.041924958562524574 0 -0.034222927871785921 0.039507391152495401 0 -0.027515112073691166 0.040527709424220328 0 -0.030012982704174507 0.04128356766876224 0 -0.032288857279018195 0.039812947882497632 0 -0.030519658841288582 0.043534155741800314 0 -0.032089130886553914 0.044378185256284834 0 -0.031794767317810092 0.041924958562524574 0 -0.030519658841288582 0.043534155741800314 0 -0.031794767317810092 0.041924958562524574 0 -0.030012982704174507 0.04128356766876224 0 -0.030012982704174507 0.04128356766876224 0 -0.03153659511784853 0.040887967969376396 0 -0.032288857279018195 0.039812947882497632 0 -0.031794767317810092 0.041924958562524574 0 -0.030012982704174507 0.04128356766876224 0 -0.03153659511784853 0.040887967969376396 0 -0.031794767317810092 0.041924958562524574 0 -0.032384838376903799 0.040261316821510351 0 -0.034222927871785921 0.039507391152495401 0 -0.031794767317810092 0.041924958562524574 0 -0.03153659511784853 0.040887967969376396 0 -0.032384838376903799 0.040261316821510351 0 0.012632033282512049 0.033030748626142192 0 0.012165847841170278 0.031723892390796538 0 0.019796564554674517 0.037782730704952271 0 0.014007371426597442 0.036898843670682038 0 0.022635856628496508 0.025008267797918295 0 0.010472629028026634 0.032239876536126366 0 0.0037215047380195518 0.036000717019863029 0 0.0055701733564168096 0.027680867208556722 0 0.0059215028203116636 0.031648481836515224 0 0.012632033282512049 0.033030748626142192 0 0.012632033282512049 0.033030748626142192 0 0.01262394911205145 0.033038812730624749 0 -0.03153659511784853 0.040887967969376396 0 -0.032288857279018195 0.039812947882497632 0 -0.032384838376903799 0.040261316821510351 0 0.028154748498948081 0.037634341013694415 0 0.028046959895121803 0.037617926704816548 0 0.028417832097677481 0.038422899884576166 0 0.028276692490199366 0.037396859492207335 0 0.028154748498948081 0.037634341013694415 0 0.02843312042412293 0.037595026896431329 0 0.016733729367669072 0.034385038932519478 0 0.016722264903586987 0.034382916594471832 0 0.028276692490199366 0.037396859492207335 0 0.028154748498948081 0.037634341013694415 0 0.028049418545423151 0.0376178282044555 0 -0.032282833259148061 0.039814894153358329 0 -0.032384838376903799 0.040261316821510351 0 -0.034222927871785921 0.039507391152495401 0 0.012632033282512049 0.033030748626142192 0 0.016722264903586987 0.034382916594471832 0 0.028154748498948081 0.037634341013694415 0 0.028534769389611876 0.037855760562568078 0 0.028417832097677481 0.038422899884576166 0 0.028654626155553801 0.037648290861935746 0 0.028934802996011113 0.037353055041171167 0 0.028547063301253971 0.037442398395999991 0 0.028654626155553801 0.037648290861935746 0 0.028874818755595673 0.03777525029940542 0 0.028934802996011113 0.037353055041171167 0 0.028654626155553801 0.037648290861935746 0 0.02843312042412293 0.037595026896431329 0 0.028547063301253971 0.037442398395999991 0 0.028154748498948081 0.037634341013694415 0 0.02843312042412293 0.037595026896431329 0 0.028534769389611876 0.037855760562568078 0 0.028276692490199366 0.037396859492207335 0 0.02843312042412293 0.037595026896431329 0 0.028547063301253971 0.037442398395999991 0 0.028654626155553801 0.037648290861935746 0 0.02843312042412293 0.037595026896431329 0 0.028534769389611876 0.037855760562568078 0 0.028654626155553801 0.037648290861935746 0 0.028534769389611876 0.037855760562568078 0 0.028874818755595673 0.03777525029940542 0 0.028534769389611876 0.037855760562568078 0 0.028874818755595673 0.03777525029940542 0 0.028803766882925082 0.038102279150198363 0 0.028874818755595673 0.03777525029940542 0 0.02915445585500297 0.038010482441467514 0 0.028803766882925082 0.038102279150198363 0 0.028874818755595673 0.03777525029940542 0 0.029272792332213648 0.037674492992241793 0 0.02915445585500297 0.038010482441467514 0 0.029272792332213648 0.037674492992241793 0 0.029558812555221671 0.038004747462871837 0 0.02915445585500297 0.038010482441467514 0 0.028874818755595673 0.03777525029940542 0 0.029272792332213648 0.037674492992241793 0 0.028934802996011113 0.037353055041171167 0 0.028934802996011113 0.037353055041171167 0 0.028915178922246015 0.036779496496798451 0 0.029801338793347586 0.037236638056746207 0 0.029272792332213648 0.037674492992241793 0 0.028934802996011113 0.037353055041171167 0 0.029801338793347586 0.037236638056746207 0 0.036400965315477624 0.044442470971888311 0 0.038512460313704457 0.040552022278152702 0 0.028934802996011113 0.037353055041171167 0 0.028723907187815454 0.037046103192235801 0 0.028915178922246015 0.036779496496798451 0 0.028723907187815454 0.037046103192235801 0 0.028666153965028314 0.037253463754744108 0 0.028461872184937738 0.03717342284787542 0 0.028934802996011113 0.037353055041171167 0 0.028723907187815454 0.037046103192235801 0 0.028666153965028314 0.037253463754744108 0 0.028934802996011113 0.037353055041171167 0 0.028666153965028314 0.037253463754744108 0 0.028547063301253971 0.037442398395999991 0 0.028666153965028314 0.037253463754744108 0 0.028547063301253971 0.037442398395999991 0 0.028461872184937738 0.03717342284787542 0 0.028276692490199366 0.037396859492207335 0 0.028547063301253971 0.037442398395999991 0 0.028461872184937738 0.03717342284787542 0 0.028149031792130106 0.037086408982657505 0 0.028461872184937738 0.03717342284787542 0 0.028392573672547803 0.036875925109704721 0 0.028723907187815454 0.037046103192235801 0 0.028461872184937738 0.03717342284787542 0 0.028392573672547803 0.036875925109704721 0 0.029438274153203142 0.044311004652926811 0 0.036400965315477624 0.044442470971888311 0 0.028078260582857142 0.036387852111019831 0 0.028392573672547803 0.036875925109704721 0 0.028893837695273043 0.036809684035704185 0 0.028723907187815454 0.037046103192235801 0 0.028392573672547803 0.036875925109704721 0 0.028893837695273043 0.036809684035704185 0 0.036391238632777795 0.044418434190654901 0 0.036400965315477624 0.044442470971888311 0 0.03396275398129376 0.064701231796329181 0 0.034485191065681389 0.064376372988329697 0 0.034728999428357332 0.065100278051126087 0 0.034821510462301468 0.064102236853003425 0 0.034485191065681389 0.064376372988329697 0 0.035151723246716081 0.064517128022620676 0 0.034485191065681389 0.064376372988329697 0 0.035151723246716081 0.064517128022620676 0 0.034728999428357332 0.065100278051126087 0 0.071241905469906316 0.037900886251150435 0 0.069698359900075973 0.038243925915006284 0 0.069062615154674989 0.036662739216985228 0 0.040509229709800761 0.046727917377309199 0 0.036400965315477624 0.044442470971888311 0 0.070065722516664986 0.039581610411443188 0 0.071241905469906316 0.037900886251150435 0 0.069698359900075973 0.038243925915006284 0 0.070065722516664986 0.039581610411443188 0 0.069698359900075973 0.038243925915006284 0 0.068417323928791851 0.03882895183126394 0 0.069698359900075973 0.038243925915006284 0 0.068417323928791851 0.03882895183126394 0 0.069062615154674989 0.036662739216985228 0 0.068870894662287505 0.041278340615739366 0 0.070065722516664986 0.039581610411443188 0 0.068417323928791851 0.03882895183126394 0 0.067367264955658354 0.0403864178911022 0 0.068870894662287505 0.041278340615739366 0 0.068417323928791851 0.03882895183126394 0 0.067367264955658354 0.0403864178911022 0 0.068417323928791851 0.03882895183126394 0 0.066600213282942286 0.038368277408805884 0 0.068417323928791851 0.03882895183126394 0 0.067628567721046459 0.037552519008986214 0 0.066600213282942286 0.038368277408805884 0 0.068417323928791851 0.03882895183126394 0 0.067628567721046459 0.037552519008986214 0 0.069062615154674989 0.036662739216985228 0 0.067628567721046459 0.037552519008986214 0 0.069062615154674989 0.036662739216985228 0 0.066769150576454189 0.036720824635022346 0 0.069062615154674989 0.036662739216985228 0 0.066769150576454189 0.036720824635022346 0 0.066862480218772793 0.035374216087528193 0 0.029272792332213648 0.037674492992241793 0 0.029801338793347586 0.037236638056746207 0 0.029558812555221671 0.038004747462871837 0 0.029801338793347586 0.037236638056746207 0 0.030103515996091831 0.037849453518261703 0 0.029558812555221671 0.038004747462871837 0 0.030103515996091831 0.037849453518261703 0 0.03034771014373612 0.038451094835060554 0 0.030710798014141956 0.037714914802531974 0 0.029801338793347586 0.037236638056746207 0 0.030103515996091831 0.037849453518261703 0 0.030710798014141956 0.037714914802531974 0 0.038512460313704457 0.040552022278152702 0 0.039333153602466218 0.036339162141941786 0 0.038160627894233308 0.033035368461455522 0 0.039333153602466218 0.036339162141941786 0 0.030297842687197738 0.038401780658583191 0 0.029558812555221671 0.038004747462871837 0 0.030212959825807295 0.0385716889948697 0 0.030103515996091831 0.037849453518261703 0 0.03034771014373612 0.038451094835060554 0 0.029558812555221671 0.038004747462871837 0 0.038160627894233308 0.033035368461455522 0 0.037398055968658521 0.032438177765547693 0 0.038160627894233308 0.033035368461455522 0 0.040626036639141459 0.032800282293827691 0 0.029558812555221671 0.038004747462871837 0 0.030212959825807295 0.0385716889948697 0 0.029322685550677699 0.038502528942697858 0 0.038160627894233308 0.033035368461455522 0 0.037855127995591015 0.033011348165758576 0 0.025167368955931184 0.038594734231010425 0 0.027038168619213019 0.034806692724309952 0 0.028919716373516844 0.036441738968682344 0 0.037398055968658521 0.032438177765547693 0 0.029031445488680686 0.032399273339056428 0 0.025167368955931184 0.038594734231010425 0 0.028919716373516844 0.036441738968682344 0 0.028908778638871729 0.038936444710144388 0 0.037398055968658521 0.032438177765547693 0 0.03414193559142447 0.030294909376271457 0 0.061439467257788857 0.038348169071243984 0 0.06203391866793212 0.035614648830144938 0 0.063652300641081946 0.033722463031751033 0 0.061439467257788857 0.038348169071243984 0 0.060327812153873304 0.036671357927609526 0 0.058921372620385777 0.038173492048091985 0 0.037398055968658521 0.032438177765547693 0 0.040626036639141459 0.032800282293827691 0 0.039547803622235873 0.031007058634245546 0 0.040615440649413866 0.028854251309240367 0 0.03476125411599023 0.028321179028321736 0 0.061439467257788857 0.038348169071243984 0 0.060327812153873304 0.036671357927609526 0 0.06203391866793212 0.035614648830144938 0 0.060327812153873304 0.036671357927609526 0 0.06203391866793212 0.035614648830144938 0 0.059136471866356011 0.034535062106192387 0 0.06203391866793212 0.035614648830144938 0 0.061486039851991525 0.032943753612814236 0 0.059136471866356011 0.034535062106192387 0 0.06203391866793212 0.035614648830144938 0 0.061486039851991525 0.032943753612814236 0 0.064119922831888249 0.031912897300880809 0 0.061486039851991525 0.032943753612814236 0 0.059967254551294001 0.031703391723231722 0 0.059136471866356011 0.034535062106192387 0 0.061486039851991525 0.032943753612814236 0 0.059967254551294001 0.031703391723231722 0 0.062229113096905077 0.030921947998396038 0 0.061486039851991525 0.032943753612814236 0 0.062229113096905077 0.030921947998396038 0 0.064119922831888249 0.031912897300880809 0 0.059967254551294001 0.031703391723231722 0 0.062229113096905077 0.030921947998396038 0 0.060547871381061442 0.029518039169658832 0 0.032237053500337488 0.026793320733780403 0 0.030543206229531269 0.027532505839463896 0 0.03414193559142447 0.030294909376271457 0 0.030334404805258824 0.028136138208529556 0 0.063803746311250617 0.032137834490689077 0 0.063652300641081946 0.033722463031751033 0 0.065761387235851884 0.029193003294702067 0 0.062229113096905077 0.030921947998396038 0 0.064119922831888249 0.031912897300880809 0 0.063959264794006973 0.029625486811097178 0 0.032749720297339947 0.026637473072236181 0 0.032237053500337488 0.026793320733780403 0 0.06203391866793212 0.035614648830144938 0 0.063803746311250617 0.032137834490689077 0 0.063652300641081946 0.033722463031751033 0 0.028919716373516844 0.036441738968682344 0 0.030163238798153906 0.033771714043266753 0 0.031405949286918367 0.03652574395626116 0 0.027038168619213019 0.034806692724309952 0 0.028919716373516844 0.036441738968682344 0 0.030163238798153906 0.033771714043266753 0 0.010170035387767265 0.024310523155112285 0 0.010163902829828209 0.023807117592952842 0 0.010505735112463631 0.023742899687123346 0 0.010170035387767265 0.024310523155112285 0 0.0099103506044772045 0.023751038954787241 0 0.010163902829828209 0.023807117592952842 0 0.026904771346406332 0.029321864583595921 0 0.030334404805258824 0.028136138208529556 0 0.027038168619213019 0.034806692724309952 0 0.030163238798153906 0.033771714043266753 0 0.028915470333167385 0.031016400467769337 0 0.010170035387767265 0.024310523155112285 0 0.010699315020365916 0.024218116467558837 0 0.010505735112463631 0.023742899687123346 0 0.026904771346406332 0.029321864583595921 0 0.023704108870026178 0.030696770949606506 0 0.010699315020365916 0.024218116467558837 0 0.010417395328286679 0.024861556462003342 0 0.01103414448226863 0.024559747051683338 0 0.010170035387767265 0.024310523155112285 0 0.010699315020365916 0.024218116467558837 0 0.010417395328286679 0.024861556462003342 0 0.010417395328286679 0.024861556462003342 0 0.010662570180038286 0.025421943533244323 0 0.010858411292746619 0.024961625405196353 0 0.031405949286918367 0.03652574395626116 0 0.028908778638871729 0.038936444710144388 0 0.032646446028183188 0.039276112510095162 0 0.023704108870026178 0.030696770949606506 0 0.020595467880578231 0.032141302288888639 0 0.028919716373516844 0.036441738968682344 0 0.031405949286918367 0.03652574395626116 0 0.028908778638871729 0.038936444710144388 0 0.029558812555221671 0.038004747462871837 0 0.029322685550677699 0.038502528942697858 0 0.02915445585500297 0.038010482441467514 0 0.029322685550677699 0.038502528942697858 0 0.02915445585500297 0.038010482441467514 0 0.028803766882925082 0.038102279150198363 0 0.029031445488680686 0.032399273339056428 0 0.020595467880578231 0.032141302288888639 0 0.029322685550677699 0.038502528942697858 0 0.028803766882925082 0.038102279150198363 0 0.028417832097677481 0.038422899884576166 0 0.028534769389611876 0.037855760562568078 0 0.028803766882925082 0.038102279150198363 0 0.028417832097677481 0.038422899884576166 0 0.014007371426597442 0.036898843670682038 0 0.0080108474293155377 0.023674620736326011 0 0.022635856628496508 0.025008267797918295 0 0.020595467880578231 0.032141302288888639 0 0.012165847841170278 0.031723892390796538 0 0.010662570180038286 0.025421943533244323 0 0.011425373219796737 0.025494412358666906 0 0.011065953234859847 0.025195105301628825 0 0.016722264903586987 0.034382916594471832 0 0.020595467880578231 0.032141302288888639 0 0.011425373219796737 0.025494412358666906 0 0.011339218668672603 0.025124847792562945 0 0.011065953234859847 0.025195105301628825 0 0.011425373219796737 0.025494412358666906 0 0.011339218668672603 0.025124847792562945 0 0.011518804245117342 0.02504511704523682 0 0.012165847841170278 0.031723892390796538 0 0.010799555964348364 0.031313092401224006 0 0.011339218668672603 0.025124847792562945 0 0.011518804245117342 0.02504511704523682 0 0.011193904817551132 0.024870726768249418 0 0.011339218668672603 0.025124847792562945 0 0.011193904817551132 0.024870726768249418 0 0.011065953234859847 0.025195105301628825 0 0.011193904817551132 0.024870726768249418 0 0.011065953234859847 0.025195105301628825 0 0.010858411292746619 0.024961625405196353 0 0.010662570180038286 0.025421943533244323 0 0.011065953234859847 0.025195105301628825 0 0.010858411292746619 0.024961625405196353 0 0.010417395328286679 0.024861556462003342 0 0.010858411292746619 0.024961625405196353 0 0.01103414448226863 0.024559747051683338 0 0.011193904817551132 0.024870726768249418 0 0.010858411292746619 0.024961625405196353 0 0.01103414448226863 0.024559747051683338 0 0.010699315020365916 0.024218116467558837 0 0.011171231005771325 0.024159272770994868 0 0.010896363506658849 0.023652420881900126 0 0.010699315020365916 0.024218116467558837 0 0.01103414448226863 0.024559747051683338 0 0.011171231005771325 0.024159272770994868 0 0.011171231005771325 0.024159272770994868 0 0.011385439788752586 0.023993194008428149 0 0.01162122564762128 0.024459477478250058 0 0.011385439788752586 0.023993194008428149 0 0.01162122564762128 0.024459477478250058 0 0.011674339650827373 0.023925957970640239 0 0.01103414448226863 0.024559747051683338 0 0.011171231005771325 0.024159272770994868 0 0.01162122564762128 0.024459477478250058 0 0.010799555964348364 0.031313092401224006 0 0.010939183736815683 0.030586288576218538 0 0.011193904817551132 0.024870726768249418 0 0.01103414448226863 0.024559747051683338 0 0.01162122564762128 0.024459477478250058 0 0.011518804245117342 0.02504511704523682 0 0.011193904817551132 0.024870726768249418 0 0.01162122564762128 0.024459477478250058 0 0.011547085504554007 0.024343485974119061 0 0.011668149891284774 0.024602320907589275 0 0.011892281106905017 0.024498409348617099 0 0.011438412667072087 0.024776887395174932 0 0.011547085504554007 0.024343485974119061 0 0.011668149891284774 0.024602320907589275 0 0.011547085504554007 0.024343485974119061 0 0.011830771052331903 0.02420633224152724 0 0.011892281106905017 0.024498409348617099 0 0.011668149891284774 0.024602320907589275 0 0.011892281106905017 0.024498409348617099 0 0.01179396567621711 0.02479332462627001 0 0.010939183736815683 0.030586288576218538 0 0.010985974180481565 0.030342854084355147 0 0.011547085504554007 0.024343485974119061 0 0.011830771052331903 0.02420633224152724 0 0.011674339650827373 0.023925957970640239 0 0.011830771052331903 0.02420633224152724 0 0.011948690957264814 0.024026663608292888 0 0.011674339650827373 0.023925957970640239 0 0.012132552826291802 0.024092130080555357 0 0.012027069277557595 0.024280692703429557 0 0.01227688463730702 0.024470676467278071 0 0.0023103040136347825 0.026510883280670857 0 0.0022189668029378045 0.026504441801205501 0 0.012132552826291802 0.024092130080555357 0 0.011948690957264814 0.024026663608292888 0 0.012015602423232971 0.023821690957700002 0 0.012132552826291802 0.024092130080555357 0 0.011948690957264814 0.024026663608292888 0 0.012027069277557595 0.024280692703429557 0 0.011830771052331903 0.02420633224152724 0 0.011948690957264814 0.024026663608292888 0 0.012027069277557595 0.024280692703429557 0 0.011892281106905017 0.024498409348617099 0 0.012146364937696297 0.024819029195489201 0 0.01227688463730702 0.024470676467278071 0 0.012027069277557595 0.024280692703429557 0 0.011892281106905017 0.024498409348617099 0 0.01227688463730702 0.024470676467278071 0 0.011830771052331903 0.02420633224152724 0 0.012027069277557595 0.024280692703429557 0 0.011892281106905017 0.024498409348617099 0 0.012146364937696297 0.024819029195489201 0 0.011936250070299269 0.024960972933519864 0 0.01179396567621711 0.02479332462627001 0 0.0041210342366451835 0.028467024414946841 0 0.0022189668029378045 0.026504441801205501 0 0.011892281106905017 0.024498409348617099 0 0.012146364937696297 0.024819029195489201 0 0.01179396567621711 0.02479332462627001 0 0.012146364937696297 0.024819029195489201 0 0.011936250070299269 0.024960972933519864 0 0.012011240383136019 0.02517189003333373 0 0.011936250070299269 0.024960972933519864 0 0.01179396567621711 0.02479332462627001 0 0.011823153474717163 0.025154254132968887 0 0.011438412667072087 0.024776887395174932 0 0.011668149891284774 0.024602320907589275 0 0.01179396567621711 0.02479332462627001 0 0.011438412667072087 0.024776887395174932 0 0.01179396567621711 0.02479332462627001 0 0.011823153474717163 0.025154254132968887 0 0.010799555964348364 0.031313092401224006 0 0.0078418483133899514 0.030721092845253907 0 0.010472629028026634 0.032239876536126366 0 0.0055701733564168096 0.027680867208556722 0 0.013219119335581741 0.028377194307990846 0 0.012165847841170278 0.031723892390796538 0 0.0078418483133899514 0.030721092845253907 0 0.0079342921458627549 0.03536817033992623 0 0.0090658214505266715 0.030281482063348051 0 0.015055135687464544 0.036016880757575101 0 0.010472629028026634 0.032239876536126366 0 0.013219119335581741 0.028377194307990846 0 0.015537881485329658 0.030597257708812844 0 0.0004347517118275415 0.025822167454123371 0 0.0074432436762492966 0.032529233176141537 0 0.0097484417810855106 0.026670691905579875 0 -0.023895133325846033 0.03522411226590863 0 -0.024181586830959396 0.037316135055376211 0 -0.023220303675821511 0.036544178655190551 0 -0.023895133325846033 0.03522411226590863 0 -0.024698919246086477 0.037267943837165488 0 -0.024181586830959396 0.037316135055376211 0 0.0078418483133899514 0.030721092845253907 0 0.006558631058836307 0.030384030300305218 0 0.006558631058836307 0.030384030300305218 0 0.0062438288838657747 0.030204366308935259 0 -0.024965960966005618 0.03795630330073374 0 -0.024694544823180994 0.037269470427613971 0 -0.024181586830959396 0.037316135055376211 0 -0.023487380430598354 0.038289473810043821 0 -0.024965960966005618 0.03795630330073374 0 -0.024181586830959396 0.037316135055376211 0 -0.023487380430598354 0.038289473810043821 0 -0.024181586830959396 0.037316135055376211 0 -0.023354942754333349 0.037426776058349244 0 0.0062438288838657747 0.030204366308935259 0 0.0061961094922351745 0.030203961173594571 0 0.0041210342366451835 0.028467024414946841 0 0.0062438288838657747 0.030204366308935259 0 -0.024181586830959396 0.037316135055376211 0 -0.023220303675821511 0.036544178655190551 0 -0.023354942754333349 0.037426776058349244 0 0.0078418483133899514 0.030721092845253907 0 0.0062438288838657747 0.030204366308935259 0 0.011936250070299269 0.024960972933519864 0 0.011823153474717163 0.025154254132968887 0 0.012011240383136019 0.02517189003333373 0 0.059775269439616301 0.036291010002074187 0 0.058495947523553291 0.036289231595896095 0 0.059458159132683742 0.037472947127497477 0 0.060652089538448868 0.037243426085447597 0 0.061115148588729691 0.0356431191376907 0 0.062149919711827602 0.036980782821286133 0 0.059775269439616301 0.036291010002074187 0 0.060652089538448868 0.037243426085447597 0 0.061115148588729691 0.0356431191376907 0 0.059775269439616301 0.036291010002074187 0 0.059458159132683742 0.037472947127497477 0 0.060652089538448868 0.037243426085447597 0 0.059775269439616301 0.036291010002074187 0 0.061115148588729691 0.0356431191376907 0 0.059623265817084402 0.035099458133692266 0 0.061115148588729691 0.0356431191376907 0 0.059623265817084402 0.035099458133692266 0 0.060618658728816957 0.034091205046292102 0 0.058387510374222726 0.037608198952836486 0 0.058408433570309976 0.037421959365060015 0 0.058495947523553291 0.036289231595896095 0 0.059623265817084402 0.035099458133692266 0 0.058737037147224919 0.033648610043763266 0 0.058600652292625219 0.036455041012468624 0 0.058305981461357313 0.03529936239790999 0 0.058737037147224919 0.033648610043763266 0 0.059775269439616301 0.036291010002074187 0 0.058495947523553291 0.036289231595896095 0 0.059623265817084402 0.035099458133692266 0 0.058600652292625219 0.036455041012468624 0 0.058305981461357313 0.03529936239790999 0 0.056751288090308723 0.036252683409269591 0 0.058305981461357313 0.03529936239790999 0 0.056751288090308723 0.036252683409269591 0 0.056616691585445168 0.034338363122844252 0 0.054999962943857818 0.035443328168557511 0 0.056751288090308723 0.036252683409269591 0 0.056616691585445168 0.034338363122844252 0 0.054999962943857818 0.035443328168557511 0 0.056751288090308723 0.036252683409269591 0 0.054999959672959751 0.038346910288288155 0 0.056751288090308723 0.036252683409269591 0 0.057087351323347524 0.038169549587256366 0 0.054999959672959751 0.038346910288288155 0 0.058600652292625219 0.036455041012468624 0 0.056751288090308723 0.036252683409269591 0 0.057087351323347524 0.038169549587256366 0 0.058600652292625219 0.036455041012468624 0 0.058294369291872844 0.039275144420868054 0 0.057087351323347524 0.038169549587256366 0 0.058294369291872844 0.039275144420868054 0 0.057087351323347524 0.038169549587256366 0 0.056634990177238984 0.040303834308455848 0 0.057087351323347524 0.038169549587256366 0 0.054999959672959751 0.038346910288288155 0 0.056634990177238984 0.040303834308455848 0 0.054999972661915628 0.04125052582334586 0 0.054999959672959751 0.038346910288288155 0 0.056634990177238984 0.040303834308455848 0 0.057916020944096432 0.042024718698086161 0 0.058294369291872844 0.039275144420868054 0 0.056634990177238984 0.040303834308455848 0 0.058326569916457259 0.03813831613248584 0 0.058348215664086447 0.037950787257871002 0 0.059505471094842097 0.04198962799179249 0 0.057916020944096432 0.042024718698086161 0 0.058162428364016673 0.038985502147878798 0 0.059505471094842097 0.04198962799179249 0 0.058162428364016673 0.038985502147878798 0 0.060397304658653866 0.038742171752758341 0 0.055279737495775111 0.04422841443721251 0 0.055482350670810976 0.043828405060432674 0 0.059458159132683742 0.037472947127497477 0 0.058162428364016673 0.038985502147878798 0 0.060397304658653866 0.038742171752758341 0 0.058387510374222726 0.037608198952836486 0 0.058348215664086447 0.037950787257871002 0 0.058495947523553291 0.036289231595896095 0 0.059458159132683742 0.037472947127497477 0 0.058162428364016673 0.038985502147878798 0 0.060652089538448868 0.037243426085447597 0 0.060397304658653866 0.038742171752758341 0 0.061674060639238297 0.038519973488772882 0 0.059458159132683742 0.037472947127497477 0 0.060652089538448868 0.037243426085447597 0 0.060397304658653866 0.038742171752758341 0 0.060397304658653866 0.038742171752758341 0 0.061221727622714973 0.040250849870229186 0 0.061674060639238297 0.038519973488772882 0 0.059564883035147564 0.041193178045272658 0 0.060397304658653866 0.038742171752758341 0 0.061221727622714973 0.040250849870229186 0 0.062723860065176149 0.040962492005563671 0 0.061221727622714973 0.040250849870229186 0 0.062498368870886833 0.039475887535371339 0 0.061221727622714973 0.040250849870229186 0 0.062498368870886833 0.039475887535371339 0 0.061674060639238297 0.038519973488772882 0 0.062723860065176149 0.040962492005563671 0 0.062498368870886833 0.039475887535371339 0 0.063786127042720048 0.039604914853271563 0 0.062498368870886833 0.039475887535371339 0 0.063786127042720048 0.039604914853271563 0 0.063097266923172191 0.038263637013724316 0 0.063786127042720048 0.039604914853271563 0 0.063097266923172191 0.038263637013724316 0 0.0646660433452136 0.038268058964455086 0 0.063097266923172191 0.038263637013724316 0 0.0646660433452136 0.038268058964455086 0 0.064013077842826574 0.03683872469640264 0 0.063097266923172191 0.038263637013724316 0 0.061674060639238297 0.038519973488772882 0 0.062149919711827602 0.036980782821286133 0 0.060652089538448868 0.037243426085447597 0 0.061674060639238297 0.038519973488772882 0 0.062149919711827602 0.036980782821286133 0 0.062498368870886833 0.039475887535371339 0 0.063097266923172191 0.038263637013724316 0 0.061674060639238297 0.038519973488772882 0 0.045807945977899125 0.049386200337730557 0 0.046316223798182593 0.04947709965404145 0 0.067367264955658354 0.0403864178911022 0 0.065857011793173895 0.039524218115922709 0 0.066600213282942286 0.038368277408805884 0 0.063786127042720048 0.039604914853271563 0 0.065857011793173895 0.039524218115922709 0 0.0646660433452136 0.038268058964455086 0 0.064173344591631543 0.04102469523245262 0 0.063786127042720048 0.039604914853271563 0 0.065857011793173895 0.039524218115922709 0 0.0646660433452136 0.038268058964455086 0 0.066600213282942286 0.038368277408805884 0 0.065423803931852639 0.037230360090637189 0 0.065857011793173895 0.039524218115922709 0 0.0646660433452136 0.038268058964455086 0 0.066600213282942286 0.038368277408805884 0 0.067628567721046459 0.037552519008986214 0 0.066600213282942286 0.038368277408805884 0 0.066769150576454189 0.036720824635022346 0 0.066600213282942286 0.038368277408805884 0 0.066769150576454189 0.036720824635022346 0 0.065423803931852639 0.037230360090637189 0 0.066769150576454189 0.036720824635022346 0 0.065685949550877351 0.036038772344775358 0 0.066285504887517901 0.035750015177657746 0 0.066769150576454189 0.036720824635022346 0 0.065423803931852639 0.037230360090637189 0 0.065685949550877351 0.036038772344775358 0 0.065423803931852639 0.037230360090637189 0 0.065685949550877351 0.036038772344775358 0 0.064013077842826574 0.03683872469640264 0 0.065685949550877351 0.036038772344775358 0 0.064013077842826574 0.03683872469640264 0 0.064164072298827715 0.035297123929592465 0 0.0646660433452136 0.038268058964455086 0 0.065423803931852639 0.037230360090637189 0 0.064013077842826574 0.03683872469640264 0 0.065685949550877351 0.036038772344775358 0 0.065854170310321314 0.03479623866561992 0 0.064164072298827715 0.035297123929592465 0 0.065685949550877351 0.036038772344775358 0 0.066285504887517901 0.035750015177657746 0 0.065854170310321314 0.03479623866561992 0 0.065854170310321314 0.03479623866561992 0 0.066759539980360549 0.035292542276262703 0 0.066544724785783049 0.034074918079527249 0 0.066285504887517901 0.035750015177657746 0 0.065854170310321314 0.03479623866561992 0 0.066862480218772793 0.035374216087528193 0 0.039675275460205522 0.036463411893844958 0 0.039333153602466218 0.036339162141941786 0 0.066769150576454189 0.036720824635022346 0 0.066285504887517901 0.035750015177657746 0 0.066862480218772793 0.035374216087528193 0 0.061115148588729691 0.0356431191376907 0 0.062149919711827602 0.036980782821286133 0 0.062895139482401274 0.035852187984852756 0 0.063097266923172191 0.038263637013724316 0 0.062149919711827602 0.036980782821286133 0 0.064013077842826574 0.03683872469640264 0 0.062149919711827602 0.036980782821286133 0 0.064013077842826574 0.03683872469640264 0 0.062895139482401274 0.035852187984852756 0 0.064013077842826574 0.03683872469640264 0 0.064164072298827715 0.035297123929592465 0 0.062895139482401274 0.035852187984852756 0 0.064164072298827715 0.035297123929592465 0 0.062669887670851854 0.034439854386581974 0 0.062895139482401274 0.035852187984852756 0 0.061115148588729691 0.0356431191376907 0 0.062669887670851854 0.034439854386581974 0 0.060618658728816957 0.034091205046292102 0 0.061115148588729691 0.0356431191376907 0 0.062669887670851854 0.034439854386581974 0 0.062895139482401274 0.035852187984852756 0 0.062669887670851854 0.034439854386581974 0 0.061853767888376786 0.032897179159085237 0 0.064299461592904228 0.032850373897911275 0 0.062669887670851854 0.034439854386581974 0 0.061853767888376786 0.032897179159085237 0 0.060618658728816957 0.034091205046292102 0 0.064164072298827715 0.035297123929592465 0 0.062669887670851854 0.034439854386581974 0 0.064299461592904228 0.032850373897911275 0 0.051472251910975264 0.033102033562370403 0 0.051313762753067052 0.033024669796056831 0 0.051313762753067052 0.033024669796056831 0 0.050837582813718737 0.032920872339089323 0 0.064083135225273785 0.033445509588099435 0 0.065345014707514276 0.032314608677916482 0 0.064004965719149973 0.031560598778225347 0 0.064299461592904228 0.032850373897911275 0 0.062801256941190139 0.031372018558063534 0 0.064314326651397566 0.030362010209399212 0 0.061853767888376786 0.032897179159085237 0 0.064299461592904228 0.032850373897911275 0 0.062801256941190139 0.031372018558063534 0 0.062801256941190139 0.031372018558063534 0 0.061574633454939534 0.030578822716175385 0 0.061180576945492331 0.031772352390622371 0 0.061853767888376786 0.032897179159085237 0 0.062801256941190139 0.031372018558063534 0 0.061180576945492331 0.031772352390622371 0 0.067594153978792648 0.033603877268867904 0 0.066759539980360549 0.035292542276262703 0 0.066544724785783049 0.034074918079527249 0 0.067594153978792648 0.033603877268867904 0 0.06669323288406101 0.033424404090856022 0 0.066544724785783049 0.034074918079527249 0 0.067594153978792648 0.033603877268867904 0 0.06669323288406101 0.033424404090856022 0 0.066668429579478911 0.033072091472037879 0 0.065854170310321314 0.03479623866561992 0 0.066544724785783049 0.034074918079527249 0 0.065386167424153541 0.033770455852782384 0 0.06669323288406101 0.033424404090856022 0 0.066544724785783049 0.034074918079527249 0 0.066055802763069771 0.033305073907854935 0 0.066544724785783049 0.034074918079527249 0 0.065386167424153541 0.033770455852782384 0 0.066055802763069771 0.033305073907854935 0 0.065854170310321314 0.03479623866561992 0 0.064164072298827715 0.035297123929592465 0 0.065386167424153541 0.033770455852782384 0 0.064164072298827715 0.035297123929592465 0 0.064083135225273785 0.033445509588099435 0 0.065386167424153541 0.033770455852782384 0 0.065386167424153541 0.033770455852782384 0 0.065345014707514276 0.032314608677916482 0 0.066055802763069771 0.033305073907854935 0 0.064083135225273785 0.033445509588099435 0 0.065386167424153541 0.033770455852782384 0 0.065345014707514276 0.032314608677916482 0 0.055994635189505003 0.036564404043771939 0 0.058596903107607561 0.036486525795170456 0 0.058921372620385777 0.038173492048091985 0 0.046137605236175688 0.033033120866394435 0 0.040626036639141459 0.032800282293827691 0 0.065345014707514276 0.032314608677916482 0 0.066055802763069771 0.033305073907854935 0 0.066668429579478911 0.033072091472037879 0 0.055994635189505003 0.036564404043771939 0 0.058596903107607561 0.036486525795170456 0 0.059136471866356011 0.034535062106192387 0 0.060327812153873304 0.036671357927609526 0 0.058596903107607561 0.036486525795170456 0 0.059136471866356011 0.034535062106192387 0 0.060327812153873304 0.036671357927609526 0 0.058596903107607561 0.036486525795170456 0 0.058921372620385777 0.038173492048091985 0 0.06669323288406101 0.033424404090856022 0 0.066055802763069771 0.033305073907854935 0 0.066668429579478911 0.033072091472037879 0 0.055994635189505003 0.036564404043771939 0 0.059136471866356011 0.034535062106192387 0 0.056032748896565752 0.033279585949970138 0 0.059136471866356011 0.034535062106192387 0 0.056032748896565752 0.033279585949970138 0 0.058021396748590151 0.032394522490277744 0 0.046137605236175688 0.033033120866394435 0 0.050837582813718737 0.032920872339089323 0 0.055994635189505003 0.036564404043771939 0 0.056032748896565752 0.033279585949970138 0 0.053052910072690904 0.034926156588844307 0 0.056032748896565752 0.033279585949970138 0 0.056947497352523191 0.030055569949403366 0 0.052902794824507791 0.030904018105238559 0 0.056032748896565752 0.033279585949970138 0 0.056947497352523191 0.030055569949403366 0 0.058021396748590151 0.032394522490277744 0 0.059967254551294001 0.031703391723231722 0 0.056947497352523191 0.030055569949403366 0 0.058021396748590151 0.032394522490277744 0 0.059967254551294001 0.031703391723231722 0 0.056947497352523191 0.030055569949403366 0 0.060547871381061442 0.029518039169658832 0 0.059967254551294001 0.031703391723231722 0 0.059136471866356011 0.034535062106192387 0 0.058021396748590151 0.032394522490277744 0 0.062930680267217848 0.029513289355023304 0 0.061574633454939534 0.030578822716175385 0 0.060946250406365345 0.029234812825753919 0 0.062801256941190139 0.031372018558063534 0 0.062930680267217848 0.029513289355023304 0 0.061574633454939534 0.030578822716175385 0 0.050837582813718737 0.032920872339089323 0 0.05272814035717497 0.030977898624517827 0 0.062801256941190139 0.031372018558063534 0 0.062930680267217848 0.029513289355023304 0 0.064314326651397566 0.030362010209399212 0 0.062930680267217848 0.029513289355023304 0 0.0644607258678737 0.03037494964946668 0 0.064384494153329891 0.027828866080507959 0 0.056032748896565752 0.033279585949970138 0 0.053052910072690904 0.034926156588844307 0 0.052902794824507791 0.030904018105238559 0 0.051038857720379478 0.032977751455632996 0 0.050837582813718737 0.032920872339089323 0 0.062930680267217848 0.029513289355023304 0 0.062281795333030403 0.02832928630977586 0 0.060946250406365345 0.029234812825753919 0 0.064384494153329891 0.027828866080507959 0 0.062281795333030403 0.02832928630977586 0 0.062357668116282253 0.026891602291210175 0 0.062930680267217848 0.029513289355023304 0 0.064384494153329891 0.027828866080507959 0 0.062281795333030403 0.02832928630977586 0 0.062281795333030403 0.02832928630977586 0 0.06117055099408935 0.027818179662801302 0 0.062357668116282253 0.026891602291210175 0 0.06117055099408935 0.027818179662801302 0 0.059667928246806487 0.027786935953287007 0 0.06076480247188383 0.026670795764683869 0 0.06117055099408935 0.027818179662801302 0 0.059667928246806487 0.027786935953287007 0 0.060946250406365345 0.029234812825753919 0 0.059667928246806487 0.027786935953287007 0 0.059360736471434784 0.029394423052722909 0 0.060946250406365345 0.029234812825753919 0 0.062281795333030403 0.02832928630977586 0 0.06117055099408935 0.027818179662801302 0 0.060946250406365345 0.029234812825753919 0 0.05848604751867733 0.027364237283688215 0 0.059667928246806487 0.027786935953287007 0 0.057886246261473921 0.028501085444144061 0 0.059667928246806487 0.027786935953287007 0 0.059360736471434784 0.029394423052722909 0 0.057886246261473921 0.028501085444144061 0 0.058207951999154704 0.030499932918548665 0 0.059360736471434784 0.029394423052722909 0 0.057886246261473921 0.028501085444144061 0 0.058207951999154704 0.030499932918548665 0 0.059360736471434784 0.029394423052722909 0 0.060082631905568777 0.030927289077119811 0 0.059360736471434784 0.029394423052722909 0 0.060946250406365345 0.029234812825753919 0 0.060082631905568777 0.030927289077119811 0 0.061574633454939534 0.030578822716175385 0 0.060946250406365345 0.029234812825753919 0 0.060082631905568777 0.030927289077119811 0 0.061853767888376786 0.032897179159085237 0 0.061180576945492331 0.031772352390622371 0 0.060152456122915747 0.032670794359854954 0 0.061574633454939534 0.030578822716175385 0 0.061180576945492331 0.031772352390622371 0 0.060082631905568777 0.030927289077119811 0 0.061180576945492331 0.031772352390622371 0 0.060082631905568777 0.030927289077119811 0 0.060152456122915747 0.032670794359854954 0 0.058207951999154704 0.030499932918548665 0 0.058879950089374751 0.032042768208426956 0 0.057178829373366699 0.032432095675629026 0 0.058207951999154704 0.030499932918548665 0 0.060082631905568777 0.030927289077119811 0 0.058879950089374751 0.032042768208426956 0 0.060082631905568777 0.030927289077119811 0 0.058879950089374751 0.032042768208426956 0 0.060152456122915747 0.032670794359854954 0 0.058879950089374751 0.032042768208426956 0 0.058737037147224919 0.033648610043763266 0 0.060152456122915747 0.032670794359854954 0 0.059623265817084402 0.035099458133692266 0 0.058737037147224919 0.033648610043763266 0 0.060618658728816957 0.034091205046292102 0 0.058879950089374751 0.032042768208426956 0 0.058737037147224919 0.033648610043763266 0 0.057178829373366699 0.032432095675629026 0 0.061853767888376786 0.032897179159085237 0 0.060618658728816957 0.034091205046292102 0 0.060152456122915747 0.032670794359854954 0 0.058737037147224919 0.033648610043763266 0 0.060618658728816957 0.034091205046292102 0 0.060152456122915747 0.032670794359854954 0 0.056616691585445168 0.034338363122844252 0 0.057557672963640193 0.032462020981001052 0 0.054999974645916674 0.032539770478862681 0 0.054999962943857818 0.035443328168557511 0 0.056616691585445168 0.034338363122844252 0 0.054999974645916674 0.032539770478862681 0 0.058305981461357313 0.03529936239790999 0 0.058737037147224919 0.033648610043763266 0 0.057178829373366699 0.032432095675629026 0 0.056486872575567532 0.028158269991917593 0 0.056361044373565802 0.027718836194208514 0 0.058305981461357313 0.03529936239790999 0 0.056616691585445168 0.034338363122844252 0 0.057557672963640193 0.032462020981001052 0 0.056361044373565802 0.027718836194208514 0 0.056049083415507836 0.026611471327319159 0 0.057557672963640193 0.032462020981001052 0 0.056238611072208199 0.031294677594793083 0 0.056727938472718523 0.02958241271721453 0 0.057557672963640193 0.032462020981001052 0 0.056238611072208199 0.031294677594793083 0 0.054999974645916674 0.032539770478862681 0 0.056238611072208199 0.031294677594793083 0 0.054999974645916674 0.032539770478862681 0 0.054999990746476678 0.029636141070102918 0 0.056238611072208199 0.031294677594793083 0 0.054999990746476678 0.029636141070102918 0 0.056727938472718523 0.02958241271721453 0 0.058207951999154704 0.030499932918548665 0 0.057178829373366699 0.032432095675629026 0 0.056168930967225562 0.029448265472730172 0 0.058207951999154704 0.030499932918548665 0 0.056168930967225562 0.029448265472730172 0 0.057886246261473921 0.028501085444144061 0 0.056168930967225562 0.029448265472730172 0 0.057886246261473921 0.028501085444144061 0 0.056395834317153344 0.027671192180566035 0 0.057886246261473921 0.028501085444144061 0 0.056395834317153344 0.027671192180566035 0 0.057344994446436121 0.027330081063042192 0 0.05848604751867733 0.027364237283688215 0 0.057886246261473921 0.028501085444144061 0 0.057344994446436121 0.027330081063042192 0 0.054999990746476678 0.029636141070102918 0 0.056727938472718523 0.02958241271721453 0 0.05564334406539094 0.027986193700825328 0 0.054999990746476678 0.029636141070102918 0 0.05564334406539094 0.027986193700825328 0 0.054999999221171283 0.026732533109752935 0 0.056727938472718523 0.02958241271721453 0 0.05564334406539094 0.027986193700825328 0 0.055870450657211024 0.026717063253023941 0 0.056168930967225562 0.029448265472730172 0 0.056395834317153344 0.027671192180566035 0 0.055192595800224127 0.026382129777258078 0 0.056049083415507836 0.026611471327319159 0 0.055630882000879553 0.025093396491087341 0 0.05564334406539094 0.027986193700825328 0 0.054999999221171283 0.026732533109752935 0 0.055618791068255645 0.027262052317443993 0 0.05564334406539094 0.027986193700825328 0 0.055618791068255645 0.027262052317443993 0 0.055870450657211024 0.026717063253023941 0 0.054999999221171283 0.026732533109752935 0 0.055618791068255645 0.027262052317443993 0 0.055870183210359213 0.026717369387117072 0 0.055629281452859919 0.025098456009669329 0 0.055630882000879553 0.025093396491087341 0 0.055192595800224127 0.026382129777258078 0 0.05637379907317553 0.02654792642431927 0 0.05674722045143013 0.025385109405331893 0 0.056395834317153344 0.027671192180566035 0 0.055192595800224127 0.026382129777258078 0 0.05637379907317553 0.02654792642431927 0 0.056395834317153344 0.027671192180566035 0 0.057344994446436121 0.027330081063042192 0 0.05637379907317553 0.02654792642431927 0 0.05637379907317553 0.02654792642431927 0 0.057571772185646686 0.026562524609606467 0 0.057089932315515741 0.025983613736986027 0 0.05848604751867733 0.027364237283688215 0 0.057344994446436121 0.027330081063042192 0 0.057571772185646686 0.026562524609606467 0 0.057344994446436121 0.027330081063042192 0 0.05637379907317553 0.02654792642431927 0 0.057571772185646686 0.026562524609606467 0 0.057571772185646686 0.026562524609606467 0 0.057089932315515741 0.025983613736986027 0 0.057664044361139234 0.025441328069626484 0 0.057089932315515741 0.025983613736986027 0 0.057664044361139234 0.025441328069626484 0 0.05674722045143013 0.025385109405331893 0 0.05637379907317553 0.02654792642431927 0 0.057089932315515741 0.025983613736986027 0 0.05674722045143013 0.025385109405331893 0 0.05674722045143013 0.025385109405331893 0 0.057791428400767231 0.024237380790428052 0 0.056443402719251412 0.023690814151479431 0 0.055192595800224127 0.026382129777258078 0 0.05674722045143013 0.025385109405331893 0 0.056443402719251412 0.023690814151479431 0 0.057664044361139234 0.025441328069626484 0 0.05674722045143013 0.025385109405331893 0 0.057791428400767231 0.024237380790428052 0 0.054999999221171283 0.026732533109752935 0 0.055870183210359213 0.026717369387117072 0 0.054999998289628302 0.023828935039789723 0 0.055630882000879553 0.025093396491087341 0 0.055003146953279805 0.023833415852089448 0 0.055630882000879553 0.025093396491087341 0 0.055943489618709367 0.024496010009317962 0 0.055850349347347963 0.026618032788185912 0 0.056958386707868749 0.024215619824886576 0 0.054999944369502597 0.023828788672614454 0 0.06076480247188383 0.026670795764683869 0 0.059362450588259411 0.025724890508317041 0 0.061940327210658841 0.025252873993721912 0 0.059667928246806487 0.027786935953287007 0 0.06076480247188383 0.026670795764683869 0 0.059362450588259411 0.025724890508317041 0 0.06117055099408935 0.027818179662801302 0 0.06076480247188383 0.026670795764683869 0 0.062357668116282253 0.026891602291210175 0 0.05848604751867733 0.027364237283688215 0 0.059667928246806487 0.027786935953287007 0 0.059362450588259411 0.025724890508317041 0 0.05848604751867733 0.027364237283688215 0 0.057571772185646686 0.026562524609606467 0 0.059362450588259411 0.025724890508317041 0 0.057571772185646686 0.026562524609606467 0 0.057664044361139234 0.025441328069626484 0 0.059362450588259411 0.025724890508317041 0 0.057175080718582627 0.027170351565592245 0 0.057019373948011882 0.027265482446711856 0 0.057791428400767231 0.024237380790428052 0 0.059362450588259411 0.025724890508317041 0 0.061005649282803533 0.023590368464744282 0 0.057664044361139234 0.025441328069626484 0 0.057791428400767231 0.024237380790428052 0 0.059362450588259411 0.025724890508317041 0 0.059362450588259411 0.025724890508317041 0 0.061005649282803533 0.023590368464744282 0 0.061940327210658841 0.025252873993721912 0 0.060763191283724594 0.023297730103056694 0 0.0587304684841767 0.022529991483655747 0 0.060716107562823855 0.02037916957453606 0 0.057791428400767231 0.024237380790428052 0 0.060763191283724594 0.023297730103056694 0 0.0587304684841767 0.022529991483655747 0 0.0587304684841767 0.022529991483655747 0 0.060716107562823855 0.02037916957453606 0 0.057715218992986386 0.021169052574244281 0 0.060716107562823855 0.02037916957453606 0 0.057715218992986386 0.021169052574244281 0 0.058931595845124543 0.01895631379058238 0 0.056276938228948345 0.022384129779833152 0 0.054999944369502597 0.023828788672614454 0 0.054999904862892468 0.021030238050467401 0 0.056958386707868749 0.024215619824886576 0 0.056276938228948345 0.022384129779833152 0 0.054999944369502597 0.023828788672614454 0 0.057791428400767231 0.024237380790428052 0 0.056443402719251412 0.023690814151479431 0 0.0587304684841767 0.022529991483655747 0 0.056958386707868749 0.024215619824886576 0 0.056276938228948345 0.022384129779833152 0 0.058043333599123038 0.021660117618951657 0 0.055943489618709367 0.024496010009317962 0 0.056205978227008631 0.023973415734316942 0 0.056443402719251412 0.023690814151479431 0 0.0587304684841767 0.022529991483655747 0 0.057715218992986386 0.021169052574244281 0 0.056276938228948345 0.022384129779833152 0 0.058043333599123038 0.021660117618951657 0 0.056776252778003973 0.019852036269512065 0 0.056276938228948345 0.022384129779833152 0 0.054999904862892468 0.021030238050467401 0 0.056776252778003973 0.019852036269512065 0 0.054999904862892468 0.021030238050467401 0 0.054999929136497011 0.018231662515415012 0 0.056776252778003973 0.019852036269512065 0 0.054999929136497011 0.018231662515415012 0 0.056776252778003973 0.019852036269512065 0 0.057387158060149358 0.017045754875912766 0 0.056776252778003973 0.019852036269512065 0 0.058931595845124543 0.01895631379058238 0 0.057387158060149358 0.017045754875912766 0 0.058043333599123038 0.021660117618951657 0 0.056776252778003973 0.019852036269512065 0 0.058931595845124543 0.01895631379058238 0 0.056205978227008631 0.023973415734316942 0 0.056317312585423059 0.023746528970890617 0 0.060716107562823855 0.02037916957453606 0 0.058931595845124543 0.01895631379058238 0 0.061238140217463238 0.017671158574640855 0 0.058931595845124543 0.01895631379058238 0 0.059617802448543707 0.017188530262772513 0 0.061238140217463238 0.017671158574640855 0 0.058931595845124543 0.01895631379058238 0 0.059617802448543707 0.017188530262772513 0 0.057387158060149358 0.017045754875912766 0 0.059617802448543707 0.017188530262772513 0 0.05892441570972954 0.015652740400862661 0 0.057387158060149358 0.017045754875912766 0 0.059617802448543707 0.017188530262772513 0 0.05892441570972954 0.015652740400862661 0 0.061116702304357819 0.015703930079930983 0 0.059617802448543707 0.017188530262772513 0 0.061116702304357819 0.015703930079930983 0 0.061238140217463238 0.017671158574640855 0 0.05892441570972954 0.015652740400862661 0 0.059966304566478723 0.014485679246076156 0 0.061116702304357819 0.015703930079930983 0 0.059966304566478723 0.014485679246076156 0 0.061116702304357819 0.015703930079930983 0 0.061051021029244604 0.013819229984147221 0 0.05892441570972954 0.015652740400862661 0 0.059966304566478723 0.014485679246076156 0 0.058747893080987955 0.014081330428674706 0 0.05892441570972954 0.015652740400862661 0 0.058747893080987955 0.014081330428674706 0 0.057058023760931921 0.014354900171655808 0 0.057058023760931921 0.014354900171655808 0 0.054999952831655284 0.015433344697494057 0 0.054999938248609048 0.012634811343668098 0 0.054999929136497011 0.018231662515415012 0 0.054999952831655284 0.015433344697494057 0 0.057387158060149358 0.017045754875912766 0 0.057058023760931921 0.014354900171655808 0 0.054999952831655284 0.015433344697494057 0 0.057387158060149358 0.017045754875912766 0 0.05892441570972954 0.015652740400862661 0 0.057058023760931921 0.014354900171655808 0 0.057387158060149358 0.017045754875912766 0 0.065379094962673523 0.015257514958161895 0 0.06395200487534515 0.015129485751006894 0 0.063930809258379601 0.016702864960826905 0 0.06395200487534515 0.015129485751006894 0 0.062787347472601687 0.015731801695741336 0 0.063930809258379601 0.016702864960826905 0 0.065379094962673523 0.015257514958161895 0 0.063930809258379601 0.016702864960826905 0 0.06555365483480563 0.017442823874516032 0 0.065768935637149487 0.015610124084754144 0 0.065628579653835173 0.015481095584946099 0 0.065379094962673523 0.015257514958161895 0 0.06395200487534515 0.015129485751006894 0 0.06372735623242258 0.013429259850466568 0 0.06395200487534515 0.015129485751006894 0 0.062488378611692055 0.014094499245115215 0 0.062787347472601687 0.015731801695741336 0 0.06395200487534515 0.015129485751006894 0 0.062488378611692055 0.014094499245115215 0 0.06372735623242258 0.013429259850466568 0 0.062488378611692055 0.014094499245115215 0 0.061116702304357819 0.015703930079930983 0 0.061051021029244604 0.013819229984147221 0 0.062488378611692055 0.014094499245115215 0 0.061116702304357819 0.015703930079930983 0 0.062787347472601687 0.015731801695741336 0 0.061116702304357819 0.015703930079930983 0 0.061238140217463238 0.017671158574640855 0 0.06234524162061203 0.016918802796116402 0 0.061116702304357819 0.015703930079930983 0 0.062787347472601687 0.015731801695741336 0 0.06234524162061203 0.016918802796116402 0 0.062787347472601687 0.015731801695741336 0 0.06234524162061203 0.016918802796116402 0 0.063930809258379601 0.016702864960826905 0 0.062903745070127345 0.017898084225881496 0 0.06234524162061203 0.016918802796116402 0 0.063930809258379601 0.016702864960826905 0 0.062903745070127345 0.017898084225881496 0 0.061238140217463238 0.017671158574640855 0 0.06234524162061203 0.016918802796116402 0 0.064216625779157557 0.018531395117797445 0 0.064077261362985735 0.018488176306688135 0 0.060716107562823855 0.02037916957453606 0 0.061238140217463238 0.017671158574640855 0 0.0621684367204463 0.019259701610048093 0 0.063447687487975274 0.018504679938413413 0 0.061238140217463238 0.017671158574640855 0 0.0621684367204463 0.019259701610048093 0 0.063447687487975274 0.018504679938413413 0 0.063483257698214071 0.019734288778546556 0 0.064828232502356975 0.019074729026810202 0 0.063447687487975274 0.018504679938413413 0 0.0621684367204463 0.019259701610048093 0 0.063483257698214071 0.019734288778546556 0 0.063483257698214071 0.019734288778546556 0 0.064828232502356975 0.019074729026810202 0 0.064246166374147443 0.020164081342405517 0 0.064216625779157557 0.018531395117797445 0 0.064509472601269088 0.018622534302212914 0 0.062903745070127345 0.017898084225881496 0 0.064467954814377601 0.018307560964000005 0 0.063930809258379601 0.016702864960826905 0 0.064467954814377601 0.018307560964000005 0 0.063930809258379601 0.016702864960826905 0 0.06555365483480563 0.017442823874516032 0 0.064467954814377601 0.018307560964000005 0 0.06555365483480563 0.017442823874516032 0 0.065886003967559517 0.018755877132129114 0 0.064509472601269088 0.018622534302212914 0 0.064795903126825607 0.018711356402917389 0 0.064828232502356975 0.019074729026810202 0 0.065152266630632408 0.020559806364898795 0 0.065998811671609175 0.019329705663463478 0 0.064828232502356975 0.019074729026810202 0 0.064246166374147443 0.020164081342405517 0 0.065152266630632408 0.020559806364898795 0 0.057849021122417903 0.0215634581702259 0 0.052603134887080676 0.0228125137087253 0 0.056315260886924012 0.025886900419806572 0 0.064246166374147443 0.020164081342405517 0 0.065152266630632408 0.020559806364898795 0 0.063592897994022873 0.021002053292285865 0 0.058343781269790874 0.026648092565300992 0 0.056154785427020668 0.027648560548749753 0 0.057849021122417903 0.0215634581702259 0 0.060042331466317274 0.024710344426705066 0 0.061539424806991469 0.022772431401387641 0 0.057849021122417903 0.0215634581702259 0 0.056315260886924012 0.025886900419806572 0 0.060042331466317274 0.024710344426705066 0 0.0621684367204463 0.019259701610048093 0 0.063483257698214071 0.019734288778546556 0 0.062292910637745995 0.021158026740630644 0 0.060716107562823855 0.02037916957453606 0 0.0621684367204463 0.019259701610048093 0 0.062292910637745995 0.021158026740630644 0 0.060763191283724594 0.023297730103056694 0 0.060716107562823855 0.02037916957453606 0 0.062292910637745995 0.021158026740630644 0 0.063483257698214071 0.019734288778546556 0 0.064246166374147443 0.020164081342405517 0 0.063592897994022873 0.021002053292285865 0 0.063483257698214071 0.019734288778546556 0 0.062292910637745995 0.021158026740630644 0 0.063674447548571059 0.022543623222790427 0 0.056258261496938251 0.027226543004047025 0 0.056154785427020668 0.027648560548749753 0 0.060763191283724594 0.023297730103056694 0 0.062292910637745995 0.021158026740630644 0 0.063674447548571059 0.022543623222790427 0 0.057019373948011882 0.027265482446711856 0 0.056154785427020668 0.027648560548749753 0 0.061005649282803533 0.023590368464744282 0 0.06420957909952614 0.022846013660154714 0 0.061940327210658841 0.025252873993721912 0 0.052603134887080676 0.0228125137087253 0 0.052750489702759897 0.026863285351175457 0 0.056315260886924012 0.025886900419806572 0 0.056154785427020668 0.027648560548749753 0 0.054484728048426224 0.029173232605845287 0 0.06420957909952614 0.022846013660154714 0 0.061940327210658841 0.025252873993721912 0 0.064301516457459781 0.025323531288503877 0 0.05272814035717497 0.030977898624517827 0 0.054484728048426224 0.029173232605845287 0 0.052902794824507791 0.030904018105238559 0 0.052750489702759897 0.026863285351175457 0 0.054728353260319301 0.028429075619874414 0 0.064384494153329891 0.027828866080507959 0 0.064301516457459781 0.025323531288503877 0 0.062357668116282253 0.026891602291210175 0 0.061940327210658841 0.025252873993721912 0 0.064301516457459781 0.025323531288503877 0 0.062357668116282253 0.026891602291210175 0 0.06076480247188383 0.026670795764683869 0 0.061940327210658841 0.025252873993721912 0 0.062357668116282253 0.026891602291210175 0 0.056315260886924012 0.025886900419806572 0 0.059580681412621704 0.027345355382908672 0 0.060042331466317274 0.024710344426705066 0 0.056947497352523191 0.030055569949403366 0 0.056315260886924012 0.025886900419806572 0 0.054728353260319301 0.028429075619874414 0 0.056947497352523191 0.030055569949403366 0 0.052902794824507791 0.030904018105238559 0 0.054728353260319301 0.028429075619874414 0 0.052750489702759897 0.026863285351175457 0 0.056315260886924012 0.025886900419806572 0 0.054728353260319301 0.028429075619874414 0 0.056947497352523191 0.030055569949403366 0 0.059580681412621704 0.027345355382908672 0 0.060547871381061442 0.029518039169658832 0 0.056947497352523191 0.030055569949403366 0 0.056315260886924012 0.025886900419806572 0 0.059580681412621704 0.027345355382908672 0 0.062229113096905077 0.030921947998396038 0 0.060547871381061442 0.029518039169658832 0 0.062856443434886278 0.029083851305032531 0 0.060547871381061442 0.029518039169658832 0 0.062856443434886278 0.029083851305032531 0 0.061722211867779916 0.0279899487274629 0 0.061722211867779916 0.0279899487274629 0 0.06207736040707354 0.026263501651378789 0 0.063062271840367709 0.027647092145388068 0 0.062856443434886278 0.029083851305032531 0 0.061722211867779916 0.0279899487274629 0 0.063062271840367709 0.027647092145388068 0 0.059580681412621704 0.027345355382908672 0 0.061722211867779916 0.0279899487274629 0 0.06207736040707354 0.026263501651378789 0 0.059580681412621704 0.027345355382908672 0 0.060547871381061442 0.029518039169658832 0 0.061722211867779916 0.0279899487274629 0 0.059580681412621704 0.027345355382908672 0 0.06207736040707354 0.026263501651378789 0 0.060042331466317274 0.024710344426705066 0 0.06207736040707354 0.026263501651378789 0 0.062776634315530738 0.024585876325624652 0 0.063849177050395112 0.026407386795501583 0 0.06207736040707354 0.026263501651378789 0 0.062776634315530738 0.024585876325624652 0 0.060042331466317274 0.024710344426705066 0 0.062776634315530738 0.024585876325624652 0 0.065586514083545322 0.024919961725729901 0 0.063849177050395112 0.026407386795501583 0 0.06207736040707354 0.026263501651378789 0 0.063849177050395112 0.026407386795501583 0 0.063062271840367709 0.027647092145388068 0 0.065586514083545322 0.024919961725729901 0 0.064858097666564918 0.026900207302439343 0 0.065874111425458182 0.027535768849103855 0 0.065586514083545322 0.024919961725729901 0 0.063849177050395112 0.026407386795501583 0 0.064858097666564918 0.026900207302439343 0 0.064119922831888249 0.031912897300880809 0 0.063959264794006973 0.029625486811097178 0 0.066156865859325273 0.028171799589820658 0 0.063849177050395112 0.026407386795501583 0 0.064858097666564918 0.026900207302439343 0 0.064437837337312801 0.028034977863786222 0 0.063803746311250617 0.032137834490689077 0 0.065761387235851884 0.029193003294702067 0 0.065532961748722723 0.028702937186398166 0 0.064437837337312801 0.028034977863786222 0 0.065874111425458182 0.027535768849103855 0 0.066156865859325273 0.028171799589820658 0 0.064858097666564918 0.026900207302439343 0 0.064437837337312801 0.028034977863786222 0 0.065874111425458182 0.027535768849103855 0 0.063849177050395112 0.026407386795501583 0 0.064437837337312801 0.028034977863786222 0 0.063062271840367709 0.027647092145388068 0 0.062856443434886278 0.029083851305032531 0 0.064437837337312801 0.028034977863786222 0 0.063062271840367709 0.027647092145388068 0 0.062856443434886278 0.029083851305032531 0 0.064437837337312801 0.028034977863786222 0 0.063959264794006973 0.029625486811097178 0 0.062229113096905077 0.030921947998396038 0 0.062856443434886278 0.029083851305032531 0 0.063959264794006973 0.029625486811097178 0 0.064437837337312801 0.028034977863786222 0 0.063959264794006973 0.029625486811097178 0 0.066156865859325273 0.028171799589820658 0 0.0099103506044772045 0.023751038954787241 0 0.010163902829828209 0.023807117592952842 0 0.0099605096982851669 0.023642629543982201 0 0.010163902829828209 0.023807117592952842 0 0.010258548531601184 0.02351880500501087 0 0.0099605096982851669 0.023642629543982201 0 0.030561174156554863 0.027546076855897536 0 0.030543206229531269 0.027532505839463896 0 0.0099087847130121254 0.023756090383709447 0 0.0098679034237743046 0.023670192639409511 0 0.0099605096982851669 0.023642629543982201 0 0.030334404805258824 0.028136138208529556 0 0.030543206229531269 0.027532505839463896 0 0.030334404805258824 0.028136138208529556 0 0.030323058960084925 0.028139971553248263 0 0.010699315020365916 0.024218116467558837 0 0.010505735112463631 0.023742899687123346 0 0.010896363506658849 0.023652420881900126 0 0.010163902829828209 0.023807117592952842 0 0.010258548531601184 0.02351880500501087 0 0.010505735112463631 0.023742899687123346 0 0.010258548531601184 0.02351880500501087 0 0.010505735112463631 0.023742899687123346 0 0.010491907869089639 0.023334847827099704 0 0.010505735112463631 0.023742899687123346 0 0.010491907869089639 0.023334847827099704 0 0.010806884373965944 0.023408318104237012 0 0.010505735112463631 0.023742899687123346 0 0.010896363506658849 0.023652420881900126 0 0.010806884373965944 0.023408318104237012 0 0.010491907869089639 0.023334847827099704 0 0.010806884373965944 0.023408318104237012 0 0.010884756816011225 0.023175848320592742 0 0.010258548531601184 0.02351880500501087 0 0.010491907869089639 0.023334847827099704 0 0.010155866912074967 0.02303285636697525 0 0.010491907869089639 0.023334847827099704 0 0.010155866912074967 0.02303285636697525 0 0.010636161341355817 0.022917727932763629 0 0.010491907869089639 0.023334847827099704 0 0.010636161341355817 0.022917727932763629 0 0.010884756816011225 0.023175848320592742 0 0.065586514083545322 0.024919961725729901 0 0.065874111425458182 0.027535768849103855 0 0.06813499378320878 0.024388224129479052 0 0.010258548531601184 0.02351880500501087 0 0.0099605096982851669 0.023642629543982201 0 0.010155866912074967 0.02303285636697525 0 0.030543206229531269 0.027532505839463896 0 0.028569142451980209 0.024110074438730502 0 0.0098679034237743046 0.023670192639409511 0 0.0099605096982851669 0.023642629543982201 0 0.010155866912074967 0.02303285636697525 0 0.065874111425458182 0.027535768849103855 0 0.066162974524237569 0.028174163454365891 0 0.06813499378320878 0.024388224129479052 0 0.065586514083545322 0.024919961725729901 0 0.06813499378320878 0.024388224129479052 0 0.066426148646254082 0.022043274062575925 0 0.06813499378320878 0.024388224129479052 0 0.068116606950529152 0.021248682528198812 0 0.066426148646254082 0.022043274062575925 0 0.010636161341355817 0.022917727932763629 0 0.010762730122827753 0.022304780059876572 0 0.010489985779970503 0.022355079895763338 0 0.010155866912074967 0.02303285636697525 0 0.010636161341355817 0.022917727932763629 0 0.010489985779970503 0.022355079895763338 0 0.06813499378320878 0.024388224129479052 0 0.068116606950529152 0.021248682528198812 0 0.069705227468424488 0.020715064680415531 0 0.028569142451980209 0.024110074438730502 0 0.026150557908751749 0.021037893294544401 0 0.010636161341355817 0.022917727932763629 0 0.010744478373645283 0.02123294952027753 0 0.01115330756912959 0.022098261354021476 0 0.022702068748042734 0.018924891548784517 0 0.022824871701079111 0.018764030842257386 0 0.010762730122827753 0.022304780059876572 0 0.010489985779970503 0.022355079895763338 0 0.010874552442562524 0.02164387690444244 0 0.026150557908751749 0.021037893294544401 0 0.023190006575111596 0.018317615455121013 0 0.069705227468424488 0.020715064680415531 0 0.068498053326688721 0.019425955520575678 0 0.070482199531670134 0.018459131154263769 0 0.068116606950529152 0.021248682528198812 0 0.069705227468424488 0.020715064680415531 0 0.068498053326688721 0.019425955520575678 0 0.068116606950529152 0.021248682528198812 0 0.066426148646254082 0.022043274062575925 0 0.068498053326688721 0.019425955520575678 0 0.066426148646254082 0.022043274062575925 0 0.068498053326688721 0.019425955520575678 0 0.065530467918435656 0.021074741003461135 0 0.068498053326688721 0.019425955520575678 0 0.067276092492202608 0.019428402854717378 0 0.067894857453896118 0.018925018890847186 0 0.068498053326688721 0.019425955520575678 0 0.067276092492202608 0.019428402854717378 0 0.066714283975572344 0.019921962568022075 0 0.060493272428418191 0.025764398421454449 0 0.059886236536057402 0.02600027206071074 0 0.068498053326688721 0.019425955520575678 0 0.065530467918435656 0.021074741003461135 0 0.063157450848115609 0.020320307186115306 0 0.064925403846181437 0.018751450427511283 0 0.064795903126825607 0.018711356402917389 0 0.058343781269790874 0.026648092565300992 0 0.059886236536057402 0.02600027206071074 0 0.065152266630632408 0.020559806364898795 0 0.066714283975572344 0.019921962568022075 0 0.065998811671609175 0.019329705663463478 0 0.067276092492202608 0.019428402854717378 0 0.066714283975572344 0.019921962568022075 0 0.065998811671609175 0.019329705663463478 0 0.057849021122417903 0.0215634581702259 0 0.063157450848115609 0.020320307186115306 0 0.061539424806991469 0.022772431401387641 0 0.063157450848115609 0.020320307186115306 0 0.061539424806991469 0.022772431401387641 0 0.064013311155987948 0.022575375980218384 0 0.062776634315530738 0.024585876325624652 0 0.060042331466317274 0.024710344426705066 0 0.061539424806991469 0.022772431401387641 0 0.062776634315530738 0.024585876325624652 0 0.061539424806991469 0.022772431401387641 0 0.064013311155987948 0.022575375980218384 0 0.062776634315530738 0.024585876325624652 0 0.065586514083545322 0.024919961725729901 0 0.064013311155987948 0.022575375980218384 0 0.065586514083545322 0.024919961725729901 0 0.066426148646254082 0.022043274062575925 0 0.064013311155987948 0.022575375980218384 0 0.066426148646254082 0.022043274062575925 0 0.065530467918435656 0.021074741003461135 0 0.064013311155987948 0.022575375980218384 0 0.065530467918435656 0.021074741003461135 0 0.063157450848115609 0.020320307186115306 0 0.064013311155987948 0.022575375980218384 0 0.011736260285067489 0.02332950443844704 0 0.011695911363557696 0.023149501662205765 0 0.011925376478713725 0.023196877894909877 0 0.011736260285067489 0.02332950443844704 0 0.011552814505034738 0.023254949826167357 0 0.011695911363557696 0.023149501662205765 0 0.011736260285067489 0.02332950443844704 0 0.011924241222680432 0.023416120815648395 0 0.011925376478713725 0.023196877894909877 0 0.011736260285067489 0.02332950443844704 0 0.011732803019017812 0.023540396160866197 0 0.011924241222680432 0.023416120815648395 0 0.012132552826291802 0.024092130080555357 0 0.012015602423232971 0.023821690957700002 0 0.012231823718174054 0.023973638470260912 0 0.011736260285067489 0.02332950443844704 0 0.011732803019017812 0.023540396160866197 0 0.011558310410432518 0.023410515508173253 0 0.011732803019017812 0.023540396160866197 0 0.011558310410432518 0.023410515508173253 0 0.011364489359787799 0.023557020186134533 0 0.0033681997948658074 0.022207166580212545 0 0.0045382576046457054 0.022300507132068773 0 0.012015602423232971 0.023821690957700002 0 0.011674339650827373 0.023925957970640239 0 0.011530907916639551 0.023758221254521764 0 0.011948690957264814 0.024026663608292888 0 0.012015602423232971 0.023821690957700002 0 0.011674339650827373 0.023925957970640239 0 0.011558310410432518 0.023410515508173253 0 0.011388989900740146 0.0233605029862782 0 0.011364489359787799 0.023557020186134533 0 0.011558310410432518 0.023410515508173253 0 0.011552814505034738 0.023254949826167357 0 0.011388989900740146 0.0233605029862782 0 0.011736260285067489 0.02332950443844704 0 0.011558310410432518 0.023410515508173253 0 0.011552814505034738 0.023254949826167357 0 0.011552814505034738 0.023254949826167357 0 0.011383207473440146 0.023176649623763673 0 0.011388989900740146 0.0233605029862782 0 0.011383207473440146 0.023176649623763673 0 0.011238156814889091 0.023281999851073026 0 0.011388989900740146 0.0233605029862782 0 0.011383207473440146 0.023176649623763673 0 0.011238156814889091 0.023281999851073026 0 0.011194288787056491 0.023108440277905241 0 0.011238156814889091 0.023281999851073026 0 0.011100251116800314 0.023253671620565072 0 0.011194288787056491 0.023108440277905241 0 0.011238156814889091 0.023281999851073026 0 0.011258687264698171 0.023438610444291609 0 0.011102166597223139 0.023390481863420739 0 0.011238156814889091 0.023281999851073026 0 0.011102166597223139 0.023390481863420739 0 0.011100251116800314 0.023253671620565072 0 0.011238156814889091 0.023281999851073026 0 0.011258687264698171 0.023438610444291609 0 0.011388989900740146 0.0233605029862782 0 0.011385439788752586 0.023993194008428149 0 0.011530907916639551 0.023758221254521764 0 0.010896363506658849 0.023652420881900126 0 0.011258687264698171 0.023438610444291609 0 0.011364489359787799 0.023557020186134533 0 0.010896363506658849 0.023652420881900126 0 0.0045382576046457054 0.022300507132068773 0 0.00489767796343182 0.022330350918417535 0 0.011258687264698171 0.023438610444291609 0 0.011388989900740146 0.0233605029862782 0 0.011364489359787799 0.023557020186134533 0 0.011385439788752586 0.023993194008428149 0 0.011674339650827373 0.023925957970640239 0 0.011530907916639551 0.023758221254521764 0 0.011171231005771325 0.024159272770994868 0 0.011385439788752586 0.023993194008428149 0 0.010896363506658849 0.023652420881900126 0 0.011258687264698171 0.023438610444291609 0 0.010896363506658849 0.023652420881900126 0 0.011102166597223139 0.023390481863420739 0 0.010896363506658849 0.023652420881900126 0 0.010806884373965944 0.023408318104237012 0 0.010988652370384242 0.023379443169030376 0 0.010806884373965944 0.023408318104237012 0 0.010988652370384242 0.023379443169030376 0 0.010975790628920647 0.023248361730430277 0 0.010896363506658849 0.023652420881900126 0 0.011102166597223139 0.023390481863420739 0 0.010988652370384242 0.023379443169030376 0 0.011102166597223139 0.023390481863420739 0 0.010988652370384242 0.023379443169030376 0 0.011100251116800314 0.023253671620565072 0 0.010988652370384242 0.023379443169030376 0 0.011100251116800314 0.023253671620565072 0 0.010975790628920647 0.023248361730430277 0 0.011100251116800314 0.023253671620565072 0 0.010975790628920647 0.023248361730430277 0 0.011048483310104216 0.023142934118938089 0 0.011100251116800314 0.023253671620565072 0 0.011048483310104216 0.023142934118938089 0 0.011194288787056491 0.023108440277905241 0 0.010884756816011225 0.023175848320592742 0 0.010975790628920647 0.023248361730430277 0 0.011048483310104216 0.023142934118938089 0 0.010806884373965944 0.023408318104237012 0 0.010884756816011225 0.023175848320592742 0 0.010975790628920647 0.023248361730430277 0 0.0082906847419181601 0.014976488288039276 0 0.0083324028504525686 0.014827456378181069 0 0.010636161341355817 0.022917727932763629 0 0.01115204185560908 0.022560974241002462 0 0.01115330756912959 0.022098261354021476 0 0.010884756816011225 0.023175848320592742 0 0.01115204185560908 0.022560974241002462 0 0.012028982379232292 0.022051781505927417 0 0.010636161341355817 0.022917727932763629 0 0.010884756816011225 0.023175848320592742 0 0.01115204185560908 0.022560974241002462 0 0.011048483310104216 0.023142934118938089 0 0.011073343765037824 0.022982061999801177 0 0.011194288787056491 0.023108440277905241 0 0.010884756816011225 0.023175848320592742 0 0.011048483310104216 0.023142934118938089 0 0.011073343765037824 0.022982061999801177 0 0.012028982379232292 0.022051781505927417 0 0.011388891725034508 0.021529359098178619 0 0.011993752075041671 0.021278455399406981 0 0.010744478373645283 0.02123294952027753 0 0.01115330756912959 0.022098261354021476 0 0.011388891725034508 0.021529359098178619 0 0.01115204185560908 0.022560974241002462 0 0.012028982379232292 0.022051781505927417 0 0.01115330756912959 0.022098261354021476 0 0.012028982379232292 0.022051781505927417 0 0.01115330756912959 0.022098261354021476 0 0.011388891725034508 0.021529359098178619 0 0.022824871701079111 0.018764030842257386 0 0.023190006575111596 0.018317615455121013 0 0.010744478373645283 0.02123294952027753 0 0.011388891725034508 0.021529359098178619 0 0.011544157154386375 0.020544949917363168 0 0.010744478373645283 0.02123294952027753 0 0.011544157154386375 0.020544949917363168 0 0.010997087820655938 0.019341597323183288 0 0.011544157154386375 0.020544949917363168 0 0.012263342338088035 0.020219923328615611 0 0.011835031587479209 0.019370370402523141 0 0.011544157154386375 0.020544949917363168 0 0.012263342338088035 0.020219923328615611 0 0.011993752075041671 0.021278455399406981 0 0.011388891725034508 0.021529359098178619 0 0.011544157154386375 0.020544949917363168 0 0.011993752075041671 0.021278455399406981 0 0.0083324028504525686 0.014827456378181069 0 0.0084401672547879236 0.014399449491515198 0 0.008461487733591247 0.014427175480369554 0 0.0084401672547879236 0.014399449491515198 0 0.012028982379232292 0.022051781505927417 0 0.011993752075041671 0.021278455399406981 0 0.013156693847133142 0.020643066758051748 0 0.011073343765037824 0.022982061999801177 0 0.01125616339728216 0.022746696391949334 0 0.011248071620048296 0.022930244112054417 0 0.012263342338088035 0.020219923328615611 0 0.013234883332240306 0.020623044367235652 0 0.012698666609770747 0.01925136210449379 0 0.012263342338088035 0.020219923328615611 0 0.011993752075041671 0.021278455399406981 0 0.013234883332240306 0.020623044367235652 0 0.0084401672547879236 0.014399449491515198 0 0.0077677786271945944 0.014351217787466328 0 0.0084401672547879236 0.014399449491515198 0 0.0091002692639471708 0.013864111820888911 0 0.01125616339728216 0.022746696391949334 0 0.011248071620048296 0.022930244112054417 0 0.011435621042214831 0.02287793984429155 0 0.011354933743224554 0.023014761448922338 0 0.011248071620048296 0.022930244112054417 0 0.011435621042214831 0.02287793984429155 0 0.011354933743224554 0.023014761448922338 0 0.011248071620048296 0.022930244112054417 0 0.011194288787056491 0.023108440277905241 0 0.011073343765037824 0.022982061999801177 0 0.011248071620048296 0.022930244112054417 0 0.011194288787056491 0.023108440277905241 0 0.011383207473440146 0.023176649623763673 0 0.011354933743224554 0.023014761448922338 0 0.011194288787056491 0.023108440277905241 0 0.01154716015263688 0.023049807615109861 0 0.011435621042214831 0.02287793984429155 0 0.011712984681888843 0.022911368713998282 0 0.011552814505034738 0.023254949826167357 0 0.011383207473440146 0.023176649623763673 0 0.01154716015263688 0.023049807615109861 0 0.011383207473440146 0.023176649623763673 0 0.011354933743224554 0.023014761448922338 0 0.01154716015263688 0.023049807615109861 0 0.011552814505034738 0.023254949826167357 0 0.01154716015263688 0.023049807615109861 0 0.011695911363557696 0.023149501662205765 0 0.011354933743224554 0.023014761448922338 0 0.01154716015263688 0.023049807615109861 0 0.011435621042214831 0.02287793984429155 0 0.011435621042214831 0.02287793984429155 0 0.011712984681888843 0.022911368713998282 0 0.011481225095830015 0.022621811957925095 0 0.0052478681036005172 0.016354890521095022 0 0.0077677786271945944 0.014351217787466328 0 -0.01773106140758297 0.011643411348205646 0 -0.017747302319396082 0.012132541353574972 0 -0.018222262636871957 0.011548134735154172 0 0.01125616339728216 0.022746696391949334 0 0.011435621042214831 0.02287793984429155 0 0.011481225095830015 0.022621811957925095 0 -0.01773106140758297 0.011643411348205646 0 -0.017747302319396082 0.012132541353574972 0 -0.017318137132495862 0.011919044897360502 0 0.011712984681888843 0.022911368713998282 0 0.011695911363557696 0.023149501662205765 0 0.011925376478713725 0.023196877894909877 0 0.0052478681036005172 0.016354890521095022 0 0.003139044568370707 0.018581530010696925 0 -0.017747302319396082 0.012132541353574972 0 -0.017318137132495862 0.011919044897360502 0 -0.017262417959471341 0.012721189372850168 0 0.01154716015263688 0.023049807615109861 0 0.011712984681888843 0.022911368713998282 0 0.011695911363557696 0.023149501662205765 0 -0.0086528719659576172 0.0082224695150405532 0 -0.0092840252098542689 0.0064204664863541754 0 -0.0067082939231301432 0.005770943773790423 0 -0.0086528719659576172 0.0082224695150405532 0 -0.0092840252098542689 0.0064204664863541754 0 -0.010381747357255427 0.0084797269127027033 0 -0.01773106140758297 0.011643411348205646 0 -0.017546147646173481 0.011159893254328881 0 -0.017318137132495862 0.011919044897360502 0 -0.01773106140758297 0.011643411348205646 0 -0.017546147646173481 0.011159893254328881 0 -0.018222262636871957 0.011548134735154172 0 0.0037596028111092266 0.015161605402605976 0 0.0077677786271945944 0.014351217787466328 0 -0.0092840252098542689 0.0064204664863541754 0 -0.0071349263202515221 0.0052594059641875917 0 -0.0067082939231301432 0.005770943773790423 0 0.0098702158029327792 0.016936120598138739 0 0.012184226658926942 0.015667402925311769 0 0.011497627453329573 0.014844580386064146 0 0.0077677786271945944 0.014351217787466328 0 0.0091002692639471708 0.013864111820888911 0 0.0098065602354190685 0.010189785172028567 0 0.008031499319753636 0.012476745193971942 0 0.0082601712934905515 0.010418184262332783 0 0.0086098213185694123 0.012224209561309599 0 0.0091002692639471708 0.013864111820888911 0 0.0082601712934905515 0.010418184262332783 0 0.0068136599262318314 0.011014694199898594 0 0.007592325803138786 0.0090035331545882547 0 0.008031499319753636 0.012476745193971942 0 0.0082601712934905515 0.010418184262332783 0 0.0068136599262318314 0.011014694199898594 0 0.012945600943564999 0.017792301143058721 0 0.012698666609770747 0.01925136210449379 0 0.0119933277537142 0.017943953209745518 0 0.0091002692639471708 0.013864111820888911 0 0.014414714416369092 0.01376287577287108 0 0.014234247292598647 0.019345089836784485 0 0.012945600943564999 0.017792301143058721 0 0.012698666609770747 0.01925136210449379 0 0.013234883332240306 0.020623044367235652 0 0.014234247292598647 0.019345089836784485 0 0.012698666609770747 0.01925136210449379 0 0.012698666609770747 0.01925136210449379 0 0.011835031587479209 0.019370370402523141 0 0.0119933277537142 0.017943953209745518 0 0.011835031587479209 0.019370370402523141 0 0.011335801563930496 0.018704602555945162 0 0.0119933277537142 0.017943953209745518 0 0.012263342338088035 0.020219923328615611 0 0.012698666609770747 0.01925136210449379 0 0.011835031587479209 0.019370370402523141 0 0.011544157154386375 0.020544949917363168 0 0.011835031587479209 0.019370370402523141 0 0.010997087820655938 0.019341597323183288 0 0.011835031587479209 0.019370370402523141 0 0.010997087820655938 0.019341597323183288 0 0.011335801563930496 0.018704602555945162 0 0.023190006575111596 0.018317615455121013 0 0.023165556499495355 0.018337571568075674 0 0.010998899558465735 0.01933625068331829 0 0.011335801563930496 0.018704602555945162 0 0.011466847794304706 0.016288328608539005 0 0.012945600943564999 0.017792301143058721 0 0.0119933277537142 0.017943953209745518 0 0.011657322726488058 0.016236068781334378 0 0.011335801563930496 0.018704602555945162 0 0.0119933277537142 0.017943953209745518 0 0.011466847794304706 0.016288328608539005 0 0.0119933277537142 0.017943953209745518 0 0.011466847794304706 0.016288328608539005 0 0.011657322726488058 0.016236068781334378 0 0.023190006575111596 0.018317615455121013 0 0.020500613085561472 0.013822552433248685 0 0.014414714416369092 0.01376287577287108 0 0.019905693654650225 0.013757210505610204 0 0.070493416720394164 0.015769805775555212 0 0.070333072613743775 0.015576304648134025 0 0.070661865928301162 0.014391845632099822 0 0.020925250946267855 0.0016995655434693957 0 0.020667044538587417 0.0034060505956271907 0 0.020003840895136599 0.0024305685109164863 0 0.020500613085561472 0.013822552433248685 0 0.021183824691454401 0.013694284887159999 0 0.070465154926400514 0.015928846943828148 0 0.070333072613743775 0.015576304648134025 0 0.069814080240393567 0.01565242742298828 0 0.070465154926400514 0.015928846943828148 0 0.070488664135707729 0.015764534089073367 0 0.070333072613743775 0.015576304648134025 0 0.020510469968346837 0.023956758913768833 0 0.022920289126133805 0.008050067104436974 0 0.033278854877062572 0.020460461690284776 0 0.020500613085561472 0.013822552433248685 0 0.020456393189460232 0.013715248923096097 0 0.020500613085561472 0.013822552433248685 0 0.019905693654650225 0.013757210505610204 0 0.020456393189460232 0.013715248923096097 0 0.019905693654650225 0.013757210505610204 0 0.020456393189460232 0.013715248923096097 0 0.020489518765140817 0.01373814520863734 0 0.020925250946267855 0.0016995655434693957 0 0.020787604390242232 0.0015350662484127206 0 0.020003840895136599 0.0024305685109164863 0 0.070333072613743775 0.015576304648134025 0 0.070030843089892422 0.014792988222040551 0 0.069814080240393567 0.01565242742298828 0 0.020456393189460232 0.013715248923096097 0 0.023516036589976995 0.010232297441976687 0 0.070333072613743775 0.015576304648134025 0 0.070030843089892422 0.014792988222040551 0 0.070661865928301162 0.014391845632099822 0 0.020667044538587417 0.0034060505956271907 0 0.020003840895136599 0.0024305685109164863 0 0.019672200466166277 0.0041292026132110273 0 0.070030843089892422 0.014792988222040551 0 0.070661865928301162 0.014391845632099822 0 0.0701759944213209 0.013697370533538363 0 0.018885155828102438 0.002045335581726474 0 0.020003840895136599 0.0024305685109164863 0 0.018539405193326725 0.0032338708237012437 0 0.020003840895136599 0.0024305685109164863 0 0.018539405193326725 0.0032338708237012437 0 0.019672200466166277 0.0041292026132110273 0 0.018539405193326725 0.0032338708237012437 0 0.018384241880679317 0.0043453128585298484 0 0.019672200466166277 0.0041292026132110273 0 0.0068136599262318314 0.011014694199898594 0 0.005599709274867172 0.0095539983351973952 0 0.007592325803138786 0.0090035331545882547 0 0.020787604390242232 0.0015350662484127206 0 0.018885155828102438 0.002045335581726474 0 0.020003840895136599 0.0024305685109164863 0 0.019905693654650225 0.013757210505610204 0 0.01613598953777037 0.012502111368846512 0 0.01613598953777037 0.012502111368846512 0 0.01249585834579421 0.011387237963554279 0 0.0082601712934905515 0.010418184262332783 0 0.007592325803138786 0.0090035331545882547 0 0.0095847908248709018 0.00845419121352535 0 0.0098065602354190685 0.010189785172028567 0 0.0082601712934905515 0.010418184262332783 0 0.0095847908248709018 0.00845419121352535 0 0.018539405193326725 0.0032338708237012437 0 0.017310680738386198 0.0038993842513133743 0 0.016974275943263815 0.0025546446332290612 0 0.018885155828102438 0.002045335581726474 0 0.018539405193326725 0.0032338708237012437 0 0.016974275943263815 0.0025546446332290612 0 0.018539405193326725 0.0032338708237012437 0 0.017310680738386198 0.0038993842513133743 0 0.018384241880679317 0.0043453128585298484 0 0.016974275943263815 0.0025546446332290612 0 0.015865667226993594 0.0036703928568808373 0 0.015061573060555803 0.0030635857972254798 0 0.01249585834579421 0.011387237963554279 0 0.0086856836117692651 0.01044708554500585 0 0.017310680738386198 0.0038993842513133743 0 0.016974275943263815 0.0025546446332290612 0 0.015865667226993594 0.0036703928568808373 0 0.0086098213185694123 0.012224209561309599 0 0.0086856836117692651 0.01044708554500585 0 0.0098065602354190685 0.010189785172028567 0 0.0095847908248709018 0.00845419121352535 0 0.0115745262401262 0.0079050834170579214 0 0.066878211865340945 0.018185689974745328 0 0.068052151548129922 0.017991277190451495 0 0.066706716754231316 0.016748833518597427 0 0.068052151548129922 0.017991277190451495 0 0.06805552201193793 0.016046368418911765 0 0.066465076050267163 0.01622183146773697 0 0.06617016070070976 0.015978765725899739 0 0.066028360015110379 0.015848708667432456 0 0.06555365483480563 0.017442823874516032 0 0.066878211865340945 0.018185689974745328 0 0.066706716754231316 0.016748833518597427 0 0.06555365483480563 0.017442823874516032 0 0.065886003967559517 0.018755877132129114 0 0.066878211865340945 0.018185689974745328 0 0.067276092492202608 0.019428402854717378 0 0.065886003967559517 0.018755877132129114 0 0.066878211865340945 0.018185689974745328 0 0.066878211865340945 0.018185689974745328 0 0.068052151548129922 0.017991277190451495 0 0.067894857453896118 0.018925018890847186 0 0.067276092492202608 0.019428402854717378 0 0.066878211865340945 0.018185689974745328 0 0.067894857453896118 0.018925018890847186 0 0.068498053326688721 0.019425955520575678 0 0.068052151548129922 0.017991277190451495 0 0.067894857453896118 0.018925018890847186 0 0.068498053326688721 0.019425955520575678 0 0.068052151548129922 0.017991277190451495 0 0.069339925552420162 0.017533850337496711 0 0.068498053326688721 0.019425955520575678 0 0.070482199531670134 0.018459131154263769 0 0.069339925552420162 0.017533850337496711 0 0.070482199531670134 0.018459131154263769 0 0.070691041649591307 0.015923876836397212 0 0.069339925552420162 0.017533850337496711 0 0.070691041649591307 0.015923876836397212 0 0.069339925552420162 0.017533850337496711 0 0.069680143457705693 0.016209982686844145 0 0.069339925552420162 0.017533850337496711 0 0.069680143457705693 0.016209982686844145 0 0.068952920394133935 0.015821703928245522 0 0.068052151548129922 0.017991277190451495 0 0.069339925552420162 0.017533850337496711 0 0.06805552201193793 0.016046368418911765 0 0.069339925552420162 0.017533850337496711 0 0.06805552201193793 0.016046368418911765 0 0.068952920394133935 0.015821703928245522 0 0.06805552201193793 0.016046368418911765 0 0.068952920394133935 0.015821703928245522 0 0.068632667980809151 0.014571145069696107 0 0.068952920394133935 0.015821703928245522 0 0.069400354315252849 0.015050931045378402 0 0.068632667980809151 0.014571145069696107 0 0.069680143457705693 0.016209982686844145 0 0.068952920394133935 0.015821703928245522 0 0.069814080240393567 0.01565242742298828 0 0.070465154926400514 0.015928846943828148 0 0.069680143457705693 0.016209982686844145 0 0.069814080240393567 0.01565242742298828 0 0.068952920394133935 0.015821703928245522 0 0.069814080240393567 0.01565242742298828 0 0.069400354315252849 0.015050931045378402 0 0.070030843089892422 0.014792988222040551 0 0.069814080240393567 0.01565242742298828 0 0.069400354315252849 0.015050931045378402 0 0.070030843089892422 0.014792988222040551 0 0.069400354315252849 0.015050931045378402 0 0.069419516934028383 0.014162235160752929 0 0.069400354315252849 0.015050931045378402 0 0.069419516934028383 0.014162235160752929 0 0.068632667980809151 0.014571145069696107 0 0.069419516934028383 0.014162235160752929 0 0.068632667980809151 0.014571145069696107 0 0.068903736997009787 0.013766040048623022 0 0.070030843089892422 0.014792988222040551 0 0.069419516934028383 0.014162235160752929 0 0.0701759944213209 0.013697370533538363 0 0.068632667980809151 0.014571145069696107 0 0.067049016712295836 0.014464660224775116 0 0.06821566352623229 0.013279515010831891 0 0.06805552201193793 0.016046368418911765 0 0.068632667980809151 0.014571145069696107 0 0.067049016712295836 0.014464660224775116 0 0.06805552201193793 0.016046368418911765 0 0.067049016712295836 0.014464660224775116 0 0.066465076050267163 0.01622183146773697 0 0.065062936111339398 0.014728809829805107 0 0.067049016712295836 0.014464660224775116 0 0.066465076050267163 0.01622183146773697 0 0.065379094962673523 0.015257514958161895 0 0.06555365483480563 0.017442823874516032 0 0.066706716754231316 0.016748833518597427 0 0.065768935637149487 0.015610124084754144 0 0.066028360015110379 0.015848708667432456 0 0.065062936111339398 0.014728809829805107 0 0.067049016712295836 0.014464660224775116 0 0.066112439988686739 0.013467375461237678 0 0.066112439988686739 0.013467375461237678 0 0.066119188352272651 0.012213435053608076 0 0.065097440245585406 0.012962990793994779 0 0.066112439988686739 0.013467375461237678 0 0.066119188352272651 0.012213435053608076 0 0.067088348297129771 0.012804861667022677 0 0.066119188352272651 0.012213435053608076 0 0.065938084443007861 0.011518863674813822 0 0.066316206281964371 0.011634886557976643 0 0.066119188352272651 0.012213435053608076 0 0.067010423003408204 0.011713139726507411 0 0.066316206281964371 0.011634886557976643 0 0.066119188352272651 0.012213435053608076 0 0.065938084443007861 0.011518863674813822 0 0.065196361951486995 0.011629983725413774 0 0.067010423003408204 0.011713139726507411 0 0.067088348297129771 0.012804861667022677 0 0.067975033075104774 0.01181747244453258 0 0.066119188352272651 0.012213435053608076 0 0.067010423003408204 0.011713139726507411 0 0.067088348297129771 0.012804861667022677 0 0.067049016712295836 0.014464660224775116 0 0.067088348297129771 0.012804861667022677 0 0.06821566352623229 0.013279515010831891 0 0.067049016712295836 0.014464660224775116 0 0.066112439988686739 0.013467375461237678 0 0.067088348297129771 0.012804861667022677 0 0.068632667980809151 0.014571145069696107 0 0.06821566352623229 0.013279515010831891 0 0.068903736997009787 0.013766040048623022 0 0.06821566352623229 0.013279515010831891 0 0.069409738948332411 0.013195085529346231 0 0.068862180275890819 0.011990979743233619 0 0.06821566352623229 0.013279515010831891 0 0.068903736997009787 0.013766040048623022 0 0.069409738948332411 0.013195085529346231 0 0.069419516934028383 0.014162235160752929 0 0.069409738948332411 0.013195085529346231 0 0.0701759944213209 0.013697370533538363 0 0.069419516934028383 0.014162235160752929 0 0.068903736997009787 0.013766040048623022 0 0.069409738948332411 0.013195085529346231 0 0.069409738948332411 0.013195085529346231 0 0.070231566948963736 0.013100618461920111 0 0.070062097869927689 0.012677439935827293 0 0.069409738948332411 0.013195085529346231 0 0.0701759944213209 0.013697370533538363 0 0.070231566948963736 0.013100618461920111 0 0.069409738948332411 0.013195085529346231 0 0.068862180275890819 0.011990979743233619 0 0.070062097869927689 0.012677439935827293 0 0.06821566352623229 0.013279515010831891 0 0.068862180275890819 0.011990979743233619 0 0.067975033075104774 0.01181747244453258 0 0.067088348297129771 0.012804861667022677 0 0.06821566352623229 0.013279515010831891 0 0.067975033075104774 0.01181747244453258 0 0.046679010213787654 -0.0062956457006183722 0 0.046353315038514496 -0.0064899440010697824 0 0.04599001801174666 -0.0064188716105948148 0 0.03848685115400597 0.0046493207915787281 0 0.044749591753448857 0.0042522636538568533 0 0.067975033075104774 0.01181747244453258 0 0.069199252898268018 0.010914742744854235 0 0.067618855844618381 0.010929557299070912 0 0.068862180275890819 0.011990979743233619 0 0.067975033075104774 0.01181747244453258 0 0.069199252898268018 0.010914742744854235 0 0.068862180275890819 0.011990979743233619 0 0.069199252898268018 0.010914742744854235 0 0.069899243949461967 0.011344103086136816 0 0.046679010213787654 -0.0062956457006183722 0 0.046717221185964344 -0.0066283739063830909 0 0.046353315038514496 -0.0064899440010697824 0 0.046679010213787654 -0.0062956457006183722 0 0.046717221185964344 -0.0066283739063830909 0 0.046816669393580847 -0.0064615013434176803 0 0.046717221185964344 -0.0066283739063830909 0 0.046353315038514496 -0.0064899440010697824 0 0.046307748166182106 -0.0066546350281324693 0 0.046353315038514496 -0.0064899440010697824 0 0.046218679928732118 -0.006421089382927252 0 0.04599001801174666 -0.0064188716105948148 0 0.046353315038514496 -0.0064899440010697824 0 0.046307748166182106 -0.0066546350281324693 0 0.046218679928732118 -0.006421089382927252 0 0.046307748166182106 -0.0066546350281324693 0 0.046218679928732118 -0.006421089382927252 0 0.045889183192804807 -0.0067119319761399119 0 0.047458692434864801 -0.0061009960504887556 0 0.047473613013026522 -0.0060910919197163359 0 0.04752347816113673 -0.0051665318128137957 0 0.046687151259992669 -0.0063448903325466826 0 0.046649160216684846 -0.0032554140939558369 0 0.046218679928732118 -0.006421089382927252 0 0.046687151259992669 -0.0063448903325466826 0 0.045889183192804807 -0.0067119319761399119 0 0.048783296269041501 -0.0043243684818619907 0 0.04752347816113673 -0.0051665318128137957 0 0.046649160216684846 -0.0032554140939558369 0 0.048783296269041501 -0.0043243684818619907 0 0.04752347816113673 -0.0051665318128137957 0 0.047965778032524921 -0.006534202942806407 0 0.04752347816113673 -0.0051665318128137957 0 0.047965778032524921 -0.006534202942806407 0 0.046687151259992669 -0.0063448903325466826 0 0.066197660291668778 0.011102711536749509 0 0.065929293343902989 0.010974807437410991 0 0.067618855844618381 0.010929557299070912 0 0.049484633765880602 0.0039901224236494823 0 0.049453955935473276 0.0039764328029340658 0 0.065937858553763995 0.010977837998166805 0 0.065938084443007861 0.011518863674813822 0 0.065196361951486995 0.011629983725413774 0 0.066197660291668778 0.011102711536749509 0 0.065937858553763995 0.010977837998166805 0 0.065938084443007861 0.011518863674813822 0 0.067010423003408204 0.011713139726507411 0 0.066197660291668778 0.011102711536749509 0 0.066316206281964371 0.011634886557976643 0 0.066197660291668778 0.011102711536749509 0 0.065938084443007861 0.011518863674813822 0 0.066316206281964371 0.011634886557976643 0 0.067010423003408204 0.011713139726507411 0 0.066197660291668778 0.011102711536749509 0 0.067618855844618381 0.010929557299070912 0 0.049453955935473276 0.0039764328029340658 0 0.044749591753448857 0.0042522636538568533 0 0.047965778032524921 -0.006534202942806407 0 0.04599001801174666 -0.0064188716105948148 0 0.046687151259992669 -0.0063448903325466826 0 0.067010423003408204 0.011713139726507411 0 0.067975033075104774 0.01181747244453258 0 0.067618855844618381 0.010929557299070912 0 0.046218679928732118 -0.006421089382927252 0 0.04599001801174666 -0.0064188716105948148 0 0.046687151259992669 -0.0063448903325466826 0 0.017313638967844613 0.0059833965387870282 0 0.015906604848255384 0.006722249499196524 0 0.015099758899853936 0.0059348337328692788 0 0.016388444909498198 0.0053993911903673138 0 0.017429032032886746 0.0061767269014963372 0 0.015160514831146799 0.006059923879502411 0 0.024087924606841268 0.0057956936951034915 0 0.02269911326673717 0.0057590240825997323 0 0.017313638967844613 0.0059833965387870282 0 0.016882906213814414 0.0068167519677073424 0 0.015906604848255384 0.006722249499196524 0 0.016388444909498198 0.0053993911903673138 0 0.017443722830382258 0.0049946155156011356 0 0.017429032032886746 0.0061767269014963372 0 0.016388444909498198 0.0053993911903673138 0 0.016323932056742201 0.0045960775078861598 0 0.015585398527098997 0.0051713271071565656 0 0.015865667226993594 0.0036703928568808373 0 0.016323932056742201 0.0045960775078861598 0 0.015066385752127296 0.0044482738076857377 0 0.017310680738386198 0.0038993842513133743 0 0.016323932056742201 0.0045960775078861598 0 0.017443722830382258 0.0049946155156011356 0 0.017310680738386198 0.0038993842513133743 0 0.015865667226993594 0.0036703928568808373 0 0.016323932056742201 0.0045960775078861598 0 0.016388444909498198 0.0053993911903673138 0 0.016323932056742201 0.0045960775078861598 0 0.017443722830382258 0.0049946155156011356 0 0.017310680738386198 0.0038993842513133743 0 0.017443722830382258 0.0049946155156011356 0 0.018384241880679317 0.0043453128585298484 0 0.017443722830382258 0.0049946155156011356 0 0.018384241880679317 0.0043453128585298484 0 0.01883811593313681 0.0051736079653582892 0 0.017313638967844613 0.0059833965387870282 0 0.019589387756833828 0.0060744800323732249 0 0.017602062806141072 0.0070646459914527424 0 0.024087924606841268 0.0057956936951034915 0 0.026271153015552235 0.0058504971291566355 0 0.017443722830382258 0.0049946155156011356 0 0.017429032032886746 0.0061767269014963372 0 0.01883811593313681 0.0051736079653582892 0 0.017313638967844613 0.0059833965387870282 0 0.017602062806141072 0.0070646459914527424 0 0.016882906213814414 0.0068167519677073424 0 0.019684533065265589 0.0062794184652825895 0 0.01883811593313681 0.0051736079653582892 0 0.020410080529426756 0.0051185956912549622 0 0.017429032032886746 0.0061767269014963372 0 0.019684533065265589 0.0062794184652825895 0 0.01883811593313681 0.0051736079653582892 0 0.026271153015552235 0.0058504971291566355 0 0.027751505478474596 0.0060161702419301378 0 0.026271153015552235 0.0058504971291566355 0 0.026151019404860015 0.0070128629725809922 0 0.01883811593313681 0.0051736079653582892 0 0.019672200466166277 0.0041292026132110273 0 0.020410080529426756 0.0051185956912549622 0 0.018384241880679317 0.0043453128585298484 0 0.01883811593313681 0.0051736079653582892 0 0.019672200466166277 0.0041292026132110273 0 0.023516036589976995 0.010232297441976687 0 0.026151019404860015 0.0070128629725809922 0 0.070661865928301162 0.014391845632099822 0 0.070833050387363927 0.013020862426414963 0 0.0701759944213209 0.013697370533538363 0 0.020667044538587417 0.0034060505956271907 0 0.019672200466166277 0.0041292026132110273 0 0.020410080529426756 0.0051185956912549622 0 0.070833050387363927 0.013020862426414963 0 0.070231566948963736 0.013100618461920111 0 0.070062097869927689 0.012677439935827293 0 0.070833050387363927 0.013020862426414963 0 0.0701759944213209 0.013697370533538363 0 0.070231566948963736 0.013100618461920111 0 0.030866680975394363 0.0062347113628511792 0 0.027751505478474596 0.0060161702419301378 0 0.068862180275890819 0.011990979743233619 0 0.070376465955110462 0.011977887504552732 0 0.069899243949461967 0.011344103086136816 0 0.068862180275890819 0.011990979743233619 0 0.070062097869927689 0.012677439935827293 0 0.070972237483403616 0.012064457079609715 0 0.026151019404860015 0.0070128629725809922 0 0.027751505478474596 0.0060161702419301378 0 0.029066635651862131 0.00070790073364064034 0 0.025503374117325492 0.0064117180750412166 0 0.026384726844415705 0.00058891424210453321 0 0.070833050387363927 0.013020862426414963 0 0.070062097869927689 0.012677439935827293 0 0.070972237483403616 0.012064457079609715 0 0.046679010213787654 -0.0062956457006183722 0 0.046890651094594719 -0.0064097823785636866 0 0.046960008867058367 -0.0063754410186138968 0 0.069199252898268018 0.010914742744854235 0 0.069899243949461967 0.011344103086136816 0 0.070540448625685426 0.010882678501396457 0 0.070376465955110462 0.011977887504552732 0 0.069899243949461967 0.011344103086136816 0 0.070540448625685426 0.010882678501396457 0 0.03848685115400597 0.0046493207915787281 0 0.029771155372942511 0.0052128377577748252 0 0.028025609345007394 0.002405906933305473 0 0.027119063081352247 0.0023949243289985217 0 0.046717221185964344 -0.0066283739063830909 0 0.04756329497861949 -0.0064578141152098053 0 0.047235279165829251 -0.0068280233038259331 0 0.046679010213787654 -0.0062956457006183722 0 0.046816669393580847 -0.0064615013434176803 0 0.046890651094594719 -0.0064097823785636866 0 0.046717221185964344 -0.0066283739063830909 0 0.046816669393580847 -0.0064615013434176803 0 0.046941086905278886 -0.0064662157142103176 0 0.046941086905278886 -0.0064662157142103176 0 0.046890651094594719 -0.0064097823785636866 0 0.046941162001632931 -0.0064153533814709897 0 0.046816669393580847 -0.0064615013434176803 0 0.046941086905278886 -0.0064662157142103176 0 0.046890651094594719 -0.0064097823785636866 0 0.046890651094594719 -0.0064097823785636866 0 0.046941162001632931 -0.0064153533814709897 0 0.046960008867058367 -0.0063754410186138968 0 0.027119063081352247 0.0023949243289985217 0 0.024275150454170311 0.0023413882373514851 0 0.046941162001632931 -0.0064153533814709897 0 0.046967017669945474 -0.0064044085573910867 0 0.046960008867058367 -0.0063754410186138968 0 0.04756329497861949 -0.0064578141152098053 0 0.047872031338272648 -0.0066188446041445977 0 0.048141280216654439 -0.0065100263234656782 0 0.046941086905278886 -0.0064662157142103176 0 0.046984639299222551 -0.0064081729110069558 0 0.047029720505396305 -0.0064098039834824131 0 0.046967017669945474 -0.0064044085573910867 0 0.046984639299222551 -0.0064081729110069558 0 0.046960008867058367 -0.0063754410186138968 0 0.046941086905278886 -0.0064662157142103176 0 0.046967017669945474 -0.0064044085573910867 0 0.046984639299222551 -0.0064081729110069558 0 0.046941086905278886 -0.0064662157142103176 0 0.046941162001632931 -0.0064153533814709897 0 0.046967017669945474 -0.0064044085573910867 0 0.04756329497861949 -0.0064578141152098053 0 0.047872031338272648 -0.0066188446041445977 0 0.047649948710870471 -0.00680312992397533 0 0.026271153015552235 0.0058504971291566355 0 0.025048447210254256 0.0035678832456817371 0 0.027751505478474596 0.0060161702419301378 0 0.029771155372942511 0.0052128377577748252 0 0.046984639299222551 -0.0064081729110069558 0 0.046960008867058367 -0.0063754410186138968 0 0.047011593136602567 -0.0063893298099882024 0 0.024995430896803675 0.0073625289812703351 0 0.023600989545789982 -0.0026783953297175515 0 0.031516194045795899 -0.003078709556217763 0 0.024995430896803675 0.0073625289812703351 0 0.022101113440130667 0.0072341694607518927 0 0.023600989545789982 -0.0026783953297175515 0 0.029771155372942511 0.0052128377577748252 0 0.025048447210254256 0.0035678832456817371 0 0.019589387756833828 0.0060744800323732249 0 0.017602062806141072 0.0070646459914527424 0 0.01834730975930924 0.0080624550075395606 0 0.017602062806141072 0.0070646459914527424 0 0.016723735013966616 0.0074962152505615607 0 0.016882906213814414 0.0068167519677073424 0 0.017602062806141072 0.0070646459914527424 0 0.016883322840531442 0.0081480459421352774 0 0.016723735013966616 0.0074962152505615607 0 0.025048447210254256 0.0035678832456817371 0 0.021543863778151422 0.0030754438761324342 0 0.017602062806141072 0.0070646459914527424 0 0.01834730975930924 0.0080624550075395606 0 0.016883322840531442 0.0081480459421352774 0 0.046984639299222551 -0.0064081729110069558 0 0.047011593136602567 -0.0063893298099882024 0 0.047029720505396305 -0.0064098039834824131 0 0.024275150454170311 0.0023413882373514851 0 0.022367385302723541 -0.00098417067070766511 0 0.048141280216654439 -0.0065100263234656782 0 0.048114422044058469 -0.0065557973166629488 0 0.048051522012505878 -0.0065930566326807384 0 0.025048447210254256 0.0035678832456817371 0 0.024275150454170311 0.0023413882373514851 0 0.048141280216654439 -0.0065100263234656782 0 0.048114422044058469 -0.0065557973166629488 0 0.048032737688820146 -0.0066617483183015582 0 0.047872031338272648 -0.0066188446041445977 0 0.048141280216654439 -0.0065100263234656782 0 0.048032737688820146 -0.0066617483183015582 0 0.024146575047792627 0.0043029662467019229 0 0.023897864201089129 0.0046975650640653181 0 0.023242748508739343 0.0043455503605027909 0 0.024275150454170311 0.0023413882373514851 0 0.018119274963613798 0.0025413974720671969 0 0.023897864201089129 0.0046975650640653181 0 0.023242748508739343 0.0043455503605027909 0 0.022338606372123867 0.0043882600536982556 0 0.017323420216660518 0.0019549228396403507 0 0.016960432328906479 0.0025256226658747459 0 0.01653454299902675 0.0017979688381185334 0 0.021543863778151422 0.0030754438761324342 0 0.018119274963613798 0.0025413974720671969 0 0.0083997381731551937 0.003535071970761109 0 0.0080640683877143318 0.0034553724295509 0 0.016723735013966616 0.0074962152505615607 0 0.015906604848255384 0.006722249499196524 0 0.014888471206684739 0.007233677244542892 0 0.016723735013966616 0.0074962152505615607 0 0.014530395480523119 0.0070886996606091242 0 0.015235383347631994 0.0082447261986877355 0 0.016883322840531442 0.0081480459421352774 0 0.016723735013966616 0.0074962152505615607 0 0.015235383347631994 0.0082447261986877355 0 0.016723735013966616 0.0074962152505615607 0 0.016882906213814414 0.0068167519677073424 0 0.015906604848255384 0.006722249499196524 0 0.016599220155222513 0.0030965857060161312 0 0.016960432328906479 0.0025256226658747459 0 0.016397837372707721 0.0025750844461553623 0 0.047953372426100961 -0.006499594936355919 0 0.048051522012505878 -0.0065930566326807384 0 0.047993513441433829 -0.0064889145624267798 0 0.01991419527364182 -0.0038493510223085916 0 0.022367385302723541 -0.00098417067070766511 0 0.048051522012505878 -0.0065930566326807384 0 0.048090986941689957 -0.0065749126151344057 0 0.047993513441433829 -0.0064889145624267798 0 0.01991419527364182 -0.0038493510223085916 0 0.020214747053378335 -0.0052011707515734742 0 0.016960432328906479 0.0025256226658747459 0 0.016397837372707721 0.0025750844461553623 0 0.01653454299902675 0.0017979688381185334 0 0.022883587129233815 -0.0068833665815334578 0 0.022676049332207886 -0.0069957039225753406 0 0.048114422044058469 -0.0065557973166629488 0 0.048051522012505878 -0.0065930566326807384 0 0.048090986941689957 -0.0065749126151344057 0 0.048114422044058469 -0.0065557973166629488 0 0.048032737688820146 -0.0066617483183015582 0 0.048137403700999851 -0.0069491566058532397 0 0.048032737688820146 -0.0066617483183015582 0 0.048137403700999851 -0.0069491566058532397 0 0.048025138114931795 -0.0068448857890959173 0 0.022676049332207886 -0.0069957039225753406 0 0.022793634270654273 -0.0070619603260274827 0 0.022676049332207886 -0.0069957039225753406 0 0.020214747053378335 -0.0052011707515734742 0 0.022210098703490527 -0.0020610776988917645 0 0.020662474633648904 -0.009626258153355511 0 0.027919144850119954 -0.0072381895250499019 0 0.022676049332207886 -0.0069957039225753406 0 0.023518103404809823 -0.0060876190045860206 0 0.048346466030090789 -0.0070613677210695069 0 0.047862758144277373 -0.0073986729546934218 0 0.048313522077255977 -0.0082779938588110474 0 0.047862758144277373 -0.0073986729546934218 0 0.047451821731249198 -0.0075483390878420499 0 0.047796928468871396 -0.0079204843807693416 0 0.047862758144277373 -0.0073986729546934218 0 0.047838568420157226 -0.0070441851878842165 0 0.047369905394114856 -0.0071580819362047467 0 0.048346466030090789 -0.0070613677210695069 0 0.047862758144277373 -0.0073986729546934218 0 0.047838568420157226 -0.0070441851878842165 0 0.048346466030090789 -0.0070613677210695069 0 0.047838568420157226 -0.0070441851878842165 0 0.048025138114931795 -0.0068448857890959173 0 0.047838568420157226 -0.0070441851878842165 0 0.048025138114931795 -0.0068448857890959173 0 0.047649948710870471 -0.00680312992397533 0 0.047872031338272648 -0.0066188446041445977 0 0.048025138114931795 -0.0068448857890959173 0 0.047649948710870471 -0.00680312992397533 0 0.047872031338272648 -0.0066188446041445977 0 0.048032737688820146 -0.0066617483183015582 0 0.048025138114931795 -0.0068448857890959173 0 0.047838568420157226 -0.0070441851878842165 0 0.047649948710870471 -0.00680312992397533 0 0.047369905394114856 -0.0071580819362047467 0 0.047649948710870471 -0.00680312992397533 0 0.047369905394114856 -0.0071580819362047467 0 0.047235279165829251 -0.0068280233038259331 0 0.04756329497861949 -0.0064578141152098053 0 0.047649948710870471 -0.00680312992397533 0 0.047235279165829251 -0.0068280233038259331 0 0.047369905394114856 -0.0071580819362047467 0 0.047235279165829251 -0.0068280233038259331 0 0.046879150805527799 -0.0070710352218363217 0 0.047369905394114856 -0.0071580819362047467 0 0.046879150805527799 -0.0070710352218363217 0 0.046946075911268689 -0.0075166443969176908 0 0.047369905394114856 -0.0071580819362047467 0 0.047451821731249198 -0.0075483390878420499 0 0.046946075911268689 -0.0075166443969176908 0 0.047862758144277373 -0.0073986729546934218 0 0.047369905394114856 -0.0071580819362047467 0 0.047451821731249198 -0.0075483390878420499 0 0.047451821731249198 -0.0075483390878420499 0 0.047354065612569315 -0.0080022842822080331 0 0.046946075911268689 -0.0075166443969176908 0 0.047170436989958341 -0.0067591803903469813 0 0.047171049228059099 -0.0067435342358530695 0 0.047354065612569315 -0.0080022842822080331 0 0.046946075911268689 -0.0075166443969176908 0 0.046728116112592435 -0.0079148234858662184 0 0.047354065612569315 -0.0080022842822080331 0 0.047101456848183919 -0.0088348068280007987 0 0.045758844566506224 -0.0085428428271293703 0 0.047451821731249198 -0.0075483390878420499 0 0.047354065612569315 -0.0080022842822080331 0 0.047796928468871396 -0.0079204843807693416 0 0.047354065612569315 -0.0080022842822080331 0 0.047101456848183919 -0.0088348068280007987 0 0.047964523611518643 -0.0085137851943824071 0 0.046590907535692665 -0.0096323663788487526 0 0.047749893345426432 -0.0094942784342076699 0 0.046786520476348896 -0.011107581350972794 0 0.047101456848183919 -0.0088348068280007987 0 0.046590907535692665 -0.0096323663788487526 0 0.045758844566506224 -0.0085428428271293703 0 0.047101456848183919 -0.0088348068280007987 0 0.046590907535692665 -0.0096323663788487526 0 0.047749893345426432 -0.0094942784342076699 0 0.023518103404809823 -0.0060876190045860206 0 0.02488801919048168 -0.0077526827658595185 0 0.02240093017612391 -0.0082226622572509362 0 0.022356595261560579 -0.007128610287671317 0 0.021881200938513864 -0.0094850670696104249 0 0.047749893345426432 -0.0094942784342076699 0 0.048660369480463074 -0.008296881693386559 0 0.048318251772171257 -0.010287344534272859 0 0.047101456848183919 -0.0088348068280007987 0 0.047749893345426432 -0.0094942784342076699 0 0.047964523611518643 -0.0085137851943824071 0 0.02240093017612391 -0.0082226622572509362 0 0.022737653948246318 -0.0090638724725405056 0 0.021881200938513864 -0.0094850670696104249 0 0.047862758144277373 -0.0073986729546934218 0 0.048313522077255977 -0.0082779938588110474 0 0.047796928468871396 -0.0079204843807693416 0 0.023518103404809823 -0.0060876190045860206 0 0.023707577172628357 -0.0060479174934926433 0 0.047749893345426432 -0.0094942784342076699 0 0.048660369480463074 -0.008296881693386559 0 0.047964523611518643 -0.0085137851943824071 0 0.047354065612569315 -0.0080022842822080331 0 0.047964523611518643 -0.0085137851943824071 0 0.047796928468871396 -0.0079204843807693416 0 0.048313522077255977 -0.0082779938588110474 0 0.047964523611518643 -0.0085137851943824071 0 0.047796928468871396 -0.0079204843807693416 0 0.023518103404809823 -0.0060876190045860206 0 0.020214747053378335 -0.0052011707515734742 0 0.022356595261560579 -0.007128610287671317 0 0.02330679008292073 -0.0078073018200535711 0 0.024706156554225624 -0.0063534488121302487 0 0.02240093017612391 -0.0082226622572509362 0 0.022356595261560579 -0.007128610287671317 0 0.02330679008292073 -0.0078073018200535711 0 0.014496611607365657 -0.0092515785391431744 0 0.015234623420704764 -0.0088864613383573855 0 0.015174308566421997 -0.0095749759617186157 0 0.022733087980795558 -0.0090601844848772831 0 0.02330679008292073 -0.0078073018200535711 0 0.024337780796178599 -0.008269575116085769 0 0.02299475143494983 -0.0082634304783950514 0 0.019820508805690366 -0.0072254086116576022 0 0.02240093017612391 -0.0082226622572509362 0 0.022733087980795558 -0.0090601844848772831 0 0.02330679008292073 -0.0078073018200535711 0 0.022993759648218752 -0.0082643409914043269 0 0.02299475143494983 -0.0082634304783950514 0 0.015234623420704764 -0.0088864613383573855 0 0.015174308566421997 -0.0095749759617186157 0 0.015713927749547048 -0.0094378510450076909 0 0.019820508805690366 -0.0072254086116576022 0 0.016678677794276418 -0.0061466176371373915 0 0.015234623420704764 -0.0088864613383573855 0 0.0159755594149255 -0.0085197532583530817 0 0.015713927749547048 -0.0094378510450076909 0 0.024337780796178599 -0.008269575116085769 0 0.024706156554225624 -0.0063534488121302487 0 0.025943600406080757 -0.0074776325073962341 0 0.02330679008292073 -0.0078073018200535711 0 0.024337780796178599 -0.008269575116085769 0 0.024706156554225624 -0.0063534488121302487 0 0.014871592505272882 -0.0027213149191959349 0 0.015119034795613122 -0.0026400700837570863 0 0.014726611338945792 -0.0024890472940618819 0 0.020214747053378335 -0.0052011707515734742 0 0.016678677794276418 -0.0061466176371373915 0 0.0457085364437936 -0.00745866458909229 0 0.045889183192804807 -0.0067119319761399119 0 0.046407752743765976 -0.0071760698052276512 0 0.0457085364437936 -0.00745866458909229 0 0.046407752743765976 -0.0071760698052276512 0 0.046156774870415786 -0.0076043871131590834 0 0.04751195479833991 -0.0061739392712663625 0 0.047473613013026522 -0.0060910919197163359 0 0.047108001906853832 0.00010753315786989493 0 0.049149256856792063 0.00045871110604676197 0 0.049506751272262943 -0.0016508377255898352 0 0.047108001906853832 0.00010753315786989493 0 0.046649160216684846 -0.0032554140939558369 0 0.049506751272262943 -0.0016508377255898352 0 0.048783296269041501 -0.0043243684818619907 0 0.046649160216684846 -0.0032554140939558369 0 0.049506751272262943 -0.0016508377255898352 0 0.046307748166182106 -0.0066546350281324693 0 0.045889183192804807 -0.0067119319761399119 0 0.046407752743765976 -0.0071760698052276512 0 0.046717221185964344 -0.0066283739063830909 0 0.046307748166182106 -0.0066546350281324693 0 0.046407752743765976 -0.0071760698052276512 0 0.046717221185964344 -0.0066283739063830909 0 0.046879150805527799 -0.0070710352218363217 0 0.046407752743765976 -0.0071760698052276512 0 0.046717221185964344 -0.0066283739063830909 0 0.047235279165829251 -0.0068280233038259331 0 0.046879150805527799 -0.0070710352218363217 0 0.046879150805527799 -0.0070710352218363217 0 0.046946075911268689 -0.0075166443969176908 0 0.046407752743765976 -0.0071760698052276512 0 0.046946075911268689 -0.0075166443969176908 0 0.046407752743765976 -0.0071760698052276512 0 0.046728116112592435 -0.0079148234858662184 0 0.046407752743765976 -0.0071760698052276512 0 0.046728116112592435 -0.0079148234858662184 0 0.046156774870415786 -0.0076043871131590834 0 0.046177774793870051 -0.0079766354711286926 0 0.046728116112592435 -0.0079148234858662184 0 0.046156774870415786 -0.0076043871131590834 0 0.047255443706327289 -0.0066757418209207426 0 0.047171049228059099 -0.0067435342358530695 0 0.046590907535692665 -0.0096323663788487526 0 0.045758844566506224 -0.0085428428271293703 0 0.045348069368061288 -0.010178315256545178 0 0.044230881173040769 -0.0090291602197883625 0 0.043707329486922013 -0.010228988320558697 0 0.045348069368061288 -0.010178315256545178 0 0.044230881173040769 -0.0090291602197883625 0 0.045758844566506224 -0.0085428428271293703 0 0.045348069368061288 -0.010178315256545178 0 0.044230881173040769 -0.0090291602197883625 0 0.043707329486922013 -0.010228988320558697 0 0.042664054627433716 -0.0094680954781059447 0 0.047255443706327289 -0.0066757418209207426 0 0.04755467300366957 -0.0065211458614949135 0 0.046177774793870051 -0.0079766354711286926 0 0.045909927235669945 -0.0077800037441647599 0 0.046156774870415786 -0.0076043871131590834 0 0.046177774793870051 -0.0079766354711286926 0 0.045909927235669945 -0.0077800037441647599 0 0.045605159658054173 -0.0081175469384243432 0 0.0457085364437936 -0.00745866458909229 0 0.045909927235669945 -0.0077800037441647599 0 0.046156774870415786 -0.0076043871131590834 0 0.047108001906853832 0.00010753315786989493 0 0.048486028984610283 0.0017537613373013923 0 0.047654251044094112 0.0033606799173167439 0 0.04751195479833991 -0.0061739392712663625 0 0.04755467300366957 -0.0065211458614949135 0 0.0457085364437936 -0.00745866458909229 0 0.045909927235669945 -0.0077800037441647599 0 0.045605159658054173 -0.0081175469384243432 0 0.047108001906853832 0.00010753315786989493 0 0.048486028984610283 0.0017537613373013923 0 0.049149256856792063 0.00045871110604676197 0 0.048486028984610283 0.0017537613373013923 0 0.048928085410480431 0.0024841635357720319 0 0.048544374673214132 0.0028529550552825037 0 0.048544374673214132 0.0028529550552825037 0 0.048921445877816438 0.0034687732848206121 0 0.049247842845435368 0.0029559123103760484 0 0.049059716313452476 0.0036905774479908306 0 0.048921445877816438 0.0034687732848206121 0 0.047654251044094112 0.0033606799173167439 0 0.048486028984610283 0.0017537613373013923 0 0.048544374673214132 0.0028529550552825037 0 0.047654251044094112 0.0033606799173167439 0 0.04755467300366957 -0.0065211458614949135 0 0.047417448275157238 -0.0068851263637856527 0 0.048928085410480431 0.0024841635357720319 0 0.048544374673214132 0.0028529550552825037 0 0.049247842845435368 0.0029559123103760484 0 0.043707329486922013 -0.010228988320558697 0 0.042664054627433716 -0.0094680954781059447 0 0.042509337646349059 -0.010714869703516825 0 0.042126168665017019 -0.010135889774011633 0 0.042774792391168423 -0.0099687869534883615 0 0.042619124996511042 -0.011030275250120916 0 0.04747137616845979 -0.0065236831376003016 0 0.04755467300366957 -0.0065211458614949135 0 0.048544374673214132 0.0028529550552825037 0 0.048921445877816438 0.0034687732848206121 0 0.047654251044094112 0.0033606799173167439 0 0.04747137616845979 -0.0065236831376003016 0 0.047472702052012525 -0.0065208487081371931 0 0.04747137616845979 -0.0065236831376003016 0 0.047700892991677006 -0.0063518785149661869 0 0.049095692081083428 0.0036763153194114564 0 0.049991733600476443 0.003186788883395352 0 0.051811960285077438 0.0038869314659578406 0 0.049991733600476443 0.003186788883395352 0 0.051811960285077438 0.0038869314659578406 0 0.050689311904537827 0.002661176119639291 0 0.049991733600476443 0.003186788883395352 0 0.049731212939901639 0.0025860779900014653 0 0.050689311904537827 0.002661176119639291 0 0.049247842845435368 0.0029559123103760484 0 0.049991733600476443 0.003186788883395352 0 0.049731212939901639 0.0025860779900014653 0 0.048928085410480431 0.0024841635357720319 0 0.049247842845435368 0.0029559123103760484 0 0.049731212939901639 0.0025860779900014653 0 0.049247842845435368 0.0029559123103760484 0 0.049320139479312186 0.0033224701565856573 0 0.049991733600476443 0.003186788883395352 0 0.049095692081083428 0.0036763153194114564 0 0.049320139479312186 0.0033224701565856573 0 0.049991733600476443 0.003186788883395352 0 0.048921445877816438 0.0034687732848206121 0 0.049247842845435368 0.0029559123103760484 0 0.049320139479312186 0.0033224701565856573 0 0.049095692081083428 0.0036763153194114564 0 0.048921445877816438 0.0034687732848206121 0 0.049320139479312186 0.0033224701565856573 0 0.051811960285077438 0.0038869314659578406 0 0.051935949932426659 0.0026955675806138242 0 0.050689311904537827 0.002661176119639291 0 0.051811960285077438 0.0038869314659578406 0 0.051935949932426659 0.0026955675806138242 0 0.052756615019272347 0.0034159686471513752 0 0.051935949932426659 0.0026955675806138242 0 0.051082192892842111 0.0016925892905504615 0 0.052429106165508839 0.0008706059176511675 0 0.051935949932426659 0.0026955675806138242 0 0.051082192892842111 0.0016925892905504615 0 0.050689311904537827 0.002661176119639291 0 0.051082192892842111 0.0016925892905504615 0 0.052429106165508839 0.0008706059176511675 0 0.050863096819457214 0.00044055534222017312 0 0.048486028984610283 0.0017537613373013923 0 0.048928085410480431 0.0024841635357720319 0 0.04977260295588274 0.0016061424610644796 0 0.048928085410480431 0.0024841635357720319 0 0.049731212939901639 0.0025860779900014653 0 0.04977260295588274 0.0016061424610644796 0 0.049731212939901639 0.0025860779900014653 0 0.050689311904537827 0.002661176119639291 0 0.04977260295588274 0.0016061424610644796 0 0.051082192892842111 0.0016925892905504615 0 0.050689311904537827 0.002661176119639291 0 0.04977260295588274 0.0016061424610644796 0 0.051082192892842111 0.0016925892905504615 0 0.04977260295588274 0.0016061424610644796 0 0.050863096819457214 0.00044055534222017312 0 0.04977260295588274 0.0016061424610644796 0 0.049149256856792063 0.00045871110604676197 0 0.050863096819457214 0.00044055534222017312 0 0.048486028984610283 0.0017537613373013923 0 0.04977260295588274 0.0016061424610644796 0 0.049149256856792063 0.00045871110604676197 0 0.049149256856792063 0.00045871110604676197 0 0.049506751272262943 -0.0016508377255898352 0 0.050863096819457214 0.00044055534222017312 0 0.049506751272262943 -0.0016508377255898352 0 0.050863096819457214 0.00044055534222017312 0 0.051190102001182979 -0.0012788925359179023 0 0.050863096819457214 0.00044055534222017312 0 0.053073306590404677 -0.00083583864722345212 0 0.051190102001182979 -0.0012788925359179023 0 0.052429106165508839 0.0008706059176511675 0 0.050863096819457214 0.00044055534222017312 0 0.053073306590404677 -0.00083583864722345212 0 0.05161150119088697 -0.0029456665941512395 0 0.05420036633715461 -0.002279891576801198 0 0.05374268178842808 -0.0042873993880765439 0 0.053073306590404677 -0.00083583864722345212 0 0.05161150119088697 -0.0029456665941512395 0 0.05420036633715461 -0.002279891576801198 0 0.053073306590404677 -0.00083583864722345212 0 0.051190102001182979 -0.0012788925359179023 0 0.05161150119088697 -0.0029456665941512395 0 0.052207109987637272 0.0035224580581387625 0 0.052094739967177568 0.0037580599378040317 0 0.048783296269041501 -0.0043243684818619907 0 0.049506751272262943 -0.0016508377255898352 0 0.051490528718577205 -0.0029571293181730354 0 0.049506751272262943 -0.0016508377255898352 0 0.051190102001182979 -0.0012788925359179023 0 0.05161150119088697 -0.0029456665941512395 0 0.052213530196559166 0.0034637746277352936 0 0.052207109987637272 0.0035224580581387625 0 0.053083967823198998 0.0036996489351508676 0 0.05367712235863447 0.0035575317987014978 0 0.056262266770248079 -0.0031482496131606174 0 0.05420036633715461 -0.002279891576801198 0 0.05374268178842808 -0.0042873993880765439 0 0.053083967823198998 0.0036996489351508676 0 0.052094739967177568 0.0037580599378040317 0 0.056262266770248079 -0.0031482496131606174 0 0.05420036633715461 -0.002279891576801198 0 0.055421440552767889 0.00030385947694635575 0 0.052429106165508839 0.0008706059176511675 0 0.053073306590404677 -0.00083583864722345212 0 0.055421440552767889 0.00030385947694635575 0 0.053073306590404677 -0.00083583864722345212 0 0.05420036633715461 -0.002279891576801198 0 0.055421440552767889 0.00030385947694635575 0 0.053314199429047013 0.0023227987003034897 0 0.053932203655464424 0.0027978101210833521 0 0.054389534133123453 0.0018132179300192244 0 0.053776512800887848 0.0033798121371586272 0 0.05367712235863447 0.0035575317987014978 0 0.056262266770248079 -0.0031482496131606174 0 0.055421440552767889 0.00030385947694635575 0 0.058771721382626319 -0.0020063459969655276 0 0.053314199429047013 0.0023227987003034897 0 0.053932203655464424 0.0027978101210833521 0 0.053493859941444941 0.0033542208431659635 0 0.053718798289358535 0.003381175224667268 0 0.053776512800887848 0.0033798121371586272 0 0.053314199429047013 0.0023227987003034897 0 0.052756615019272347 0.0034159686471513752 0 0.053493859941444941 0.0033542208431659635 0 0.051935949932426659 0.0026955675806138242 0 0.052429106165508839 0.0008706059176511675 0 0.055421440552767889 0.00030385947694635575 0 0.051935949932426659 0.0026955675806138242 0 0.053314199429047013 0.0023227987003034897 0 0.052756615019272347 0.0034159686471513752 0 0.052756615019272347 0.0034159686471513752 0 0.053493859941444941 0.0033542208431659635 0 0.053161739987477079 0.0039989937586427868 0 0.053932203655464424 0.0027978101210833521 0 0.053493859941444941 0.0033542208431659635 0 0.054397864057554014 0.0034337417623243596 0 0.053493859941444941 0.0033542208431659635 0 0.054397864057554014 0.0034337417623243596 0 0.05377833397078377 0.0040376443412326055 0 0.053493859941444941 0.0033542208431659635 0 0.053161739987477079 0.0039989937586427868 0 0.05377833397078377 0.0040376443412326055 0 0.054397864057554014 0.0034337417623243596 0 0.055122868626019166 0.0034367500556089607 0 0.054888311596631004 0.0039560477579421412 0 0.054397864057554014 0.0034337417623243596 0 0.055122868626019166 0.0034367500556089607 0 0.054987286329231534 0.0030237217321104383 0 0.055122868626019166 0.0034367500556089607 0 0.055388485796326895 0.0037498034104984632 0 0.054888311596631004 0.0039560477579421412 0 0.054987286329231534 0.0030237217321104383 0 0.054569138772005706 0.0026898484694158828 0 0.055267147173546367 0.002345597833058195 0 0.054987286329231534 0.0030237217321104383 0 0.055560827431185587 0.0031481414014708094 0 0.055267147173546367 0.002345597833058195 0 0.055122868626019166 0.0034367500556089607 0 0.054987286329231534 0.0030237217321104383 0 0.055560827431185587 0.0031481414014708094 0 0.053932203655464424 0.0027978101210833521 0 0.054397864057554014 0.0034337417623243596 0 0.054569138772005706 0.0026898484694158828 0 0.054397864057554014 0.0034337417623243596 0 0.054987286329231534 0.0030237217321104383 0 0.054569138772005706 0.0026898484694158828 0 0.054999971717364773 0.00025644039025701836 0 0.055916281514099518 0.00048246369937362908 0 0.05517617808509398 0.0031203597597454728 0 0.056030987461504519 0.0034582623172989837 0 0.055696503485948165 0.0035739554977951751 0 0.055700468481365492 0.0039287980971424788 0 0.056030987461504519 0.0034582623172989837 0 0.055784380955059276 0.0033700050120738872 0 0.055696503485948165 0.0035739554977951751 0 0.056030987461504519 0.0034582623172989837 0 0.055784380955059276 0.0033700050120738872 0 0.055752429331637952 0.0032319230152721003 0 0.055784380955059276 0.0033700050120738872 0 0.055578216783829799 0.0034147823789864164 0 0.055807352660644988 0.0032231513924263107 0 0.055784380955059276 0.0033700050120738872 0 0.055696503485948165 0.0035739554977951751 0 0.055578216783829799 0.0034147823789864164 0 0.055122868626019166 0.0034367500556089607 0 0.055388485796326895 0.0037498034104984632 0 0.055578216783829799 0.0034147823789864164 0 0.055696503485948165 0.0035739554977951751 0 0.055388485796326895 0.0037498034104984632 0 0.055578216783829799 0.0034147823789864164 0 0.055122868626019166 0.0034367500556089607 0 0.055578216783829799 0.0034147823789864164 0 0.055560827431185587 0.0031481414014708094 0 0.055560827431185587 0.0031481414014708094 0 0.055807352660644988 0.0032231513924263107 0 0.056111681071103682 0.0033011543785395879 0 0.055578216783829799 0.0034147823789864164 0 0.055560827431185587 0.0031481414014708094 0 0.055807352660644988 0.0032231513924263107 0 0.054999971717364773 0.00025644039025701836 0 0.05517617808509398 0.0031203597597454728 0 0.055000195914575986 0.003449712375904068 0 0.056030987461504519 0.0034582623172989837 0 0.055752429331637952 0.0032319230152721003 0 0.05517617808509398 0.0031203597597454728 0 0.050618006097734501 -0.0044172397754002665 0 0.050608108454272563 -0.0040231732039130354 0 0.055784380955059276 0.0033700050120738872 0 0.055807352660644988 0.0032231513924263107 0 0.055752429331637952 0.0032319230152721003 0 0.055807352660644988 0.0032231513924263107 0 0.055752429331637952 0.0032319230152721003 0 0.055684126620542292 0.0031654346430157452 0 0.055807352660644988 0.0032231513924263107 0 0.056111681071103682 0.0033011543785395879 0 0.055684126620542292 0.0031654346430157452 0 0.055684126620542292 0.0031654346430157452 0 0.05517617808509398 0.0031203597597454728 0 0.055000195914575986 0.003449712375904068 0 0.056111681071103682 0.0033011543785395879 0 0.055684126620542292 0.0031654346430157452 0 0.055000195914575986 0.003449712375904068 0 0.055752429331637952 0.0032319230152721003 0 0.055684126620542292 0.0031654346430157452 0 0.05517617808509398 0.0031203597597454728 0 0.055000195914575986 0.003449712375904068 0 0.056725337069890899 0.0052793028592706577 0 0.054999698089038054 0.006642918772275846 0 0.056111681071103682 0.0033011543785395879 0 0.055000195914575986 0.003449712375904068 0 0.056725337069890899 0.0052793028592706577 0 0.054047247063399313 0.0036513969529689628 0 0.053973063212267705 0.0036350826496570408 0 0.056111681071103682 0.0033011543785395879 0 0.056725337069890899 0.0052793028592706577 0 0.058612779889494322 0.0043701076541270267 0 0.055560827431185587 0.0031481414014708094 0 0.056111681071103682 0.0033011543785395879 0 0.055267147173546367 0.002345597833058195 0 0.056725337069890899 0.0052793028592706577 0 0.058612779889494322 0.0043701076541270267 0 0.058879237488551422 0.006872002849791445 0 0.056725337069890899 0.0052793028592706577 0 0.058879237488551422 0.006872002849791445 0 0.056685062662800552 0.0074526768781628776 0 0.056725337069890899 0.0052793028592706577 0 0.054999698089038054 0.006642918772275846 0 0.056685062662800552 0.0074526768781628776 0 0.053932203655464424 0.0027978101210833521 0 0.054569138772005706 0.0026898484694158828 0 0.054389534133123453 0.0018132179300192244 0 0.054569138772005706 0.0026898484694158828 0 0.055267147173546367 0.002345597833058195 0 0.054389534133123453 0.0018132179300192244 0 0.053973063212267705 0.0036350826496570408 0 0.05367712235863447 0.0035575317987014978 0 0.058612779889494322 0.0043701076541270267 0 0.058879237488551422 0.006872002849791445 0 0.06096057881478386 0.0054411847337102835 0 0.053835640149786007 0.0035290508712815787 0 0.05367712235863447 0.0035575317987014978 0 0.062931152854096478 0.006452250616097617 0 0.0608418176904683 0.005533305375855847 0 0.060916617810907216 0.0076177867361274668 0 0.058879237488551422 0.006872002849791445 0 0.0608418176904683 0.005533305375855847 0 0.060916617810907216 0.0076177867361274668 0 0.060916617810907216 0.0076177867361274668 0 0.060958125558909663 0.0100618636722247 0 0.06300834589483098 0.0087030361474959225 0 0.056120910116005264 0.0094061600274888656 0 0.055753170095494457 0.0095478104155108899 0 0.060916617810907216 0.0076177867361274668 0 0.059725387147591305 0.0092250169332928744 0 0.057726716793237945 0.0090671938980036622 0 0.058879237488551422 0.006872002849791445 0 0.060916617810907216 0.0076177867361274668 0 0.057889825064784822 0.0086350987511820496 0 0.059370400620927438 0.010195616177349189 0 0.057726716793237945 0.0090671938980036622 0 0.058258637171943281 0.010808389288452921 0 0.059725387147591305 0.0092250169332928744 0 0.059370400620927438 0.010195616177349189 0 0.057726716793237945 0.0090671938980036622 0 0.059370400620927438 0.010195616177349189 0 0.059928272633312296 0.01075223714367738 0 0.059238887523097215 0.011092768283872264 0 0.059370400620927438 0.010195616177349189 0 0.059238887523097215 0.011092768283872264 0 0.058258637171943281 0.010808389288452921 0 0.060916617810907216 0.0076177867361274668 0 0.059725387147591305 0.0092250169332928744 0 0.060958125558909663 0.0100618636722247 0 0.053166638898105092 0.0037422876897255388 0 0.053066734512405012 0.0037191200108981481 0 0.059370400620927438 0.010195616177349189 0 0.059928272633312296 0.01075223714367738 0 0.060688486457522818 0.010306185442672599 0 0.05308775174580755 0.003726240126972639 0 0.053066734512405012 0.0037191200108981481 0 0.059725387147591305 0.0092250169332928744 0 0.059370400620927438 0.010195616177349189 0 0.060958125558909663 0.0100618636722247 0 0.054999698089038054 0.006642918772275846 0 0.056685062662800552 0.0074526768781628776 0 0.055000025721296246 0.0098361201423907835 0 0.058879237488551422 0.006872002849791445 0 0.056685062662800552 0.0074526768781628776 0 0.057889825064784822 0.0086350987511820496 0 0.057726716793237945 0.0090671938980036622 0 0.056728737764648436 0.010975515089675892 0 0.058258637171943281 0.010808389288452921 0 0.056685062662800552 0.0074526768781628776 0 0.057889825064784822 0.0086350987511820496 0 0.055000025721296246 0.0098361201423907835 0 0.055753170095494457 0.0095478104155108899 0 0.055002642794230554 0.009835254648605761 0 0.057726716793237945 0.0090671938980036622 0 0.05499990395026904 0.0098370166979688273 0 0.056728737764648436 0.010975515089675892 0 0.056728737764648436 0.010975515089675892 0 0.056924141491130557 0.012512153135257642 0 0.054999938248609048 0.012634811343668098 0 0.05499990395026904 0.0098370166979688273 0 0.056728737764648436 0.010975515089675892 0 0.054999938248609048 0.012634811343668098 0 0.056728737764648436 0.010975515089675892 0 0.057759622740839678 0.011815320849299137 0 0.056924141491130557 0.012512153135257642 0 0.056728737764648436 0.010975515089675892 0 0.057759622740839678 0.011815320849299137 0 0.058258637171943281 0.010808389288452921 0 0.058747893080987955 0.014081330428674706 0 0.057058023760931921 0.014354900171655808 0 0.058060243664271378 0.012912336641591436 0 0.057058023760931921 0.014354900171655808 0 0.058060243664271378 0.012912336641591436 0 0.056924141491130557 0.012512153135257642 0 0.057759622740839678 0.011815320849299137 0 0.058060243664271378 0.012912336641591436 0 0.056924141491130557 0.012512153135257642 0 0.057058023760931921 0.014354900171655808 0 0.056924141491130557 0.012512153135257642 0 0.054999938248609048 0.012634811343668098 0 0.059788197142114592 0.011771028672248664 0 0.060909730358664697 0.011869768702783706 0 0.059660367506383288 0.013010473741450625 0 0.059928272633312296 0.01075223714367738 0 0.060497298450464483 0.010563240250692012 0 0.060909730358664697 0.011869768702783706 0 0.059928272633312296 0.01075223714367738 0 0.059788197142114592 0.011771028672248664 0 0.060909730358664697 0.011869768702783706 0 0.059788197142114592 0.011771028672248664 0 0.059238887523097215 0.011092768283872264 0 0.058799355158237795 0.011863767700456114 0 0.059928272633312296 0.01075223714367738 0 0.059788197142114592 0.011771028672248664 0 0.059238887523097215 0.011092768283872264 0 0.057759622740839678 0.011815320849299137 0 0.058258637171943281 0.010808389288452921 0 0.058799355158237795 0.011863767700456114 0 0.059238887523097215 0.011092768283872264 0 0.058258637171943281 0.010808389288452921 0 0.058799355158237795 0.011863767700456114 0 0.057759622740839678 0.011815320849299137 0 0.058060243664271378 0.012912336641591436 0 0.058799355158237795 0.011863767700456114 0 0.059788197142114592 0.011771028672248664 0 0.058799355158237795 0.011863767700456114 0 0.059660367506383288 0.013010473741450625 0 0.058747893080987955 0.014081330428674706 0 0.058060243664271378 0.012912336641591436 0 0.059660367506383288 0.013010473741450625 0 0.058060243664271378 0.012912336641591436 0 0.058799355158237795 0.011863767700456114 0 0.059660367506383288 0.013010473741450625 0 0.059966304566478723 0.014485679246076156 0 0.058747893080987955 0.014081330428674706 0 0.059660367506383288 0.013010473741450625 0 0.059966304566478723 0.014485679246076156 0 0.059660367506383288 0.013010473741450625 0 0.061051021029244604 0.013819229984147221 0 0.060909730358664697 0.011869768702783706 0 0.059660367506383288 0.013010473741450625 0 0.061051021029244604 0.013819229984147221 0 0.060909730358664697 0.011869768702783706 0 0.061051021029244604 0.013819229984147221 0 0.062552368598593408 0.012475130203184796 0 0.062488378611692055 0.014094499245115215 0 0.061051021029244604 0.013819229984147221 0 0.062552368598593408 0.012475130203184796 0 0.060909730358664697 0.011869768702783706 0 0.062552368598593408 0.012475130203184796 0 0.062494135223402893 0.010797750447941332 0 0.062552368598593408 0.012475130203184796 0 0.063931618447372246 0.012047919939044084 0 0.062494135223402893 0.010797750447941332 0 0.062552368598593408 0.012475130203184796 0 0.06372735623242258 0.013429259850466568 0 0.063931618447372246 0.012047919939044084 0 0.062488378611692055 0.014094499245115215 0 0.062552368598593408 0.012475130203184796 0 0.06372735623242258 0.013429259850466568 0 0.06372735623242258 0.013429259850466568 0 0.065097440245585406 0.012962990793994779 0 0.063931618447372246 0.012047919939044084 0 0.065062936111339398 0.014728809829805107 0 0.066112439988686739 0.013467375461237678 0 0.065097440245585406 0.012962990793994779 0 0.065062936111339398 0.014728809829805107 0 0.06372735623242258 0.013429259850466568 0 0.065097440245585406 0.012962990793994779 0 0.065097440245585406 0.012962990793994779 0 0.065196361951486995 0.011629983725413774 0 0.063931618447372246 0.012047919939044084 0 0.066119188352272651 0.012213435053608076 0 0.065097440245585406 0.012962990793994779 0 0.065196361951486995 0.011629983725413774 0 0.065196361951486995 0.011629983725413774 0 0.063931618447372246 0.012047919939044084 0 0.064285490425409861 0.010954522452426941 0 0.051830534090692569 0.0040912952597796648 0 0.051797826868680043 0.0041587765226795796 0 0.051920023009956476 0.0041392374020139044 0 0.063931618447372246 0.012047919939044084 0 0.064285490425409861 0.010954522452426941 0 0.062494135223402893 0.010797750447941332 0 0.065937858553763995 0.010977837998166805 0 0.065196361951486995 0.011629983725413774 0 0.064285490425409861 0.010954522452426941 0 0.051663811682122744 0.004100215498725128 0 0.051830534090692569 0.0040912952597796648 0 0.051797826868680043 0.0041587765226795796 0 0.049453955935473276 0.0039764328029340658 0 0.05137177983502305 0.0039737900766647228 0 0.049453955935473276 0.0039764328029340658 0 0.050741926147353011 0.0037965238794059734 0 0.048783296269041501 -0.0043243684818619907 0 0.047965778032524921 -0.006534202942806407 0 0.050816587902219275 -0.0054531428415512898 0 0.048783296269041501 -0.0043243684818619907 0 0.051490528718577205 -0.0029571293181730354 0 0.050816587902219275 -0.0054531428415512898 0 0.050741926147353011 0.0037965238794059734 0 0.052094739967177568 0.0037580599378040317 0 0.051490528718577205 -0.0029571293181730354 0 0.050816587902219275 -0.0054531428415512898 0 0.053523833780295064 -0.00423582806466654 0 0.051797826868680043 0.0041587765226795796 0 0.051920023009956476 0.0041392374020139044 0 0.051930358333311125 0.0042176712535500795 0 0.062931152854096478 0.006452250616097617 0 0.065039674548696705 0.0074089316025178461 0 0.06300834589483098 0.0087030361474959225 0 0.052094739967177568 0.0037580599378040317 0 0.05270122192137771 0.003723062273354439 0 0.051920023009956476 0.0041392374020139044 0 0.051930358333311125 0.0042176712535500795 0 0.052045752333016691 0.0041462050373465799 0 0.062931152854096478 0.006452250616097617 0 0.060916617810907216 0.0076177867361274668 0 0.06300834589483098 0.0087030361474959225 0 0.060497298450464483 0.010563240250692012 0 0.060909730358664697 0.011869768702783706 0 0.062494135223402893 0.010797750447941332 0 0.053066734512405012 0.0037191200108981481 0 0.05270122192137771 0.003723062273354439 0 0.053066734512405012 0.0037191200108981481 0 0.052490099310166696 0.0038913849849938524 0 0.052162240664039038 0.0040735637295871898 0 0.052045752333016691 0.0041462050373465799 0 0.05199583547904997 0.0040823769806856642 0 0.051920023009956476 0.0041392374020139044 0 0.052045752333016691 0.0041462050373465799 0 0.05199583547904997 0.0040823769806856642 0 0.05137177983502305 0.0039737900766647228 0 0.052490099310166696 0.0038913849849938524 0 0.051830534090692569 0.0040912952597796648 0 0.051920023009956476 0.0041392374020139044 0 0.05199583547904997 0.0040823769806856642 0 -0.035363834216362217 0.0029765715175526092 0 -0.035555775250922128 0.0020910064028874286 0 -0.035690018381749913 0.0033408633901635494 0 -0.035363834216362217 0.0029765715175526092 0 -0.03449600553885207 0.0020312105603817261 0 -0.035555775250922128 0.0020910064028874286 0 -0.03449600553885207 0.0020312105603817261 0 -0.035380684458408404 0.0040455008278409569 0 -0.031406525648048467 0.0026571910895679908 0 -0.035363834216362217 0.0029765715175526092 0 -0.03449600553885207 0.0020312105603817261 0 -0.035380684458408404 0.0040455008278409569 0 -0.03449600553885207 0.0020312105603817261 0 -0.033136266006688959 0.00071254709772207024 0 -0.034371923416351424 0.00044211670488773265 0 -0.033136266006688959 0.00071254709772207024 0 -0.034371923416351424 0.00044211670488773265 0 -0.033270836427332716 -0.00079297486426869448 0 -0.034371923416351424 0.00044211670488773265 0 -0.035066194441017745 0.00073094621462257189 0 -0.034983934923207394 0.0014006957412033654 0 -0.03449600553885207 0.0020312105603817261 0 -0.034371923416351424 0.00044211670488773265 0 -0.034983934923207394 0.0014006957412033654 0 -0.03449600553885207 0.0020312105603817261 0 -0.034983934923207394 0.0014006957412033654 0 -0.035555775250922128 0.0020910064028874286 0 -0.035555775250922128 0.0020910064028874286 0 -0.035626984844584077 0.0014331197154147473 0 -0.036096306334615358 0.0016949276616186771 0 -0.034983934923207394 0.0014006957412033654 0 -0.035555775250922128 0.0020910064028874286 0 -0.035626984844584077 0.0014331197154147473 0 -0.035066194441017745 0.00073094621462257189 0 -0.035626984844584077 0.0014331197154147473 0 -0.035331203743047331 -0.00045993020254206927 0 -0.035066194441017745 0.00073094621462257189 0 -0.034983934923207394 0.0014006957412033654 0 -0.035626984844584077 0.0014331197154147473 0 -0.036096306334615358 0.0016949276616186771 0 -0.036396316886072526 0.0013637058165461918 0 -0.036433619911067965 0.0019767346086019379 0 -0.035555775250922128 0.0020910064028874286 0 -0.036096306334615358 0.0016949276616186771 0 -0.036433619911067965 0.0019767346086019379 0 -0.035626984844584077 0.0014331197154147473 0 -0.03595014939842045 0.0012980588800022847 0 -0.036096306334615358 0.0016949276616186771 0 -0.03595014939842045 0.0012980588800022847 0 -0.036096306334615358 0.0016949276616186771 0 -0.036396316886072526 0.0013637058165461918 0 -0.036396316886072526 0.0013637058165461918 0 -0.036433619911067965 0.0019767346086019379 0 -0.036873374483670146 0.0016382799140854892 0 -0.036396316886072526 0.0013637058165461918 0 -0.036766207480879151 0.0012464519455602423 0 -0.036873374483670146 0.0016382799140854892 0 -0.036433619911067965 0.0019767346086019379 0 -0.037105317765965713 0.0021366565502353978 0 -0.036873374483670146 0.0016382799140854892 0 -0.01521535533016301 0.0028426747315411739 0 -0.012046635453002628 0.0022492565610195995 0 -0.035909606092089381 0.0028912426833728696 0 -0.035761613385862936 0.0031823366362659419 0 -0.035959508603945547 0.0030657709332002248 0 -0.016203696209436728 0.003022175191994696 0 -0.01521535533016301 0.0028426747315411739 0 -0.035555775250922128 0.0020910064028874286 0 -0.035909606092089381 0.0028912426833728696 0 -0.035690018381749913 0.0033408633901635494 0 -0.035909606092089381 0.0028912426833728696 0 -0.035690018381749913 0.0033408633901635494 0 -0.035761613385862936 0.0031823366362659419 0 -0.035690018381749913 0.0033408633901635494 0 -0.035761613385862936 0.0031823366362659419 0 -0.035651585116001333 0.0032017967654781611 0 -0.035761613385862936 0.0031823366362659419 0 -0.035638440637413824 0.0032133234194165429 0 -0.035959508603945547 0.0030657709332002248 0 -0.035638440637413824 0.0032133234194165429 0 -0.035651585116001333 0.0032017967654781611 0 -0.035309813550849473 0.002603031866473413 0 -0.035761613385862936 0.0031823366362659419 0 -0.035638440637413824 0.0032133234194165429 0 -0.035651585116001333 0.0032017967654781611 0 -0.035690018381749913 0.0033408633901635494 0 -0.035651585116001333 0.0032017967654781611 0 -0.035942563372523495 0.003228067024352901 0 -0.035690018381749913 0.0033408633901635494 0 -0.035942563372523495 0.003228067024352901 0 -0.035380684458408404 0.0040455008278409569 0 -0.035363834216362217 0.0029765715175526092 0 -0.035690018381749913 0.0033408633901635494 0 -0.035380684458408404 0.0040455008278409569 0 -0.035942563372523495 0.003228067024352901 0 -0.035380684458408404 0.0040455008278409569 0 -0.036751438475012034 0.0031999724446697946 0 -0.035380684458408404 0.0040455008278409569 0 -0.036751438475012034 0.0031999724446697946 0 -0.037905089872059108 0.0037927404722911937 0 -0.036751438475012034 0.0031999724446697946 0 -0.037905089872059108 0.0037927404722911937 0 -0.038733348034255037 0.0027777103165676294 0 -0.039168266301540751 0.0036470362856758439 0 -0.04017739641946344 0.0033220269984440168 0 -0.038733348034255037 0.0027777103165676294 0 -0.037905089872059108 0.0037927404722911937 0 -0.039168266301540751 0.0036470362856758439 0 -0.038733348034255037 0.0027777103165676294 0 -0.039168266301540751 0.0036470362856758439 0 -0.039249542959974369 0.0046528396842993531 0 -0.039991691405148938 0.0041029882247561773 0 -0.037905089872059108 0.0037927404722911937 0 -0.039168266301540751 0.0036470362856758439 0 -0.039249542959974369 0.0046528396842993531 0 -0.037905089872059108 0.0037927404722911937 0 -0.039249542959974369 0.0046528396842993531 0 -0.038372088061360249 0.0059334786243450607 0 -0.039249542959974369 0.0046528396842993531 0 -0.039942359368458295 0.0056075337258138904 0 -0.038372088061360249 0.0059334786243450607 0 -0.035380684458408404 0.0040455008278409569 0 -0.037905089872059108 0.0037927404722911937 0 -0.038372088061360249 0.0059334786243450607 0 -0.041845949677164401 0.0039447051852492887 0 -0.04128582650080926 0.0031416355548905296 0 -0.042364554755881301 0.0031823992096862209 0 -0.041845949677164401 0.0039447051852492887 0 -0.040891943679370615 0.0040697684575691255 0 -0.04128582650080926 0.0031416355548905296 0 -0.041845949677164401 0.0039447051852492887 0 -0.040891943679370615 0.0040697684575691255 0 -0.041547604246074954 0.0049067568510823174 0 -0.040891943679370615 0.0040697684575691255 0 -0.04017739641946344 0.0033220269984440168 0 -0.04128582650080926 0.0031416355548905296 0 -0.039168266301540751 0.0036470362856758439 0 -0.04017739641946344 0.0033220269984440168 0 -0.039991691405148938 0.0041029882247561773 0 -0.040891943679370615 0.0040697684575691255 0 -0.04017739641946344 0.0033220269984440168 0 -0.039991691405148938 0.0041029882247561773 0 -0.039249542959974369 0.0046528396842993531 0 -0.039991691405148938 0.0041029882247561773 0 -0.040467976547326999 0.0049232558624648665 0 -0.039249542959974369 0.0046528396842993531 0 -0.040467976547326999 0.0049232558624648665 0 -0.039942359368458295 0.0056075337258138904 0 -0.040467976547326999 0.0049232558624648665 0 -0.040985774404807891 0.005791856016138369 0 -0.039942359368458295 0.0056075337258138904 0 -0.040891943679370615 0.0040697684575691255 0 -0.040467976547326999 0.0049232558624648665 0 -0.041547604246074954 0.0049067568510823174 0 -0.040891943679370615 0.0040697684575691255 0 -0.039991691405148938 0.0041029882247561773 0 -0.040467976547326999 0.0049232558624648665 0 -0.040467976547326999 0.0049232558624648665 0 -0.041547604246074954 0.0049067568510823174 0 -0.040985774404807891 0.005791856016138369 0 -0.041547604246074954 0.0049067568510823174 0 -0.041860514128135094 0.0057950479652393288 0 -0.042477388228940212 0.0051625859766902243 0 -0.041547604246074954 0.0049067568510823174 0 -0.042477388228940212 0.0051625859766902243 0 -0.042224568520753465 0.0045784755921675861 0 -0.041845949677164401 0.0039447051852492887 0 -0.041547604246074954 0.0049067568510823174 0 -0.042224568520753465 0.0045784755921675861 0 -0.042070214027168581 0.0064925023776684996 0 -0.041860514128135094 0.0057950479652393288 0 -0.041417417400625815 0.0064742922146047025 0 -0.041860514128135094 0.0057950479652393288 0 -0.040985774404807891 0.005791856016138369 0 -0.041417417400625815 0.0064742922146047025 0 -0.041547604246074954 0.0049067568510823174 0 -0.041860514128135094 0.0057950479652393288 0 -0.040985774404807891 0.005791856016138369 0 -0.040985774404807891 0.005791856016138369 0 -0.041417417400625815 0.0064742922146047025 0 -0.040662905645680078 0.0067723188889394987 0 -0.040985774404807891 0.005791856016138369 0 -0.039942359368458295 0.0056075337258138904 0 -0.040662905645680078 0.0067723188889394987 0 -0.029759937815715745 0.00032534903222426726 0 -0.028892135206907688 0.0012817363209364464 0 -0.030465644899878293 0.0010565973796316465 0 -0.029759937815715745 0.00032534903222426726 0 -0.028960042956777308 0.00053260103373194091 0 -0.029651714104188525 -0.00069729369137241568 0 -0.029759937815715745 0.00032534903222426726 0 -0.028960042956777308 0.00053260103373194091 0 -0.028892135206907688 0.0012817363209364464 0 -0.041417417400625815 0.0064742922146047025 0 -0.040662905645680078 0.0067723188889394987 0 -0.042687063504591324 0.0074863322724601569 0 -0.042070214027168581 0.0064925023776684996 0 -0.041417417400625815 0.0064742922146047025 0 -0.042687063504591324 0.0074863322724601569 0 -0.028892135206907688 0.0012817363209364464 0 -0.02765803337964854 -0.00018944921790015911 0 -0.026789201368220657 0.00031764871268973591 0 -0.032852097426095211 -0.00067789310091462079 0 -0.032959312903716759 -0.0006460481610617891 0 -0.028960042956777308 0.00053260103373194091 0 -0.028892135206907688 0.0012817363209364464 0 -0.02765803337964854 -0.00018944921790015911 0 -0.036197819663817583 0.00052027249352974865 0 -0.036208713996305208 0.00011387788639050229 0 -0.03449600553885207 0.0020312105603817261 0 -0.033136266006688959 0.00071254709772207024 0 -0.031406525648048467 0.0026571910895679908 0 -0.036248859639587169 0.00085819546738646706 0 -0.036225939630224364 0.00077231981680698071 0 -0.028892135206907688 0.0012817363209364464 0 -0.031406525648048467 0.0026571910895679908 0 -0.030465644899878293 0.0010565973796316465 0 -0.039942359368458295 0.0056075337258138904 0 -0.040662905645680078 0.0067723188889394987 0 -0.038372088061360249 0.0059334786243450607 0 -0.036197819663817583 0.00052027249352974865 0 -0.036225939630224364 0.00077231981680698071 0 -0.030465644899878293 0.0010565973796316465 0 -0.031919391167171136 -5.0967493842765796e-05 0 -0.030806457503666156 -0.00061200937809855231 0 -0.031406525648048467 0.0026571910895679908 0 -0.030465644899878293 0.0010565973796316465 0 -0.031919391167171136 -5.0967493842765796e-05 0 -0.029759937815715745 0.00032534903222426726 0 -0.030465644899878293 0.0010565973796316465 0 -0.030806457503666156 -0.00061200937809855231 0 -0.033136266006688959 0.00071254709772207024 0 -0.031406525648048467 0.0026571910895679908 0 -0.031919391167171136 -5.0967493842765796e-05 0 -0.032024799296998495 -0.0011638167210018748 0 -0.031919391167171136 -5.0967493842765796e-05 0 -0.033270836427332716 -0.00079297486426869448 0 -0.033136266006688959 0.00071254709772207024 0 -0.031919391167171136 -5.0967493842765796e-05 0 -0.033270836427332716 -0.00079297486426869448 0 -0.032024799296998495 -0.0011638167210018748 0 -0.032316494798154738 -0.0020593269415723333 0 -0.033270836427332716 -0.00079297486426869448 0 -0.032024799296998495 -0.0011638167210018748 0 -0.030806457503666156 -0.00061200937809855231 0 -0.031249320098577237 -0.0018743236001618974 0 -0.032024799296998495 -0.0011638167210018748 0 -0.031919391167171136 -5.0967493842765796e-05 0 -0.030806457503666156 -0.00061200937809855231 0 -0.029759937815715745 0.00032534903222426726 0 -0.030806457503666156 -0.00061200937809855231 0 -0.029651714104188525 -0.00069729369137241568 0 -0.030806457503666156 -0.00061200937809855231 0 -0.030250483649189221 -0.0014814953124040213 0 -0.029651714104188525 -0.00069729369137241568 0 -0.030806457503666156 -0.00061200937809855231 0 -0.030250483649189221 -0.0014814953124040213 0 -0.031249320098577237 -0.0018743236001618974 0 -0.03038966920277688 -0.002581074171189596 0 -0.031628473279479014 -0.002798228243072535 0 -0.031249320098577237 -0.0018743236001618974 0 -0.030250483649189221 -0.0014814953124040213 0 -0.03038966920277688 -0.002581074171189596 0 -0.031249320098577237 -0.0018743236001618974 0 -0.031628473279479014 -0.002798228243072535 0 -0.032316494798154738 -0.0020593269415723333 0 -0.032655802476165535 -0.003176305922018762 0 -0.031628473279479014 -0.002798228243072535 0 -0.032316494798154738 -0.0020593269415723333 0 -0.031249320098577237 -0.0018743236001618974 0 -0.032024799296998495 -0.0011638167210018748 0 -0.032316494798154738 -0.0020593269415723333 0 -0.031249320098577237 -0.0018743236001618974 0 -0.028960042956777308 0.00053260103373194091 0 -0.027461904103071436 -0.0003724187105845972 0 -0.028604651736454594 -0.00056542357995552578 0 -0.027405136857321787 -0.0015910876960580991 0 -0.027461904103071436 -0.0003724187105845972 0 -0.028604651736454594 -0.00056542357995552578 0 -0.027405136857321787 -0.0015910876960580991 0 -0.028604651736454594 -0.00056542357995552578 0 -0.029072622118518701 -0.001939336277034237 0 -0.028604651736454594 -0.00056542357995552578 0 -0.029651714104188525 -0.00069729369137241568 0 -0.029072622118518701 -0.001939336277034237 0 -0.028960042956777308 0.00053260103373194091 0 -0.028604651736454594 -0.00056542357995552578 0 -0.029651714104188525 -0.00069729369137241568 0 -0.030250483649189221 -0.0014814953124040213 0 -0.029651714104188525 -0.00069729369137241568 0 -0.029072622118518701 -0.001939336277034237 0 -0.030250483649189221 -0.0014814953124040213 0 -0.03038966920277688 -0.002581074171189596 0 -0.029072622118518701 -0.001939336277034237 0 -0.03038966920277688 -0.002581074171189596 0 -0.029072622118518701 -0.001939336277034237 0 -0.029320536862410818 -0.0030019414576188718 0 -0.029072622118518701 -0.001939336277034237 0 -0.028665086160517796 -0.0024977207983897178 0 -0.029320536862410818 -0.0030019414576188718 0 -0.02840642463391085 -0.0020304565251527663 0 -0.029072622118518701 -0.001939336277034237 0 -0.028665086160517796 -0.0024977207983897178 0 -0.033037708655150086 -0.00048898840754429387 0 -0.032949289562545066 -0.00048479831409577558 0 -0.028665086160517796 -0.0024977207983897178 0 -0.028540541276358959 -0.0032304039559949162 0 -0.028062003257449637 -0.0026177132816519221 0 -0.02840642463391085 -0.0020304565251527663 0 -0.028665086160517796 -0.0024977207983897178 0 -0.028062003257449637 -0.0026177132816519221 0 -0.028540541276358959 -0.0032304039559949162 0 -0.029320536862410818 -0.0030019414576188718 0 -0.029001240985386142 -0.0040758433039503848 0 -0.028540541276358959 -0.0032304039559949162 0 -0.029001240985386142 -0.0040758433039503848 0 -0.028202475816993557 -0.0041681544208775467 0 -0.028665086160517796 -0.0024977207983897178 0 -0.028540541276358959 -0.0032304039559949162 0 -0.029320536862410818 -0.0030019414576188718 0 -0.03038966920277688 -0.002581074171189596 0 -0.029320536862410818 -0.0030019414576188718 0 -0.030009170715690654 -0.00385733461933278 0 -0.029320536862410818 -0.0030019414576188718 0 -0.030009170715690654 -0.00385733461933278 0 -0.029001240985386142 -0.0040758433039503848 0 -0.030009170715690654 -0.00385733461933278 0 -0.029459425785340339 -0.0049757507462298402 0 -0.030291143671339026 -0.004924849302450701 0 -0.030009170715690654 -0.00385733461933278 0 -0.029001240985386142 -0.0040758433039503848 0 -0.029459425785340339 -0.0049757507462298402 0 -0.029001240985386142 -0.0040758433039503848 0 -0.02844122144782435 -0.0050483083097889346 0 -0.029459425785340339 -0.0049757507462298402 0 -0.029001240985386142 -0.0040758433039503848 0 -0.028202475816993557 -0.0041681544208775467 0 -0.02844122144782435 -0.0050483083097889346 0 -0.031628473279479014 -0.002798228243072535 0 -0.031831374133993222 -0.0039452992094765561 0 -0.030948425329225364 -0.0035356836151117297 0 -0.031628473279479014 -0.002798228243072535 0 -0.031831374133993222 -0.0039452992094765561 0 -0.032655802476165535 -0.003176305922018762 0 -0.03038966920277688 -0.002581074171189596 0 -0.030009170715690654 -0.00385733461933278 0 -0.030948425329225364 -0.0035356836151117297 0 -0.03038966920277688 -0.002581074171189596 0 -0.031628473279479014 -0.002798228243072535 0 -0.030948425329225364 -0.0035356836151117297 0 -0.030009170715690654 -0.00385733461933278 0 -0.030896725056759118 -0.0043217167596227811 0 -0.030291143671339026 -0.004924849302450701 0 -0.030896725056759118 -0.0043217167596227811 0 -0.030291143671339026 -0.004924849302450701 0 -0.031431178530630148 -0.0051200528509456993 0 -0.030009170715690654 -0.00385733461933278 0 -0.030948425329225364 -0.0035356836151117297 0 -0.030896725056759118 -0.0043217167596227811 0 -0.031831374133993222 -0.0039452992094765561 0 -0.030896725056759118 -0.0043217167596227811 0 -0.031431178530630148 -0.0051200528509456993 0 -0.031831374133993222 -0.0039452992094765561 0 -0.032317200344746437 -0.0045002365856275806 0 -0.031431178530630148 -0.0051200528509456993 0 -0.031831374133993222 -0.0039452992094765561 0 -0.030948425329225364 -0.0035356836151117297 0 -0.030896725056759118 -0.0043217167596227811 0 -0.032317200344746437 -0.0045002365856275806 0 -0.032982406129653516 -0.0046270739747428426 0 -0.032406514133571526 -0.0052759373129524978 0 -0.032317200344746437 -0.0045002365856275806 0 -0.032439220031169495 -0.0038982895937291866 0 -0.03293360644788261 -0.0039539354427007393 0 -0.032317200344746437 -0.0045002365856275806 0 -0.032982406129653516 -0.0046270739747428426 0 -0.03293360644788261 -0.0039539354427007393 0 -0.031831374133993222 -0.0039452992094765561 0 -0.032317200344746437 -0.0045002365856275806 0 -0.032439220031169495 -0.0038982895937291866 0 -0.033525776628719806 -0.0045297090380556878 0 -0.032982406129653516 -0.0046270739747428426 0 -0.033187486239123154 -0.0054218944557962003 0 -0.032982406129653516 -0.0046270739747428426 0 -0.033475754355848174 -0.0039964584743763095 0 -0.03293360644788261 -0.0039539354427007393 0 -0.033525776628719806 -0.0045297090380556878 0 -0.032982406129653516 -0.0046270739747428426 0 -0.033475754355848174 -0.0039964584743763095 0 -0.033525776628719806 -0.0045297090380556878 0 -0.033475754355848174 -0.0039964584743763095 0 -0.033922520551880143 -0.0040139079824045533 0 -0.033475754355848174 -0.0039964584743763095 0 -0.033406233921227255 -0.0034853250052410611 0 -0.033872143106211408 -0.003397405207603245 0 -0.033475754355848174 -0.0039964584743763095 0 -0.033872143106211408 -0.003397405207603245 0 -0.033922520551880143 -0.0040139079824045533 0 -0.033475754355848174 -0.0039964584743763095 0 -0.033406233921227255 -0.0034853250052410611 0 -0.03293360644788261 -0.0039539354427007393 0 -0.033406233921227255 -0.0034853250052410611 0 -0.033872143106211408 -0.003397405207603245 0 -0.033531091375748084 -0.0028769487984189853 0 -0.033872143106211408 -0.003397405207603245 0 -0.033531091375748084 -0.0028769487984189853 0 -0.034087934129359322 -0.0027894887696642426 0 -0.031831374133993222 -0.0039452992094765561 0 -0.032439220031169495 -0.0038982895937291866 0 -0.032655802476165535 -0.003176305922018762 0 -0.032439220031169495 -0.0038982895937291866 0 -0.03293360644788261 -0.0039539354427007393 0 -0.032655802476165535 -0.003176305922018762 0 -0.033406233921227255 -0.0034853250052410611 0 -0.03293360644788261 -0.0039539354427007393 0 -0.032655802476165535 -0.003176305922018762 0 -0.033406233921227255 -0.0034853250052410611 0 -0.032655802476165535 -0.003176305922018762 0 -0.033531091375748084 -0.0028769487984189853 0 -0.032316494798154738 -0.0020593269415723333 0 -0.032655802476165535 -0.003176305922018762 0 -0.033099460852086413 -0.0021590395132994912 0 -0.032316494798154738 -0.0020593269415723333 0 -0.033099460852086413 -0.0021590395132994912 0 -0.033270836427332716 -0.00079297486426869448 0 -0.033099460852086413 -0.0021590395132994912 0 -0.033830563342577988 -0.0019917314398706638 0 -0.033270836427332716 -0.00079297486426869448 0 -0.032655802476165535 -0.003176305922018762 0 -0.033099460852086413 -0.0021590395132994912 0 -0.033531091375748084 -0.0028769487984189853 0 -0.033099460852086413 -0.0021590395132994912 0 -0.033531091375748084 -0.0028769487984189853 0 -0.033830563342577988 -0.0019917314398706638 0 -0.033531091375748084 -0.0028769487984189853 0 -0.034011171677486914 -0.0024559342769825592 0 -0.033830563342577988 -0.0019917314398706638 0 -0.033531091375748084 -0.0028769487984189853 0 -0.034087934129359322 -0.0027894887696642426 0 -0.034011171677486914 -0.0024559342769825592 0 -0.034087934129359322 -0.0027894887696642426 0 -0.034011171677486914 -0.0024559342769825592 0 -0.034254291586241062 -0.0024052209070555982 0 -0.034341744126765342 -0.0020678174687617304 0 -0.034548653513538904 -0.0011056209978598317 0 -0.034748639036733239 -0.0020707623406674494 0 -0.034254291586241062 -0.0024052209070555982 0 -0.034341744126765342 -0.0020678174687617304 0 -0.034331988108980312 -0.0022538519091013522 0 -0.034011171677486914 -0.0024559342769825592 0 -0.034254291586241062 -0.0024052209070555982 0 -0.034341744126765342 -0.0020678174687617304 0 -0.01289733069190077 -0.0033041610644487457 0 -0.012804468835800531 -0.0033119060923487882 0 -0.034011171677486914 -0.0024559342769825592 0 -0.034341744126765342 -0.0020678174687617304 0 -0.033830563342577988 -0.0019917314398706638 0 -0.034341744126765342 -0.0020678174687617304 0 -0.033830563342577988 -0.0019917314398706638 0 -0.034548653513538904 -0.0011056209978598317 0 -0.033830563342577988 -0.0019917314398706638 0 -0.034548653513538904 -0.0011056209978598317 0 -0.033270836427332716 -0.00079297486426869448 0 -0.035626984844584077 0.0014331197154147473 0 -0.035331203743047331 -0.00045993020254206927 0 -0.036873930287485111 -0.0022838554855486217 0 -0.013062408632239593 -0.0034268107180839245 0 -0.012804468835800531 -0.0033119060923487882 0 -0.034548653513538904 -0.0011056209978598317 0 -0.035331203743047331 -0.00045993020254206927 0 -0.03618376699304527 -0.0023510412503620136 0 -0.034371923416351424 0.00044211670488773265 0 -0.035066194441017745 0.00073094621462257189 0 -0.035331203743047331 -0.00045993020254206927 0 -0.034371923416351424 0.00044211670488773265 0 -0.034548653513538904 -0.0011056209978598317 0 -0.035331203743047331 -0.00045993020254206927 0 -0.034371923416351424 0.00044211670488773265 0 -0.034548653513538904 -0.0011056209978598317 0 -0.033270836427332716 -0.00079297486426869448 0 -0.036396316886072526 0.0013637058165461918 0 -0.036213935305436047 0.0010275036381478624 0 -0.036687048778519027 0.00077728202527068899 0 -0.036396316886072526 0.0013637058165461918 0 -0.036766207480879151 0.0012464519455602423 0 -0.036687048778519027 0.00077728202527068899 0 -0.03595014939842045 0.0012980588800022847 0 -0.036213935305436047 0.0010275036381478624 0 -0.036014859492419546 0.0007060518611008579 0 -0.036213935305436047 0.0010275036381478624 0 -0.036014859492419546 0.0007060518611008579 0 -0.036687048778519027 0.00077728202527068899 0 -0.012921369815026918 -0.0032246492902950862 0 -0.012397527917693687 -0.0030616417207670302 0 -0.035626984844584077 0.0014331197154147473 0 -0.03595014939842045 0.0012980588800022847 0 -0.036014859492419546 0.0007060518611008579 0 -0.03595014939842045 0.0012980588800022847 0 -0.036396316886072526 0.0013637058165461918 0 -0.036213935305436047 0.0010275036381478624 0 -0.035331203743047331 -0.00045993020254206927 0 -0.03618376699304527 -0.0023510412503620136 0 -0.036873930287485111 -0.0022838554855486217 0 -0.0058497719834701535 -0.0050038117913628749 0 -0.0056473615876115029 -0.0044927567049390616 0 -0.0041120499976677717 -0.0051629558479427372 0 -0.034254291586241062 -0.0024052209070555982 0 -0.034331988108980312 -0.0022538519091013522 0 -0.034543581048199296 -0.0025462528715839111 0 -0.012804468835800531 -0.0033119060923487882 0 -0.012397527917693687 -0.0030616417207670302 0 -0.012804468835800531 -0.0033119060923487882 0 -0.012397094311449461 -0.0034860605119627357 0 -0.012397527917693687 -0.0030616417207670302 0 -0.012397094311449461 -0.0034860605119627357 0 -0.010357827447963007 -0.0030923283550221446 0 -0.01102095173015637 -0.0030309114087123503 0 -0.011355418779967451 -0.0038832014130302638 0 -0.034087934129359322 -0.0027894887696642426 0 -0.034254291586241062 -0.0024052209070555982 0 -0.034543581048199296 -0.0025462528715839111 0 -0.034087934129359322 -0.0027894887696642426 0 -0.034543581048199296 -0.0025462528715839111 0 -0.034208392278395797 -0.0030429730330667768 0 -0.0056473615876115029 -0.0044927567049390616 0 -0.0041120499976677717 -0.0051629558479427372 0 -0.0033945176571021532 -0.0040574904642051842 0 -0.012397527917693687 -0.0030616417207670302 0 -0.0094807871761510183 -0.00093670397296275788 0 -0.012397094311449461 -0.0034860605119627357 0 -0.011108153952882501 -0.0028259849905131005 0 -0.0056473615876115029 -0.0044927567049390616 0 -0.0038318208565495423 -0.0030592290300699254 0 -0.0033945176571021532 -0.0040574904642051842 0 -0.00638191823987225 -0.0050704435129831802 0 -0.0041545139782412643 -0.0033161652888300062 0 -0.0053869698164996606 -0.0025775018964291469 0 -0.012397094311449461 -0.0034860605119627357 0 -0.012466445065705115 -0.0055267118775946525 0 -0.034543581048199296 -0.0025462528715839111 0 -0.034306800035717511 -0.0034757519449728066 0 -0.034599375564871235 -0.0042315242919797992 0 -0.034543581048199296 -0.0025462528715839111 0 -0.034208392278395797 -0.0030429730330667768 0 -0.034306800035717511 -0.0034757519449728066 0 -0.033872143106211408 -0.003397405207603245 0 -0.034208392278395797 -0.0030429730330667768 0 -0.034306800035717511 -0.0034757519449728066 0 -0.033872143106211408 -0.003397405207603245 0 -0.034087934129359322 -0.0027894887696642426 0 -0.034208392278395797 -0.0030429730330667768 0 -0.034306800035717511 -0.0034757519449728066 0 -0.0343950307723749 -0.0040540096396160935 0 -0.034599375564871235 -0.0042315242919797992 0 -0.034306800035717511 -0.0034757519449728066 0 -0.0343950307723749 -0.0040540096396160935 0 -0.033922520551880143 -0.0040139079824045533 0 -0.033872143106211408 -0.003397405207603245 0 -0.034306800035717511 -0.0034757519449728066 0 -0.033922520551880143 -0.0040139079824045533 0 -0.03396914030855102 -0.0046074421894805838 0 -0.03448118098729603 -0.0042758334384915206 0 -0.033873497895942101 -0.005311899775845519 0 -0.033525776628719806 -0.0045297090380556878 0 -0.033922520551880143 -0.0040139079824045533 0 -0.03396914030855102 -0.0046074421894805838 0 -0.0343950307723749 -0.0040540096396160935 0 -0.033922520551880143 -0.0040139079824045533 0 -0.03396914030855102 -0.0046074421894805838 0 -0.0343950307723749 -0.0040540096396160935 0 -0.03396914030855102 -0.0046074421894805838 0 -0.03448118098729603 -0.0042758334384915206 0 -0.033525776628719806 -0.0045297090380556878 0 -0.03396914030855102 -0.0046074421894805838 0 -0.033187486239123154 -0.0054218944557962003 0 -0.0041545139782412643 -0.0033161652888300062 0 -0.0053869698164996606 -0.0025775018964291469 0 -0.0035253689982199486 -0.0014962262615911604 0 -0.030197478584575683 0.0025567732309448288 0 -0.033432937137210725 0.00064594286226436954 0 -0.032073237776096539 -0.0021747179436478817 0 -0.012466445065705115 -0.0055267118775946525 0 -0.0091944254912402802 -0.0066028945478756309 0 -0.012513176915163566 -0.0055443837402323589 0 -0.012466445065705115 -0.0055267118775946525 0 -0.0038318208565495423 -0.0030592290300699254 0 -0.0020794045472272166 -0.0024620011712687736 0 -0.001998625814013891 -0.0015831731940621728 0 -0.011108153952882501 -0.0028259849905131005 0 -0.010628987679649109 -0.0025650123130281813 0 -0.0041545139782412643 -0.0033161652888300062 0 -0.0035253689982199486 -0.0014962262615911604 0 -0.001998625814013891 -0.0015831731940621728 0 -0.0038318208565495423 -0.0030592290300699254 0 -0.0030719759304000038 -0.0035376749058509422 0 -0.0025164386443849939 -0.0031038899591144054 0 -0.0038318208565495423 -0.0030592290300699254 0 -0.0025164386443849939 -0.0031038899591144054 0 -0.0020794045472272166 -0.0024620011712687736 0 -0.0030719759304000038 -0.0035376749058509422 0 -0.0033945176571021532 -0.0040574904642051842 0 -0.0025396682477558407 -0.0039343257975531865 0 -0.0030719759304000038 -0.0035376749058509422 0 -0.0025164386443849939 -0.0031038899591144054 0 -0.0025396682477558407 -0.0039343257975531865 0 -0.0038318208565495423 -0.0030592290300699254 0 -0.0030719759304000038 -0.0035376749058509422 0 -0.0033945176571021532 -0.0040574904642051842 0 -0.001859741345942042 -0.0035621843845824197 0 -0.0011914901353946904 -0.0032171037267956968 0 -0.0013048974328191611 -0.0039644885312010913 0 -0.001859741345942042 -0.0035621843845824197 0 -0.0018206599946435156 -0.004200207828775007 0 -0.0013048974328191611 -0.0039644885312010913 0 -0.001859741345942042 -0.0035621843845824197 0 -0.0025164386443849939 -0.0031038899591144054 0 -0.0025396682477558407 -0.0039343257975531865 0 -0.001859741345942042 -0.0035621843845824197 0 -0.0025396682477558407 -0.0039343257975531865 0 -0.0018206599946435156 -0.004200207828775007 0 -0.0025164386443849939 -0.0031038899591144054 0 -0.0017322665504101865 -0.0029538836766958318 0 -0.0020794045472272166 -0.0024620011712687736 0 -0.001859741345942042 -0.0035621843845824197 0 -0.0025164386443849939 -0.0031038899591144054 0 -0.0017322665504101865 -0.0029538836766958318 0 -0.0017322665504101865 -0.0029538836766958318 0 -0.001300422680675539 -0.0025823289779570236 0 -0.0020794045472272166 -0.0024620011712687736 0 -0.001859741345942042 -0.0035621843845824197 0 -0.0017322665504101865 -0.0029538836766958318 0 -0.0011914901353946904 -0.0032171037267956968 0 -0.0017322665504101865 -0.0029538836766958318 0 -0.0011914901353946904 -0.0032171037267956968 0 -0.001300422680675539 -0.0025823289779570236 0 -0.0020794045472272166 -0.0024620011712687736 0 -0.001998625814013891 -0.0015831731940621728 0 -0.001353819177729042 -0.001905708681688974 0 -0.001300422680675539 -0.0025823289779570236 0 -0.0020794045472272166 -0.0024620011712687736 0 -0.001353819177729042 -0.001905708681688974 0 -0.001998625814013891 -0.0015831731940621728 0 -0.001353819177729042 -0.001905708681688974 0 -0.00076916050891005013 -0.0015136112050179408 0 0.0035880307156227623 -0.0083517838143520682 0 0.0036894141239515428 -0.0083945220131789924 0 -0.001300422680675539 -0.0025823289779570236 0 -0.00076916050891005013 -0.0015136112050179408 0 0.00033114112126915067 -0.0020125308222826883 0 -0.001300422680675539 -0.0025823289779570236 0 0.00077234202703613372 -0.00178064089555711 0 -0.00029037960909501456 -0.002879076442046935 0 -0.00076916050891005013 -0.0015136112050179408 0 0.00033114112126915067 -0.0020125308222826883 0 -0.00019340163920045098 -0.00071946492827847379 0 0.00077234202703613372 -0.00178064089555711 0 0.00055594683884040109 -0.002965829943264085 0 -0.00029037960909501456 -0.002879076442046935 0 -0.001300422680675539 -0.0025823289779570236 0 -0.001353819177729042 -0.001905708681688974 0 -0.00076916050891005013 -0.0015136112050179408 0 0.00077234202703613372 -0.00178064089555711 0 0.0028748987150860133 -0.0010383942573621466 0 0.0023267037641546812 -0.0024392629038560445 0 0.0036894141239515428 -0.0083945220131789924 0 0.0038989883928181113 -0.0085585996361760147 0 0.00033114112126915067 -0.0020125308222826883 0 0.0019664373335734901 -0.0014293156442880988 0 0.00090484820473169642 -0.00051296133632809432 0 0.00077234202703613372 -0.00178064089555711 0 0.0013365073042203995 -0.0030037694563999949 0 0.0023267037641546812 -0.0024392629038560445 0 0.0013365073042203995 -0.0030037694563999949 0 0.0023267037641546812 -0.0024392629038560445 0 0.0023257564492555924 -0.0035230892036255948 0 0.00077234202703613372 -0.00178064089555711 0 0.0013365073042203995 -0.0030037694563999949 0 0.00055594683884040109 -0.002965829943264085 0 0.0013365073042203995 -0.0030037694563999949 0 0.00055594683884040109 -0.002965829943264085 0 0.00084853702188321574 -0.0036563126518369426 0 0.0013365073042203995 -0.0030037694563999949 0 0.00084853702188321574 -0.0036563126518369426 0 0.001570950053545134 -0.003969525761893136 0 0.00084853702188321574 -0.0036563126518369426 0 0.00034056289332864688 -0.0043398774847450547 0 0.0010301933333147493 -0.0043681596813913703 0 0.00084853702188321574 -0.0036563126518369426 0 0.001570950053545134 -0.003969525761893136 0 0.0010301933333147493 -0.0043681596813913703 0 0.001570950053545134 -0.003969525761893136 0 0.0021587079552527122 -0.0044190464963157726 0 0.0023257564492555924 -0.0035230892036255948 0 0.0013365073042203995 -0.0030037694563999949 0 0.001570950053545134 -0.003969525761893136 0 0.0023257564492555924 -0.0035230892036255948 0 -0.0011914901353946904 -0.0032171037267956968 0 -0.00042877078305823921 -0.0033722580134346401 0 -0.00029037960909501456 -0.002879076442046935 0 -0.0011914901353946904 -0.0032171037267956968 0 -0.001300422680675539 -0.0025823289779570236 0 -0.00029037960909501456 -0.002879076442046935 0 0.00055594683884040109 -0.002965829943264085 0 -0.00029037960909501456 -0.002879076442046935 0 0.00011714151634021677 -0.0035004395974189092 0 0.00055594683884040109 -0.002965829943264085 0 0.00084853702188321574 -0.0036563126518369426 0 0.00011714151634021677 -0.0035004395974189092 0 -0.00042877078305823921 -0.0033722580134346401 0 -0.00029037960909501456 -0.002879076442046935 0 0.00011714151634021677 -0.0035004395974189092 0 -0.00042877078305823921 -0.0033722580134346401 0 0.00011714151634021677 -0.0035004395974189092 0 -0.00035246549517844452 -0.0038951318880343587 0 0.00084853702188321574 -0.0036563126518369426 0 0.00011714151634021677 -0.0035004395974189092 0 0.00034056289332864688 -0.0043398774847450547 0 0.00011714151634021677 -0.0035004395974189092 0 -0.00035246549517844452 -0.0038951318880343587 0 0.00034056289332864688 -0.0043398774847450547 0 0.0017283825084912271 0.00039368398515267209 0 0.0017252475965406501 0.00046316508482388032 0 -0.0011914901353946904 -0.0032171037267956968 0 -0.00035246549517844452 -0.0038951318880343587 0 -0.00043321323935169883 -0.0048137796731975487 0 -0.0011914901353946904 -0.0032171037267956968 0 -0.00067372295158259167 -0.004376486645309049 0 -0.0013048974328191611 -0.0039644885312010913 0 -0.0011914901353946904 -0.0032171037267956968 0 -0.00042877078305823921 -0.0033722580134346401 0 -0.00035246549517844452 -0.0038951318880343587 0 -0.00067372295158259167 -0.004376486645309049 0 -0.0013048974328191611 -0.0039644885312010913 0 -0.0012278226246707619 -0.0044497356047003122 0 -0.00067372295158259167 -0.004376486645309049 0 -0.0008603094143358836 -0.004848745545493631 0 -0.0012278226246707619 -0.0044497356047003122 0 -0.00043321323935169883 -0.0048137796731975487 0 0.00034056289332864688 -0.0043398774847450547 0 0.00039930006676699715 -0.0052862580135843726 0 -0.00035246549517844452 -0.0038951318880343587 0 -0.00043321323935169883 -0.0048137796731975487 0 0.00034056289332864688 -0.0043398774847450547 0 -0.00043321323935169883 -0.0048137796731975487 0 0.00039930006676699715 -0.0052862580135843726 0 0.00031413513972397545 -0.006381135970502644 0 -0.00067372295158259167 -0.004376486645309049 0 -0.0008603094143358836 -0.004848745545493631 0 -0.00015146997676073436 -0.0054820431366389621 0 0.0017252475965406501 0.00046316508482388032 0 0.0016918249496758733 0.00072295837463400524 0 -0.0008603094143358836 -0.004848745545493631 0 -0.0012278226246707619 -0.0044497356047003122 0 -0.001504230572309614 -0.0048561075913519389 0 -0.0008603094143358836 -0.004848745545493631 0 -0.00118703401346429 -0.0054454387927377161 0 -0.001504230572309614 -0.0048561075913519389 0 -0.0031870523889999964 0.0013696910476832835 0 -0.0031794953779533935 0.0014006406957358713 0 0.0021587079552527122 -0.0044190464963157726 0 0.0014930268046283569 -0.0047123245694620352 0 0.0019041265668369883 -0.0051426338742179304 0 0.001570950053545134 -0.003969525761893136 0 0.0021587079552527122 -0.0044190464963157726 0 0.0014930268046283569 -0.0047123245694620352 0 0.00034056289332864688 -0.0043398774847450547 0 0.00039930006676699715 -0.0052862580135843726 0 0.00089398969842176712 -0.004998648394366801 0 0.0014930268046283569 -0.0047123245694620352 0 0.00089398969842176712 -0.004998648394366801 0 0.0013443342076476586 -0.005408920527263471 0 0.0014930268046283569 -0.0047123245694620352 0 0.0010301933333147493 -0.0043681596813913703 0 0.00089398969842176712 -0.004998648394366801 0 0.001570950053545134 -0.003969525761893136 0 0.0014930268046283569 -0.0047123245694620352 0 0.0010301933333147493 -0.0043681596813913703 0 0.00034056289332864688 -0.0043398774847450547 0 0.0010301933333147493 -0.0043681596813913703 0 0.00089398969842176712 -0.004998648394366801 0 0.00039930006676699715 -0.0052862580135843726 0 0.00089330096923588857 -0.0057719333499331215 0 0.00031413513972397545 -0.006381135970502644 0 0.00039930006676699715 -0.0052862580135843726 0 0.00089398969842176712 -0.004998648394366801 0 0.00089330096923588857 -0.0057719333499331215 0 0.00089330096923588857 -0.0057719333499331215 0 0.0013443342076476586 -0.005408920527263471 0 0.0015743465947588939 -0.0061740483456862848 0 0.00089398969842176712 -0.004998648394366801 0 0.00089330096923588857 -0.0057719333499331215 0 0.0013443342076476586 -0.005408920527263471 0 0.0013443342076476586 -0.005408920527263471 0 0.0019041265668369883 -0.0051426338742179304 0 0.0015743465947588939 -0.0061740483456862848 0 0.0019041265668369883 -0.0051426338742179304 0 0.0015743465947588939 -0.0061740483456862848 0 0.0026662614555990126 -0.0049142284673270595 0 0.0014930268046283569 -0.0047123245694620352 0 0.0013443342076476586 -0.005408920527263471 0 0.0019041265668369883 -0.0051426338742179304 0 0.0069087894114517184 -0.0051576108937794246 0 0.0058736233780864802 -0.0023536173549905857 0 0.0083756045117048521 -0.0010276374957409978 0 0.0069087894114517184 -0.0051576108937794246 0 0.010503011569744085 -0.0054912565895544217 0 0.0083756045117048521 -0.0010276374957409978 0 0.0016918249496758733 0.00072295837463400524 0 0.0029832663148160452 0.0013024357677828573 0 0.0020417439867580016 -0.0065472477969636513 0 0.0015743465947588939 -0.0061740483456862848 0 0.00031413513972397545 -0.006381135970502644 0 0.0056119764191378185 -0.0002772640481716978 0 0.0016918249496758733 0.00072295837463400524 0 0.00089330096923588857 -0.0057719333499331215 0 0.0015743465947588939 -0.0061740483456862848 0 0.00031413513972397545 -0.006381135970502644 0 0.0028827828998303951 -0.0025809380909733314 0 0.003884667362473713 -0.00057428491077418826 0 0.0011770830549958401 0.0010052935152707822 0 0.0053826490386766667 -0.0028141258437717246 0 0.0028827828998303951 -0.0025809380909733314 0 0.003884667362473713 -0.00057428491077418826 0 -0.0008603094143358836 -0.004848745545493631 0 -0.0011630480380868402 -0.0053838780816052832 0 -0.00015146997676073436 -0.0054820431366389621 0 -0.0031794953779533935 0.0014006406957358713 0 0.0016918249496758733 0.00072295837463400524 0 0.0053826490386766667 -0.0028141258437717246 0 0.003884667362473713 -0.00057428491077418826 0 0.0063957439599978978 -0.0010124155660452218 0 -0.0031794953779533935 0.0014006406957358713 0 -0.0045820602742679285 0.0016722351140538582 0 -0.00118703401346429 -0.0054454387927377161 0 -0.0023460052529558025 -0.0053505848333439531 0 -0.001504230572309614 -0.0048561075913519389 0 -0.0090167272934486078 -0.0033472671463103025 0 -0.0062169681354221481 0.0016251702819002609 0 -0.0017299728868513022 -0.0040243608871909503 0 -0.0031794953779533935 0.0014006406957358713 0 -0.0055736881780899129 0.0011478967869080479 0 -0.0045820602742679285 0.0016722351140538582 0 -0.0055736881780899129 0.0011478967869080479 0 -0.037624768652426623 0.0012048591440180472 0 -0.037352927576131935 0.00085427671576001609 0 -0.037168136231657656 0.0012564048069261436 0 -0.036687048778519027 0.00077728202527068899 0 -0.037352927576131935 0.00085427671576001609 0 -0.037168136231657656 0.0012564048069261436 0 -0.0094807871761510183 -0.00093670397296275788 0 -0.0055736881780899129 0.0011478967869080479 0 -0.036766207480879151 0.0012464519455602423 0 -0.036687048778519027 0.00077728202527068899 0 -0.037168136231657656 0.0012564048069261436 0 -0.0041120499976677717 -0.0051629558479427372 0 -0.0023976707514646012 -0.0053125659945288794 0 -0.0033945176571021532 -0.0040574904642051842 0 -0.0023460052529558025 -0.0053505848333439531 0 -0.0033945176571021532 -0.0040574904642051842 0 -0.0025396682477558407 -0.0039343257975531865 0 -0.0055736881780899129 0.0011478967869080479 0 -0.0054415069983214624 0.00095716046018985506 0 -0.0023460052529558025 -0.0053505848333439531 0 -0.0025396682477558407 -0.0039343257975531865 0 -0.0018206599946435156 -0.004200207828775007 0 -0.0018206599946435156 -0.004200207828775007 0 -0.0012278226246707619 -0.0044497356047003122 0 -0.001504230572309614 -0.0048561075913519389 0 -0.0018206599946435156 -0.004200207828775007 0 -0.0013048974328191611 -0.0039644885312010913 0 -0.0012278226246707619 -0.0044497356047003122 0 -0.0023460052529558025 -0.0053505848333439531 0 -0.0018206599946435156 -0.004200207828775007 0 -0.001504230572309614 -0.0048561075913519389 0 0.015119034795613122 -0.0026400700837570863 0 0.014726611338945792 -0.0024890472940618819 0 0.014612007531592402 -0.0021809285198633984 0 0.014870044890886707 -0.0027163232679019069 0 0.014726611338945792 -0.0024890472940618819 0 0.014334959479765935 -0.0026368801094547685 0 0.01991419527364182 -0.0038493510223085916 0 0.019899900369435234 -0.0038353611213082749 0 0.014726611338945792 -0.0024890472940618819 0 0.014334959479765935 -0.0026368801094547685 0 0.014612007531592402 -0.0021809285198633984 0 0.0159755594149255 -0.0085197532583530817 0 0.016206307897449358 -0.0093760861889079401 0 0.015713927749547048 -0.0094378510450076909 0 0.0159755594149255 -0.0085197532583530817 0 0.016569557874397661 -0.0090626747665366846 0 0.016206307897449358 -0.0093760861889079401 0 0.016678677794276418 -0.0061466176371373915 0 0.012635905289941487 -0.0068977915765316873 0 0.0066670991505326273 -0.0035015797802172371 0 0.0061225630047822025 -0.0030507264488419893 0 0.0057916602750114048 -0.0033773165667538058 0 0.0061225630047822025 -0.0030507264488419893 0 0.0055671064072234612 -0.0030348192360238227 0 0.0056099294092405647 -0.0026128907314802536 0 0.0061225630047822025 -0.0030507264488419893 0 0.0057916602750114048 -0.0033773165667538058 0 0.0055671064072234612 -0.0030348192360238227 0 0.0066670991505326273 -0.0035015797802172371 0 0.0058235894540234817 -0.003936955212149088 0 0.0058743187869318972 -0.0038315693390290101 0 0.016678677794276418 -0.0061466176371373915 0 0.013595707868954339 -0.0048347566412901355 0 0.0066670991505326273 -0.0035015797802172371 0 0.0057916602750114048 -0.0033773165667538058 0 0.0058743187869318972 -0.0038315693390290101 0 0.014334959479765935 -0.0026368801094547685 0 0.014612007531592402 -0.0021809285198633984 0 0.013802915038162828 -0.0025721803292877944 0 0.0058235894540234817 -0.003936955212149088 0 0.0058743187869318972 -0.0038315693390290101 0 0.0049693678542760151 -0.0033821364869140256 0 0.0044337114392405483 -0.0039274617096026017 0 0.0036609939113021951 -0.0031280614214723988 0 0.0036859649591419615 -0.0050230860199971033 0 0.0058235894540234817 -0.003936955212149088 0 0.0044337114392405483 -0.0039274617096026017 0 0.0049693678542760151 -0.0033821364869140256 0 0.0044337114392405483 -0.0039274617096026017 0 0.0049693678542760151 -0.0033821364869140256 0 0.0036609939113021951 -0.0031280614214723988 0 0.0049693678542760151 -0.0033821364869140256 0 0.0044653543468615251 -0.0024435378827567314 0 0.0036609939113021951 -0.0031280614214723988 0 0.0037485542426522918 -0.0081871744553136342 0 0.0037728294503996044 -0.0082680180846572606 0 0.0057916602750114048 -0.0033773165667538058 0 0.0058743187869318972 -0.0038315693390290101 0 0.0053453100881167143 -0.0033551425813228212 0 0.0058743187869318972 -0.0038315693390290101 0 0.0049693678542760151 -0.0033821364869140256 0 0.0044653543468615251 -0.0024435378827567314 0 0.0057916602750114048 -0.0033773165667538058 0 0.0055671064072234612 -0.0030348192360238227 0 0.0053453100881167143 -0.0033551425813228212 0 0.0055671064072234612 -0.0030348192360238227 0 0.0053453100881167143 -0.0033551425813228212 0 0.0048186414890406797 -0.0029045708431556503 0 0.0055671064072234612 -0.0030348192360238227 0 0.0048186414890406797 -0.0029045708431556503 0 0.0056099294092405647 -0.0026128907314802536 0 0.0037728294503996044 -0.0082680180846572606 0 0.0038989883928181113 -0.0085585996361760147 0 0.0044653543468615251 -0.0024435378827567314 0 0.0032489353420568365 -0.0021970879802731989 0 0.0028748987150860133 -0.0010383942573621466 0 0.0032489353420568365 -0.0021970879802731989 0 0.0028748987150860133 -0.0010383942573621466 0 0.0023267037641546812 -0.0024392629038560445 0 0.010782156000109009 -0.0034660435327526122 0 0.010844824648061574 -0.0034568978782211451 0 0.0023267037641546812 -0.0024392629038560445 0 0.0036609939113021951 -0.0031280614214723988 0 0.0023257564492555924 -0.0035230892036255948 0 0.0036609939113021951 -0.0031280614214723988 0 0.0029007715693522818 -0.0041765992295762031 0 0.0036623319913795358 -0.0051450555758794881 0 0.0044653543468615251 -0.0024435378827567314 0 0.0032489353420568365 -0.0021970879802731989 0 0.0036609939113021951 -0.0031280614214723988 0 0.0032489353420568365 -0.0021970879802731989 0 0.0023267037641546812 -0.0024392629038560445 0 0.0036609939113021951 -0.0031280614214723988 0 0.0036609939113021951 -0.0031280614214723988 0 0.0029007715693522818 -0.0041765992295762031 0 0.0023257564492555924 -0.0035230892036255948 0 0.0021587079552527122 -0.0044190464963157726 0 0.0029007715693522818 -0.0041765992295762031 0 0.0023257564492555924 -0.0035230892036255948 0 0.0015743465947588939 -0.0061740483456862848 0 0.0026662614555990126 -0.0049142284673270595 0 0.0036623319913795358 -0.0051450555758794881 0 0.010480041871961816 -0.0036146236975038186 0 0.010844824648061574 -0.0034568978782211451 0 0.0021587079552527122 -0.0044190464963157726 0 0.0019041265668369883 -0.0051426338742179304 0 0.0026662614555990126 -0.0049142284673270595 0 0.0021587079552527122 -0.0044190464963157726 0 0.0029007715693522818 -0.0041765992295762031 0 0.0026662614555990126 -0.0049142284673270595 0 0.0029007715693522818 -0.0041765992295762031 0 0.0026662614555990126 -0.0049142284673270595 0 0.0036623319913795358 -0.0051450555758794881 0 0.010844824648061574 -0.0034568978782211451 0 0.010379447885232805 -0.0022470709562461785 0 0.0056119764191378185 -0.0002772640481716978 0 0.0095678540456428495 -0.0012122125352475594 0 0.0020417439867580016 -0.0065472477969636513 0 0.0015743465947588939 -0.0061740483456862848 0 0.0038486281833275808 -0.0050363715902532746 0 0.0069087894114517184 -0.0051576108937794246 0 0.0033135852022402497 -0.0048231799337057528 0 0.0058736233780864802 -0.0023536173549905857 0 0.0020417439867580016 -0.0065472477969636513 0 0.0038486281833275808 -0.0050363715902532746 0 0.0038553661639932793 -0.0061507638660119575 0 0.0095678540456428495 -0.0012122125352475594 0 0.010379447885232805 -0.0022470709562461785 0 0.0020417439867580016 -0.0065472477969636513 0 0.003858622090344134 -0.0067114263749122058 0 0.0038553661639932793 -0.0061507638660119575 0 0.015136610167710939 0.0026230721913685154 0 0.015367858842239016 0.0024623604606637509 0 0.015871384688677423 0.0028610827689108968 0 0.015138041249783908 0.0024834953837159497 0 0.015367858842239016 0.0024623604606637509 0 0.015140720364162513 0.0018612510418193602 0 0.015367858842239016 0.0024623604606637509 0 0.015880030301816308 0.0023442978383447603 0 0.015556770791376013 0.0021240943915496824 0 0.015136440516117131 0.0024812150227517416 0 0.015136610167710939 0.0026230721913685154 0 0.015367858842239016 0.0024623604606637509 0 0.0095678540456428495 -0.0012122125352475594 0 0.0096005867122077749 -0.0012088783059425352 0 0.010379447885232805 -0.0022470709562461785 0 0.015174327723178734 -0.0029883072530522926 0 0.013595707868954339 -0.0048347566412901355 0 0.010844824648061574 -0.0034568978782211451 0 0.0058235894540234817 -0.003936955212149088 0 0.0044337114392405483 -0.0039274617096026017 0 0.0036859649591419615 -0.0050230860199971033 0 0.012988575650727804 -0.0029655031267488701 0 0.012989023885158961 -0.0033254518294631307 0 0.013932180129465899 -0.0030198968632744309 0 0.013802915038162828 -0.0025721803292877944 0 0.012988575650727804 -0.0029655031267488701 0 0.013932180129465899 -0.0030198968632744309 0 0.014334959479765935 -0.0026368801094547685 0 0.013802915038162828 -0.0025721803292877944 0 0.013932180129465899 -0.0030198968632744309 0 0.015871384688677423 0.0028610827689108968 0 0.015880030301816308 0.0023442978383447603 0 0.016397837372707721 0.0025750844461553623 0 0.015367858842239016 0.0024623604606637509 0 0.015871384688677423 0.0028610827689108968 0 0.015880030301816308 0.0023442978383447603 0 0.015880030301816308 0.0023442978383447603 0 0.016397837372707721 0.0025750844461553623 0 0.01653454299902675 0.0017979688381185334 0 0.016599220155222513 0.0030965857060161312 0 0.015871384688677423 0.0028610827689108968 0 0.016397837372707721 0.0025750844461553623 0 0.014870044890886707 -0.0027163232679019069 0 0.014334959479765935 -0.0026368801094547685 0 0.013932180129465899 -0.0030198968632744309 0 0.01991419527364182 -0.0038493510223085916 0 0.015174327723178734 -0.0029883072530522926 0 0.018119274963613798 0.0025413974720671969 0 0.012552837315769727 0.0024409124443040588 0 0.014530395480523119 0.0070886996606091242 0 0.015235383347631994 0.0082447261986877355 0 0.012614366609173517 0.007722644557859498 0 0.018119274963613798 0.0025413974720671969 0 0.013419594087659617 0.0019189865602822933 0 0.015880030301816308 0.0023442978383447603 0 0.01653454299902675 0.0017979688381185334 0 0.015838597529055413 0.0018287252932191122 0 0.015880030301816308 0.0023442978383447603 0 0.015838597529055413 0.0018287252932191122 0 0.015556770791376013 0.0021240943915496824 0 0.013727998215990928 0.0035873190680641804 0 0.011045491650702498 0.0037203956564684799 0 0.011048182892831227 0.0030612195839916471 0 0.014888471206684739 0.007233677244542892 0 0.013083551040108181 0.0069767719274806345 0 0.014003901455046375 0.0065098273652015731 0 0.014530395480523119 0.0070886996606091242 0 0.012614366609173517 0.007722644557859498 0 0.01225377812865606 0.0067123198014522037 0 0.0080640683877143318 0.0034553724295509 0 0.0071412907640467406 0.0032288605496969742 0 0.011048182892831227 0.0030612195839916471 0 0.0083748460540260007 0.0038527172084956381 0 0.0083804797238083376 0.0025371717256016048 0 0.012614366609173517 0.007722644557859498 0 0.01225377812865606 0.0067123198014522037 0 0.0099410504165885431 0.0071913872424502027 0 0.0071412907640467406 0.0032288605496969742 0 0.0057225599483313105 0.0028678263966937204 0 0.01225377812865606 0.0067123198014522037 0 0.0099410504165885431 0.0071913872424502027 0 0.009943940541428364 0.0063504815830258254 0 0.012552837315769727 0.0024409124443040588 0 0.0070186833817168425 0.0022575727416463184 0 0.015838597529055413 0.0018287252932191122 0 0.015556770791376013 0.0021240943915496824 0 0.015140720364162513 0.0018612510418193602 0 0.015367858842239016 0.0024623604606637509 0 0.015556770791376013 0.0021240943915496824 0 0.015140720364162513 0.0018612510418193602 0 0.011045491650702498 0.0037203956564684799 0 0.011048182892831227 0.0030612195839916471 0 0.0083748460540260007 0.0038527172084956381 0 0.013419594087659617 0.0019189865602822933 0 0.0087211075941702534 0.0012726158940975906 0 0.0033135852022402497 -0.0048231799337057528 0 0.0032895862685005661 0.00014180723751049785 0 0.004401307694275631 -0.0010640575453074277 0 0.0033135852022402497 -0.0048231799337057528 0 0.004401307694275631 -0.0010640575453074277 0 0.0058736233780864802 -0.0023536173549905857 0 0.0095678540456428495 -0.0012122125352475594 0 0.0087211075941702534 0.0012726158940975906 0 0.0032895862685005661 0.00014180723751049785 0 0.0045357966394184513 0.00010425735665143308 0 0.0044568928684637294 0.0011812872355524157 0 0.0032895862685005661 0.00014180723751049785 0 0.0045357966394184513 0.00010425735665143308 0 0.004401307694275631 -0.0010640575453074277 0 0.004401307694275631 -0.0010640575453074277 0 0.0058736233780864802 -0.0023536173549905857 0 0.0058469213976529598 0.00016556893450148281 0 0.0045357966394184513 0.00010425735665143308 0 0.004401307694275631 -0.0010640575453074277 0 0.0058469213976529598 0.00016556893450148281 0 0.0045357966394184513 0.00010425735665143308 0 0.0058469213976529598 0.00016556893450148281 0 0.0044568928684637294 0.0011812872355524157 0 0.0058469213976529598 0.00016556893450148281 0 0.0044568928684637294 0.0011812872355524157 0 0.0062442238337774621 0.0034398704397019305 0 0.0044568928684637294 0.0011812872355524157 0 0.0032762456086325152 0.002855194430727865 0 0.0062442238337774621 0.0034398704397019305 0 0.0087211075941702534 0.0012726158940975906 0 0.0070186833817168425 0.0022575727416463184 0 0.0032895862685005661 0.00014180723751049785 0 0.0044568928684637294 0.0011812872355524157 0 0.0032762456086325152 0.002855194430727865 0 0.0026308885353431987 -0.0018615890056524033 0 0.0077883083787362176 0.0028727487128236847 0 0.0026122531876899288 0.0020810639122141963 0 0.0070186833817168425 0.0022575727416463184 0 0.0057225599483313105 0.0028678263966937204 0 0.0070186833817168425 0.0022575727416463184 0 0.0041756977469747649 0.0020338293146953527 0 0.0026308885353431987 -0.0018615890056524033 0 0.0094120723512952278 -0.00052515746727438395 0 0.0077883083787362176 0.0028727487128236847 0 -0.00052207678017966795 0.0045833853032620376 0 -0.0010897036955311934 0.0057721486817273581 0 0.00049308627562422202 0.0047827553499413143 0 0.0041756977469747649 0.0020338293146953527 0 0.0037473076176865435 0.0025730409058410566 0 -0.0011335955956709603 0.0053727854540008071 0 -0.0010191527551978328 0.0051389354681560615 0 -0.0013484334841145904 0.0052936769829247639 0 0.0037473076176865435 0.0025730409058410566 0 0.0031420141912366531 0.0038484060649393911 0 0.0073238219666060837 -0.0013214914870983635 0 0.0046824126894284357 0.00049863201039435589 0 0.0051547716462495398 0.0032187319973055704 0 0.0028133820717030429 -0.0020113380916817135 0 0.0046824126894284357 0.00049863201039435589 0 0.0027862861635732619 0.0038525981314843092 0 0.0037473076176865435 0.0025730409058410566 0 0.0057225599483313105 0.0028678263966937204 0 0.0073238219666060837 -0.0013214914870983635 0 0.0028133820717030429 -0.0020113380916817135 0 0.0046824126894284357 0.00049863201039435589 0 0.011289773022392076 0.0067148196725547536 0 0.011290565149417712 0.0055950686692810801 0 0.011673604208504849 0.0061577118456761322 0 0.0057225599483313105 0.0028678263966937204 0 0.0041471137439787016 0.0038023712567949765 0 0.0046824126894284357 0.00049863201039435589 0 0.0027862861635732619 0.0038525981314843092 0 0.0051547716462495398 0.0032187319973055704 0 0.0041471137439787016 0.0038023712567949765 0 0.0031420141912366531 0.0038484060649393911 0 -0.01470602859611796 0.0090697863662367144 0 -0.014846289636388156 0.0092070350589759618 0 -0.014570057704166372 0.0091381561216953237 0 -0.015176268860724911 0.009681805021198692 0 -0.014838680118833415 0.0093358782962236885 0 -0.015068435877948859 0.0096880284925005868 0 -0.014780346978040232 0.0089304707687060808 0 -0.01470602859611796 0.0090697863662367144 0 -0.014514605930680161 0.0089940051977589856 0 0.0033782888853898289 0.0054952119225390554 0 0.0016930565665647906 0.005925645597283047 0 0.0040565839733329436 0.0065440608544897463 0 0.00405143505099133 0.0076350163042870796 0 0.0046517204887101165 0.0063814882103443863 0 -0.01470602859611796 0.0090697863662367144 0 -0.014846289636388156 0.0092070350589759618 0 -0.014847802436914737 0.0091001434204302043 0 0.0033782888853898289 0.0054952119225390554 0 0.0036215788096105408 0.0048596245962073516 0 -0.014780346978040232 0.0089304707687060808 0 -0.01470602859611796 0.0090697863662367144 0 -0.014847802436914737 0.0091001434204302043 0 0.0031420141912366531 0.0038484060649393911 0 0.0036215788096105408 0.0048596245962073516 0 0.011091207247008529 0.0056917647562135694 0 0.011094854055924995 0.004786759704011637 0 0.011566460769390647 0.0047730744142303484 0 0.0030932924184140448 0.00058382496116774949 0 0.004508524428808133 0.00020483213427422678 0 0.003082364653640049 0.0031932648092783148 0 0.0041471137439787016 0.0038023712567949765 0 0.0036215788096105408 0.0048596245962073516 0 0.011091207247008529 0.0056917647562135694 0 0.012609355372130782 0.0046052158105880543 0 0.013846799761548307 0.0049394870251346255 0 0.0041471137439787016 0.0038023712567949765 0 0.0048224521119852289 0.0037029786221162613 0 0.011470302892321515 0.0040104960864335432 0 0.012609355372130782 0.0046052158105880543 0 0.013284245891455285 0.0035287244426134663 0 0.011091207247008529 0.0056917647562135694 0 0.011566460769390647 0.0047730744142303484 0 0.012609355372130782 0.0046052158105880543 0 0.011566460769390647 0.0047730744142303484 0 0.011470302892321515 0.0040104960864335432 0 0.012609355372130782 0.0046052158105880543 0 0.011094854055924995 0.004786759704011637 0 0.011566460769390647 0.0047730744142303484 0 0.011470302892321515 0.0040104960864335432 0 0.0036215788096105408 0.0048596245962073516 0 0.0036893367965114385 0.0057285670160872803 0 0.0033782888853898289 0.0054952119225390554 0 0.0036893367965114385 0.0057285670160872803 0 0.011290565149417712 0.0055950686692810801 0 0.012280021095912639 0.0058673276426363411 0 0.013846799761548307 0.0049394870251346255 0 0.013083551040108181 0.0069767719274806345 0 0.011289773022392076 0.0067148196725547536 0 0.012256674747942134 0.0063226113845205557 0 0.012280021095912639 0.0058673276426363411 0 0.012256674747942134 0.0063226113845205557 0 0.012952290518499115 0.0058981195692324861 0 0.011290565149417712 0.0055950686692810801 0 0.012280021095912639 0.0058673276426363411 0 0.011673604208504849 0.0061577118456761322 0 0.012280021095912639 0.0058673276426363411 0 0.011673604208504849 0.0061577118456761322 0 0.012256674747942134 0.0063226113845205557 0 0.011289773022392076 0.0067148196725547536 0 0.011673604208504849 0.0061577118456761322 0 0.012256674747942134 0.0063226113845205557 0 0.013083551040108181 0.0069767719274806345 0 0.012256674747942134 0.0063226113845205557 0 0.012952290518499115 0.0058981195692324861 0 0.014003901455046375 0.0065098273652015731 0 0.012952290518499115 0.0058981195692324861 0 0.015099758899853936 0.0059348337328692788 0 0.012280021095912639 0.0058673276426363411 0 0.012952290518499115 0.0058981195692324861 0 0.013846799761548307 0.0049394870251346255 0 0.022199021366683846 0.0057450822185929036 0 0.02269911326673717 0.0057590240825997323 0 0.012952290518499115 0.0058981195692324861 0 0.014513735391784325 0.0053119671614454758 0 0.015160514831146799 0.006059923879502411 0 0.013083551040108181 0.0069767719274806345 0 0.014003901455046375 0.0065098273652015731 0 0.012952290518499115 0.0058981195692324861 0 0.012952290518499115 0.0058981195692324861 0 0.013846799761548307 0.0049394870251346255 0 0.014513735391784325 0.0053119671614454758 0 0.012609355372130782 0.0046052158105880543 0 0.013846799761548307 0.0049394870251346255 0 0.013284245891455285 0.0035287244426134663 0 0.013846799761548307 0.0049394870251346255 0 0.014349892130174695 0.0038847021709313874 0 0.013284245891455285 0.0035287244426134663 0 0.013846799761548307 0.0049394870251346255 0 0.014513735391784325 0.0053119671614454758 0 0.015066385752127296 0.0044482738076857377 0 0.013846799761548307 0.0049394870251346255 0 0.015066385752127296 0.0044482738076857377 0 0.014349892130174695 0.0038847021709313874 0 0.015066385752127296 0.0044482738076857377 0 0.014349892130174695 0.0038847021709313874 0 0.014932853535270857 0.003782732768303499 0 0.014513735391784325 0.0053119671614454758 0 0.015066385752127296 0.0044482738076857377 0 0.015585398527098997 0.0051713271071565656 0 0.016323932056742201 0.0045960775078861598 0 0.015066385752127296 0.0044482738076857377 0 0.015585398527098997 0.0051713271071565656 0 0.016388444909498198 0.0053993911903673138 0 0.015585398527098997 0.0051713271071565656 0 0.015160514831146799 0.006059923879502411 0 0.014513735391784325 0.0053119671614454758 0 0.015585398527098997 0.0051713271071565656 0 0.015160514831146799 0.006059923879502411 0 0.014888471206684739 0.007233677244542892 0 0.014003901455046375 0.0065098273652015731 0 0.015099758899853936 0.0059348337328692788 0 0.015906604848255384 0.006722249499196524 0 0.014888471206684739 0.007233677244542892 0 0.015099758899853936 0.0059348337328692788 0 -0.0023038238474035111 0.0054718006351299588 0 -0.0019707997276466578 0.005561069573610234 0 -0.0016769565083486954 0.0053071061275300254 0 -0.0021517237703296489 0.0056980115517730051 0 -0.0023154127785992907 0.0055643551263442797 0 -0.0022864280491434793 0.0058547671327871913 0 -0.0021517237703296489 0.0056980115517730051 0 -0.0023038238474035111 0.0054718006351299588 0 -0.0019707997276466578 0.005561069573610234 0 -0.0021517237703296489 0.0056980115517730051 0 -0.0023154127785992907 0.0055643551263442797 0 -0.0023038238474035111 0.0054718006351299588 0 -0.011640152949627324 0.0031720989381098887 0 -0.011643953331940106 0.0031696695721872914 0 -0.011643953331940106 0.0031696695721872914 0 -0.012046635453002628 0.0022492565610195995 0 -0.037105317765965713 0.0021366565502353978 0 -0.036873374483670146 0.0016382799140854892 0 -0.037366054740287639 0.0016772020391802491 0 -0.0023154127785992907 0.0055643551263442797 0 -0.0023038643607443763 0.0054698499479192818 0 -0.0024823009420453898 0.0055174497074949574 0 -0.0023154127785992907 0.0055643551263442797 0 -0.0024823009420453898 0.0055174497074949574 0 -0.0022864280491434793 0.0058547671327871913 0 -0.012046635453002628 0.0022492565610195995 0 -0.0084397690251662404 0.0018983589955404267 0 -0.037168136231657656 0.0012564048069261436 0 -0.036873374483670146 0.0016382799140854892 0 -0.037366054740287639 0.0016772020391802491 0 -0.036766207480879151 0.0012464519455602423 0 -0.037168136231657656 0.0012564048069261436 0 -0.036873374483670146 0.0016382799140854892 0 -0.0020971978240176513 0.0061884834956522578 0 -0.0021517237703296489 0.0056980115517730051 0 -0.0022864280491434793 0.0058547671327871913 0 -0.0020971978240176513 0.0061884834956522578 0 -0.0021517237703296489 0.0056980115517730051 0 -0.0017510939931754488 0.0057653263515125728 0 -0.0045820602742679285 0.0016722351140538582 0 -0.0084397690251662404 0.0018983589955404267 0 -0.037624768652426623 0.0012048591440180472 0 -0.037168136231657656 0.0012564048069261436 0 -0.037366054740287639 0.0016772020391802491 0 0.003884667362473713 -0.00057428491077418826 0 0.0011770830549958401 0.0010052935152707822 0 0.0035869992934501665 0.0025272717930444693 0 -0.0045820602742679285 0.0016722351140538582 0 -0.0014675697506528909 0.0019041864143228052 0 0.003884667362473713 -0.00057428491077418826 0 0.0063957439599978978 -0.0010124155660452218 0 0.0035869992934501665 0.0025272717930444693 0 0.0058736233780864802 -0.0023536173549905857 0 0.0058469213976529598 0.00016556893450148281 0 0.0083756045117048521 -0.0010276374957409978 0 0.0011770830549958401 0.0010052935152707822 0 0.0012413795843628616 0.0035744994192438958 0 0.0035869992934501665 0.0025272717930444693 0 0.0041756977469747649 0.0020338293146953527 0 0.0029832663148160452 0.0013024357677828573 0 0.0058469213976529598 0.00016556893450148281 0 0.0062442238337774621 0.0034398704397019305 0 0.0083756045117048521 -0.0010276374957409978 0 -0.0017510939931754488 0.0057653263515125728 0 -0.0016769565083486954 0.0053071061275300254 0 -0.001382607734133886 0.0053333630738195883 0 -0.0014675697506528909 0.0019041864143228052 0 0.0015909751880651363 0.0020523542948477423 0 0.0012413795843628616 0.0035744994192438958 0 0.0035869992934501665 0.0025272717930444693 0 0.00078556857487714757 0.0060593034304809879 0 -0.00052495378904591984 0.0045818973122886304 0 0.0011770830549958401 0.0010052935152707822 0 0.0012413795843628616 0.0035744994192438958 0 -0.00052495378904591984 0.0045818973122886304 0 0.0012413795843628616 0.0035744994192438958 0 0.00049308627562422202 0.0047827553499413143 0 0.0012413795843628616 0.0035744994192438958 0 0.00049308627562422202 0.0047827553499413143 0 0.00078556857487714757 0.0060593034304809879 0 0.0041756977469747649 0.0020338293146953527 0 0.0041648029887090664 0.0020343724525165533 0 -0.0021517237703296489 0.0056980115517730051 0 -0.0017510939931754488 0.0057653263515125728 0 -0.0019707997276466578 0.005561069573610234 0 -0.0017510939931754488 0.0057653263515125728 0 -0.0019707997276466578 0.005561069573610234 0 -0.0016769565083486954 0.0053071061275300254 0 -0.014338422756244033 0.0087634955136963889 0 -0.014514605930680161 0.0089940051977589856 0 -0.014261663156772329 0.0091087108931846641 0 -0.014338422756244033 0.0087634955136963889 0 -0.014261663156772329 0.0091087108931846641 0 -0.01400847629025294 0.0089194734559580862 0 -0.0010191527551978328 0.0051389354681560615 0 -0.0016769565083486954 0.0053071061275300254 0 -0.0013484334841145904 0.0052936769829247639 0 0.0031420141912366531 0.0038484060649393911 0 -0.0045578726921407858 0.0036393304976309136 0 -0.014780346978040232 0.0089304707687060808 0 -0.014338422756244033 0.0087634955136963889 0 -0.014514605930680161 0.0089940051977589856 0 -0.0011335955956709603 0.0053727854540008071 0 -0.0013808161218065199 0.0053338693466681193 0 -0.0013484334841145904 0.0052936769829247639 0 -0.0010897036955311934 0.0057721486817273581 0 0.00049308627562422202 0.0047827553499413143 0 0.00078556857487714757 0.0060593034304809879 0 0.0037473076176865435 0.0025730409058410566 0 0.0015909751880651363 0.0020523542948477423 0 0.0015909751880651363 0.0020523542948477423 0 0.0015896964181780825 0.0020539107893637349 0 -0.0016769565083486954 0.0053071061275300254 0 -0.001382607734133886 0.0053333630738195883 0 -0.0013484334841145904 0.0052936769829247639 0 -0.014838680118833415 0.0093358782962236885 0 -0.014261663156772329 0.0091087108931846641 0 -0.014721168532929175 0.0095989472753032577 0 0.0016930565665647906 0.005925645597283047 0 0.0011488834994239508 0.0060642312192126279 0 -0.014514605930680161 0.0089940051977589856 0 -0.014570057704166372 0.0091381561216953237 0 -0.014261663156772329 0.0091087108931846641 0 -0.01470602859611796 0.0090697863662367144 0 -0.014514605930680161 0.0089940051977589856 0 -0.014570057704166372 0.0091381561216953237 0 -0.014261663156772329 0.0091087108931846641 0 -0.01374027495962769 0.009290016118496976 0 -0.014056319819099383 0.009566323642068256 0 -0.014261663156772329 0.0091087108931846641 0 -0.01374027495962769 0.009290016118496976 0 -0.01400847629025294 0.0089194734559580862 0 -0.033118462708421427 0.0054646537346260994 0 -0.032914407701204254 0.0037721593740827706 0 -0.033602608449835515 0.0046179249359538368 0 -0.011643953331940106 0.0031696695721872914 0 -0.014695191345782992 0.0044317654453375549 0 -0.011643953331940106 0.0031696695721872914 0 -0.0045578726921407858 0.0036393304976309136 0 -0.013670081555341135 0.0085378746476662028 0 -0.01374027495962769 0.009290016118496976 0 -0.01400847629025294 0.0089194734559580862 0 -0.013670081555341135 0.0085378746476662028 0 -0.014338422756244033 0.0087634955136963889 0 -0.01400847629025294 0.0089194734559580862 0 -0.0344320182181947 0.0041075244659354443 0 -0.033578287626442604 0.0055868767781959905 0 -0.033602608449835515 0.0046179249359538368 0 -0.033118462708421427 0.0054646537346260994 0 -0.033578287626442604 0.0055868767781959905 0 -0.033602608449835515 0.0046179249359538368 0 -0.014150126494384768 0.00097764315910342731 0 -0.012046635453002628 0.0022492565610195995 0 -0.0344320182181947 0.0041075244659354443 0 -0.032914407701204254 0.0037721593740827706 0 -0.033925326434565244 0.0029053315846693864 0 -0.0344320182181947 0.0041075244659354443 0 -0.032914407701204254 0.0037721593740827706 0 -0.033602608449835515 0.0046179249359538368 0 -0.032731189301917221 0.0021071252388974613 0 -0.033504149507822115 0.001198057421571017 0 -0.034331346291656503 0.001815156219359391 0 -0.033925326434565244 0.0029053315846693864 0 -0.032731189301917221 0.0021071252388974613 0 -0.034331346291656503 0.001815156219359391 0 -0.014695191345782992 0.0044317654453375549 0 -0.017329502751659908 0.005182905821820738 0 -0.032914407701204254 0.0037721593740827706 0 -0.033925326434565244 0.0029053315846693864 0 -0.032731189301917221 0.0021071252388974613 0 -0.01374027495962769 0.009290016118496976 0 -0.013804671139158132 0.010154168310741892 0 -0.014056319819099383 0.009566323642068256 0 -0.014261663156772329 0.0091087108931846641 0 -0.014402881564513456 0.0097380421362438345 0 -0.014721168532929175 0.0095989472753032577 0 -0.014261663156772329 0.0091087108931846641 0 -0.014056319819099383 0.009566323642068256 0 -0.014402881564513456 0.0097380421362438345 0 -0.013804671139158132 0.010154168310741892 0 -0.014056319819099383 0.009566323642068256 0 -0.014402881564513456 0.0097380421362438345 0 -0.014721168532929175 0.0095989472753032577 0 -0.014970548309005389 0.0097704271390607264 0 -0.014966687071915247 0.0096517968966973802 0 -0.014838680118833415 0.0093358782962236885 0 -0.014721168532929175 0.0095989472753032577 0 -0.014966687071915247 0.0096517968966973802 0 -0.014402881564513456 0.0097380421362438345 0 -0.014721168532929175 0.0095989472753032577 0 -0.014746805157398169 0.0098682802445334318 0 -0.014746805157398169 0.0098682802445334318 0 -0.014970548309005389 0.0097704271390607264 0 -0.014977522310977312 0.0099875815184888878 0 -0.014721168532929175 0.0095989472753032577 0 -0.014746805157398169 0.0098682802445334318 0 -0.014970548309005389 0.0097704271390607264 0 -0.014402881564513456 0.0097380421362438345 0 -0.014746805157398169 0.0098682802445334318 0 -0.014551200838097562 0.010259843066733637 0 -0.014746805157398169 0.0098682802445334318 0 -0.014977522310977312 0.0099875815184888878 0 -0.014551200838097562 0.010259843066733637 0 -0.014977522310977312 0.0099875815184888878 0 -0.014551200838097562 0.010259843066733637 0 -0.015051029478649759 0.010331427630230788 0 -0.013804671139158132 0.010154168310741892 0 -0.014402881564513456 0.0097380421362438345 0 -0.014551200838097562 0.010259843066733637 0 -0.013804671139158132 0.010154168310741892 0 -0.014551200838097562 0.010259843066733637 0 -0.013893713440396674 0.011147900122988014 0 -0.014551200838097562 0.010259843066733637 0 -0.014842963291032353 0.010732087738330611 0 -0.013893713440396674 0.011147900122988014 0 -0.014842963291032353 0.010732087738330611 0 -0.015051029478649759 0.010331427630230788 0 -0.01530822702570391 0.010811038328010466 0 -0.014551200838097562 0.010259843066733637 0 -0.014842963291032353 0.010732087738330611 0 -0.015051029478649759 0.010331427630230788 0 -0.014842963291032353 0.010732087738330611 0 -0.014806209369968196 0.011275465635359491 0 -0.01530822702570391 0.010811038328010466 0 -0.014842963291032353 0.010732087738330611 0 -0.014806209369968196 0.011275465635359491 0 -0.013893713440396674 0.011147900122988014 0 -0.014806209369968196 0.011275465635359491 0 -0.013893713440396674 0.011147900122988014 0 -0.014693550581968516 0.011993243132871031 0 -0.032531138429273118 0.00051649906939341302 0 -0.03365616793413697 0.00042980774586941542 0 -0.033504149507822115 0.001198057421571017 0 -0.032531138429273118 0.00051649906939341302 0 -0.03365616793413697 0.00042980774586941542 0 -0.033207498266076191 -0.00023549735917069491 0 -0.03365616793413697 0.00042980774586941542 0 -0.033970661940400826 -0.00029624137173412003 0 -0.033207498266076191 -0.00023549735917069491 0 -0.03365616793413697 0.00042980774586941542 0 -0.033970661940400826 -0.00029624137173412003 0 -0.03437299385771618 0.00026836165297948521 0 -0.03365616793413697 0.00042980774586941542 0 -0.03437299385771618 0.00026836165297948521 0 -0.034299488084508285 0.00094042789753730758 0 -0.033504149507822115 0.001198057421571017 0 -0.034299488084508285 0.00094042789753730758 0 -0.034331346291656503 0.001815156219359391 0 -0.03365616793413697 0.00042980774586941542 0 -0.033504149507822115 0.001198057421571017 0 -0.034299488084508285 0.00094042789753730758 0 -0.017329502751659908 0.005182905821820738 0 -0.019684746406100601 0.0056612823695231995 0 -0.032731189301917221 0.0021071252388974613 0 -0.032531138429273118 0.00051649906939341302 0 -0.033504149507822115 0.001198057421571017 0 -0.010381747357255427 0.0084797269127027033 0 -0.010595050622604641 0.010626410465559757 0 -0.011951926442183101 0.0095171015612575023 0 -0.010381747357255427 0.0084797269127027033 0 -0.011951926442183101 0.0095171015612575023 0 -0.011418707663858888 0.0075820916951660584 0 -0.0086528719659576172 0.0082224695150405532 0 -0.010381747357255427 0.0084797269127027033 0 -0.010595050622604641 0.010626410465559757 0 0.015865667226993594 0.0036703928568808373 0 0.015061573060555803 0.0030635857972254798 0 0.015218078095895548 0.0034107303846275679 0 0.015865667226993594 0.0036703928568808373 0 0.015218078095895548 0.0034107303846275679 0 0.014932853535270857 0.003782732768303499 0 0.015865667226993594 0.0036703928568808373 0 0.015066385752127296 0.0044482738076857377 0 0.014932853535270857 0.003782732768303499 0 0.015061573060555803 0.0030635857972254798 0 0.015218078095895548 0.0034107303846275679 0 0.014932853535270857 0.003782732768303499 0 0.015061573060555803 0.0030635857972254798 0 0.014349892130174695 0.0038847021709313874 0 0.014932853535270857 0.003782732768303499 0 -0.010595050622604641 0.010626410465559757 0 -0.012538904803971617 0.011092751686796711 0 -0.011951926442183101 0.0095171015612575023 0 0.015061573060555803 0.0030635857972254798 0 0.014349892130174695 0.0038847021709313874 0 0.013284245891455285 0.0035287244426134663 0 0.0086856836117692651 0.01044708554500585 0 0.005988296812702425 0.0081197341741940082 0 -0.012538904803971617 0.011092751686796711 0 -0.011951926442183101 0.0095171015612575023 0 -0.013518477629029736 0.010144749828845655 0 -0.011951926442183101 0.0095171015612575023 0 -0.013538757072709583 0.0087809787955936119 0 -0.011418707663858888 0.0075820916951660584 0 -0.011951926442183101 0.0095171015612575023 0 -0.013538757072709583 0.0087809787955936119 0 -0.013518477629029736 0.010144749828845655 0 -0.013538757072709583 0.0087809787955936119 0 -0.015228547187350281 0.0098190521269035779 0 -0.014711851094368266 0.009692137638931432 0 -0.00049772198004471478 0.015961518308148463 0 -0.0010139617686370712 0.016056877593959282 0 -0.013538757072709583 0.0087809787955936119 0 -0.013518477629029736 0.010144749828845655 0 -0.014711851094368266 0.009692137638931432 0 -0.012538904803971617 0.011092751686796711 0 -0.013518477629029736 0.010144749828845655 0 -0.014223423776782575 0.011227712734590511 0 -0.014374813153568654 0.011539203142374438 0 -0.012538904803971617 0.011092751686796711 0 -0.014223423776782575 0.011227712734590511 0 0.0036893367965114385 0.0057285670160872803 0 0.005988296812702425 0.0081197341741940082 0 -0.014752026340234073 0.01164962311490976 0 -0.014223423776782575 0.011227712734590511 0 -0.014290848414891878 0.010595917578131778 0 -0.014752026340234073 0.01164962311490976 0 -0.014376416166613086 0.011547377749389643 0 -0.014223423776782575 0.011227712734590511 0 0.0036893367965114385 0.0057285670160872803 0 0.0036778771622478471 0.0057419305285289733 0 -0.013518477629029736 0.010144749828845655 0 -0.014223423776782575 0.011227712734590511 0 -0.014290848414891878 0.010595917578131778 0 -0.013518477629029736 0.010144749828845655 0 -0.014290848414891878 0.010595917578131778 0 -0.014711851094368266 0.009692137638931432 0 -0.015031517114219756 0.0097423198787671954 0 -0.015228547187350281 0.0098190521269035779 0 -0.014711851094368266 0.009692137638931432 0 -0.014752026340234073 0.01164962311490976 0 -0.014290848414891878 0.010595917578131778 0 -0.014711851094368266 0.009692137638931432 0 -0.015176268860724911 0.009681805021198692 0 -0.015031517114219756 0.0097423198787671954 0 -0.014711851094368266 0.009692137638931432 0 0.0033782888853898289 0.0054952119225390554 0 0.003196703925211822 0.0056531691540815231 0 -0.015176268860724911 0.009681805021198692 0 -0.015031517114219756 0.0097423198787671954 0 -0.015068435877948859 0.0096880284925005868 0 -0.014838680118833415 0.0093358782962236885 0 -0.015068435877948859 0.0096880284925005868 0 -0.014966687071915247 0.0096517968966973802 0 -0.015068435877948859 0.0096880284925005868 0 -0.014966687071915247 0.0096517968966973802 0 -0.015069158144126224 0.0097430873442518849 0 -0.015031517114219756 0.0097423198787671954 0 -0.015068435877948859 0.0096880284925005868 0 -0.015069158144126224 0.0097430873442518849 0 -0.014970548309005389 0.0097704271390607264 0 -0.014966687071915247 0.0096517968966973802 0 -0.015069158144126224 0.0097430873442518849 0 -0.015031517114219756 0.0097423198787671954 0 -0.015069158144126224 0.0097430873442518849 0 -0.015228547187350281 0.0098190521269035779 0 -0.014970548309005389 0.0097704271390607264 0 -0.015069158144126224 0.0097430873442518849 0 -0.015228547187350281 0.0098190521269035779 0 -0.016124602351969119 0.010294890896946962 0 -0.015228547187350281 0.0098190521269035779 0 -0.015509225343030526 0.010421806185913646 0 -0.014970548309005389 0.0097704271390607264 0 -0.014977522310977312 0.0099875815184888878 0 -0.015228547187350281 0.0098190521269035779 0 -0.014977522310977312 0.0099875815184888878 0 -0.015228547187350281 0.0098190521269035779 0 -0.015051029478649759 0.010331427630230788 0 -0.015228547187350281 0.0098190521269035779 0 -0.015051029478649759 0.010331427630230788 0 -0.015509225343030526 0.010421806185913646 0 -0.015051029478649759 0.010331427630230788 0 -0.015509225343030526 0.010421806185913646 0 -0.01530822702570391 0.010811038328010466 0 -0.015509225343030526 0.010421806185913646 0 -0.01530822702570391 0.010811038328010466 0 -0.015891230638003552 0.010837102351073939 0 -0.01530822702570391 0.010811038328010466 0 -0.01562261909398675 0.011294980740320169 0 -0.015891230638003552 0.010837102351073939 0 -0.014806209369968196 0.011275465635359491 0 -0.01562261909398675 0.011294980740320169 0 -0.01541822143291589 0.011772994910004643 0 -0.014806209369968196 0.011275465635359491 0 -0.01530822702570391 0.010811038328010466 0 -0.01562261909398675 0.011294980740320169 0 -0.01562261909398675 0.011294980740320169 0 -0.016282911928727446 0.011338756287676208 0 -0.015974840427216887 0.011767355910696345 0 -0.01562261909398675 0.011294980740320169 0 -0.016282911928727446 0.011338756287676208 0 -0.015891230638003552 0.010837102351073939 0 -0.016124602351969119 0.010294890896946962 0 -0.015509225343030526 0.010421806185913646 0 -0.015891230638003552 0.010837102351073939 0 -0.016124602351969119 0.010294890896946962 0 -0.015891230638003552 0.010837102351073939 0 -0.016861881647730139 0.010745732970255517 0 -0.00049772198004471478 0.015961518308148463 0 0.001065992884097139 0.015673057708927209 0 -0.016282911928727446 0.011338756287676208 0 -0.015891230638003552 0.010837102351073939 0 -0.016861881647730139 0.010745732970255517 0 -0.016282911928727446 0.011338756287676208 0 -0.016903879735087685 0.011530932384748088 0 -0.016861881647730139 0.010745732970255517 0 -0.016282911928727446 0.011338756287676208 0 -0.016903879735087685 0.011530932384748088 0 -0.016445033848177675 0.011770546620977087 0 -0.017546147646173481 0.011159893254328881 0 -0.016903879735087685 0.011530932384748088 0 -0.017318137132495862 0.011919044897360502 0 -0.017546147646173481 0.011159893254328881 0 -0.016903879735087685 0.011530932384748088 0 -0.016861881647730139 0.010745732970255517 0 0.0037596028111092266 0.015161605402605976 0 0.001065992884097139 0.015673057708927209 0 -0.0092840252098542689 0.0064204664863541754 0 -0.010381747357255427 0.0084797269127027033 0 -0.011418707663858888 0.0075820916951660584 0 -0.01681437402435499 0.012163660926185075 0 -0.016575140518287554 0.012774398682751964 0 -0.017262417959471341 0.012721189372850168 0 -0.017318137132495862 0.011919044897360502 0 -0.01681437402435499 0.012163660926185075 0 -0.017262417959471341 0.012721189372850168 0 -0.016903879735087685 0.011530932384748088 0 -0.017318137132495862 0.011919044897360502 0 -0.01681437402435499 0.012163660926185075 0 -0.016903879735087685 0.011530932384748088 0 -0.016445033848177675 0.011770546620977087 0 -0.01681437402435499 0.012163660926185075 0 -0.016445033848177675 0.011770546620977087 0 -0.016390867101945573 0.012256429684010348 0 -0.01681437402435499 0.012163660926185075 0 -0.016390867101945573 0.012256429684010348 0 -0.01681437402435499 0.012163660926185075 0 -0.016575140518287554 0.012774398682751964 0 0.00093050206512775176 0.020751468026842974 0 0.0010390340814966676 0.020833503334005223 0 -0.016390867101945573 0.012256429684010348 0 -0.016127050360913549 0.012725923175974386 0 -0.016614361420527777 0.012803121104534514 0 -0.016390867101945573 0.012256429684010348 0 -0.015795785925510751 0.012245240453640699 0 -0.016127050360913549 0.012725923175974386 0 -0.015795785925510751 0.012245240453640699 0 -0.015643273265748589 0.012697311955405648 0 -0.016127050360913549 0.012725923175974386 0 -0.016390867101945573 0.012256429684010348 0 -0.015974840427216887 0.011767355910696345 0 -0.015795785925510751 0.012245240453640699 0 -0.016445033848177675 0.011770546620977087 0 -0.016390867101945573 0.012256429684010348 0 -0.015974840427216887 0.011767355910696345 0 -0.016282911928727446 0.011338756287676208 0 -0.016445033848177675 0.011770546620977087 0 -0.015974840427216887 0.011767355910696345 0 -0.01541822143291589 0.011772994910004643 0 -0.015795785925510751 0.012245240453640699 0 -0.015282625851070533 0.012296166224268396 0 -0.01562261909398675 0.011294980740320169 0 -0.015974840427216887 0.011767355910696345 0 -0.01541822143291589 0.011772994910004643 0 -0.015974840427216887 0.011767355910696345 0 -0.01541822143291589 0.011772994910004643 0 -0.015795785925510751 0.012245240453640699 0 -0.015795785925510751 0.012245240453640699 0 -0.015643273265748589 0.012697311955405648 0 -0.015282625851070533 0.012296166224268396 0 -0.015643273265748589 0.012697311955405648 0 -0.015926459367682083 0.013163533050942663 0 -0.015347764563198486 0.013226401821049408 0 -0.015653706710535013 0.013585394174698274 0 -0.015926459367682083 0.013163533050942663 0 -0.015347764563198486 0.013226401821049408 0 -0.015653706710535013 0.013585394174698274 0 -0.016235047120081461 0.013530131650691387 0 -0.015926459367682083 0.013163533050942663 0 -0.0035190844169354207 0.021268570375042262 0 -0.0018955552985700857 0.021549791934149524 0 -0.016235047120081461 0.013530131650691387 0 -0.015926459367682083 0.013163533050942663 0 -0.01640593457141909 0.013156044487214932 0 -0.015926459367682083 0.013163533050942663 0 -0.016127050360913549 0.012725923175974386 0 -0.01640593457141909 0.013156044487214932 0 -0.015643273265748589 0.012697311955405648 0 -0.015926459367682083 0.013163533050942663 0 -0.016127050360913549 0.012725923175974386 0 -0.016127050360913549 0.012725923175974386 0 -0.016614361420527777 0.012803121104534514 0 -0.01640593457141909 0.013156044487214932 0 -0.016614361420527777 0.012803121104534514 0 -0.01640593457141909 0.013156044487214932 0 -0.016797296310743254 0.013315171121151504 0 0.0010390340814966676 0.020833503334005223 0 0.0013725756635657393 0.021064112888024705 0 -0.0018955552985700857 0.021549791934149524 0 0.0011839550505432874 0.022040983731445241 0 -0.021572390542931644 0.013318802832311414 0 -0.025656411094091971 0.012927031164801008 0 -0.023610925511919338 0.015544027746558482 0 -0.016235047120081461 0.013530131650691387 0 -0.01640593457141909 0.013156044487214932 0 -0.01674182378989305 0.013379892565235221 0 -0.016235047120081461 0.013530131650691387 0 -0.01674182378989305 0.013379892565235221 0 -0.016867216597293334 0.01351028831344175 0 -0.01674182378989305 0.013379892565235221 0 -0.016792056146271796 0.013318655901324647 0 -0.016867216597293334 0.01351028831344175 0 0.0013725756635657393 0.021064112888024705 0 0.0011839550505432874 0.022040983731445241 0 -0.01640593457141909 0.013156044487214932 0 -0.01674182378989305 0.013379892565235221 0 -0.016797296310743254 0.013315171121151504 0 0.0013637003153278316 0.021055878461040574 0 0.0013725756635657393 0.021064112888024705 0 0.011732803019017812 0.023540396160866197 0 0.012090114905548189 0.023547109776624196 0 0.011924241222680432 0.023416120815648395 0 0.012015602423232971 0.023821690957700002 0 0.01244085414061106 0.023851776274549843 0 0.012231823718174054 0.023973638470260912 0 0.012125591442654324 0.023457045208644382 0 0.012090114905548189 0.023547109776624196 0 0.011924241222680432 0.023416120815648395 0 0.0033681997948658074 0.022207166580212545 0 0.0011839550505432874 0.022040983731445241 0 0.0013725756635657393 0.021064112888024705 0 0.003139044568370707 0.018581530010696925 0 0.012125591442654324 0.023457045208644382 0 0.011924241222680432 0.023416120815648395 0 0.011925376478713725 0.023196877894909877 0 -0.016575140518287554 0.012774398682751964 0 -0.016773518367075812 0.01330565095469587 0 -0.017262417959471341 0.012721189372850168 0 -0.025306012775113063 0.0055911640497411852 0 -0.021881440125358531 0.006048728540712596 0 -0.018623368222295062 0.022221771238584515 0 -0.013180522154534588 0.023952822560397723 0 -0.01643621594039869 0.018512878176073656 0 -0.033473737404838742 -0.0015800350200917688 0 -0.033524517110390291 -0.00087495914918370252 0 -0.03228536775305324 -0.0011361629927259004 0 -0.033473737404838742 -0.0015800350200917688 0 -0.034706297165658165 -0.0020367488725985751 0 -0.034365866970046795 -0.0010538546543520002 0 -0.025306012775113063 0.0055911640497411852 0 -0.028751664516409543 0.0050111533410056039 0 -0.033473737404838742 -0.0015800350200917688 0 -0.033524517110390291 -0.00087495914918370252 0 -0.034365866970046795 -0.0010538546543520002 0 -0.033524517110390291 -0.00087495914918370252 0 -0.033970661940400826 -0.00029624137173412003 0 -0.034365866970046795 -0.0010538546543520002 0 -0.033524517110390291 -0.00087495914918370252 0 -0.033970661940400826 -0.00029624137173412003 0 -0.033207498266076191 -0.00023549735917069491 0 -0.032531138429273118 0.00051649906939341302 0 -0.033207498266076191 -0.00023549735917069491 0 -0.03228536775305324 -0.0011361629927259004 0 -0.019684746406100601 0.0056612823695231995 0 -0.021881440125358531 0.006048728540712596 0 -0.033524517110390291 -0.00087495914918370252 0 -0.033207498266076191 -0.00023549735917069491 0 -0.03228536775305324 -0.0011361629927259004 0 -0.013893713440396674 0.011147900122988014 0 -0.014693550581968516 0.011993243132871031 0 -0.014028763903928897 0.01222275664361256 0 -0.021116230346233677 0.0064115293307061456 0 -0.021881440125358531 0.006048728540712596 0 -0.020878766454067124 0.0065260855290792778 0 -0.021116230346233677 0.0064115293307061456 0 -0.01541822143291589 0.011772994910004643 0 -0.01490030564357713 0.011978252809125329 0 -0.015282625851070533 0.012296166224268396 0 -0.014806209369968196 0.011275465635359491 0 -0.01541822143291589 0.011772994910004643 0 -0.014693550581968516 0.011993243132871031 0 -0.015643273265748589 0.012697311955405648 0 -0.015282625851070533 0.012296166224268396 0 -0.014961325766114801 0.012627120804648236 0 -0.01490030564357713 0.011978252809125329 0 -0.015282625851070533 0.012296166224268396 0 -0.014961325766114801 0.012627120804648236 0 -0.01490030564357713 0.011978252809125329 0 -0.014961325766114801 0.012627120804648236 0 -0.014274131920729219 0.01216836263647042 0 -0.014961325766114801 0.012627120804648236 0 -0.014274131920729219 0.01216836263647042 0 -0.014314639277810636 0.013102892768230356 0 -0.021881440125358531 0.006048728540712596 0 -0.021601486827268063 0.0079141282729669644 0 -0.014961325766114801 0.012627120804648236 0 -0.014314639277810636 0.013102892768230356 0 -0.015347764563198486 0.013226401821049408 0 -0.015643273265748589 0.012697311955405648 0 -0.014961325766114801 0.012627120804648236 0 -0.015347764563198486 0.013226401821049408 0 -0.0035190844169354207 0.021268570375042262 0 -0.0040088927513111123 0.021178069670404021 0 -0.015653706710535013 0.013585394174698274 0 -0.015347764563198486 0.013226401821049408 0 -0.015136426965114441 0.013854800221147854 0 -0.014314639277810636 0.013102892768230356 0 -0.015347764563198486 0.013226401821049408 0 -0.015136426965114441 0.013854800221147854 0 -0.012626830850217994 0.015960671001104269 0 -0.013597306343302506 0.01432033035804446 0 -0.014178810937660278 0.015418226157682619 0 -0.014314639277810636 0.013102892768230356 0 -0.015136426965114441 0.013854800221147854 0 -0.014178810937660278 0.015418226157682619 0 -0.021601486827268063 0.0079141282729669644 0 -0.02151432942675768 0.008532078304803601 0 -0.013597306343302506 0.01432033035804446 0 -0.018232508557637063 0.014923885654204393 0 -0.019993638636385737 0.011476995797000841 0 -0.015227421425719655 0.015832673292520139 0 -0.01643621594039869 0.018512878176073656 0 -0.018232508557637063 0.014923885654204393 0 -0.013597306343302506 0.01432033035804446 0 -0.015227421425719655 0.015832673292520139 0 -0.018232508557637063 0.014923885654204393 0 -0.012626830850217994 0.015960671001104269 0 -0.013597306343302506 0.01432033035804446 0 -0.015227421425719655 0.015832673292520139 0 -0.013180522154534588 0.023952822560397723 0 -0.012626830850217994 0.015960671001104269 0 -0.01643621594039869 0.018512878176073656 0 -0.012626830850217994 0.015960671001104269 0 -0.015227421425719655 0.015832673292520139 0 -0.01643621594039869 0.018512878176073656 0 -0.018623368222295062 0.022221771238584515 0 -0.021194569897181614 0.018644152460835114 0 -0.023993773744623539 0.020497889498203106 0 -0.01643621594039869 0.018512878176073656 0 -0.021194569897181614 0.018644152460835114 0 -0.018232508557637063 0.014923885654204393 0 -0.018623368222295062 0.022221771238584515 0 -0.01643621594039869 0.018512878176073656 0 -0.021194569897181614 0.018644152460835114 0 -0.021194569897181614 0.018644152460835114 0 -0.02167903897220633 0.015279243712407161 0 -0.018232508557637063 0.014923885654204393 0 -0.02167903897220633 0.015279243712407161 0 -0.018232508557637063 0.014923885654204393 0 -0.019993638636385737 0.011476995797000841 0 -0.02167903897220633 0.015279243712407161 0 -0.02360389250589982 0.012470054143929286 0 -0.019993638636385737 0.011476995797000841 0 -0.02360389250589982 0.012470054143929286 0 -0.025640242619016509 0.016516139888875066 0 -0.026949416014378436 0.011076470147474779 0 -0.02167903897220633 0.015279243712407161 0 -0.02360389250589982 0.012470054143929286 0 -0.025640242619016509 0.016516139888875066 0 -0.032160402743556624 0.014626004159020248 0 -0.025640242619016509 0.016516139888875066 0 -0.026949416014378436 0.011076470147474779 0 -0.032160402743556624 0.014626004159020248 0 -0.026949416014378436 0.011076470147474779 0 -0.031877845941742818 0.0095516127132640721 0 -0.032160402743556624 0.014626004159020248 0 -0.030693442988882141 0.019519524929094288 0 -0.036322575334557808 0.017539483043037946 0 -0.032160402743556624 0.014626004159020248 0 -0.030693442988882141 0.019519524929094288 0 -0.025640242619016509 0.016516139888875066 0 -0.030753805584256017 0.0059416939777544864 0 -0.029240645123777418 0.0064774322829664844 0 -0.030580306601192209 0.0042826657096507077 0 -0.029853438048066096 0.0048004553089844009 0 -0.028751664516409543 0.0050111533410056039 0 -0.030693442988882141 0.019519524929094288 0 -0.025032976044691117 0.021389247974627164 0 -0.025640242619016509 0.016516139888875066 0 -0.028756080395498287 0.0050941362611792284 0 -0.028751664516409543 0.0050111533410056039 0 -0.021194569897181614 0.018644152460835114 0 -0.025032976044691117 0.021389247974627164 0 -0.025640242619016509 0.016516139888875066 0 -0.021194569897181614 0.018644152460835114 0 -0.02167903897220633 0.015279243712407161 0 -0.025640242619016509 0.016516139888875066 0 -0.03454455555375497 0.0046523988968276524 0 -0.033888842623340278 0.006112421977813854 0 -0.036067068930848621 0.0041674000920373724 0 -0.031340958262551545 0.0045163441375846046 0 -0.031353062744109927 0.0045161174000209851 0 -0.03454455555375497 0.0046523988968276524 0 -0.033103171913340508 0.0053610667706965294 0 -0.034042979257280892 0.0042971256073224638 0 -0.031811924270407098 0.0043960311350559576 0 -0.031340958262551545 0.0045163441375846046 0 -0.03454455555375497 0.0046523988968276524 0 -0.033888842623340278 0.006112421977813854 0 -0.033103171913340508 0.0053610667706965294 0 -0.031340958262551545 0.0045163441375846046 0 -0.031019422152850706 0.0044275964579048137 0 -0.032160402743556624 0.014626004159020248 0 -0.03836624789531054 0.014190322469054113 0 -0.031877845941742818 0.0095516127132640721 0 -0.032160402743556624 0.014626004159020248 0 -0.03836624789531054 0.014190322469054113 0 -0.036322575334557808 0.017539483043037946 0 -0.031340958262551545 0.0045163441375846046 0 -0.031014303786722583 0.0044463197174884209 0 -0.029126187489204116 0.0036891460460465532 0 -0.030731778893805871 0.0048213892143876298 0 -0.032057274300865725 0.0026515364117659472 0 -0.038484415905540782 -0.0015910073937772874 0 -0.039010378003040726 -0.0012917064576556435 0 -0.038702161531760162 -0.00078414293627156976 0 -0.031014303786722583 0.0044463197174884209 0 -0.0302012487735033 0.0046539148818270952 0 -0.029853438048066096 0.0048004553089844009 0 -0.031014303786722583 0.0044463197174884209 0 -0.031811924270407098 0.0043960311350559576 0 -0.032805513378911536 0.004491744184754576 0 -0.039010378003040726 -0.0012917064576556435 0 -0.039176311404855869 -0.00086169654318331767 0 -0.039859798865862585 -0.0012598025161207893 0 -0.03907085432013286 -0.0018002778846601694 0 -0.039010378003040726 -0.0012917064576556435 0 -0.039859798865862585 -0.0012598025161207893 0 -0.03907085432013286 -0.0018002778846601694 0 -0.038484415905540782 -0.0015910073937772874 0 -0.039010378003040726 -0.0012917064576556435 0 -0.031811924270407098 0.0043960311350559576 0 -0.031014303786722583 0.0044463197174884209 0 -0.03911719123060467 -0.00041180567819611532 0 -0.038702161531760162 -0.00078414293627156976 0 -0.038758632715815908 5.090287391598503e-05 0 -0.039176311404855869 -0.00086169654318331767 0 -0.03911719123060467 -0.00041180567819611532 0 -0.039745110488317227 -0.00054710392775314521 0 -0.039010378003040726 -0.0012917064576556435 0 -0.039176311404855869 -0.00086169654318331767 0 -0.038702161531760162 -0.00078414293627156976 0 -0.039176311404855869 -0.00086169654318331767 0 -0.03911719123060467 -0.00041180567819611532 0 -0.038702161531760162 -0.00078414293627156976 0 -0.038484415905540782 -0.0015910073937772874 0 -0.038702161531760162 -0.00078414293627156976 0 -0.03784539169549108 -0.00054232835280565786 0 -0.038702161531760162 -0.00078414293627156976 0 -0.038758632715815908 5.090287391598503e-05 0 -0.03784539169549108 -0.00054232835280565786 0 -0.030945704121463673 0.0047085919043750573 0 -0.0302012487735033 0.0046539148818270952 0 -0.0379653776306536 -0.00060876770212859276 0 -0.036198518188284602 -0.0017687783605165981 0 -0.03656692407761216 -0.00055475222026743801 0 -0.0379653776306536 -0.00060876770212859276 0 -0.03656692407761216 -0.00055475222026743801 0 -0.03630591412706248 0.00054094905622286088 0 -0.038758632715815908 5.090287391598503e-05 0 -0.039585572212785546 0.00059968296844037643 0 -0.039509247843121112 -1.7046703541907619e-05 0 -0.03911719123060467 -0.00041180567819611532 0 -0.038758632715815908 5.090287391598503e-05 0 -0.039509247843121112 -1.7046703541907619e-05 0 -0.03911719123060467 -0.00041180567819611532 0 -0.039509247843121112 -1.7046703541907619e-05 0 -0.039745110488317227 -0.00054710392775314521 0 -0.034706297165658165 -0.0020367488725985751 0 -0.034365866970046795 -0.0010538546543520002 0 -0.035833841913944953 -0.0013107203972335625 0 -0.030753805584256017 0.0059416939777544864 0 -0.032266950013385982 0.0054056469052832989 0 -0.030580306601192209 0.0042826657096507077 0 -0.028751664516409543 0.0050111533410056039 0 -0.0302012487735033 0.0046539148818270952 0 -0.036198518188284602 -0.0017687783605165981 0 -0.03656692407761216 -0.00055475222026743801 0 -0.034995974365582466 0.00017496955650903791 0 -0.0302012487735033 0.0046539148818270952 0 -0.030494481469421558 0.0042379103091598376 0 -0.035833841913944953 -0.0013107203972335625 0 -0.034562364331480577 -0.00032657123970762007 0 -0.034995974365582466 0.00017496955650903791 0 -0.034365866970046795 -0.0010538546543520002 0 -0.035833841913944953 -0.0013107203972335625 0 -0.034562364331480577 -0.00032657123970762007 0 -0.033970661940400826 -0.00029624137173412003 0 -0.034365866970046795 -0.0010538546543520002 0 -0.034562364331480577 -0.00032657123970762007 0 -0.033970661940400826 -0.00029624137173412003 0 -0.034562364331480577 -0.00032657123970762007 0 -0.03437299385771618 0.00026836165297948521 0 -0.03437299385771618 0.00026836165297948521 0 -0.034995974365582466 0.00017496955650903791 0 -0.03630591412706248 0.00054094905622286088 0 -0.03437299385771618 0.00026836165297948521 0 -0.034959948813733682 0.00074763242117379281 0 -0.035607726873862065 0.00028183893374549241 0 -0.034562364331480577 -0.00032657123970762007 0 -0.03437299385771618 0.00026836165297948521 0 -0.034995974365582466 0.00017496955650903791 0 -0.037280993037097705 0.00042532236088366649 0 -0.03740699988200144 0.00043349970462821738 0 -0.03437299385771618 0.00026836165297948521 0 -0.034959948813733682 0.00074763242117379281 0 -0.034299488084508285 0.00094042789753730758 0 -0.034299488084508285 0.00094042789753730758 0 -0.034945892833495945 0.0012531947908200117 0 -0.034331346291656503 0.001815156219359391 0 -0.034945892833495945 0.0012531947908200117 0 -0.034331346291656503 0.001815156219359391 0 -0.035540012180480141 0.0018125983479917349 0 -0.034959948813733682 0.00074763242117379281 0 -0.034299488084508285 0.00094042789753730758 0 -0.034945892833495945 0.0012531947908200117 0 -0.03557785854614838 0.0010121710067590493 0 -0.036189682254935317 0.0014648695173274508 0 -0.035540012180480141 0.0018125983479917349 0 -0.034945892833495945 0.0012531947908200117 0 -0.03557785854614838 0.0010121710067590493 0 -0.035540012180480141 0.0018125983479917349 0 -0.034959948813733682 0.00074763242117379281 0 -0.034945892833495945 0.0012531947908200117 0 -0.03557785854614838 0.0010121710067590493 0 -0.03557785854614838 0.0010121710067590493 0 -0.035607726873862065 0.00028183893374549241 0 -0.036211379915604386 0.00078521607333589577 0 -0.03656692407761216 -0.00055475222026743801 0 -0.034995974365582466 0.00017496955650903791 0 -0.03630591412706248 0.00054094905622286088 0 -0.034959948813733682 0.00074763242117379281 0 -0.03557785854614838 0.0010121710067590493 0 -0.035607726873862065 0.00028183893374549241 0 -0.0379653776306536 -0.00060876770212859276 0 -0.03630591412706248 0.00054094905622286088 0 -0.038406751746289818 0.00073372891932937544 0 -0.03740699988200144 0.00043349970462821738 0 -0.037672537716961607 0.00044985963836121474 0 -0.035607726873862065 0.00028183893374549241 0 -0.036910707242755421 0.00018102522241285717 0 -0.036211379915604386 0.00078521607333589577 0 -0.0379653776306536 -0.00060876770212859276 0 -0.038406751746289818 0.00073372891932937544 0 -0.039585572212785546 0.00059968296844037643 0 -0.030945704121463673 0.0047085919043750573 0 -0.031217151915566704 0.0047440551302201876 0 -0.036910707242755421 0.00018102522241285717 0 -0.036879318114975843 0.0010504623209604557 0 -0.03770918595972466 0.00073803221242348246 0 -0.036879318114975843 0.0010504623209604557 0 -0.037610292733980748 0.0012854374720428904 0 -0.03770918595972466 0.00073803221242348246 0 -0.036910707242755421 0.00018102522241285717 0 -0.036879318114975843 0.0010504623209604557 0 -0.036211379915604386 0.00078521607333589577 0 -0.036879318114975843 0.0010504623209604557 0 -0.037610292733980748 0.0012854374720428904 0 -0.036803146745742782 0.0017987512282199975 0 -0.03557785854614838 0.0010121710067590493 0 -0.036211379915604386 0.00078521607333589577 0 -0.036189682254935317 0.0014648695173274508 0 -0.036879318114975843 0.0010504623209604557 0 -0.036211379915604386 0.00078521607333589577 0 -0.036189682254935317 0.0014648695173274508 0 -0.036879318114975843 0.0010504623209604557 0 -0.036189682254935317 0.0014648695173274508 0 -0.036803146745742782 0.0017987512282199975 0 -0.036189682254935317 0.0014648695173274508 0 -0.036218771541131907 0.0024029092044437761 0 -0.036803146745742782 0.0017987512282199975 0 -0.036189682254935317 0.0014648695173274508 0 -0.036218771541131907 0.0024029092044437761 0 -0.035540012180480141 0.0018125983479917349 0 -0.037610292733980748 0.0012854374720428904 0 -0.036803146745742782 0.0017987512282199975 0 -0.038178135734241336 0.0018910150939671297 0 -0.036803146745742782 0.0017987512282199975 0 -0.037269371755764766 0.0024196363898365213 0 -0.038178135734241336 0.0018910150939671297 0 -0.036218771541131907 0.0024029092044437761 0 -0.036803146745742782 0.0017987512282199975 0 -0.037269371755764766 0.0024196363898365213 0 -0.036751438475012034 0.0031999724446697946 0 -0.036218771541131907 0.0024029092044437761 0 -0.037269371755764766 0.0024196363898365213 0 -0.035942563372523495 0.003228067024352901 0 -0.036751438475012034 0.0031999724446697946 0 -0.036218771541131907 0.0024029092044437761 0 -0.035942563372523495 0.003228067024352901 0 -0.036218771541131907 0.0024029092044437761 0 -0.035309813550849473 0.002603031866473413 0 -0.035651585116001333 0.0032017967654781611 0 -0.035942563372523495 0.003228067024352901 0 -0.035309813550849473 0.002603031866473413 0 -0.014150126494384768 0.00097764315910342731 0 -0.014847279967938044 0.000545268323757222 0 -0.0344320182181947 0.0041075244659354443 0 -0.033925326434565244 0.0029053315846693864 0 -0.035309813550849473 0.002603031866473413 0 -0.033925326434565244 0.0029053315846693864 0 -0.035309813550849473 0.002603031866473413 0 -0.034331346291656503 0.001815156219359391 0 -0.035309813550849473 0.002603031866473413 0 -0.034331346291656503 0.001815156219359391 0 -0.035540012180480141 0.0018125983479917349 0 -0.036218771541131907 0.0024029092044437761 0 -0.035309813550849473 0.002603031866473413 0 -0.035540012180480141 0.0018125983479917349 0 -0.040536951220929499 0.0023906456830159644 0 -0.039751454176110201 0.0017041866652564479 0 -0.041302171985606331 0.0014441474791917566 0 -0.040536951220929499 0.0023906456830159644 0 -0.041806175551520275 0.0023149163563631918 0 -0.041302171985606331 0.0014441474791917566 0 -0.041806175551520275 0.0023149163563631918 0 -0.041302171985606331 0.0014441474791917566 0 -0.042254850127623159 0.001589329558356436 0 -0.040536951220929499 0.0023906456830159644 0 -0.041806175551520275 0.0023149163563631918 0 -0.04128582650080926 0.0031416355548905296 0 -0.041806175551520275 0.0023149163563631918 0 -0.04128582650080926 0.0031416355548905296 0 -0.042364554755881301 0.0031823992096862209 0 -0.04017739641946344 0.0033220269984440168 0 -0.040536951220929499 0.0023906456830159644 0 -0.04128582650080926 0.0031416355548905296 0 -0.04017739641946344 0.0033220269984440168 0 -0.040536951220929499 0.0023906456830159644 0 -0.038733348034255037 0.0027777103165676294 0 -0.037269371755764766 0.0024196363898365213 0 -0.038733348034255037 0.0027777103165676294 0 -0.038178135734241336 0.0018910150939671297 0 -0.036751438475012034 0.0031999724446697946 0 -0.037269371755764766 0.0024196363898365213 0 -0.038733348034255037 0.0027777103165676294 0 -0.040536951220929499 0.0023906456830159644 0 -0.038733348034255037 0.0027777103165676294 0 -0.039751454176110201 0.0017041866652564479 0 -0.038178135734241336 0.0018910150939671297 0 -0.039751454176110201 0.0017041866652564479 0 -0.038700245679151618 0.0011538225297945896 0 -0.038733348034255037 0.0027777103165676294 0 -0.038178135734241336 0.0018910150939671297 0 -0.039751454176110201 0.0017041866652564479 0 -0.039751454176110201 0.0017041866652564479 0 -0.038700245679151618 0.0011538225297945896 0 -0.040873752299196056 0.00064913924522173047 0 -0.038700245679151618 0.0011538225297945896 0 -0.038626180947580885 0.0001075086281671853 0 -0.040873752299196056 0.00064913924522173047 0 -0.037610292733980748 0.0012854374720428904 0 -0.038178135734241336 0.0018910150939671297 0 -0.038700245679151618 0.0011538225297945896 0 -0.037610292733980748 0.0012854374720428904 0 -0.038700245679151618 0.0011538225297945896 0 -0.03770918595972466 0.00073803221242348246 0 -0.038700245679151618 0.0011538225297945896 0 -0.03770918595972466 0.00073803221242348246 0 -0.038626180947580885 0.0001075086281671853 0 -0.037672537716961607 0.00044985963836121474 0 -0.037914509083442065 0.00046446077439822137 0 -0.038406751746289818 0.00073372891932937544 0 -0.040180575337962897 0.00082938649242941473 0 -0.039585572212785546 0.00059968296844037643 0 -0.036910707242755421 0.00018102522241285717 0 -0.03770918595972466 0.00073803221242348246 0 -0.038626180947580885 0.0001075086281671853 0 -0.040180575337962897 0.00082938649242941473 0 -0.040046488726101205 0.00035297018162576264 0 -0.039585572212785546 0.00059968296844037643 0 -0.037914509083442065 0.00046446077439822137 0 -0.038015516030518386 0.00047097555484935548 0 -0.040180575337962897 0.00082938649242941473 0 -0.04060539445113185 0.00048691662150754264 0 -0.040873752299196056 0.00064913924522173047 0 -0.040180575337962897 0.00082938649242941473 0 -0.040046488726101205 0.00035297018162576264 0 -0.04060539445113185 0.00048691662150754264 0 -0.04060539445113185 0.00048691662150754264 0 -0.040873752299196056 0.00064913924522173047 0 -0.041638193916456914 0.00011582798758191038 0 -0.040873752299196056 0.00064913924522173047 0 -0.042176090324565346 0.00070239635364131175 0 -0.041638193916456914 0.00011582798758191038 0 -0.039751454176110201 0.0017041866652564479 0 -0.040873752299196056 0.00064913924522173047 0 -0.041302171985606331 0.0014441474791917566 0 -0.040873752299196056 0.00064913924522173047 0 -0.041302171985606331 0.0014441474791917566 0 -0.042176090324565346 0.00070239635364131175 0 -0.041302171985606331 0.0014441474791917566 0 -0.042254850127623159 0.001589329558356436 0 -0.042176090324565346 0.00070239635364131175 0 -0.042176090324565346 0.00070239635364131175 0 -0.041638193916456914 0.00011582798758191038 0 -0.042268833985542938 0.00016886240493280293 0 -0.04060539445113185 0.00048691662150754264 0 -0.041638193916456914 0.00011582798758191038 0 -0.040786464593494741 -1.7135078198145697e-05 0 -0.041638193916456914 0.00011582798758191038 0 -0.040786464593494741 -1.7135078198145697e-05 0 -0.040689345447872283 -0.00069847423963317271 0 -0.033593603185505076 0.00457304205094321 0 -0.033394924473807756 0.0045505429510515382 0 -0.041638193916456914 0.00011582798758191038 0 -0.041754627365961167 0.00012592332013110097 0 -0.041849874873620685 0.00013046376053988182 0 -0.041638193916456914 0.00011582798758191038 0 -0.042268833985542938 0.00016886240493280293 0 -0.041849874873620685 0.00013046376053988182 0 -0.042268833985542938 0.00016886240493280293 0 -0.041849874873620685 0.00013046376053988182 0 -0.042340961415125555 5.2136507409114322e-05 0 -0.040046488726101205 0.00035297018162576264 0 -0.039585572212785546 0.00059968296844037643 0 -0.039509247843121112 -1.7046703541907619e-05 0 -0.040046488726101205 0.00035297018162576264 0 -0.039509247843121112 -1.7046703541907619e-05 0 -0.040247793533207413 -4.9673133173662897e-05 0 -0.039509247843121112 -1.7046703541907619e-05 0 -0.040247793533207413 -4.9673133173662897e-05 0 -0.039745110488317227 -0.00054710392775314521 0 -0.040046488726101205 0.00035297018162576264 0 -0.04060539445113185 0.00048691662150754264 0 -0.040247793533207413 -4.9673133173662897e-05 0 -0.04060539445113185 0.00048691662150754264 0 -0.040247793533207413 -4.9673133173662897e-05 0 -0.040786464593494741 -1.7135078198145697e-05 0 -0.040247793533207413 -4.9673133173662897e-05 0 -0.040786464593494741 -1.7135078198145697e-05 0 -0.040689345447872283 -0.00069847423963317271 0 -0.040247793533207413 -4.9673133173662897e-05 0 -0.040689345447872283 -0.00069847423963317271 0 -0.039745110488317227 -0.00054710392775314521 0 -0.033394924473807756 0.0045505429510515382 0 -0.032805513378911536 0.004491744184754576 0 -0.039176311404855869 -0.00086169654318331767 0 -0.039745110488317227 -0.00054710392775314521 0 -0.039859798865862585 -0.0012598025161207893 0 -0.040689345447872283 -0.00069847423963317271 0 -0.039745110488317227 -0.00054710392775314521 0 -0.039859798865862585 -0.0012598025161207893 0 -0.042068238010718038 0.00028714729368496146 0 -0.041903075352015845 0.00018052024632211016 0 -0.041921948344442003 0.00027081525170448011 0 -0.041903075352015845 0.00018052024632211016 0 -0.041921948344442003 0.00027081525170448011 0 -0.041821118332573404 0.00023549865502014923 0 -0.041754627365961167 0.00012592332013110097 0 -0.041821118332573404 0.00023549865502014923 0 -0.041688704987220014 0.00020990058174675559 0 -0.041754627365961167 0.00012592332013110097 0 -0.041903075352015845 0.00018052024632211016 0 -0.041821118332573404 0.00023549865502014923 0 -0.032799811538477976 0.0040621617204235402 0 -0.03313441065508331 0.0039429744016758238 0 -0.041821118332573404 0.00023549865502014923 0 -0.041883807756573355 0.00038352352585405332 0 -0.041688704987220014 0.00020990058174675559 0 -0.041883807756573355 0.00038352352585405332 0 -0.041688704987220014 0.00020990058174675559 0 -0.04138318009738557 0.00059360212510102431 0 -0.033888842623340278 0.006112421977813854 0 -0.03758102097854344 0.0042400702315746591 0 -0.036067068930848621 0.0041674000920373724 0 -0.031811924270407098 0.0043960311350559576 0 -0.032799811538477976 0.0040621617204235402 0 -0.042068238010718038 0.00028714729368496146 0 -0.041921948344442003 0.00027081525170448011 0 -0.041883807756573355 0.00038352352585405332 0 -0.041921948344442003 0.00027081525170448011 0 -0.041821118332573404 0.00023549865502014923 0 -0.041883807756573355 0.00038352352585405332 0 -0.03758102097854344 0.0042400702315746591 0 -0.036067068930848621 0.0041674000920373724 0 -0.03890908921577186 0.0013303579913878242 0 -0.041849874873620685 0.00013046376053988182 0 -0.041849883388460685 0.00015299382814468906 0 -0.042340961415125555 5.2136507409114322e-05 0 -0.041849874873620685 0.00013046376053988182 0 -0.041688704987220014 0.00020990058174675559 0 -0.041849883388460685 0.00015299382814468906 0 -0.041754627365961167 0.00012592332013110097 0 -0.041849874873620685 0.00013046376053988182 0 -0.041688704987220014 0.00020990058174675559 0 -0.041688704987220014 0.00020990058174675559 0 -0.041849883388460685 0.00015299382814468906 0 -0.04138318009738557 0.00059360212510102431 0 -0.041849883388460685 0.00015299382814468906 0 -0.042448438607308736 -0.00038745339457946237 0 -0.042340961415125555 5.2136507409114322e-05 0 -0.041849883388460685 0.00015299382814468906 0 -0.04184087438359118 -0.00055027062508940629 0 -0.042448438607308736 -0.00038745339457946237 0 -0.041849883388460685 0.00015299382814468906 0 -0.04184087438359118 -0.00055027062508940629 0 -0.04138318009738557 0.00059360212510102431 0 -0.04184087438359118 -0.00055027062508940629 0 -0.04138318009738557 0.00059360212510102431 0 -0.040258228350084267 -0.00070555490494955101 0 -0.04184087438359118 -0.00055027062508940629 0 -0.040978405505276712 -0.0017915365444859162 0 -0.040258228350084267 -0.00070555490494955101 0 -0.04184087438359118 -0.00055027062508940629 0 -0.042245987812471145 -0.001745889869444336 0 -0.040978405505276712 -0.0017915365444859162 0 -0.04184087438359118 -0.00055027062508940629 0 -0.042245987812471145 -0.001745889869444336 0 -0.042783828494494802 -0.0010307227588138269 0 -0.042245987812471145 -0.001745889869444336 0 -0.041384430589850772 -0.0025950000515634663 0 -0.040978405505276712 -0.0017915365444859162 0 -0.042245987812471145 -0.001745889869444336 0 -0.041384430589850772 -0.0025950000515634663 0 -0.042195603930274397 -0.0028235467473473803 0 -0.040978405505276712 -0.0017915365444859162 0 -0.040575621757370083 -0.0026963799175704168 0 -0.039231898196375133 -0.0024822495856167033 0 -0.041384430589850772 -0.0025950000515634663 0 -0.040978405505276712 -0.0017915365444859162 0 -0.040575621757370083 -0.0026963799175704168 0 -0.040898761047172466 -0.0032708540045366832 0 -0.041239267761290943 -0.0037713404550678564 0 -0.040106417939575541 -0.0036455017177697926 0 -0.041384430589850772 -0.0025950000515634663 0 -0.040575621757370083 -0.0026963799175704168 0 -0.040898761047172466 -0.0032708540045366832 0 -0.040575621757370083 -0.0026963799175704168 0 -0.040898761047172466 -0.0032708540045366832 0 -0.040119555565395155 -0.0032226234045270217 0 -0.015980114164198717 0.026564526964721408 0 -0.015676793467125669 0.026685271558303334 0 -0.040898761047172466 -0.0032708540045366832 0 -0.040119555565395155 -0.0032226234045270217 0 -0.039899665448130138 -0.0038499285713903238 0 -0.040898761047172466 -0.0032708540045366832 0 -0.041622335583919166 -0.0032609085563074531 0 -0.041239267761290943 -0.0037713404550678564 0 -0.041622335583919166 -0.0032609085563074531 0 -0.042195603930274397 -0.0028235467473473803 0 -0.04236950354219652 -0.0038275861606703768 0 -0.041384430589850772 -0.0025950000515634663 0 -0.041622335583919166 -0.0032609085563074531 0 -0.042195603930274397 -0.0028235467473473803 0 -0.041384430589850772 -0.0025950000515634663 0 -0.040898761047172466 -0.0032708540045366832 0 -0.041622335583919166 -0.0032609085563074531 0 -0.01566955404979322 0.025603681741416581 0 -0.015676793467125669 0.026685271558303334 0 -0.035143211035704794 -0.0033398559571368898 0 -0.037793555201685633 -0.00075845641102518287 0 -0.038788562408774013 -0.0039586932328948944 0 -0.040119555565395155 -0.0032226234045270217 0 -0.039231898196375133 -0.0024822495856167033 0 -0.039899665448130138 -0.0038499285713903238 0 -0.018360850727859715 0.02084880372303298 0 -0.015676793467125669 0.026685271558303334 0 -0.040575621757370083 -0.0026963799175704168 0 -0.040119555565395155 -0.0032226234045270217 0 -0.039231898196375133 -0.0024822495856167033 0 -0.035143211035704794 -0.0033398559571368898 0 -0.037793555201685633 -0.00075845641102518287 0 -0.034953398837170045 -0.00084545047475672306 0 -0.037793555201685633 -0.00075845641102518287 0 -0.035244121450765269 0.0012936224462482327 0 -0.034953398837170045 -0.00084545047475672306 0 -0.035244121450765269 0.0012936224462482327 0 -0.036675183517313789 0.0023193732429031559 0 -0.035184460690957507 0.0032930439949527077 0 -0.037793555201685633 -0.00075845641102518287 0 -0.035244121450765269 0.0012936224462482327 0 -0.036675183517313789 0.0023193732429031559 0 -0.040978405505276712 -0.0017915365444859162 0 -0.039231898196375133 -0.0024822495856167033 0 -0.040258228350084267 -0.00070555490494955101 0 -0.018360850727859715 0.02084880372303298 0 -0.019764613150782682 0.017905208062789137 0 -0.039231898196375133 -0.0024822495856167033 0 -0.037896941591645222 -0.00062623563307706673 0 -0.040258228350084267 -0.00070555490494955101 0 -0.03758102097854344 0.0042400702315746591 0 -0.04138318009738557 0.00059360212510102431 0 -0.03890908921577186 0.0013303579913878242 0 -0.037896941591645222 -0.00062623563307706673 0 -0.040258228350084267 -0.00070555490494955101 0 -0.03890908921577186 0.0013303579913878242 0 -0.04138318009738557 0.00059360212510102431 0 -0.040258228350084267 -0.00070555490494955101 0 -0.03890908921577186 0.0013303579913878242 0 -0.020197305480635523 0.017027667320377981 0 -0.019764613150782682 0.017905208062789137 0 -0.036067068930848621 0.0041674000920373724 0 -0.036675183517313789 0.0023193732429031559 0 -0.035184460690957507 0.0032930439949527077 0 -0.036067068930848621 0.0041674000920373724 0 -0.037896941591645222 -0.00062623563307706673 0 -0.03890908921577186 0.0013303579913878242 0 -0.03454455555375497 0.0046523988968276524 0 -0.036067068930848621 0.0041674000920373724 0 -0.035184460690957507 0.0032930439949527077 0 -0.03454455555375497 0.0046523988968276524 0 -0.035184460690957507 0.0032930439949527077 0 -0.034042979257280892 0.0042971256073224638 0 -0.03286963859327275 0.0063921180299614418 0 -0.034042979257280892 0.0042971256073224638 0 -0.032075062214735543 0.0032020023299041416 0 -0.035184460690957507 0.0032930439949527077 0 -0.034042979257280892 0.0042971256073224638 0 -0.034019185713284307 0.0025904402393793478 0 -0.034042979257280892 0.0042971256073224638 0 -0.032075062214735543 0.0032020023299041416 0 -0.034019185713284307 0.0025904402393793478 0 -0.03286963859327275 0.0063921180299614418 0 -0.032075062214735543 0.0032020023299041416 0 -0.029736367900933931 0.0050952162999906014 0 -0.032075062214735543 0.0032020023299041416 0 -0.029098339326669824 0.0026650827655035534 0 -0.030960145711168712 0.00016598845036287337 0 -0.032075062214735543 0.0032020023299041416 0 -0.03331723826106664 0.00076120045779123446 0 -0.030960145711168712 0.00016598845036287337 0 -0.035244121450765269 0.0012936224462482327 0 -0.035184460690957507 0.0032930439949527077 0 -0.034019185713284307 0.0025904402393793478 0 -0.035244121450765269 0.0012936224462482327 0 -0.03331723826106664 0.00076120045779123446 0 -0.034019185713284307 0.0025904402393793478 0 -0.032075062214735543 0.0032020023299041416 0 -0.03331723826106664 0.00076120045779123446 0 -0.034019185713284307 0.0025904402393793478 0 -0.023236562066502226 0.0087247216001295463 0 -0.026949416014378436 0.011076470147474779 0 -0.025209442595224708 0.0044025865871943027 0 -0.023236562066502226 0.0087247216001295463 0 -0.025209442595224708 0.0044025865871943027 0 -0.020472803827209399 0.0052413654326722292 0 -0.02360389250589982 0.012470054143929286 0 -0.023236562066502226 0.0087247216001295463 0 -0.026949416014378436 0.011076470147474779 0 -0.029736367900933931 0.0050952162999906014 0 -0.029098339326669824 0.0026650827655035534 0 -0.025209442595224708 0.0044025865871943027 0 -0.026949416014378436 0.011076470147474779 0 -0.031877845941742818 0.0095516127132640721 0 -0.025209442595224708 0.0044025865871943027 0 -0.031019422152850706 0.0044275964579048137 0 -0.030767797386135443 0.004301090697464682 0 -0.032075062214735543 0.0032020023299041416 0 -0.029736367900933931 0.0050952162999906014 0 -0.029098339326669824 0.0026650827655035534 0 -0.029098339326669824 0.0026650827655035534 0 -0.027387932747599517 -0.00032116074421816216 0 -0.030960145711168712 0.00016598845036287337 0 -0.029098339326669824 0.0026650827655035534 0 -0.025209442595224708 0.0044025865871943027 0 -0.027387932747599517 -0.00032116074421816216 0 -0.025209442595224708 0.0044025865871943027 0 -0.027387932747599517 -0.00032116074421816216 0 -0.020472803827209399 0.0052413654326722292 0 -0.0077296130471869165 0.018670007766528548 0 -0.010389995510261974 0.016333906898119227 0 -0.0099753442940095447 0.018527655645536469 0 -0.015978858440030951 0.022618471644289942 0 -0.016750220317389375 0.021282764810907333 0 -0.0077296130471869165 0.018670007766528548 0 -0.0082615269980217624 0.020415951017801092 0 -0.0099753442940095447 0.018527655645536469 0 -0.0077296130471869165 0.018670007766528548 0 -0.0082615269980217624 0.020415951017801092 0 -0.0051325533220605351 0.020936502531407618 0 -0.027387932747599517 -0.00032116074421816216 0 -0.030960145711168712 0.00016598845036287337 0 -0.031318190786955462 -0.0029864085547228504 0 -0.015978858440030951 0.022618471644289942 0 -0.01426935235031554 0.025257693000782556 0 0.011497320269003981 0.036190827472447243 0 0.01699150672275513 0.033904132813827384 0 0.01479477083415986 0.038628692717652603 0 -0.012655830080022943 0.025353912514902845 0 -0.01426935235031554 0.025257693000782556 0 0.011497320269003981 0.036190827472447243 0 0.0091232161913018181 0.032652384542106901 0 0.01699150672275513 0.033904132813827384 0 0.011497320269003981 0.036190827472447243 0 0.0091232161913018181 0.032652384542106901 0 0.0064418261081956316 0.035908294961082589 0 -0.035244121450765269 0.0012936224462482327 0 -0.03331723826106664 0.00076120045779123446 0 -0.034953398837170045 -0.00084545047475672306 0 -0.03331723826106664 0.00076120045779123446 0 -0.033178282223398199 -0.0013081043936801033 0 -0.034953398837170045 -0.00084545047475672306 0 -0.03331723826106664 0.00076120045779123446 0 -0.033178282223398199 -0.0013081043936801033 0 -0.030960145711168712 0.00016598845036287337 0 -0.033178282223398199 -0.0013081043936801033 0 -0.030960145711168712 0.00016598845036287337 0 -0.031318190786955462 -0.0029864085547228504 0 0.01699150672275513 0.033904132813827384 0 0.021122292399786875 0.037390512162952264 0 0.01479477083415986 0.038628692717652603 0 -0.01426935235031554 0.025257693000782556 0 -0.013544025170791237 0.026380216552828614 0 -0.035143211035704794 -0.0033398559571368898 0 -0.033178282223398199 -0.0013081043936801033 0 -0.031318190786955462 -0.0029864085547228504 0 -0.013808330177707108 0.025612070288541802 0 -0.013792080048648347 0.025609246975370033 0 -0.01380011897902189 0.025606562659488581 0 -0.035143211035704794 -0.0033398559571368898 0 -0.033178282223398199 -0.0013081043936801033 0 -0.034953398837170045 -0.00084545047475672306 0 -0.01566955404979322 0.025603681741416581 0 -0.01426935235031554 0.025257693000782556 0 -0.013544025170791237 0.026380216552828614 0 -0.013618612721712069 0.026955281059127256 0 0.021122292399786875 0.037390512162952264 0 0.02074301645438684 0.043374379273368395 0 0.025343213185043071 0.041015029981556338 0 -0.013808330177707108 0.025612070288541802 0 -0.01380011897902189 0.025606562659488581 0 -0.013807978245161697 0.025602095782935121 0 0.021122292399786875 0.037390512162952264 0 0.017037048692686123 0.041980207722738069 0 0.01479477083415986 0.038628692717652603 0 0.021122292399786875 0.037390512162952264 0 0.017037048692686123 0.041980207722738069 0 0.02074301645438684 0.043374379273368395 0 0.017037048692686123 0.041980207722738069 0 0.015865086505316685 0.046017369306869123 0 0.02074301645438684 0.043374379273368395 0 -0.011693653246066898 0.026842567455189374 0 -0.012132297258207926 0.026850868872922599 0 0.015865086505316685 0.046017369306869123 0 0.01847751753731704 0.045919817139766894 0 0.018322476227655163 0.047777078485216541 0 0.020202302096971783 0.046715114985085057 0 0.01847751753731704 0.045919817139766894 0 0.018322476227655163 0.047777078485216541 0 0.020202302096971783 0.046715114985085057 0 0.02048871640471862 0.048653201407263993 0 0.018322476227655163 0.047777078485216541 0 -0.012132297258207926 0.026850868872922599 0 -0.013618612721712069 0.026955281059127256 0 0.020202302096971783 0.046715114985085057 0 0.01847751753731704 0.045919817139766894 0 0.020637486913100404 0.045261149431646108 0 0.011497320269003981 0.036190827472447243 0 0.0064418261081956316 0.035908294961082589 0 0.0092655266110182929 0.039633729741518117 0 0.0092655266110182929 0.039633729741518117 0 0.0072171844512122635 0.042363104499904138 0 0.0048526100370170806 0.039376637945324922 0 0.0064418261081956316 0.035908294961082589 0 0.0092655266110182929 0.039633729741518117 0 0.0048526100370170806 0.039376637945324922 0 0.0092655266110182929 0.039633729741518117 0 0.01479477083415986 0.038628692717652603 0 0.011960776153940719 0.043261047606689799 0 0.011497320269003981 0.036190827472447243 0 0.0092655266110182929 0.039633729741518117 0 0.01479477083415986 0.038628692717652603 0 0.017037048692686123 0.041980207722738069 0 0.01479477083415986 0.038628692717652603 0 0.011960776153940719 0.043261047606689799 0 0.01248191846425027 0.046340483318833538 0 0.011960776153940719 0.043261047606689799 0 0.0075603936101561915 0.046878479475053005 0 0.017037048692686123 0.041980207722738069 0 0.015865086505316685 0.046017369306869123 0 0.011960776153940719 0.043261047606689799 0 0.015865086505316685 0.046017369306869123 0 0.01248191846425027 0.046340483318833538 0 0.011960776153940719 0.043261047606689799 0 0.011960776153940719 0.043261047606689799 0 0.0072171844512122635 0.042363104499904138 0 0.0075603936101561915 0.046878479475053005 0 0.0092655266110182929 0.039633729741518117 0 0.011960776153940719 0.043261047606689799 0 0.0072171844512122635 0.042363104499904138 0 0.016020210628581583 0.052012326836661113 0 0.016574311716388238 0.053505591192814395 0 0.015630584095673951 0.052993261885540315 0 0.016020210628581583 0.052012326836661113 0 0.017446671440794054 0.05199996586382951 0 0.016574311716388238 0.053505591192814395 0 0.01248191846425027 0.046340483318833538 0 0.0075603936101561915 0.046878479475053005 0 0.014392128789751202 0.049234883070444747 0 0.010937829683991908 0.049145358308276973 0 0.012008532688141824 0.049445356673267347 0 0.015865086505316685 0.046017369306869123 0 0.01248191846425027 0.046340483318833538 0 0.014392128789751202 0.049234883070444747 0 0.017446671440794054 0.05199996586382951 0 0.016574311716388238 0.053505591192814395 0 0.017876633807178747 0.053294153730810132 0 0.016574311716388238 0.053505591192814395 0 0.015630584095673951 0.052993261885540315 0 0.01528804331111319 0.053961331165955667 0 0.016574311716388238 0.053505591192814395 0 0.01528804331111319 0.053961331165955667 0 0.015797572922769999 0.054852143755173964 0 0.02048871640471862 0.048653201407263993 0 0.019240176446425575 0.051179465863781151 0 0.021082160424772754 0.05095987730450232 0 0.02048871640471862 0.048653201407263993 0 0.018322476227655163 0.047777078485216541 0 0.019240176446425575 0.051179465863781151 0 0.012008532688141824 0.049445356673267347 0 0.012461276926094776 0.049570599850231774 0 0.014392128789751202 0.049234883070444747 0 0.018322476227655163 0.047777078485216541 0 0.019240176446425575 0.051179465863781151 0 0.015865086505316685 0.046017369306869123 0 0.014392128789751202 0.049234883070444747 0 0.018322476227655163 0.047777078485216541 0 0.017446671440794054 0.05199996586382951 0 0.017876633807178747 0.053294153730810132 0 0.019240176446425575 0.051179465863781151 0 0.017876633807178747 0.053294153730810132 0 0.019240176446425575 0.051179465863781151 0 0.019878200247665265 0.053019445176229328 0 0.019240176446425575 0.051179465863781151 0 0.021082160424772754 0.05095987730450232 0 0.019878200247665265 0.053019445176229328 0 0.022116619442964138 0.052564647677437439 0 0.021082160424772754 0.05095987730450232 0 0.019878200247665265 0.053019445176229328 0 0.022116619442964138 0.052564647677437439 0 0.022585818841589004 0.050784101139606519 0 0.021082160424772754 0.05095987730450232 0 0.02048871640471862 0.048653201407263993 0 0.021082160424772754 0.05095987730450232 0 0.022092818603491264 0.048889496009650819 0 0.022585818841589004 0.050784101139606519 0 0.021082160424772754 0.05095987730450232 0 0.022092818603491264 0.048889496009650819 0 0.02048871640471862 0.048653201407263993 0 0.022092818603491264 0.048889496009650819 0 0.021534960604415732 0.04729885702139229 0 0.023623549004853368 0.049197387789869013 0 0.024153371108235629 0.05114888912226008 0 0.024983307410328847 0.048193324410715971 0 -0.0082924771567156504 0.039622386565513215 0 -0.008640848317259156 0.039738444858570712 0 0.023623549004853368 0.049197387789869013 0 0.025287554597435917 0.047914483752557704 0 0.02383756444501953 0.047438605893674129 0 0.022092818603491264 0.048889496009650819 0 0.023623549004853368 0.049197387789869013 0 0.022775786772723846 0.047427652011520639 0 0.022585818841589004 0.050784101139606519 0 0.023623549004853368 0.049197387789869013 0 0.024153371108235629 0.05114888912226008 0 0.022585818841589004 0.050784101139606519 0 0.022092818603491264 0.048889496009650819 0 0.023623549004853368 0.049197387789869013 0 0.022116619442964138 0.052564647677437439 0 0.024153371108235629 0.05114888912226008 0 0.024719806245010308 0.05424271276466102 0 0.022116619442964138 0.052564647677437439 0 0.022585818841589004 0.050784101139606519 0 0.024153371108235629 0.05114888912226008 0 0.024153371108235629 0.05114888912226008 0 0.026813114704712839 0.051828164276053169 0 0.024719806245010308 0.05424271276466102 0 -0.0066451356993414458 0.060383933800120755 0 -0.0070178411322301196 0.059699246289081229 0 -0.0074319985947122278 0.060354002969652827 0 -0.0066451356993414458 0.060383933800120755 0 -0.0071969718290613655 0.061079037055633681 0 -0.0074319985947122278 0.060354002969652827 0 -0.0089807793718892099 0.044275071550136283 0 -0.012012545143210988 0.042337042960625015 0 -0.012144047009801581 0.036812617189941207 0 -0.012516992544074936 0.037272243305048858 0 -0.012188536480298495 0.037494419466666866 0 -0.012516992544074936 0.037272243305048858 0 -0.012188536480298495 0.037494419466666866 0 -0.012890181269901362 0.037731464474782081 0 -0.012144047009801581 0.036812617189941207 0 -0.012188536480298495 0.037494419466666866 0 -0.011722107529993874 0.037581677068359652 0 0.024153371108235629 0.05114888912226008 0 0.026813114704712839 0.051828164276053169 0 0.024983307410328847 0.048193324410715971 0 -0.0089807793718892099 0.044275071550136283 0 -0.008640848317259156 0.039738444858570712 0 -0.008640848317259156 0.039738444858570712 0 -0.011916143274570598 0.037482973174379472 0 -0.012188536480298495 0.037494419466666866 0 -0.011722107529993874 0.037581677068359652 0 -0.012208486417261286 0.037933029422080849 0 0.02482102041494361 0.047144999063449031 0 0.025102230639649399 0.046124549315119168 0 0.026228284180181794 0.0460154600506242 0 0.025102230639649399 0.046124549315119168 0 0.026228284180181794 0.0460154600506242 0 0.025430536597681699 0.04554919721544054 0 0.025102230639649399 0.046124549315119168 0 0.024617105690962222 0.045466716002049892 0 0.024351636679109195 0.046367429521914388 0 0.02482102041494361 0.047144999063449031 0 0.025102230639649399 0.046124549315119168 0 0.024351636679109195 0.046367429521914388 0 -0.012208486417261286 0.037933029422080849 0 -0.012694497421475073 0.038283688379164064 0 -0.012890181269901362 0.037731464474782081 0 -0.012188536480298495 0.037494419466666866 0 -0.012208486417261286 0.037933029422080849 0 -0.012890181269901362 0.037731464474782081 0 -0.041622335583919166 -0.0032609085563074531 0 -0.041239267761290943 -0.0037713404550678564 0 -0.04236950354219652 -0.0038275861606703768 0 -0.015644439016582325 0.031135955316955396 0 -0.016229656728888476 0.035603503006576519 0 -0.011916143274570598 0.037482973174379472 0 -0.016229656728888476 0.035603503006576519 0 0.026228284180181794 0.0460154600506242 0 0.025986278533602754 0.044709556070593313 0 0.027574840849379955 0.044984026295359442 0 -0.015644439016582325 0.031135955316955396 0 -0.015676793467125669 0.026685271558303334 0 0.025986278533602754 0.044709556070593313 0 0.025103253273542795 0.045054443325800844 0 0.024280543519646487 0.044453588390714963 0 0.025102230639649399 0.046124549315119168 0 0.025430536597681699 0.04554919721544054 0 0.024617105690962222 0.045466716002049892 0 0.025430536597681699 0.04554919721544054 0 0.025103253273542795 0.045054443325800844 0 0.024617105690962222 0.045466716002049892 0 0.026228284180181794 0.0460154600506242 0 0.025430536597681699 0.04554919721544054 0 0.025986278533602754 0.044709556070593313 0 0.025430536597681699 0.04554919721544054 0 0.025986278533602754 0.044709556070593313 0 0.025103253273542795 0.045054443325800844 0 -0.015676793467125669 0.026685271558303334 0 -0.01540555556248854 0.027101253290484587 0 0.025103253273542795 0.045054443325800844 0 0.024280543519646487 0.044453588390714963 0 0.024617105690962222 0.045466716002049892 0 0.023803471777890422 0.04552677745482428 0 0.024617105690962222 0.045466716002049892 0 0.024351636679109195 0.046367429521914388 0 0.024160002338828025 0.043809981406150368 0 0.023803471777890422 0.04552677745482428 0 0.024617105690962222 0.045466716002049892 0 0.024160002338828025 0.043809981406150368 0 0.023803471777890422 0.04552677745482428 0 0.022578479294760753 0.045507187724795638 0 0.024160002338828025 0.043809981406150368 0 0.020691454335930472 0.045401147032703891 0 0.022578479294760753 0.045507187724795638 0 -0.013808330177707108 0.025612070288541802 0 -0.013825408239925688 0.025612821360818529 0 -0.013807978245161697 0.025602095782935121 0 -0.015676793467125669 0.026685271558303334 0 -0.013618612721712069 0.026955281059127256 0 0.020691454335930472 0.045401147032703891 0 0.022578479294760753 0.045507187724795638 0 0.021242584030017216 0.045861826997476381 0 -0.013618612721712069 0.026955281059127256 0 -0.013525235763060013 0.027027063144121736 0 0.022308018085838578 0.04639911774434767 0 0.021242584030017216 0.045861826997476381 0 0.021534960604415732 0.04729885702139229 0 0.022578479294760753 0.045507187724795638 0 0.022308018085838578 0.04639911774434767 0 0.021242584030017216 0.045861826997476381 0 0.022578479294760753 0.045507187724795638 0 0.022308018085838578 0.04639911774434767 0 0.023258917329995434 0.046411938403542199 0 0.020202302096971783 0.046715114985085057 0 0.021242584030017216 0.045861826997476381 0 0.021534960604415732 0.04729885702139229 0 0.020202302096971783 0.046715114985085057 0 0.020637486913100404 0.045261149431646108 0 0.021242584030017216 0.045861826997476381 0 0.020202302096971783 0.046715114985085057 0 0.02048871640471862 0.048653201407263993 0 0.021534960604415732 0.04729885702139229 0 0.022092818603491264 0.048889496009650819 0 0.021534960604415732 0.04729885702139229 0 0.022775786772723846 0.047427652011520639 0 0.022308018085838578 0.04639911774434767 0 0.021534960604415732 0.04729885702139229 0 0.022775786772723846 0.047427652011520639 0 0.023623549004853368 0.049197387789869013 0 0.022775786772723846 0.047427652011520639 0 0.02383756444501953 0.047438605893674129 0 0.022775786772723846 0.047427652011520639 0 0.02383756444501953 0.047438605893674129 0 0.023258917329995434 0.046411938403542199 0 -0.008640848317259156 0.039738444858570712 0 -0.0084444912343745408 0.039934793275030925 0 0.025287554597435917 0.047914483752557704 0 0.02383756444501953 0.047438605893674129 0 0.024351636679109195 0.046367429521914388 0 0.023803471777890422 0.04552677745482428 0 0.024351636679109195 0.046367429521914388 0 0.023258917329995434 0.046411938403542199 0 0.02383756444501953 0.047438605893674129 0 0.024351636679109195 0.046367429521914388 0 0.023258917329995434 0.046411938403542199 0 0.023803471777890422 0.04552677745482428 0 0.022578479294760753 0.045507187724795638 0 0.023258917329995434 0.046411938403542199 0 0.022308018085838578 0.04639911774434767 0 0.022775786772723846 0.047427652011520639 0 0.023258917329995434 0.046411938403542199 0 -0.022529837785816381 0.037557547938053687 0 -0.022155453959492494 0.035911876751724983 0 -0.021255693010460444 0.038629469509589606 0 0.0007835314708659895 0.026934456413182092 0 4.055981340825031e-05 0.027477374533626205 0 -0.023487380430598354 0.038289473810043821 0 -0.022529837785816381 0.037557547938053687 0 -0.021255693010460444 0.038629469509589606 0 -0.023220303675821511 0.036544178655190551 0 -0.022529837785816381 0.037557547938053687 0 -0.022155453959492494 0.035911876751724983 0 -0.023220303675821511 0.036544178655190551 0 -0.022529837785816381 0.037557547938053687 0 -0.023354942754333349 0.037426776058349244 0 -0.023487380430598354 0.038289473810043821 0 -0.022529837785816381 0.037557547938053687 0 -0.023354942754333349 0.037426776058349244 0 -0.019442178760368332 0.032100664211675234 0 -0.026292616619062122 0.028864359069077757 0 -0.023339352386431336 0.035824928469577334 0 -0.019442178760368332 0.032100664211675234 0 -0.01689318458216852 0.036512849594507055 0 -0.023339352386431336 0.035824928469577334 0 -0.019442178760368332 0.032100664211675234 0 -0.026292616619062122 0.028864359069077757 0 -0.018713457827396373 0.025410220932545708 0 -0.026292616619062122 0.028864359069077757 0 -0.027790384265039152 0.021903428651709099 0 -0.018713457827396373 0.025410220932545708 0 0.0007835314708659895 0.026934456413182092 0 0.0022189668029378045 0.026504441801205501 0 -0.023895133325846033 0.03522411226590863 0 -0.022155453959492494 0.035911876751724983 0 -0.023075315091974052 0.033170667684766619 0 -0.026292616619062122 0.028864359069077757 0 -0.027790384265039152 0.021903428651709099 0 -0.029119734102708048 0.020129550153412706 0 -0.023895133325846033 0.03522411226590863 0 -0.023220303675821511 0.036544178655190551 0 -0.022155453959492494 0.035911876751724983 0 -0.027790384265039152 0.021903428651709099 0 -0.029119734102708048 0.020129550153412706 0 -0.0258310157587778 0.018775284969267739 0 -0.029119734102708048 0.020129550153412706 0 -0.0258310157587778 0.018775284969267739 0 -0.027138136157704582 0.016120866727129896 0 0.0022189668029378045 0.026504441801205501 0 0.0016390953439076759 0.024247830112619641 0 0.012132552826291802 0.024092130080555357 0 0.012224456630097115 0.024380391943171997 0 0.01233264242316966 0.024122154647886002 0 -0.0258310157587778 0.018775284969267739 0 -0.027138136157704582 0.016120866727129896 0 -0.023610925511919338 0.015544027746558482 0 0.0011839550505432874 0.022040983731445241 0 0.0016390953439076759 0.024247830112619641 0 0.01244085414061106 0.023851776274549843 0 0.01233264242316966 0.024122154647886002 0 0.012231823718174054 0.023973638470260912 0 0.012132552826291802 0.024092130080555357 0 0.01233264242316966 0.024122154647886002 0 0.012231823718174054 0.023973638470260912 0 -0.025656411094091971 0.012927031164801008 0 -0.027138136157704582 0.016120866727129896 0 -0.023610925511919338 0.015544027746558482 0 -0.0258310157587778 0.018775284969267739 0 -0.023610925511919338 0.015544027746558482 0 -0.022831478526461661 0.017924156759561181 0 -0.027790384265039152 0.021903428651709099 0 -0.0258310157587778 0.018775284969267739 0 -0.021921005347036712 0.020446124768660038 0 -0.0258310157587778 0.018775284969267739 0 -0.022831478526461661 0.017924156759561181 0 -0.021921005347036712 0.020446124768660038 0 -0.018467791077007384 0.024050233978894966 0 -0.017683799427637582 0.024190189120863317 0 -0.020213448479547071 0.016847177691313976 0 -0.017755514957133987 0.019881175710672709 0 -0.021921005347036712 0.020446124768660038 0 -0.022831478526461661 0.017924156759561181 0 -0.020213448479547071 0.016847177691313976 0 -0.021921005347036712 0.020446124768660038 0 -0.023610925511919338 0.015544027746558482 0 -0.022831478526461661 0.017924156759561181 0 -0.020213448479547071 0.016847177691313976 0 -0.018140512459275011 0.013602535385712745 0 -0.021572390542931644 0.013318802832311414 0 -0.020213448479547071 0.016847177691313976 0 -0.021572390542931644 0.013318802832311414 0 -0.023610925511919338 0.015544027746558482 0 -0.020213448479547071 0.016847177691313976 0 -0.018140512459275011 0.013602535385712745 0 -0.020213448479547071 0.016847177691313976 0 -0.016777087214397086 0.016265460683997684 0 -0.020213448479547071 0.016847177691313976 0 -0.017755514957133987 0.019881175710672709 0 -0.016777087214397086 0.016265460683997684 0 -0.011700073501971922 0.027871735677853775 0 -0.018713457827396373 0.025410220932545708 0 -0.013479599844837667 0.033249820258067185 0 -0.016006432882146201 0.024503623093281 0 -0.017683799427637582 0.024190189120863317 0 -0.019442178760368332 0.032100664211675234 0 -0.018713457827396373 0.025410220932545708 0 -0.013479599844837667 0.033249820258067185 0 -0.019442178760368332 0.032100664211675234 0 -0.013479599844837667 0.033249820258067185 0 -0.01689318458216852 0.036512849594507055 0 -0.011700073501971922 0.027871735677853775 0 -0.013479599844837667 0.033249820258067185 0 -0.0072407162983688543 0.035307788152031956 0 -0.0072407162983688543 0.035307788152031956 0 -0.0050110680728576917 0.029729753511730881 0 -0.0016532698646918478 0.034889834842040862 0 -0.016006432882146201 0.024503623093281 0 -0.014209165611628272 0.024866234161978688 0 -0.011700073501971922 0.027871735677853775 0 -0.0072407162983688543 0.035307788152031956 0 -0.0050110680728576917 0.029729753511730881 0 -0.017755514957133987 0.019881175710672709 0 -0.014443844102037303 0.019589834192039621 0 -0.015383080378230466 0.017830163102526438 0 -0.015383080378230466 0.017830163102526438 0 -0.016777087214397086 0.016265460683997684 0 -0.014178810937660278 0.015418226157682619 0 -0.017755514957133987 0.019881175710672709 0 -0.015383080378230466 0.017830163102526438 0 -0.016777087214397086 0.016265460683997684 0 -0.018140512459275011 0.013602535385712745 0 -0.015136426965114441 0.013854800221147854 0 -0.016777087214397086 0.016265460683997684 0 -0.015136426965114441 0.013854800221147854 0 -0.016777087214397086 0.016265460683997684 0 -0.014178810937660278 0.015418226157682619 0 -0.015383080378230466 0.017830163102526438 0 -0.014178810937660278 0.015418226157682619 0 -0.012614693279836033 0.017634269145404911 0 -0.014443844102037303 0.019589834192039621 0 -0.015383080378230466 0.017830163102526438 0 -0.012614693279836033 0.017634269145404911 0 -0.012614693279836033 0.017634269145404911 0 -0.012782333703712115 0.015899535670919146 0 -0.010389995510261974 0.016333906898119227 0 -0.014178810937660278 0.015418226157682619 0 -0.012614693279836033 0.017634269145404911 0 -0.012782333703712115 0.015899535670919146 0 -0.01694021250499176 0.020911056330551268 0 -0.016750220317389375 0.021282764810907333 0 -0.013597306343302506 0.01432033035804446 0 -0.012782333703712115 0.015899535670919146 0 -0.010389995510261974 0.016333906898119227 0 -0.013597306343302506 0.01432033035804446 0 -0.014178810937660278 0.015418226157682619 0 -0.012782333703712115 0.015899535670919146 0 -0.023236562066502226 0.0087247216001295463 0 -0.019993638636385737 0.011476995797000841 0 -0.020472803827209399 0.0052413654326722292 0 -0.013597306343302506 0.01432033035804446 0 -0.019993638636385737 0.011476995797000841 0 -0.020472803827209399 0.0052413654326722292 0 -0.02360389250589982 0.012470054143929286 0 -0.023236562066502226 0.0087247216001295463 0 -0.019993638636385737 0.011476995797000841 0 -0.012614693279836033 0.017634269145404911 0 -0.010389995510261974 0.016333906898119227 0 -0.0099753442940095447 0.018527655645536469 0 -0.012614693279836033 0.017634269145404911 0 -0.011411025827445648 0.019908937524417684 0 -0.0099753442940095447 0.018527655645536469 0 -0.0082615269980217624 0.020415951017801092 0 -0.011411025827445648 0.019908937524417684 0 -0.0099753442940095447 0.018527655645536469 0 -0.014443844102037303 0.019589834192039621 0 -0.012614693279836033 0.017634269145404911 0 -0.011411025827445648 0.019908937524417684 0 -0.014209165611628272 0.024866234161978688 0 -0.012886657241848528 0.025183190274365237 0 0.001843359008153802 0.031299457274594537 0 -0.0016532698646918478 0.034889834842040862 0 0.0025815341420240062 0.036083605382643227 0 -0.0050110680728576917 0.029729753511730881 0 0.001843359008153802 0.031299457274594537 0 -0.0016532698646918478 0.034889834842040862 0 0.0064418261081956316 0.035908294961082589 0 0.001843359008153802 0.031299457274594537 0 0.0025815341420240062 0.036083605382643227 0 0.0091232161913018181 0.032652384542106901 0 0.0064418261081956316 0.035908294961082589 0 0.001843359008153802 0.031299457274594537 0 -0.012655830080022943 0.025353912514902845 0 -0.012886657241848528 0.025183190274365237 0 0.0048526100370170806 0.039376637945324922 0 0.0015851452995289618 0.039046245682401372 0 0.0026280493190989317 0.042230175733121468 0 0.0064418261081956316 0.035908294961082589 0 0.0025815341420240062 0.036083605382643227 0 0.0048526100370170806 0.039376637945324922 0 0.0025815341420240062 0.036083605382643227 0 0.0048526100370170806 0.039376637945324922 0 0.0015851452995289618 0.039046245682401372 0 -0.0016532698646918478 0.034889834842040862 0 -0.0014493108909954902 0.039416269310466517 0 0.0015851452995289618 0.039046245682401372 0 -0.0016532698646918478 0.034889834842040862 0 0.0025815341420240062 0.036083605382643227 0 0.0015851452995289618 0.039046245682401372 0 -0.0014493108909954902 0.039416269310466517 0 0.0015851452995289618 0.039046245682401372 0 0.0026280493190989317 0.042230175733121468 0 -0.0014493108909954902 0.039416269310466517 0 0.00093330702758072034 0.043790582207915506 0 0.0026280493190989317 0.042230175733121468 0 -0.00087649059326180693 0.042137772096296558 0 -0.004256814342236342 0.045613921049814522 0 -0.0065317837823639559 0.040545149966399192 0 0.0096835736008048703 0.048792977222071918 0 0.0069636565610470729 0.047867430933500779 0 -0.0014493108909954902 0.039416269310466517 0 0.00093330702758072034 0.043790582207915506 0 -0.0054323685351581816 0.041403843402478609 0 0.010937829683991908 0.049145358308276973 0 0.0096835736008048703 0.048792977222071918 0 0.0072171844512122635 0.042363104499904138 0 0.0048526100370170806 0.039376637945324922 0 0.0026280493190989317 0.042230175733121468 0 0.0072171844512122635 0.042363104499904138 0 0.0075603936101561915 0.046878479475053005 0 0.0026280493190989317 0.042230175733121468 0 0.0075603936101561915 0.046878479475053005 0 0.00057344247680911451 0.044348508700968112 0 0.0026280493190989317 0.042230175733121468 0 0.0096835736008048703 0.048792977222071918 0 0.0096632995851720725 0.048782515962137583 0 0.016020210628581583 0.052012326836661113 0 0.014651209213241459 0.052805799050142849 0 0.015630584095673951 0.052993261885540315 0 0.016020210628581583 0.052012326836661113 0 0.014422654543471285 0.051598029934700591 0 0.014651209213241459 0.052805799050142849 0 0.014651209213241459 0.052805799050142849 0 0.01528804331111319 0.053961331165955667 0 0.014061153305733213 0.053948967082748357 0 0.014651209213241459 0.052805799050142849 0 0.015630584095673951 0.052993261885540315 0 0.01528804331111319 0.053961331165955667 0 0.014651209213241459 0.052805799050142849 0 0.014061153305733213 0.053948967082748357 0 0.013340222654200413 0.052672460170470156 0 0.014061153305733213 0.053948967082748357 0 0.013340222654200413 0.052672460170470156 0 0.013132195174324814 0.05449728792666899 0 0.01528804331111319 0.053961331165955667 0 0.014061153305733213 0.053948967082748357 0 0.014710698699687327 0.054924124427813387 0 0.014422654543471285 0.051598029934700591 0 0.014651209213241459 0.052805799050142849 0 0.013340222654200413 0.052672460170470156 0 0.0096835736008048703 0.048792977222071918 0 0.0099626527604695838 0.050300049355538015 0 -0.007312149933257568 0.044685474161971016 0 -0.004256814342236342 0.045613921049814522 0 -0.0076342387134525017 0.049113706468867993 0 -0.007312149933257568 0.044685474161971016 0 -0.004256814342236342 0.045613921049814522 0 -0.0065317837823639559 0.040545149966399192 0 0.013340222654200413 0.052672460170470156 0 0.012112963048146618 0.053898475493457554 0 0.013132195174324814 0.05449728792666899 0 0.0099626527604695838 0.050300049355538015 0 0.010498372070700583 0.051688994991173881 0 -0.011112672710267254 0.048139490743282137 0 -0.0082387396021077041 0.048537317707812742 0 -0.011258847084653665 0.051522963407928883 0 -0.011112672710267254 0.048139490743282137 0 -0.0082387396021077041 0.048537317707812742 0 -0.010833470322716462 0.043490853655403762 0 -0.007312149933257568 0.044685474161971016 0 -0.0076342387134525017 0.049113706468867993 0 -0.010833470322716462 0.043490853655403762 0 0.010498372070700583 0.051688994991173881 0 0.0096946299373606385 0.050827135563635037 0 -0.007312149933257568 0.044685474161971016 0 -0.010833470322716462 0.043490853655403762 0 -0.0065317837823639559 0.040545149966399192 0 -0.010833470322716462 0.043490853655403762 0 -0.0065317837823639559 0.040545149966399192 0 -0.011897955470820112 0.038988324023344741 0 0.0069636565610470729 0.047867430933500779 0 0.0059288706865045868 0.047521088828099509 0 -0.0072407162983688543 0.035307788152031956 0 -0.0014493108909954902 0.039416269310466517 0 -0.0054323685351581816 0.041403843402478609 0 -0.0072407162983688543 0.035307788152031956 0 -0.0016532698646918478 0.034889834842040862 0 -0.0014493108909954902 0.039416269310466517 0 -0.0072407162983688543 0.035307788152031956 0 -0.0054323685351581816 0.041403843402478609 0 -0.011897955470820112 0.038988324023344741 0 -0.013479599844837667 0.033249820258067185 0 -0.011897955470820112 0.038988324023344741 0 -0.01689318458216852 0.036512849594507055 0 -0.013479599844837667 0.033249820258067185 0 -0.0072407162983688543 0.035307788152031956 0 -0.011897955470820112 0.038988324023344741 0 -0.011897955470820112 0.038988324023344741 0 -0.01689318458216852 0.036512849594507055 0 -0.015853880337446852 0.039864930911489502 0 -0.01689318458216852 0.036512849594507055 0 -0.015853880337446852 0.039864930911489502 0 -0.018678456250564489 0.039471300163907326 0 -0.015853880337446852 0.039864930911489502 0 -0.018678456250564489 0.039471300163907326 0 -0.01738480926236988 0.041877530929039841 0 -0.018678456250564489 0.039471300163907326 0 -0.01738480926236988 0.041877530929039841 0 -0.018885548472239416 0.041305788569203715 0 -0.01738480926236988 0.041877530929039841 0 -0.018310039625915035 0.043786152111295114 0 -0.019151138334832566 0.042373259531876553 0 -0.01738480926236988 0.041877530929039841 0 -0.019151138334832566 0.042373259531876553 0 -0.018885548472239416 0.041305788569203715 0 -0.015853880337446852 0.039864930911489502 0 -0.01738480926236988 0.041877530929039841 0 -0.014524011272915562 0.042271590664004717 0 -0.01738480926236988 0.041877530929039841 0 -0.014524011272915562 0.042271590664004717 0 -0.016442805471371846 0.043842181002543744 0 -0.010833470322716462 0.043490853655403762 0 -0.011897955470820112 0.038988324023344741 0 -0.014524011272915562 0.042271590664004717 0 -0.011897955470820112 0.038988324023344741 0 -0.015853880337446852 0.039864930911489502 0 -0.014524011272915562 0.042271590664004717 0 -0.010833470322716462 0.043490853655403762 0 -0.014642703394013579 0.045024997510612882 0 -0.01320150373710932 0.047198512750829827 0 -0.010833470322716462 0.043490853655403762 0 -0.014524011272915562 0.042271590664004717 0 -0.014642703394013579 0.045024997510612882 0 -0.011112672710267254 0.048139490743282137 0 -0.010833470322716462 0.043490853655403762 0 -0.01320150373710932 0.047198512750829827 0 -0.014642703394013579 0.045024997510612882 0 -0.01320150373710932 0.047198512750829827 0 -0.015790884817938521 0.047289372887240916 0 -0.01320150373710932 0.047198512750829827 0 -0.01487301988163804 0.049149248107900514 0 -0.015790884817938521 0.047289372887240916 0 -0.01320150373710932 0.047198512750829827 0 -0.012841906233668845 0.049437678292893777 0 -0.01487301988163804 0.049149248107900514 0 -0.011112672710267254 0.048139490743282137 0 -0.01320150373710932 0.047198512750829827 0 -0.012841906233668845 0.049437678292893777 0 -0.017105787354340686 0.049068837977167011 0 -0.01487301988163804 0.049149248107900514 0 -0.015790884817938521 0.047289372887240916 0 -0.017105787354340686 0.049068837977167011 0 -0.015790884817938521 0.047289372887240916 0 -0.018307835760584701 0.047415518502015599 0 -0.015790884817938521 0.047289372887240916 0 -0.017317421339853978 0.045727089162737024 0 -0.018307835760584701 0.047415518502015599 0 -0.017317421339853978 0.045727089162737024 0 -0.018310039625915035 0.043786152111295114 0 -0.019127543540571362 0.045191678895038993 0 -0.014642703394013579 0.045024997510612882 0 -0.015790884817938521 0.047289372887240916 0 -0.017317421339853978 0.045727089162737024 0 -0.014642703394013579 0.045024997510612882 0 -0.017317421339853978 0.045727089162737024 0 -0.016442805471371846 0.043842181002543744 0 -0.014524011272915562 0.042271590664004717 0 -0.014642703394013579 0.045024997510612882 0 -0.016442805471371846 0.043842181002543744 0 -0.01738480926236988 0.041877530929039841 0 -0.016442805471371846 0.043842181002543744 0 -0.018310039625915035 0.043786152111295114 0 -0.017317421339853978 0.045727089162737024 0 -0.016442805471371846 0.043842181002543744 0 -0.018310039625915035 0.043786152111295114 0 -0.018310039625915035 0.043786152111295114 0 -0.019939146088133748 0.043435710864591207 0 -0.019151138334832566 0.042373259531876553 0 -0.018310039625915035 0.043786152111295114 0 -0.019939146088133748 0.043435710864591207 0 -0.019127543540571362 0.045191678895038993 0 -0.019939146088133748 0.043435710864591207 0 -0.020775398749869545 0.04509851685736848 0 -0.019127543540571362 0.045191678895038993 0 -0.019939146088133748 0.043435710864591207 0 -0.020775398749869545 0.04509851685736848 0 -0.021993019482005702 0.043896129165299586 0 -0.020775398749869545 0.04509851685736848 0 -0.019127543540571362 0.045191678895038993 0 -0.020313996310614119 0.047028878496442404 0 -0.020775398749869545 0.04509851685736848 0 -0.020313996310614119 0.047028878496442404 0 -0.022177251921326791 0.04597314651491128 0 -0.017317421339853978 0.045727089162737024 0 -0.019127543540571362 0.045191678895038993 0 -0.018307835760584701 0.047415518502015599 0 -0.018307835760584701 0.047415518502015599 0 -0.020313996310614119 0.047028878496442404 0 -0.019220555510705482 0.049101174213561041 0 -0.019127543540571362 0.045191678895038993 0 -0.018307835760584701 0.047415518502015599 0 -0.020313996310614119 0.047028878496442404 0 -0.020313996310614119 0.047028878496442404 0 -0.021128294717240214 0.049243227169038596 0 -0.019220555510705482 0.049101174213561041 0 -0.020313996310614119 0.047028878496442404 0 -0.021128294717240214 0.049243227169038596 0 -0.022106165294105348 0.047652160769440607 0 -0.017105787354340686 0.049068837977167011 0 -0.018307835760584701 0.047415518502015599 0 -0.019220555510705482 0.049101174213561041 0 -0.025129297813024296 0.049207692913586724 0 -0.023074104429564299 0.049159629468291333 0 -0.023952938246265782 0.047187230185477443 0 -0.023074104429564299 0.049159629468291333 0 -0.022106165294105348 0.047652160769440607 0 -0.023952938246265782 0.047187230185477443 0 -0.021128294717240214 0.049243227169038596 0 -0.023074104429564299 0.049159629468291333 0 -0.022106165294105348 0.047652160769440607 0 -0.020313996310614119 0.047028878496442404 0 -0.022106165294105348 0.047652160769440607 0 -0.022177251921326791 0.04597314651491128 0 -0.022106165294105348 0.047652160769440607 0 -0.023952938246265782 0.047187230185477443 0 -0.022177251921326791 0.04597314651491128 0 -0.023952938246265782 0.047187230185477443 0 -0.023860997868076762 0.045070946553670929 0 -0.022177251921326791 0.04597314651491128 0 -0.020775398749869545 0.04509851685736848 0 -0.022177251921326791 0.04597314651491128 0 -0.021993019482005702 0.043896129165299586 0 -0.023860997868076762 0.045070946553670929 0 -0.022177251921326791 0.04597314651491128 0 -0.021993019482005702 0.043896129165299586 0 -0.023860997868076762 0.045070946553670929 0 -0.021993019482005702 0.043896129165299586 0 -0.023911063215519439 0.043123058366856176 0 0.0067164768848909477 0.031369758106972505 0 0.0065596391069445842 0.031344793981206737 0 0.0066813646431688727 0.031459435572293096 0 0.0044589778514693579 0.030870264348758784 0 0.003657547186696686 0.030096437018078355 0 -0.02478131337044406 0.041157365691028 0 -0.023911063215519439 0.043123058366856176 0 -0.02190324007322984 0.041616766026933531 0 -0.021993019482005702 0.043896129165299586 0 -0.023911063215519439 0.043123058366856176 0 -0.02190324007322984 0.041616766026933531 0 -0.019939146088133748 0.043435710864591207 0 -0.022784927492212729 0.040977724816460614 0 -0.020665900809390219 0.041281632036065413 0 0.0033730866572397118 0.030056732736207889 0 0.003657547186696686 0.030096437018078355 0 -0.019939146088133748 0.043435710864591207 0 -0.021993019482005702 0.043896129165299586 0 -0.02190324007322984 0.041616766026933531 0 -0.020338442790143848 0.041469867718953855 0 -0.020665900809390219 0.041281632036065413 0 -0.021255693010460444 0.038629469509589606 0 -0.019939146088133748 0.043435710864591207 0 -0.020338442790143848 0.041469867718953855 0 -0.020665900809390219 0.041281632036065413 0 -0.019939146088133748 0.043435710864591207 0 -0.019151138334832566 0.042373259531876553 0 -0.020338442790143848 0.041469867718953855 0 -0.019151138334832566 0.042373259531876553 0 -0.020338442790143848 0.041469867718953855 0 -0.018885548472239416 0.041305788569203715 0 -0.018678456250564489 0.039471300163907326 0 -0.020338442790143848 0.041469867718953855 0 -0.018885548472239416 0.041305788569203715 0 0.003657547186696686 0.030096437018078355 0 0.0034594522014913301 0.030098333326914084 0 -0.01689318458216852 0.036512849594507055 0 -0.018678456250564489 0.039471300163907326 0 -0.023339352386431336 0.035824928469577334 0 -0.00017349750138740032 0.027741678457269478 0 4.055981340825031e-05 0.027477374533626205 0 -0.018678456250564489 0.039471300163907326 0 -0.020338442790143848 0.041469867718953855 0 -0.023339352386431336 0.035824928469577334 0 -0.021838527893743159 0.041067862576045722 0 -0.020665900809390219 0.041281632036065413 0 -0.021255693010460444 0.038629469509589606 0 -0.021838527893743159 0.041067862576045722 0 -0.021255693010460444 0.038629469509589606 0 -0.023403172800077563 0.03949362482971415 0 -0.023487380430598354 0.038289473810043821 0 -0.021255693010460444 0.038629469509589606 0 -0.023403172800077563 0.03949362482971415 0 0.003657547186696686 0.030096437018078355 0 0.0049205310300838023 0.030190096819719053 0 0.016419425400672476 0.054481073628797665 0 0.016102567745051047 0.054497687243177072 0 0.024460724307488819 0.058899215413389577 0 0.023935417115616378 0.05843039958776812 0 0.023035138832856766 0.05953596566907994 0 0.024712157319105418 0.058495545370694749 0 0.024460724307488819 0.058899215413389577 0 0.023935417115616378 0.05843039958776812 0 0.023935417115616378 0.05843039958776812 0 0.023035138832856766 0.05953596566907994 0 0.023321537243881071 0.058057560746211115 0 0.022504207603220725 0.058607553133731255 0 0.023035138832856766 0.05953596566907994 0 0.023321537243881071 0.058057560746211115 0 0.022504207603220725 0.058607553133731255 0 0.023035138832856766 0.05953596566907994 0 0.021992395144438553 0.059453462467410581 0 0.022333813266304015 0.059646680733087529 0 0.023746163978494588 0.06071182658918238 0 0.021689772151706879 0.061204292773827378 0 0.024460724307488819 0.058899215413389577 0 0.022333813266304015 0.059646680733087529 0 0.023746163978494588 0.06071182658918238 0 -0.02572390154436037 0.053241186448165112 0 -0.022698188028717783 0.055983410155824774 0 -0.023151081969882976 0.053030045820751742 0 -0.022698188028717783 0.055983410155824774 0 -0.023151081969882976 0.053030045820751742 0 -0.02086938128677486 0.053372720004411921 0 -0.023151081969882976 0.053030045820751742 0 -0.022049368522584316 0.051121726861668007 0 -0.024098416680700476 0.05091045762381715 0 -0.023151081969882976 0.053030045820751742 0 -0.022049368522584316 0.051121726861668007 0 -0.02086938128677486 0.053372720004411921 0 -0.021128294717240214 0.049243227169038596 0 -0.023074104429564299 0.049159629468291333 0 -0.022049368522584316 0.051121726861668007 0 -0.025129297813024296 0.049207692913586724 0 -0.023074104429564299 0.049159629468291333 0 -0.024098416680700476 0.05091045762381715 0 -0.023074104429564299 0.049159629468291333 0 -0.022049368522584316 0.051121726861668007 0 -0.024098416680700476 0.05091045762381715 0 -0.019220555510705482 0.049101174213561041 0 -0.019969600897512586 0.051400982276276104 0 -0.018020292827911358 0.051097622274804119 0 -0.017105787354340686 0.049068837977167011 0 -0.019220555510705482 0.049101174213561041 0 -0.018020292827911358 0.051097622274804119 0 -0.021128294717240214 0.049243227169038596 0 -0.022049368522584316 0.051121726861668007 0 -0.019969600897512586 0.051400982276276104 0 -0.021128294717240214 0.049243227169038596 0 -0.019220555510705482 0.049101174213561041 0 -0.019969600897512586 0.051400982276276104 0 -0.022049368522584316 0.051121726861668007 0 -0.019969600897512586 0.051400982276276104 0 -0.02086938128677486 0.053372720004411921 0 -0.019969600897512586 0.051400982276276104 0 -0.018870761688686309 0.053003595305036531 0 -0.018020292827911358 0.051097622274804119 0 -0.018870761688686309 0.053003595305036531 0 -0.02086938128677486 0.053372720004411921 0 -0.018571447536780895 0.055213840672325445 0 -0.022698188028717783 0.055983410155824774 0 -0.02086938128677486 0.053372720004411921 0 -0.018571447536780895 0.055213840672325445 0 0.015110114728236881 0.051400901547749026 0 0.012423230659370239 0.052683499388291213 0 -0.018870761688686309 0.053003595305036531 0 -0.018571447536780895 0.055213840672325445 0 -0.016836250067376126 0.053021231319123861 0 -0.019969600897512586 0.051400982276276104 0 -0.018870761688686309 0.053003595305036531 0 -0.02086938128677486 0.053372720004411921 0 0.012423230659370239 0.052683499388291213 0 0.010800531330144327 0.053657038763035875 0 -0.018571447536780895 0.055213840672325445 0 -0.016836250067376126 0.053021231319123861 0 -0.01426615774393218 0.05442611545741418 0 0.021689772151706879 0.061204292773827378 0 0.020099670601559341 0.061054191126582627 0 0.019480863226746897 0.061686519834217482 0 0.020099670601559341 0.061054191126582627 0 0.019436060785539389 0.061720051049115245 0 0.019989780682529722 0.060521606297395697 0 0.010820168566590941 0.053667270633356134 0 0.010800531330144327 0.053657038763035875 0 -0.016836250067376126 0.053021231319123861 0 -0.014806032388604951 0.052517984943717726 0 -0.01426615774393218 0.05442611545741418 0 -0.016836250067376126 0.053021231319123861 0 -0.018020292827911358 0.051097622274804119 0 -0.016088314487604116 0.050967595933728765 0 -0.018870761688686309 0.053003595305036531 0 -0.016836250067376126 0.053021231319123861 0 -0.018020292827911358 0.051097622274804119 0 -0.016088314487604116 0.050967595933728765 0 -0.01415201008859342 0.050874538266145658 0 -0.014806032388604951 0.052517984943717726 0 -0.016836250067376126 0.053021231319123861 0 -0.016088314487604116 0.050967595933728765 0 -0.014806032388604951 0.052517984943717726 0 -0.017105787354340686 0.049068837977167011 0 -0.01487301988163804 0.049149248107900514 0 -0.016088314487604116 0.050967595933728765 0 -0.01487301988163804 0.049149248107900514 0 -0.016088314487604116 0.050967595933728765 0 -0.01415201008859342 0.050874538266145658 0 -0.017105787354340686 0.049068837977167011 0 -0.018020292827911358 0.051097622274804119 0 -0.016088314487604116 0.050967595933728765 0 -0.011112672710267254 0.048139490743282137 0 -0.012841906233668845 0.049437678292893777 0 -0.011258847084653665 0.051522963407928883 0 -0.01415201008859342 0.050874538266145658 0 -0.014806032388604951 0.052517984943717726 0 -0.011258847084653665 0.051522963407928883 0 -0.012841906233668845 0.049437678292893777 0 -0.01415201008859342 0.050874538266145658 0 -0.011258847084653665 0.051522963407928883 0 -0.012841906233668845 0.049437678292893777 0 -0.01487301988163804 0.049149248107900514 0 -0.01415201008859342 0.050874538266145658 0 0.019115657839726709 0.061685232549272564 0 0.017485319523151421 0.06205276485298248 0 0.017702241107465166 0.063158738905244399 0 0.019436060785539389 0.061720051049115245 0 0.018613686387814576 0.061461847339493843 0 0.017596757100783556 0.062080725017821983 0 0.010800531330144327 0.053657038763035875 0 0.011179209581031028 0.053775413815273371 0 -0.014806032388604951 0.052517984943717726 0 -0.01426615774393218 0.05442611545741418 0 -0.011258847084653665 0.051522963407928883 0 0.015258273992714576 0.054500316539681924 0 0.01402417300663278 0.054422914742657251 0 0.018613686387814576 0.061461847339493843 0 0.019989780682529722 0.060521606297395697 0 0.017433210547251641 0.061523134174982626 0 0.010800531330144327 0.053657038763035875 0 0.010399186137342645 0.052900378612141717 0 0.019436060785539389 0.061720051049115245 0 0.018613686387814576 0.061461847339493843 0 0.019989780682529722 0.060521606297395697 0 0.020278624766034137 0.06021821072708685 0 0.019761204619830747 0.060331823052503522 0 0.019388321411065002 0.06079202924855838 0 0.020278624766034137 0.06021821072708685 0 0.019864216583624198 0.059935097563824931 0 0.019761204619830747 0.060331823052503522 0 0.020278624766034137 0.06021821072708685 0 0.021278195122689861 0.0601987288075242 0 0.019388321411065002 0.06079202924855838 0 0.020278624766034137 0.06021821072708685 0 0.020446198331480217 0.059891147686293791 0 0.019864216583624198 0.059935097563824931 0 0.019864216583624198 0.059935097563824931 0 0.020332799516011493 0.059388557279442096 0 0.019662511663419986 0.059251084288504854 0 0.020446198331480217 0.059891147686293791 0 0.019864216583624198 0.059935097563824931 0 0.020332799516011493 0.059388557279442096 0 0.020332799516011493 0.059388557279442096 0 0.020902348135553684 0.059737491535900807 0 0.020994530829619721 0.059117163588102831 0 0.020902348135553684 0.059737491535900807 0 0.021290488945138929 0.05962033918187773 0 0.020994530829619721 0.059117163588102831 0 0.020446198331480217 0.059891147686293791 0 0.020332799516011493 0.059388557279442096 0 0.020902348135553684 0.059737491535900807 0 0.020902348135553684 0.059737491535900807 0 0.020744985065571715 0.060025184211165018 0 0.021278195122689861 0.0601987288075242 0 0.020278624766034137 0.06021821072708685 0 0.020744985065571715 0.060025184211165018 0 0.021278195122689861 0.0601987288075242 0 0.020278624766034137 0.06021821072708685 0 0.020446198331480217 0.059891147686293791 0 0.020744985065571715 0.060025184211165018 0 0.020446198331480217 0.059891147686293791 0 0.020902348135553684 0.059737491535900807 0 0.020744985065571715 0.060025184211165018 0 0.022333813266304015 0.059646680733087529 0 0.021689772151706879 0.061204292773827378 0 0.019989780682529722 0.060521606297395697 0 0.023035138832856766 0.05953596566907994 0 0.021278195122689861 0.0601987288075242 0 0.021992395144438553 0.059453462467410581 0 0.021689772151706879 0.061204292773827378 0 0.020099670601559341 0.061054191126582627 0 0.019989780682529722 0.060521606297395697 0 0.016102567745051047 0.054497687243177072 0 0.015258273992714576 0.054500316539681924 0 0.021278195122689861 0.0601987288075242 0 0.021992395144438553 0.059453462467410581 0 0.021290488945138929 0.05962033918187773 0 0.021992395144438553 0.059453462467410581 0 0.021290488945138929 0.05962033918187773 0 0.020994530829619721 0.059117163588102831 0 0.020902348135553684 0.059737491535900807 0 0.021278195122689861 0.0601987288075242 0 0.021290488945138929 0.05962033918187773 0 0.021992395144438553 0.059453462467410581 0 0.021608528263460297 0.058447271597932317 0 0.020994530829619721 0.059117163588102831 0 0.022504207603220725 0.058607553133731255 0 0.021992395144438553 0.059453462467410581 0 0.021608528263460297 0.058447271597932317 0 0.020169407716825506 0.058916301131480268 0 0.020994530829619721 0.059117163588102831 0 0.020391680487781453 0.058239795501923368 0 0.021608528263460297 0.058447271597932317 0 0.020994530829619721 0.059117163588102831 0 0.020391680487781453 0.058239795501923368 0 0.020169407716825506 0.058916301131480268 0 0.019435275890933374 0.058593663086335221 0 0.020391680487781453 0.058239795501923368 0 0.020332799516011493 0.059388557279442096 0 0.020169407716825506 0.058916301131480268 0 0.019662511663419986 0.059251084288504854 0 0.020332799516011493 0.059388557279442096 0 0.020169407716825506 0.058916301131480268 0 0.020994530829619721 0.059117163588102831 0 0.018477356660958066 0.058604862898118421 0 0.019435275890933374 0.058593663086335221 0 0.018790158936231077 0.059164034809091173 0 0.020169407716825506 0.058916301131480268 0 0.019435275890933374 0.058593663086335221 0 0.019662511663419986 0.059251084288504854 0 0.019435275890933374 0.058593663086335221 0 0.018790158936231077 0.059164034809091173 0 0.019662511663419986 0.059251084288504854 0 0.019435275890933374 0.058593663086335221 0 0.018999672404729478 0.057989376770795763 0 0.020391680487781453 0.058239795501923368 0 0.018477356660958066 0.058604862898118421 0 0.019435275890933374 0.058593663086335221 0 0.018999672404729478 0.057989376770795763 0 0.018477356660958066 0.058604862898118421 0 0.01730958073385671 0.058118904006146367 0 0.018999672404729478 0.057989376770795763 0 0.018477356660958066 0.058604862898118421 0 0.01730958073385671 0.058118904006146367 0 0.017841947038864544 0.059236555804391362 0 0.017841947038864544 0.059236555804391362 0 0.01784904905543689 0.060423574359906689 0 0.015453986300302947 0.05849726388684779 0 0.01730958073385671 0.058118904006146367 0 0.017841947038864544 0.059236555804391362 0 0.015453986300302947 0.05849726388684779 0 0.017841947038864544 0.059236555804391362 0 0.01871980038300014 0.060177044258242815 0 0.01784904905543689 0.060423574359906689 0 0.017841947038864544 0.059236555804391362 0 0.01871980038300014 0.060177044258242815 0 0.018656204143840692 0.059575475518915365 0 0.01871980038300014 0.060177044258242815 0 0.018656204143840692 0.059575475518915365 0 0.019239281719993197 0.059767121635159501 0 0.017841947038864544 0.059236555804391362 0 0.018656204143840692 0.059575475518915365 0 0.018790158936231077 0.059164034809091173 0 0.018477356660958066 0.058604862898118421 0 0.017841947038864544 0.059236555804391362 0 0.018790158936231077 0.059164034809091173 0 0.018656204143840692 0.059575475518915365 0 0.018790158936231077 0.059164034809091173 0 0.019239281719993197 0.059767121635159501 0 0.018790158936231077 0.059164034809091173 0 0.019662511663419986 0.059251084288504854 0 0.019239281719993197 0.059767121635159501 0 0.019864216583624198 0.059935097563824931 0 0.019662511663419986 0.059251084288504854 0 0.019239281719993197 0.059767121635159501 0 0.019864216583624198 0.059935097563824931 0 0.019239281719993197 0.059767121635159501 0 0.019400080473173723 0.060197591902953949 0 0.01871980038300014 0.060177044258242815 0 0.019239281719993197 0.059767121635159501 0 0.019400080473173723 0.060197591902953949 0 0.019864216583624198 0.059935097563824931 0 0.019400080473173723 0.060197591902953949 0 0.019761204619830747 0.060331823052503522 0 0.017485319523151421 0.06205276485298248 0 0.016800404178018712 0.062874665946488259 0 0.015847874027676474 0.062417036695528144 0 0.018613686387814576 0.061461847339493843 0 0.017433210547251641 0.061523134174982626 0 0.017596757100783556 0.062080725017821983 0 0.019400080473173723 0.060197591902953949 0 0.019761204619830747 0.060331823052503522 0 0.019388321411065002 0.06079202924855838 0 0.011179209581031028 0.053775413815273371 0 0.011282478190480968 0.053819576186539514 0 0.017433210547251641 0.061523134174982626 0 0.017596757100783556 0.062080725017821983 0 0.015847874027676474 0.062417036695528144 0 0.01871980038300014 0.060177044258242815 0 0.019400080473173723 0.060197591902953949 0 0.019388321411065002 0.06079202924855838 0 0.01871980038300014 0.060177044258242815 0 0.019388321411065002 0.06079202924855838 0 0.01784904905543689 0.060423574359906689 0 0.016275166733013897 0.064644955983664168 0 0.016800404178018712 0.062874665946488259 0 0.015847874027676474 0.062417036695528144 0 0.016275166733013897 0.064644955983664168 0 0.017702241107465166 0.063158738905244399 0 0.016800404178018712 0.062874665946488259 0 0.017485319523151421 0.06205276485298248 0 0.017702241107465166 0.063158738905244399 0 0.016800404178018712 0.062874665946488259 0 0.010498372070700583 0.051688994991173881 0 0.010399186137342645 0.052900378612141717 0 0.012112963048146618 0.053898475493457554 0 0.013132195174324814 0.05449728792666899 0 0.013144332619704309 0.055743204867696045 0 0.016275166733013897 0.064644955983664168 0 0.015847874027676474 0.062417036695528144 0 0.015031292782772909 0.062503389472337731 0 0.010498372070700583 0.051688994991173881 0 0.012539273866493481 0.054191868866318084 0 0.013132195174324814 0.05449728792666899 0 0.013144332619704309 0.055743204867696045 0 0.013732982418229853 0.055514695017405365 0 0.012539273866493481 0.054191868866318084 0 0.012541705565224935 0.054193080141253659 0 0.019388321411065002 0.06079202924855838 0 0.016921268566181581 0.061853827988270244 0 0.01784904905543689 0.060423574359906689 0 0.017433210547251641 0.061523134174982626 0 0.015847874027676474 0.062417036695528144 0 0.015031292782772909 0.062503389472337731 0 0.01402417300663278 0.054422914742657251 0 0.012539273866493481 0.054191868866318084 0 0.016921268566181581 0.061853827988270244 0 0.01784904905543689 0.060423574359906689 0 0.015453986300302947 0.05849726388684779 0 0.012927264818150503 0.055843763291996439 0 0.014902297345060196 0.056639644849895372 0 0.015453986300302947 0.05849726388684779 0 0.014902297345060196 0.056639644849895372 0 0.01565870628202207 0.057192672384353778 0 0.015453986300302947 0.05849726388684779 0 0.012539273866493481 0.054191868866318084 0 0.012685530549490679 0.054442628154378191 0 0.012927264818150503 0.055843763291996439 0 0.014902297345060196 0.056639644849895372 0 0.013732982418229853 0.055514695017405365 0 0.014902297345060196 0.056639644849895372 0 0.013732982418229853 0.055514695017405365 0 0.014710698699687327 0.054924124427813387 0 0.013732982418229853 0.055514695017405365 0 0.014710698699687327 0.054924124427813387 0 0.013909636130551633 0.054719056200916501 0 0.014061153305733213 0.053948967082748357 0 0.014710698699687327 0.054924124427813387 0 0.013909636130551633 0.054719056200916501 0 0.013132195174324814 0.05449728792666899 0 0.013732982418229853 0.055514695017405365 0 0.013909636130551633 0.054719056200916501 0 0.014061153305733213 0.053948967082748357 0 0.013132195174324814 0.05449728792666899 0 0.013909636130551633 0.054719056200916501 0 0.01528804331111319 0.053961331165955667 0 0.014710698699687327 0.054924124427813387 0 0.015797572922769999 0.054852143755173964 0 0.014710698699687327 0.054924124427813387 0 0.015400310915227585 0.055908065071856652 0 0.015797572922769999 0.054852143755173964 0 0.015400310915227585 0.055908065071856652 0 0.01565870628202207 0.057192672384353778 0 0.016281310767097816 0.055665282193006739 0 0.014902297345060196 0.056639644849895372 0 0.014710698699687327 0.054924124427813387 0 0.015400310915227585 0.055908065071856652 0 0.014902297345060196 0.056639644849895372 0 0.015400310915227585 0.055908065071856652 0 0.01565870628202207 0.057192672384353778 0 0.01565870628202207 0.057192672384353778 0 0.015719033447219255 0.057904959009392604 0 0.016033196939953958 0.057218064107895476 0 0.01565870628202207 0.057192672384353778 0 0.015453986300302947 0.05849726388684779 0 0.015719033447219255 0.057904959009392604 0 0.01730958073385671 0.058118904006146367 0 0.015453986300302947 0.05849726388684779 0 0.016074432965791179 0.057916709960492037 0 0.015453986300302947 0.05849726388684779 0 0.015719033447219255 0.057904959009392604 0 0.016074432965791179 0.057916709960492037 0 0.015719033447219255 0.057904959009392604 0 0.016074432965791179 0.057916709960492037 0 0.015676429504665881 0.057753915203481616 0 0.016074432965791179 0.057916709960492037 0 0.015858517021623188 0.057445473117059317 0 0.015676429504665881 0.057753915203481616 0 0.016074432965791179 0.057916709960492037 0 0.016913728976761071 0.057422945550958317 0 0.015858517021623188 0.057445473117059317 0 0.01730958073385671 0.058118904006146367 0 0.016074432965791179 0.057916709960492037 0 0.016913728976761071 0.057422945550958317 0 0.016913728976761071 0.057422945550958317 0 0.015858517021623188 0.057445473117059317 0 0.015668437778361743 0.056799682850657909 0 0.016913728976761071 0.057422945550958317 0 0.015668437778361743 0.056799682850657909 0 0.017744244284908294 0.056658483856373711 0 0.015858517021623188 0.057445473117059317 0 0.015668437778361743 0.056799682850657909 0 0.015151369666024955 0.057211358625570904 0 0.015668437778361743 0.056799682850657909 0 0.016011003107389031 0.054999880579307457 0 0.014497918077384384 0.056387477044060164 0 0.016011003107389031 0.054999880579307457 0 0.014497918077384384 0.056387477044060164 0 0.013193189366873486 0.055000486157163589 0 0.015668437778361743 0.056799682850657909 0 0.016011003107389031 0.054999880579307457 0 0.017121848606811235 0.056537644143779556 0 0.020461089580515329 0.055464816317889104 0 0.020624453379623365 0.055400572779982254 0 0.015668437778361743 0.056799682850657909 0 0.017457833050539103 0.055564412990950648 0 0.017744244284908294 0.056658483856373711 0 0.017457833050539103 0.055564412990950648 0 0.019174505426439802 0.056020914599757408 0 0.017744244284908294 0.056658483856373711 0 0.017457833050539103 0.055564412990950648 0 0.019522687484438757 0.054968426294589597 0 0.019174505426439802 0.056020914599757408 0 0.019174505426439802 0.056020914599757408 0 0.019139378411031728 0.056698318413202463 0 0.017744244284908294 0.056658483856373711 0 0.020624453379623365 0.055400572779982254 0 0.021048381270361169 0.055236894494746017 0 0.016011003107389031 0.054999880579307457 0 0.017121848606811235 0.056537644143779556 0 0.018835405778397558 0.054999792669551656 0 0.017121848606811235 0.056537644143779556 0 0.018835405778397558 0.054999792669551656 0 0.019398905489726205 0.055937106751707363 0 0.021048381270361169 0.055236894494746017 0 0.021655876603119892 0.055001018001046731 0 0.018835405778397558 0.054999792669551656 0 0.019398905489726205 0.055937106751707363 0 0.021658893943611954 0.055000065376129913 0 0.019522687484438757 0.054968426294589597 0 0.019174505426439802 0.056020914599757408 0 0.020642635983718252 0.055903779910371536 0 0.019174505426439802 0.056020914599757408 0 0.020185918416291821 0.056610213990014605 0 0.019139378411031728 0.056698318413202463 0 0.019174505426439802 0.056020914599757408 0 0.020185918416291821 0.056610213990014605 0 0.020642635983718252 0.055903779910371536 0 0.019139378411031728 0.056698318413202463 0 0.018316570719294836 0.057358745931413754 0 0.020132666833791401 0.057258493330001742 0 0.020185918416291821 0.056610213990014605 0 0.019139378411031728 0.056698318413202463 0 0.020132666833791401 0.057258493330001742 0 0.016913728976761071 0.057422945550958317 0 0.017744244284908294 0.056658483856373711 0 0.018316570719294836 0.057358745931413754 0 0.019139378411031728 0.056698318413202463 0 0.017744244284908294 0.056658483856373711 0 0.018316570719294836 0.057358745931413754 0 0.01730958073385671 0.058118904006146367 0 0.016913728976761071 0.057422945550958317 0 0.018316570719294836 0.057358745931413754 0 0.01730958073385671 0.058118904006146367 0 0.018316570719294836 0.057358745931413754 0 0.018999672404729478 0.057989376770795763 0 0.018316570719294836 0.057358745931413754 0 0.018999672404729478 0.057989376770795763 0 0.020132666833791401 0.057258493330001742 0 0.018999672404729478 0.057989376770795763 0 0.020391680487781453 0.058239795501923368 0 0.020132666833791401 0.057258493330001742 0 0.021188206852863298 0.057608566323634751 0 0.020391680487781453 0.058239795501923368 0 0.020132666833791401 0.057258493330001742 0 0.021608528263460297 0.058447271597932317 0 0.021188206852863298 0.057608566323634751 0 0.020391680487781453 0.058239795501923368 0 0.022504207603220725 0.058607553133731255 0 0.021608528263460297 0.058447271597932317 0 0.022411721894247685 0.057475449266703178 0 0.021608528263460297 0.058447271597932317 0 0.021188206852863298 0.057608566323634751 0 0.022411721894247685 0.057475449266703178 0 0.021188206852863298 0.057608566323634751 0 0.022411721894247685 0.057475449266703178 0 0.021367938355730889 0.056672380732886135 0 0.022411721894247685 0.057475449266703178 0 0.021367938355730889 0.056672380732886135 0 0.022770166385718021 0.056586352513316097 0 0.021188206852863298 0.057608566323634751 0 0.021367938355730889 0.056672380732886135 0 0.020132666833791401 0.057258493330001742 0 0.020185918416291821 0.056610213990014605 0 0.021367938355730889 0.056672380732886135 0 0.020132666833791401 0.057258493330001742 0 0.021367938355730889 0.056672380732886135 0 0.020642635983718252 0.055903779910371536 0 0.022721423352013381 0.055874943605485589 0 0.020185918416291821 0.056610213990014605 0 0.021367938355730889 0.056672380732886135 0 0.020642635983718252 0.055903779910371536 0 0.020642635983718252 0.055903779910371536 0 0.02166012745626153 0.054997808645128432 0 0.022721423352013381 0.055874943605485589 0 0.019522687484438757 0.054968426294589597 0 0.020642635983718252 0.055903779910371536 0 0.02166012745626153 0.054997808645128432 0 0.02166012745626153 0.054997808645128432 0 0.022721423352013381 0.055874943605485589 0 0.024665266655672813 0.055000297569207351 0 0.021367938355730889 0.056672380732886135 0 0.022721423352013381 0.055874943605485589 0 0.022770166385718021 0.056586352513316097 0 0.022770166385718021 0.056586352513316097 0 0.023980067390232524 0.056164306171114509 0 0.023408244737336537 0.056950402322443534 0 0.022721423352013381 0.055874943605485589 0 0.022770166385718021 0.056586352513316097 0 0.023980067390232524 0.056164306171114509 0 0.025585503271408298 0.056522749693158132 0 0.025322255500247658 0.055217829784513978 0 0.024669618757636801 0.055000161939274851 0 0.022721423352013381 0.055874943605485589 0 0.023980067390232524 0.056164306171114509 0 0.024665266655672813 0.055000297569207351 0 0.023580492498334538 0.054212980642003847 0 0.024662255767555829 0.054997727522130689 0 0.025585503271408298 0.056522749693158132 0 0.025322255500247658 0.055217829784513978 0 0.02613015825604495 0.056542982666626815 0 0.027506898440161798 0.054999835058516564 0 0.025322255500247658 0.055217829784513978 0 0.02702191783136278 0.055993485739991376 0 0.025322255500247658 0.055217829784513978 0 0.02702191783136278 0.055993485739991376 0 0.027049157169854472 0.057386289212729057 0 0.025116141914993773 0.054102578546473969 0 0.025066176792534752 0.054023359670590992 0 0.027506898440161798 0.054999835058516564 0 0.025322255500247658 0.055217829784513978 0 0.024669618757636801 0.055000161939274851 0 0.028192368275482806 0.056371294880291849 0 0.02702191783136278 0.055993485739991376 0 0.027049157169854472 0.057386289212729057 0 0.025585503271408298 0.056522749693158132 0 0.02613015825604495 0.056542982666626815 0 0.026067930068696808 0.057216099358893581 0 0.02414090473676175 0.05726880374310276 0 0.023408244737336537 0.056950402322443534 0 0.023321537243881071 0.058057560746211115 0 0.023580492498334538 0.054212980642003847 0 0.022421857294962707 0.053277990235899117 0 0.026465657913138717 0.057164989500904387 0 0.02613015825604495 0.056542982666626815 0 0.026067930068696808 0.057216099358893581 0 0.023980067390232524 0.056164306171114509 0 0.02414090473676175 0.05726880374310276 0 0.023408244737336537 0.056950402322443534 0 0.022411721894247685 0.057475449266703178 0 0.022770166385718021 0.056586352513316097 0 0.023408244737336537 0.056950402322443534 0 0.022411721894247685 0.057475449266703178 0 0.023408244737336537 0.056950402322443534 0 0.023321537243881071 0.058057560746211115 0 0.022504207603220725 0.058607553133731255 0 0.022411721894247685 0.057475449266703178 0 0.023321537243881071 0.058057560746211115 0 0.021028665731148109 0.051883235163010064 0 0.022421857294962707 0.053277990235899117 0 0.024712157319105418 0.058495545370694749 0 0.023935417115616378 0.05843039958776812 0 0.02414090473676175 0.05726880374310276 0 0.023935417115616378 0.05843039958776812 0 0.02414090473676175 0.05726880374310276 0 0.023321537243881071 0.058057560746211115 0 -0.0052327667741105914 0.057611956086325265 0 -0.0060594623373153231 0.058033605976928672 0 -0.0050696417787453735 0.058752488856577453 0 -0.0043412231683654205 0.057854724596312759 0 -0.0052327667741105914 0.057611956086325265 0 -0.0050696417787453735 0.058752488856577453 0 0.00093850115984966725 0.051600349464856587 0 -0.0019815003306929741 0.049323555435318453 0 0.020722901765069416 0.05806356509444139 0 0.022615339525170142 0.05633831383421619 0 0.020303246109594383 0.056353921891092285 0 -0.0043412231683654205 0.057854724596312759 0 -0.0052327667741105914 0.057611956086325265 0 -0.004776567656427407 0.056988258334201153 0 -0.0043412231683654205 0.057854724596312759 0 -0.0036190856616032251 0.05695523862728754 0 -0.004776567656427407 0.056988258334201153 0 -0.0052327667741105914 0.057611956086325265 0 -0.0059310909612696108 0.057322021733607842 0 -0.0053903637565355239 0.056769101818242636 0 -0.0059310909612696108 0.057322021733607842 0 -0.0070740872161196228 0.057527469463936207 0 -0.0060594623373153231 0.058033605976928672 0 -0.0059310909612696108 0.057322021733607842 0 -0.0070740872161196228 0.057527469463936207 0 -0.0058960609645845406 0.056666556569469333 0 -0.0052327667741105914 0.057611956086325265 0 -0.0059310909612696108 0.057322021733607842 0 -0.0060594623373153231 0.058033605976928672 0 -0.0070740872161196228 0.057527469463936207 0 -0.0070245279235910665 0.058373157000259079 0 -0.0060594623373153231 0.058033605976928672 0 -0.0070245279235910665 0.058373157000259079 0 -0.0060594623373153231 0.058033605976928672 0 -0.0063691630715691635 0.058917653074492114 0 -0.0060594623373153231 0.058033605976928672 0 -0.0063691630715691635 0.058917653074492114 0 -0.0050696417787453735 0.058752488856577453 0 -0.0063691630715691635 0.058917653074492114 0 -0.0069354018197932792 0.059760482318622091 0 -0.0057971243037275837 0.059640720196018168 0 -0.0063691630715691635 0.058917653074492114 0 -0.0057971243037275837 0.059640720196018168 0 -0.0050696417787453735 0.058752488856577453 0 -0.0063691630715691635 0.058917653074492114 0 -0.0069354018197932792 0.059760482318622091 0 -0.0073681171771722434 0.05899804888676851 0 -0.0070245279235910665 0.058373157000259079 0 -0.0063691630715691635 0.058917653074492114 0 -0.0073681171771722434 0.05899804888676851 0 -0.0084954592387829625 0.045436066927941103 0 -0.0083435468418471357 0.045804554335135979 0 -0.0089807793718892099 0.044275071550136283 0 -0.0084954592387829625 0.045436066927941103 0 -0.0065135948664019954 0.060519077293957391 0 -0.0069354018197932792 0.059760482318622091 0 -0.0057971243037275837 0.059640720196018168 0 -0.0089807793718892099 0.044275071550136283 0 -0.0052383467869750577 0.046880816176025825 0 0.022116619442964138 0.052564647677437439 0 0.024719806245010308 0.05424271276466102 0 0.020972095082918796 0.054787326389478176 0 -0.0052383467869750577 0.046880816176025825 0 -0.0019815003306929741 0.049323555435318453 0 0.024719806245010308 0.05424271276466102 0 0.022615339525170142 0.05633831383421619 0 0.020972095082918796 0.054787326389478176 0 0.022615339525170142 0.05633831383421619 0 0.020972095082918796 0.054787326389478176 0 0.020303246109594383 0.056353921891092285 0 0.022116619442964138 0.052564647677437439 0 0.020972095082918796 0.054787326389478176 0 0.019878200247665265 0.053019445176229328 0 0.020972095082918796 0.054787326389478176 0 0.019878200247665265 0.053019445176229328 0 0.018760074822325626 0.055228127584477697 0 0.017876633807178747 0.053294153730810132 0 0.019878200247665265 0.053019445176229328 0 0.018760074822325626 0.055228127584477697 0 0.017876633807178747 0.053294153730810132 0 0.018760074822325626 0.055228127584477697 0 0.017245331852376894 0.054916537631821437 0 0.018760074822325626 0.055228127584477697 0 0.017245331852376894 0.054916537631821437 0 0.016866107120784062 0.056719281687430692 0 0.020972095082918796 0.054787326389478176 0 0.018760074822325626 0.055228127584477697 0 0.020303246109594383 0.056353921891092285 0 0.018760074822325626 0.055228127584477697 0 0.018590357742844121 0.057282237232189295 0 0.020303246109594383 0.056353921891092285 0 0.015400310915227585 0.055908065071856652 0 0.015797572922769999 0.054852143755173964 0 0.016281310767097816 0.055665282193006739 0 0.016574311716388238 0.053505591192814395 0 0.015797572922769999 0.054852143755173964 0 0.016281310767097816 0.055665282193006739 0 0.016574311716388238 0.053505591192814395 0 0.017876633807178747 0.053294153730810132 0 0.017245331852376894 0.054916537631821437 0 0.016574311716388238 0.053505591192814395 0 0.017245331852376894 0.054916537631821437 0 0.016281310767097816 0.055665282193006739 0 0.017245331852376894 0.054916537631821437 0 0.016281310767097816 0.055665282193006739 0 0.016866107120784062 0.056719281687430692 0 0.016281310767097816 0.055665282193006739 0 0.016033196939953958 0.057218064107895476 0 0.016866107120784062 0.056719281687430692 0 0.01565870628202207 0.057192672384353778 0 0.016281310767097816 0.055665282193006739 0 0.016033196939953958 0.057218064107895476 0 0.016033196939953958 0.057218064107895476 0 0.016866107120784062 0.056719281687430692 0 0.015949571891851994 0.057860749995144539 0 0.015949571891851994 0.057860749995144539 0 0.016524387144236253 0.058086904904162441 0 0.015682815786807903 0.057662649206065328 0 0.016866107120784062 0.056719281687430692 0 0.015949571891851994 0.057860749995144539 0 0.016524387144236253 0.058086904904162441 0 0.015719033447219255 0.057904959009392604 0 0.015949571891851994 0.057860749995144539 0 0.015676429504665881 0.057753915203481616 0 0.015719033447219255 0.057904959009392604 0 0.016033196939953958 0.057218064107895476 0 0.015949571891851994 0.057860749995144539 0 0.020722901765069416 0.05806356509444139 0 0.018590357742844121 0.057282237232189295 0 0.020303246109594383 0.056353921891092285 0 0.016866107120784062 0.056719281687430692 0 0.018590357742844121 0.057282237232189295 0 0.016524387144236253 0.058086904904162441 0 0.018760074822325626 0.055228127584477697 0 0.016866107120784062 0.056719281687430692 0 0.018590357742844121 0.057282237232189295 0 0.018590357742844121 0.057282237232189295 0 0.016524387144236253 0.058086904904162441 0 0.019003112342826214 0.059908247407151172 0 0.0042860171262187156 0.054048476657362926 0 0.0036619525594869568 0.053703930827819046 0 0.00093850115984966725 0.051600349464856587 0 0.0036619525594869568 0.053703930827819046 0 0.020722901765069416 0.05806356509444139 0 0.018590357742844121 0.057282237232189295 0 0.019003112342826214 0.059908247407151172 0 0.0080471100638659591 0.061390530306167999 0 0.0078519552209725535 0.059251463932348543 0 0.0064737914297853466 0.060398611107650858 0 0.0036619525594869568 0.053703930827819046 0 0.0022014631429211327 0.054345993209678395 0 0.015330266673621411 0.057771405076898756 0 0.015787110072620132 0.057691238439399835 0 0.015399239097588982 0.057338305349910287 0 0.016524387144236253 0.058086904904162441 0 0.015330266673621411 0.057771405076898756 0 0.015787110072620132 0.057691238439399835 0 0.0036619525594869568 0.053703930827819046 0 0.0070533938093477475 0.054142694195001048 0 0.009755451253729024 0.059265733459401664 0 0.0078519552209725535 0.059251463932348543 0 0.0083840298308815002 0.057066789536892176 0 0.0080471100638659591 0.061390530306167999 0 0.009755451253729024 0.059265733459401664 0 0.0078519552209725535 0.059251463932348543 0 0.015676429504665881 0.057753915203481616 0 0.015682815786807903 0.057662649206065328 0 0.015151369666024955 0.057211358625570904 0 0.015949571891851994 0.057860749995144539 0 0.015676429504665881 0.057753915203481616 0 0.015682815786807903 0.057662649206065328 0 0.015787110072620132 0.057691238439399835 0 0.015399239097588982 0.057338305349910287 0 0.015682815786807903 0.057662649206065328 0 0.016524387144236253 0.058086904904162441 0 0.015787110072620132 0.057691238439399835 0 0.015682815786807903 0.057662649206065328 0 0.015399239097588982 0.057338305349910287 0 0.015151369666024955 0.057211358625570904 0 0.014568075268090475 0.056739892431683876 0 0.015399239097588982 0.057338305349910287 0 0.015682815786807903 0.057662649206065328 0 0.015151369666024955 0.057211358625570904 0 0.015858517021623188 0.057445473117059317 0 0.015676429504665881 0.057753915203481616 0 0.015151369666024955 0.057211358625570904 0 0.015151369666024955 0.057211358625570904 0 0.014497918077384384 0.056387477044060164 0 0.014568075268090475 0.056739892431683876 0 0.015668437778361743 0.056799682850657909 0 0.015151369666024955 0.057211358625570904 0 0.014497918077384384 0.056387477044060164 0 0.0070533938093477475 0.054142694195001048 0 0.010215118083629232 0.054526780722050569 0 0.011471050784333976 0.057135056188955008 0 0.0131883099444032 0.054999997002772943 0 0.0099988684663501609 0.054999995382329685 0 0.014497918077384384 0.056387477044060164 0 0.014568075268090475 0.056739892431683876 0 0.013193189366873486 0.055000486157163589 0 0.010215118083629232 0.054526780722050569 0 0.013168775011518849 0.05499130919873834 0 0.0078519552209725535 0.059251463932348543 0 0.0083840298308815002 0.057066789536892176 0 0.006196080466806253 0.058471064381109807 0 0.0083840298308815002 0.057066789536892176 0 0.0060545448625760629 0.056654978055425527 0 0.006196080466806253 0.058471064381109807 0 0.009755451253729024 0.059265733459401664 0 0.011471050784333976 0.057135056188955008 0 0.0083840298308815002 0.057066789536892176 0 0.011471050784333976 0.057135056188955008 0 0.0083840298308815002 0.057066789536892176 0 0.0099988684663501609 0.054999995382329685 0 0.0083840298308815002 0.057066789536892176 0 0.0099988684663501609 0.054999995382329685 0 0.0068094331391390329 0.054999996153909249 0 0.0083840298308815002 0.057066789536892176 0 0.0068094331391390329 0.054999996153909249 0 0.0060545448625760629 0.056654978055425527 0 0.0068094331391390329 0.054999996153909249 0 0.0060545448625760629 0.056654978055425527 0 0.0036199956234266783 0.054999994765627364 0 0.0060545448625760629 0.056654978055425527 0 0.0036199956234266783 0.054999994765627364 0 0.004651793831005187 0.057606351557036119 0 0.004651793831005187 0.057606351557036119 0 0.0048898099679873996 0.059416115461973951 0 0.0028728669215119232 0.058144750332284494 0 0.0036199956234266783 0.054999994765627364 0 0.004651793831005187 0.057606351557036119 0 0.0028728669215119232 0.058144750332284494 0 0.0060545448625760629 0.056654978055425527 0 0.004651793831005187 0.057606351557036119 0 0.006196080466806253 0.058471064381109807 0 0.0078519552209725535 0.059251463932348543 0 0.006196080466806253 0.058471064381109807 0 0.0064737914297853466 0.060398611107650858 0 0.004651793831005187 0.057606351557036119 0 0.006196080466806253 0.058471064381109807 0 0.0048898099679873996 0.059416115461973951 0 0.006196080466806253 0.058471064381109807 0 0.004899954150295747 0.05940543628344272 0 0.0064737914297853466 0.060398611107650858 0 0.00071131215748111622 0.054899371455092293 0 0.0022014631429211327 0.054345993209678395 0 0.00076141480757275148 0.054903363968154241 0 0.00071131215748111622 0.054899371455092293 0 0.0034269970710528483 0.059404143724350003 0 0.0048211687931910075 0.059389957839801104 0 0.0029786763508095615 0.060728313198927644 0 0.00071131215748111622 0.054899371455092293 0 -0.0014090613123028037 0.056070688957553239 0 0.00071131215748111622 0.054899371455092293 0 0.00099843678434972439 0.05514492066940483 0 0.0034269970710528483 0.059404143724350003 0 0.0048211687931910075 0.059389957839801104 0 0.0028394787584001329 0.058136026366756799 0 -0.0050460216862329823 0.056060953925053579 0 -0.0053903637565355239 0.056769101818242636 0 -0.005883982656244794 0.056669617784641392 0 -0.0050460216862329823 0.056060953925053579 0 -0.0053903637565355239 0.056769101818242636 0 -0.004776567656427407 0.056988258334201153 0 -0.0052327667741105914 0.057611956086325265 0 -0.0053903637565355239 0.056769101818242636 0 -0.004776567656427407 0.056988258334201153 0 -0.0014505015533588068 0.0560662619625268 0 -0.0014090613123028037 0.056070688957553239 0 -0.0036190856616032251 0.05695523862728754 0 -0.004776567656427407 0.056988258334201153 0 -0.0043341788360568454 0.056507092960150523 0 -0.0050460216862329823 0.056060953925053579 0 -0.004776567656427407 0.056988258334201153 0 -0.0043341788360568454 0.056507092960150523 0 -0.0081564595737794957 0.059013549091713476 0 -0.0082092207278595362 0.058495450441519443 0 -0.007599049026052615 0.058613447341702041 0 -0.0025092521378161751 0.056231068441635695 0 -0.0014090613123028037 0.056070688957553239 0 -0.0033628274551747912 0.057212558457218038 0 -0.0014090613123028037 0.056070688957553239 0 -0.0059310909612696108 0.057322021733607842 0 -0.0053903637565355239 0.056769101818242636 0 -0.0058960609645845406 0.056666556569469333 0 0.0034269970710528483 0.059404143724350003 0 0.0029786763508095615 0.060728313198927644 0 0.0017389037299636284 0.059299682566834655 0 0.0034269970710528483 0.059404143724350003 0 0.0017389037299636284 0.059299682566834655 0 0.0028394787584001329 0.058136026366756799 0 0.00016923165562037821 0.060177810756640186 0 0.0017389037299636284 0.059299682566834655 0 -0.00041419813505740613 0.058230128319090156 0 0.00016923165562037821 0.060177810756640186 0 0.0029786763508095615 0.060728313198927644 0 0.0017389037299636284 0.059299682566834655 0 0.0017389037299636284 0.059299682566834655 0 0.00085100854763605575 0.0568688082804907 0 -0.00041419813505740613 0.058230128319090156 0 0.0017389037299636284 0.059299682566834655 0 0.00085100854763605575 0.0568688082804907 0 0.0028394787584001329 0.058136026366756799 0 0.0010496006554411754 0.055198452457265033 0 0.00099843678434972439 0.05514492066940483 0 0.0036199956234266783 0.054999994765627364 0 0.00085100854763605575 0.0568688082804907 0 0.0028728669215119232 0.058144750332284494 0 0.0036199956234266783 0.054999994765627364 0 0.00085100854763605575 0.0568688082804907 0 0.00043052417795922608 0.054999980322860326 0 0.00085100854763605575 0.0568688082804907 0 0.00043052417795922608 0.054999980322860326 0 -0.00079411429187689663 0.056458294130980663 0 0.00043052417795922608 0.054999980322860326 0 -0.00079411429187689663 0.056458294130980663 0 -0.0027588869746864365 0.054999991680730081 0 -0.0027588869746864365 0.054999991680730081 0 -0.0020637628057745901 0.057216574183606025 0 -0.0042832117010777049 0.05704770079324642 0 -0.00079411429187689663 0.056458294130980663 0 -0.0027588869746864365 0.054999991680730081 0 -0.0020637628057745901 0.057216574183606025 0 -0.0020637628057745901 0.057216574183606025 0 -0.0042832117010777049 0.05704770079324642 0 -0.0026880514070195425 0.05963594123654288 0 -0.00079411429187689663 0.056458294130980663 0 -0.0020637628057745901 0.057216574183606025 0 -0.00041419813505740613 0.058230128319090156 0 0.00085100854763605575 0.0568688082804907 0 -0.00079411429187689663 0.056458294130980663 0 -0.00041419813505740613 0.058230128319090156 0 -0.0020637628057745901 0.057216574183606025 0 -0.00041419813505740613 0.058230128319090156 0 -0.0026880514070195425 0.05963594123654288 0 -0.0059487612260482057 0.054999698748281346 0 -0.0042832117010777049 0.05704770079324642 0 -0.0069535336245267277 0.056785170514063558 0 -0.0027588869746864365 0.054999991680730081 0 -0.0059487612260482057 0.054999698748281346 0 -0.0042832117010777049 0.05704770079324642 0 -0.0042832117010777049 0.05704770079324642 0 -0.0069535336245267277 0.056785170514063558 0 -0.005705555118688998 0.059064754586865234 0 -0.0069535336245267277 0.056785170514063558 0 -0.005705555118688998 0.059064754586865234 0 -0.0093419283714501321 0.058011901154655349 0 -0.0093202913077187356 0.058304786381858022 0 -0.0095420346817680565 0.058607392628683495 0 -0.0093419283714501321 0.058011901154655349 0 -0.0042832117010777049 0.05704770079324642 0 -0.005705555118688998 0.059064754586865234 0 -0.0026880514070195425 0.05963594123654288 0 -0.0041546957587471093 0.056314972868009579 0 -0.003463218961984065 0.056301835800757025 0 -0.0093202913077187356 0.058304786381858022 0 -0.0091429886644732519 0.058615664954107118 0 -0.0088109022457597691 0.058389890968556436 0 -0.0091429886644732519 0.058615664954107118 0 -0.0087947194939584725 0.058897338519231499 0 -0.0093372454103306298 0.059009721053770774 0 -0.0093202913077187356 0.058304786381858022 0 -0.0091429886644732519 0.058615664954107118 0 -0.0095420346817680565 0.058607392628683495 0 -0.0091429886644732519 0.058615664954107118 0 -0.0095420346817680565 0.058607392628683495 0 -0.0093372454103306298 0.059009721053770774 0 -0.0025092521378161751 0.056231068441635695 0 -0.003463218961984065 0.056301835800757025 0 0.00016923165562037821 0.060177810756640186 0 -0.00041419813505740613 0.058230128319090156 0 -0.0026880514070195425 0.05963594123654288 0 -0.0091429886644732519 0.058615664954107118 0 -0.0088109022457597691 0.058389890968556436 0 -0.0087947194939584725 0.058897338519231499 0 -0.0082092207278595362 0.058495450441519443 0 -0.0088109022457597691 0.058389890968556436 0 -0.0087947194939584725 0.058897338519231499 0 -0.0081564595737794957 0.059013549091713476 0 -0.0082092207278595362 0.058495450441519443 0 -0.0087947194939584725 0.058897338519231499 0 -0.0081564595737794957 0.059013549091713476 0 -0.0087156237122736416 0.059416912354393739 0 -0.0087947194939584725 0.058897338519231499 0 -0.0070245279235910665 0.058373157000259079 0 -0.0082106595405075158 0.058396045392489417 0 -0.0073681171771722434 0.05899804888676851 0 -0.0070740872161196228 0.057527469463936207 0 -0.0070245279235910665 0.058373157000259079 0 -0.0082106595405075158 0.058396045392489417 0 -0.0033628274551747912 0.057212558457218038 0 -0.0047018530602854786 0.057996099104985044 0 -0.0087156237122736416 0.059416912354393739 0 -0.0087947194939584725 0.058897338519231499 0 -0.0091790416977004536 0.059348642755687332 0 -0.0087947194939584725 0.058897338519231499 0 -0.0093372454103306298 0.059009721053770774 0 -0.0091790416977004536 0.059348642755687332 0 -0.0095420346817680565 0.058607392628683495 0 -0.0093372454103306298 0.059009721053770774 0 -0.0098015189787828572 0.059039341945764538 0 -0.0093372454103306298 0.059009721053770774 0 -0.0096984725749536174 0.059425754230010071 0 -0.0098015189787828572 0.059039341945764538 0 -0.0093372454103306298 0.059009721053770774 0 -0.0096984725749536174 0.059425754230010071 0 -0.0091790416977004536 0.059348642755687332 0 -0.0096984725749536174 0.059425754230010071 0 -0.0091790416977004536 0.059348642755687332 0 -0.0093537338865495017 0.059813404624124288 0 -0.0087156237122736416 0.059416912354393739 0 -0.0091790416977004536 0.059348642755687332 0 -0.0093537338865495017 0.059813404624124288 0 -0.0047018530602854786 0.057996099104985044 0 -0.005506274170670864 0.058470564203412179 0 -0.0093537338865495017 0.059813404624124288 0 -0.010090606471897542 0.060117878576878468 0 -0.010142685720032466 0.059761720983080836 0 -0.0096984725749536174 0.059425754230010071 0 -0.0093537338865495017 0.059813404624124288 0 -0.010142685720032466 0.059761720983080836 0 -0.005506274170670864 0.058470564203412179 0 -0.0057847427240669486 0.058636859404794239 0 -0.0092648266626042912 0.059255767021320814 0 -0.0094655738419700472 0.060038815050037234 0 -0.010090606471897542 0.060117878576878468 0 -0.0094655738419700472 0.060038815050037234 0 -0.010090606471897542 0.060117878576878468 0 -0.0098550124364581611 0.060334882646083332 0 -0.0092648266626042912 0.059255767021320814 0 -0.0088793061923019799 0.060048066401036319 0 -0.0082631567899935244 0.059366544173976646 0 -0.0092648266626042912 0.059255767021320814 0 -0.0094655738419700472 0.060038815050037234 0 -0.0088793061923019799 0.060048066401036319 0 -0.0076619883756535575 0.059741070547833015 0 -0.0082631567899935244 0.059366544173976646 0 -0.0081578907878604705 0.060235810133339965 0 -0.0088793061923019799 0.060048066401036319 0 -0.0082631567899935244 0.059366544173976646 0 -0.0081578907878604705 0.060235810133339965 0 -0.0070178411322301196 0.059699246289081229 0 -0.0076619883756535575 0.059741070547833015 0 -0.0073681171771722434 0.05899804888676851 0 -0.0076619883756535575 0.059741070547833015 0 -0.0081578907878604705 0.060235810133339965 0 -0.0074319985947122278 0.060354002969652827 0 -0.0070178411322301196 0.059699246289081229 0 -0.0076619883756535575 0.059741070547833015 0 -0.0074319985947122278 0.060354002969652827 0 -0.0076619883756535575 0.059741070547833015 0 -0.0073681171771722434 0.05899804888676851 0 -0.0082631567899935244 0.059366544173976646 0 -0.0082106595405075158 0.058396045392489417 0 -0.0073681171771722434 0.05899804888676851 0 -0.0082631567899935244 0.059366544173976646 0 -0.0082106595405075158 0.058396045392489417 0 -0.0092648266626042912 0.059255767021320814 0 -0.0082631567899935244 0.059366544173976646 0 -0.011862094746313513 0.060028814596612537 0 -0.011516550950601171 0.059912866419565683 0 -0.011797805702470179 0.05981726864793812 0 -0.013216282714855134 0.060196642251414141 0 -0.011797805702470179 0.05981726864793812 0 -0.012509135886564316 0.059734448469089513 0 -0.012551005136502751 0.059808679969026127 0 -0.011862094746313513 0.060028814596612537 0 -0.011797805702470179 0.05981726864793812 0 -0.013378568299050526 0.060066785874639823 0 -0.013298756603802421 0.060025638127906733 0 -0.013216282714855134 0.060196642251414141 0 -0.012509135886564316 0.059734448469089513 0 -0.013424240991081219 0.059640099893562983 0 -0.012551005136502751 0.059808679969026127 0 -0.01214423066402316 0.060232718562889323 0 -0.012596087669573307 0.060548475420987409 0 -0.012551005136502751 0.059808679969026127 0 -0.01214423066402316 0.060232718562889323 0 -0.011862094746313513 0.060028814596612537 0 -0.01214423066402316 0.060232718562889323 0 -0.011862094746313513 0.060028814596612537 0 -0.011759067216121764 0.060344953675316469 0 -0.011244402477015905 0.060249781059826299 0 -0.011465111364443888 0.0601398533619074 0 -0.011250904914733554 0.059940053016229893 0 -0.011759067216121764 0.060344953675316469 0 -0.011465111364443888 0.0601398533619074 0 -0.011350892465301521 0.060526870915470134 0 -0.011244402477015905 0.060249781059826299 0 -0.011465111364443888 0.0601398533619074 0 -0.011350892465301521 0.060526870915470134 0 -0.011862094746313513 0.060028814596612537 0 -0.011759067216121764 0.060344953675316469 0 -0.011465111364443888 0.0601398533619074 0 -0.01058816355579687 0.059920158771371461 0 -0.010556121485600988 0.060129530252446196 0 -0.011244402477015905 0.060249781059826299 0 -0.011250904914733554 0.059940053016229893 0 -0.010946697761752057 0.060444265313781602 0 -0.010090606471897542 0.060117878576878468 0 -0.010142685720032466 0.059761720983080836 0 -0.010236735618001799 0.060283122456572531 0 -0.011250904914733554 0.059940053016229893 0 -0.011516550950601171 0.059912866419565683 0 -0.01110931848713219 0.059543354436327328 0 -0.011862094746313513 0.060028814596612537 0 -0.011465111364443888 0.0601398533619074 0 -0.011516550950601171 0.059912866419565683 0 -0.011465111364443888 0.0601398533619074 0 -0.011250904914733554 0.059940053016229893 0 -0.011516550950601171 0.059912866419565683 0 -0.01110931848713219 0.059543354436327328 0 -0.011936012579417746 0.059594586046461465 0 -0.011797805702470179 0.05981726864793812 0 -0.011516550950601171 0.059912866419565683 0 -0.01110931848713219 0.059543354436327328 0 -0.011797805702470179 0.05981726864793812 0 -0.01058816355579687 0.059920158771371461 0 -0.010619196914312221 0.059703247581294173 0 -0.0096984725749536174 0.059425754230010071 0 -0.010142685720032466 0.059761720983080836 0 -0.010159613780320586 0.059272884932690832 0 -0.0098015189787828572 0.059039341945764538 0 -0.010159613780320586 0.059272884932690832 0 -0.010452114708373646 0.058732609382442964 0 -0.0096984725749536174 0.059425754230010071 0 -0.0098015189787828572 0.059039341945764538 0 -0.010159613780320586 0.059272884932690832 0 -0.01110931848713219 0.059543354436327328 0 -0.011813018519005163 0.059278675137350523 0 -0.010452114708373646 0.058732609382442964 0 -0.01110931848713219 0.059543354436327328 0 -0.011813018519005163 0.059278675137350523 0 -0.011936012579417746 0.059594586046461465 0 -0.010619196914312221 0.059703247581294173 0 -0.010632888084876981 0.059600532754599166 0 -0.011813018519005163 0.059278675137350523 0 -0.011936012579417746 0.059594586046461465 0 -0.012689407802084395 0.059584873730174737 0 -0.011936012579417746 0.059594586046461465 0 -0.012509135886564316 0.059734448469089513 0 -0.012689407802084395 0.059584873730174737 0 -0.011936012579417746 0.059594586046461465 0 -0.011797805702470179 0.05981726864793812 0 -0.012509135886564316 0.059734448469089513 0 -0.012509135886564316 0.059734448469089513 0 -0.012689407802084395 0.059584873730174737 0 -0.013732105104947894 0.059939908662057242 0 -0.014349977531913662 0.059141992365054928 0 -0.014386121914142099 0.059128232814366369 0 -0.012509135886564316 0.059734448469089513 0 -0.013950913787917595 0.05882834902075898 0 -0.013424240991081219 0.059640099893562983 0 -0.013081431626453834 0.059130372406196174 0 -0.012689407802084395 0.059584873730174737 0 -0.013732105104947894 0.059939908662057242 0 -0.011813018519005163 0.059278675137350523 0 -0.013081431626453834 0.059130372406196174 0 -0.012689407802084395 0.059584873730174737 0 -0.013081431626453834 0.059130372406196174 0 -0.011828248849032854 0.058540173558924317 0 -0.013399895133581488 0.058239394893093953 0 -0.011813018519005163 0.059278675137350523 0 -0.013081431626453834 0.059130372406196174 0 -0.011828248849032854 0.058540173558924317 0 -0.011813018519005163 0.059278675137350523 0 -0.011828248849032854 0.058540173558924317 0 -0.010452114708373646 0.058732609382442964 0 -0.011828248849032854 0.058540173558924317 0 -0.010763535263228647 0.058172683537869189 0 -0.011518587580939781 0.057214786171361373 0 -0.011828248849032854 0.058540173558924317 0 -0.013399895133581488 0.058239394893093953 0 -0.011518587580939781 0.057214786171361373 0 -0.0095420346817680565 0.058607392628683495 0 -0.0098015189787828572 0.059039341945764538 0 -0.010452114708373646 0.058732609382442964 0 -0.011828248849032854 0.058540173558924317 0 -0.010452114708373646 0.058732609382442964 0 -0.010763535263228647 0.058172683537869189 0 -0.010763535263228647 0.058172683537869189 0 -0.0093419283714501321 0.058011901154655349 0 -0.011518587580939781 0.057214786171361373 0 -0.010452114708373646 0.058732609382442964 0 -0.010763535263228647 0.058172683537869189 0 -0.0093419283714501321 0.058011901154655349 0 -0.0041546957587471093 0.056314972868009579 0 -0.0044297500271890432 0.056308027997775754 0 -0.0095420346817680565 0.058607392628683495 0 -0.010452114708373646 0.058732609382442964 0 -0.0093419283714501321 0.058011901154655349 0 -0.0069535336245267277 0.056785170514063558 0 -0.0093419283714501321 0.058011901154655349 0 -0.0091386960238600771 0.054999881761694729 0 -0.0093419283714501321 0.058011901154655349 0 -0.0091386960238600771 0.054999881761694729 0 -0.011518587580939781 0.057214786171361373 0 -0.0059487612260482057 0.054999698748281346 0 -0.0069535336245267277 0.056785170514063558 0 -0.0091386960238600771 0.054999881761694729 0 -0.013399895133581488 0.058239394893093953 0 -0.011518587580939781 0.057214786171361373 0 -0.014248196731300523 0.056967748588569497 0 -0.0091386960238600771 0.054999881761694729 0 -0.011518587580939781 0.057214786171361373 0 -0.012327397862995833 0.054999752385857935 0 -0.011518587580939781 0.057214786171361373 0 -0.012327397862995833 0.054999752385857935 0 -0.014248196731300523 0.056967748588569497 0 -0.012327397862995833 0.054999752385857935 0 -0.014248196731300523 0.056967748588569497 0 -0.015515614519655916 0.055000156661332122 0 -0.014248196731300523 0.056967748588569497 0 -0.016310030665824062 0.0570417208087775 0 -0.015133534571509967 0.058175496067056423 0 -0.014248196731300523 0.056967748588569497 0 -0.016310030665824062 0.0570417208087775 0 -0.015515614519655916 0.055000156661332122 0 -0.016310030665824062 0.0570417208087775 0 -0.015515614519655916 0.055000156661332122 0 -0.01870531409541756 0.054999636322022531 0 -0.016310030665824062 0.0570417208087775 0 -0.01870531409541756 0.054999636322022531 0 -0.020164710661857013 0.057436809676797443 0 -0.01870531409541756 0.054999636322022531 0 -0.020164710661857013 0.057436809676797443 0 -0.021896080113160465 0.055000284358446436 0 -0.016310030665824062 0.0570417208087775 0 -0.016207429547231405 0.057646487386283293 0 -0.016037211676809396 0.057907290331762812 0 -0.020959315729512352 0.055025643470931133 0 -0.021313464325745702 0.055006322624485779 0 -0.016310030665824062 0.0570417208087775 0 -0.016037211676809396 0.057907290331762812 0 -0.015133534571509967 0.058175496067056423 0 -0.016207429547231405 0.057646487386283293 0 -0.016037211676809396 0.057907290331762812 0 -0.01631612336655382 0.05812258950983594 0 -0.016037211676809396 0.057907290331762812 0 -0.015991147085927988 0.058455750996542231 0 -0.01631612336655382 0.05812258950983594 0 -0.016037211676809396 0.057907290331762812 0 -0.015133534571509967 0.058175496067056423 0 -0.015299786006677951 0.059246325320208848 0 -0.016037211676809396 0.057907290331762812 0 -0.015991147085927988 0.058455750996542231 0 -0.015299786006677951 0.059246325320208848 0 -0.014212091089505869 0.058957520396011751 0 -0.015133534571509967 0.058175496067056423 0 -0.015299786006677951 0.059246325320208848 0 -0.013081431626453834 0.059130372406196174 0 -0.013399895133581488 0.058239394893093953 0 -0.014212091089505869 0.058957520396011751 0 -0.013399895133581488 0.058239394893093953 0 -0.014212091089505869 0.058957520396011751 0 -0.015133534571509967 0.058175496067056423 0 -0.013399895133581488 0.058239394893093953 0 -0.014248196731300523 0.056967748588569497 0 -0.015133534571509967 0.058175496067056423 0 -0.027175153784890348 0.056545226798293415 0 -0.025248406037032559 0.054999883338938439 0 -0.029763931858265185 0.054999738096666341 0 -0.027175153784890348 0.056545226798293415 0 -0.025956173628082686 0.057610856787607773 0 -0.027265385697428365 0.058178198288383484 0 -0.027175153784890348 0.056545226798293415 0 -0.025248406037032559 0.054999883338938439 0 -0.025956173628082686 0.057610856787607773 0 -0.025248406037032559 0.054999883338938439 0 -0.025956173628082686 0.057610856787607773 0 -0.023382020045684883 0.057492505234090954 0 -0.022343682801064323 0.054963956674205873 0 -0.02220062489657202 0.054923858140982364 0 -0.02220062489657202 0.054923858140982364 0 -0.021897782129197584 0.054999387971198958 0 -0.025248406037032559 0.054999883338938439 0 -0.023382020045684883 0.057492505234090954 0 -0.021895518734013082 0.054999998282126636 0 -0.020164710661857013 0.057436809676797443 0 -0.023323995625356149 0.057695105955139873 0 -0.021896080113160465 0.055000284358446436 0 -0.021313464325745702 0.055006322624485779 0 -0.02220062489657202 0.054923858140982364 0 -0.016207429547231405 0.057646487386283293 0 -0.016533740683280361 0.057789516315220321 0 -0.01631612336655382 0.05812258950983594 0 -0.015991147085927988 0.058455750996542231 0 -0.01631612336655382 0.05812258950983594 0 -0.016387980290349186 0.058653004576504054 0 -0.01631612336655382 0.05812258950983594 0 -0.016670402086920683 0.058225837151618012 0 -0.016387980290349186 0.058653004576504054 0 -0.016533740683280361 0.057789516315220321 0 -0.01631612336655382 0.05812258950983594 0 -0.016670402086920683 0.058225837151618012 0 -0.02220062489657202 0.054923858140982364 0 -0.023162737808591995 0.055144586233083305 0 -0.025956173628082686 0.057610856787607773 0 -0.025602001490834341 0.05898533767508387 0 -0.026897820807399216 0.059188139596978613 0 -0.025956173628082686 0.057610856787607773 0 -0.024721724168586423 0.057516643404943397 0 -0.025602001490834341 0.05898533767508387 0 -0.025602001490834341 0.05898533767508387 0 -0.02692712751144823 0.060029735131649976 0 -0.026495515484734746 0.060428324681124725 0 -0.023162737808591995 0.055144586233083305 0 -0.024103646224317859 0.055063673897152637 0 -0.016670402086920683 0.058225837151618012 0 -0.016750394036862414 0.058721472940978466 0 -0.016387980290349186 0.058653004576504054 0 -0.025602001490834341 0.05898533767508387 0 -0.026897820807399216 0.059188139596978613 0 -0.02692712751144823 0.060029735131649976 0 -0.03428971541329464 0.05806793762095238 0 -0.034576959662212844 0.057886862901919606 0 -0.026897820807399216 0.059188139596978613 0 -0.02692712751144823 0.060029735131649976 0 -0.028254040157034706 0.059491849620323681 0 -0.026897820807399216 0.059188139596978613 0 -0.027265385697428365 0.058178198288383484 0 -0.028254040157034706 0.059491849620323681 0 -0.025956173628082686 0.057610856787607773 0 -0.026897820807399216 0.059188139596978613 0 -0.027265385697428365 0.058178198288383484 0 -0.016750394036862414 0.058721472940978466 0 -0.016578248310385506 0.059256079524149408 0 -0.016831594304638462 0.059227094677578702 0 -0.024103646224317859 0.055063673897152637 0 -0.024991470501464746 0.054551732489556332 0 -0.02692712751144823 0.060029735131649976 0 -0.026495515484734746 0.060428324681124725 0 -0.028219968728589524 0.063703523327582029 0 -0.016750394036862414 0.058721472940978466 0 -0.016514739354391992 0.059069587469072829 0 -0.016387980290349186 0.058653004576504054 0 -0.016750394036862414 0.058721472940978466 0 -0.016514739354391992 0.059069587469072829 0 -0.016578248310385506 0.059256079524149408 0 -0.016333023149984308 0.059093805414382639 0 -0.016387980290349186 0.058653004576504054 0 -0.016066366995340149 0.058942201218600075 0 -0.016514739354391992 0.059069587469072829 0 -0.016333023149984308 0.059093805414382639 0 -0.016387980290349186 0.058653004576504054 0 -0.015991147085927988 0.058455750996542231 0 -0.016387980290349186 0.058653004576504054 0 -0.016066366995340149 0.058942201218600075 0 -0.016333023149984308 0.059093805414382639 0 -0.016066366995340149 0.058942201218600075 0 -0.016154321161181148 0.059247910149004386 0 -0.016066366995340149 0.058942201218600075 0 -0.016154321161181148 0.059247910149004386 0 -0.015820797883771592 0.059319109474094224 0 -0.016154321161181148 0.059247910149004386 0 -0.016055946182169392 0.059451818008608444 0 -0.015820797883771592 0.059319109474094224 0 -0.016055946182169392 0.059451818008608444 0 -0.015713654829369386 0.059767076051402059 0 -0.016229097565317738 0.059541308983773633 0 -0.016055946182169392 0.059451818008608444 0 -0.016350213638202896 0.059306173086702385 0 -0.016229097565317738 0.059541308983773633 0 -0.016154321161181148 0.059247910149004386 0 -0.016055946182169392 0.059451818008608444 0 -0.016350213638202896 0.059306173086702385 0 -0.016350213638202896 0.059306173086702385 0 -0.016435663080843103 0.059331334852808539 0 -0.016229097565317738 0.059541308983773633 0 -0.016350213638202896 0.059306173086702385 0 -0.016493667039986289 0.059217107425285243 0 -0.016519380613700098 0.059227723431192272 0 -0.016350213638202896 0.059306173086702385 0 -0.016435663080843103 0.059331334852808539 0 -0.016519380613700098 0.059227723431192272 0 -0.016333023149984308 0.059093805414382639 0 -0.016154321161181148 0.059247910149004386 0 -0.016350213638202896 0.059306173086702385 0 -0.016333023149984308 0.059093805414382639 0 -0.016350213638202896 0.059306173086702385 0 -0.016493667039986289 0.059217107425285243 0 -0.016514739354391992 0.059069587469072829 0 -0.016333023149984308 0.059093805414382639 0 -0.016493667039986289 0.059217107425285243 0 -0.016514739354391992 0.059069587469072829 0 -0.016532905390303925 0.059238438457229085 0 -0.016493667039986289 0.059217107425285243 0 -0.016514739354391992 0.059069587469072829 0 -0.016532905390303925 0.059238438457229085 0 -0.016578248310385506 0.059256079524149408 0 -0.016532905390303925 0.059238438457229085 0 -0.016493667039986289 0.059217107425285243 0 -0.016494773876379727 0.059211150199754495 0 -0.016493667039986289 0.059217107425285243 0 -0.016519380613700098 0.059227723431192272 0 -0.016494773876379727 0.059211150199754495 0 -0.016435663080843103 0.059331334852808539 0 -0.016519380613700098 0.059227723431192272 0 -0.016556737812469097 0.059168097662960523 0 -0.016519380613700098 0.059227723431192272 0 -0.016519541956245148 0.059071894113323337 0 -0.016556737812469097 0.059168097662960523 0 -0.016519380613700098 0.059227723431192272 0 -0.016519541956245148 0.059071894113323337 0 -0.016494773876379727 0.059211150199754495 0 -0.016519541956245148 0.059071894113323337 0 -0.016494773876379727 0.059211150199754495 0 -0.01629545322443721 0.059130943684142068 0 -0.016494773876379727 0.059211150199754495 0 -0.01629545322443721 0.059130943684142068 0 -0.016383226114544399 0.059285537014530078 0 -0.016519541956245148 0.059071894113323337 0 -0.016306641632632197 0.058898328994795281 0 -0.01629545322443721 0.059130943684142068 0 -0.016306641632632197 0.058898328994795281 0 -0.01629545322443721 0.059130943684142068 0 -0.015850591135295359 0.058857489205503141 0 -0.01629545322443721 0.059130943684142068 0 -0.016383226114544399 0.059285537014530078 0 -0.015858938990249306 0.059295116092381688 0 -0.016383226114544399 0.059285537014530078 0 -0.01628435054459396 0.059457585921688788 0 -0.015858938990249306 0.059295116092381688 0 -0.016532905390303925 0.059238438457229085 0 -0.016494773876379727 0.059211150199754495 0 -0.016383226114544399 0.059285537014530078 0 -0.016532905390303925 0.059238438457229085 0 -0.016383226114544399 0.059285537014530078 0 -0.016578248310385506 0.059256079524149408 0 -0.016383226114544399 0.059285537014530078 0 -0.016578248310385506 0.059256079524149408 0 -0.01628435054459396 0.059457585921688788 0 -0.024871683282961361 0.054577915567372286 0 -0.024991470501464746 0.054551732489556332 0 -0.013950913787917595 0.05882834902075898 0 -0.015014694000787407 0.05849082481931446 0 -0.01486393777208341 0.05946846994288997 0 -0.013950913787917595 0.05882834902075898 0 -0.014032341159427879 0.059680450632100701 0 -0.013424240991081219 0.059640099893562983 0 -0.013081431626453834 0.059130372406196174 0 -0.014212091089505869 0.058957520396011751 0 -0.013732105104947894 0.059939908662057242 0 -0.014386121914142099 0.059128232814366369 0 -0.014447245774192957 0.059103811951027395 0 -0.014212091089505869 0.058957520396011751 0 -0.013732105104947894 0.059939908662057242 0 -0.015299786006677951 0.059246325320208848 0 -0.014481068964239308 0.05908952539213122 0 -0.014447245774192957 0.059103811951027395 0 -0.015991147085927988 0.058455750996542231 0 -0.015014694000787407 0.05849082481931446 0 -0.015562519825662266 0.059004762019889405 0 -0.015991147085927988 0.058455750996542231 0 -0.016066366995340149 0.058942201218600075 0 -0.015562519825662266 0.059004762019889405 0 -0.016066366995340149 0.058942201218600075 0 -0.015562519825662266 0.059004762019889405 0 -0.015820797883771592 0.059319109474094224 0 -0.015014694000787407 0.05849082481931446 0 -0.015562519825662266 0.059004762019889405 0 -0.01486393777208341 0.05946846994288997 0 -0.015562519825662266 0.059004762019889405 0 -0.01537607964717868 0.059593724971355004 0 -0.01486393777208341 0.05946846994288997 0 -0.015562519825662266 0.059004762019889405 0 -0.015820797883771592 0.059319109474094224 0 -0.01537607964717868 0.059593724971355004 0 -0.016055946182169392 0.059451818008608444 0 -0.015820797883771592 0.059319109474094224 0 -0.015713654829369386 0.059767076051402059 0 -0.015820797883771592 0.059319109474094224 0 -0.015713654829369386 0.059767076051402059 0 -0.01537607964717868 0.059593724971355004 0 -0.015008190451457043 0.060052509624724054 0 -0.01537607964717868 0.059593724971355004 0 -0.01486393777208341 0.05946846994288997 0 -0.015713654829369386 0.059767076051402059 0 -0.015008190451457043 0.060052509624724054 0 -0.01537607964717868 0.059593724971355004 0 -0.015008190451457043 0.060052509624724054 0 -0.01486393777208341 0.05946846994288997 0 -0.014415245466489609 0.060303912258853488 0 -0.01486393777208341 0.05946846994288997 0 -0.014032341159427879 0.059680450632100701 0 -0.014415245466489609 0.060303912258853488 0 -0.013950913787917595 0.05882834902075898 0 -0.01486393777208341 0.05946846994288997 0 -0.014032341159427879 0.059680450632100701 0 -0.013216282714855134 0.060196642251414141 0 -0.014032341159427879 0.059680450632100701 0 -0.013424240991081219 0.059640099893562983 0 -0.013378568299050526 0.060066785874639823 0 -0.013537293794969544 0.060150469205234668 0 -0.013216282714855134 0.060196642251414141 0 -0.014032341159427879 0.059680450632100701 0 -0.014415245466489609 0.060303912258853488 0 -0.012551005136502751 0.059808679969026127 0 -0.013681785849835027 0.060086213853069038 0 -0.012596087669573307 0.060548475420987409 0 -0.013308333481775193 0.060729947621264574 0 -0.013681785849835027 0.060086213853069038 0 -0.012596087669573307 0.060548475420987409 0 -0.013308333481775193 0.060729947621264574 0 -0.012596087669573307 0.060548475420987409 0 -0.012814774384448903 0.061057831522529631 0 -0.017095597904317882 0.060928650528332656 0 -0.016983768805883863 0.061431211323309094 0 -0.014854193193268616 0.061055302927949022 0 -0.013308333481775193 0.060729947621264574 0 -0.013440315897613939 0.061345179325171854 0 -0.012814774384448903 0.061057831522529631 0 -0.013308333481775193 0.060729947621264574 0 -0.013440315897613939 0.061345179325171854 0 -0.014097249189855051 0.060691910993660586 0 -0.017095597904317882 0.060928650528332656 0 -0.019271449039837241 0.060808482261004583 0 -0.019217286345562593 0.06105218644389207 0 -0.015390957816108521 0.055350524599755827 0 -0.016547883561275834 0.054424490730105718 0 -0.013440315897613939 0.061345179325171854 0 -0.014097249189855051 0.060691910993660586 0 -0.014975557437621674 0.060988723638002992 0 -0.017095597904317882 0.060928650528332656 0 -0.019217286345562593 0.06105218644389207 0 -0.016983768805883863 0.061431211323309094 0 -0.013308333481775193 0.060729947621264574 0 -0.014097249189855051 0.060691910993660586 0 -0.013681785849835027 0.060086213853069038 0 -0.013537293794969544 0.060150469205234668 0 -0.013627223858371236 0.060199059961270056 0 -0.014097249189855051 0.060691910993660586 0 -0.013681785849835027 0.060086213853069038 0 -0.015095579780061815 0.060446491268623968 0 -0.015008190451457043 0.060052509624724054 0 -0.014415245466489609 0.060303912258853488 0 -0.015095579780061815 0.060446491268623968 0 -0.015008190451457043 0.060052509624724054 0 -0.015356440850025995 0.060115284970591071 0 -0.015095579780061815 0.060446491268623968 0 -0.015713654829369386 0.059767076051402059 0 -0.015008190451457043 0.060052509624724054 0 -0.015356440850025995 0.060115284970591071 0 -0.015713654829369386 0.059767076051402059 0 -0.015558718286316607 0.060219046172100915 0 -0.0159872851517367 0.059884722889908863 0 -0.015713654829369386 0.059767076051402059 0 -0.015356440850025995 0.060115284970591071 0 -0.015558718286316607 0.060219046172100915 0 -0.015356440850025995 0.060115284970591071 0 -0.015558718286316607 0.060219046172100915 0 -0.015095579780061815 0.060446491268623968 0 -0.020310793364422871 0.051077148175322003 0 -0.017724167379151178 0.053247762299373655 0 -0.031175653503306183 0.050326990016354635 0 -0.029084250590160138 0.049109541451211998 0 -0.025320896264788801 0.050887110991946996 0 -0.016547883561275834 0.054424490730105718 0 -0.017724167379151178 0.053247762299373655 0 -0.015558718286316607 0.060219046172100915 0 -0.014975557437621674 0.060988723638002992 0 -0.01601575741263233 0.060329629674332252 0 -0.019271449039837241 0.060808482261004583 0 -0.019217286345562593 0.06105218644389207 0 -0.021382407697043998 0.060688184180147091 0 -0.014097249189855051 0.060691910993660586 0 -0.015095579780061815 0.060446491268623968 0 -0.014975557437621674 0.060988723638002992 0 -0.015558718286316607 0.060219046172100915 0 -0.015095579780061815 0.060446491268623968 0 -0.014975557437621674 0.060988723638002992 0 -0.031175653503306183 0.050326990016354635 0 -0.03234453465399742 0.048708306463926689 0 -0.03426109681651987 0.048853214369318526 0 -0.031175653503306183 0.050326990016354635 0 -0.03234453465399742 0.048708306463926689 0 -0.030768699120517502 0.048867753436301495 0 -0.031175653503306183 0.050326990016354635 0 -0.030768699120517502 0.048867753436301495 0 -0.029084250590160138 0.049109541451211998 0 -0.030768699120517502 0.048867753436301495 0 -0.030527955584615692 0.047307212515912724 0 -0.029084250590160138 0.049109541451211998 0 -0.03234453465399742 0.048708306463926689 0 -0.030768699120517502 0.048867753436301495 0 -0.030527955584615692 0.047307212515912724 0 -0.03234453465399742 0.048708306463926689 0 -0.030527955584615692 0.047307212515912724 0 -0.034065387437141513 0.047181044346055537 0 -0.030527955584615692 0.047307212515912724 0 -0.027422758346235733 0.047912069138919454 0 -0.026644010924336717 0.044952032325970379 0 -0.029084250590160138 0.049109541451211998 0 -0.027422758346235733 0.047912069138919454 0 -0.025320896264788801 0.050887110991946996 0 -0.030527955584615692 0.047307212515912724 0 -0.029084250590160138 0.049109541451211998 0 -0.027422758346235733 0.047912069138919454 0 -0.02467460999133915 0.044630348525566924 0 -0.030385432914746817 0.04427583080183975 0 -0.0258812019566372 0.041271738614637822 0 -0.02634704564493295 0.044773340820768719 0 -0.027164600116276492 0.044707619990273582 0 -0.030527955584615692 0.047307212515912724 0 -0.026644010924336717 0.044952032325970379 0 -0.031428138781561539 0.044399223740272789 0 -0.030527955584615692 0.047307212515912724 0 -0.031428138781561539 0.044399223740272789 0 -0.034065387437141513 0.047181044346055537 0 -0.027164600116276492 0.044707619990273582 0 -0.027553844792610471 0.044676300169723765 0 -0.031428138781561539 0.044399223740272789 0 -0.036692370217278607 0.043735795862741587 0 -0.034065387437141513 0.047181044346055537 0 -0.036692370217278607 0.043735795862741587 0 -0.036956290495494259 0.046808685426593319 0 -0.034065387437141513 0.047181044346055537 0 -0.036692370217278607 0.043735795862741587 0 -0.040049359181446247 0.041476837177883058 0 -0.04098400478049815 0.045137227085034586 0 -0.036692370217278607 0.043735795862741587 0 -0.036956290495494259 0.046808685426593319 0 -0.04098400478049815 0.045137227085034586 0 -0.036956290495494259 0.046808685426593319 0 -0.041046972820314734 0.047520364436765494 0 -0.04098400478049815 0.045137227085034586 0 -0.036956290495494259 0.046808685426593319 0 -0.037962335258505155 0.049784343878911931 0 -0.035800663157300565 0.048278295860831481 0 -0.036956290495494259 0.046808685426593319 0 -0.037962335258505155 0.049784343878911931 0 -0.041046972820314734 0.047520364436765494 0 -0.020310793364422871 0.051077148175322003 0 -0.022100041334396182 0.04881145768878576 0 -0.037962335258505155 0.049784343878911931 0 -0.03426109681651987 0.048853214369318526 0 -0.035800663157300565 0.048278295860831481 0 -0.031175653503306183 0.050326990016354635 0 -0.037962335258505155 0.049784343878911931 0 -0.03426109681651987 0.048853214369318526 0 -0.03234453465399742 0.048708306463926689 0 -0.03426109681651987 0.048853214369318526 0 -0.034065387437141513 0.047181044346055537 0 -0.03426109681651987 0.048853214369318526 0 -0.034065387437141513 0.047181044346055537 0 -0.035800663157300565 0.048278295860831481 0 -0.036956290495494259 0.046808685426593319 0 -0.034065387437141513 0.047181044346055537 0 -0.035800663157300565 0.048278295860831481 0 -0.016316803712491869 0.05083396259633733 0 -0.015980737521379424 0.048544690266955418 0 -0.014417138525713368 0.04918440518796198 0 -0.016316803712491869 0.05083396259633733 0 -0.017759762908695367 0.04973087667554002 0 -0.015980737521379424 0.048544690266955418 0 -0.016588596124556553 0.058287039666066014 0 -0.016067809872890058 0.058006299827514124 0 -0.016351436740371234 0.057857174666043079 0 -0.016067809872890058 0.058006299827514124 0 -0.016431435728611599 0.058653756363797882 0 -0.015889170953252259 0.058386524972645543 0 -0.016588596124556553 0.058287039666066014 0 -0.016067809872890058 0.058006299827514124 0 -0.016431435728611599 0.058653756363797882 0 -0.016306641632632197 0.058898328994795281 0 -0.016431435728611599 0.058653756363797882 0 -0.015889170953252259 0.058386524972645543 0 -0.016519541956245148 0.059071894113323337 0 -0.016306641632632197 0.058898328994795281 0 -0.016431435728611599 0.058653756363797882 0 -0.016519541956245148 0.059071894113323337 0 -0.016431435728611599 0.058653756363797882 0 -0.016573064689682018 0.05892851159769788 0 -0.016558096281493632 0.058705109037476132 0 -0.016431435728611599 0.058653756363797882 0 -0.016573064689682018 0.05892851159769788 0 -0.016588596124556553 0.058287039666066014 0 -0.016558096281493632 0.058705109037476132 0 -0.016588594554746483 0.058846991208008237 0 -0.016588596124556553 0.058287039666066014 0 -0.016558096281493632 0.058705109037476132 0 -0.016431435728611599 0.058653756363797882 0 -0.016588596124556553 0.058287039666066014 0 -0.016588594554746483 0.058846991208008237 0 -0.016587329900137931 0.059043655695310948 0 -0.016588594554746483 0.058846991208008237 0 -0.016573064689682018 0.05892851159769788 0 -0.016576634196916663 0.059127208982670085 0 -0.016558096281493632 0.058705109037476132 0 -0.016588594554746483 0.058846991208008237 0 -0.016573064689682018 0.05892851159769788 0 -0.016519541956245148 0.059071894113323337 0 -0.016573064689682018 0.05892851159769788 0 -0.016556737812469097 0.059168097662960523 0 -0.016573064689682018 0.05892851159769788 0 -0.016556737812469097 0.059168097662960523 0 -0.016576634196916663 0.059127208982670085 0 -0.016556737812469097 0.059168097662960523 0 -0.016576634196916663 0.059127208982670085 0 -0.016493661722494508 0.059334480615313982 0 -0.016588594554746483 0.058846991208008237 0 -0.016576634196916663 0.059127208982670085 0 -0.016587329900137931 0.059043655695310948 0 -0.016576634196916663 0.059127208982670085 0 -0.016587329900137931 0.059043655695310948 0 -0.016545871468699007 0.059324648472260065 0 -0.016587329900137931 0.059043655695310948 0 -0.016579550971878746 0.059083282310983976 0 -0.016545871468699007 0.059324648472260065 0 -0.016588596124556553 0.058287039666066014 0 -0.016579550971878746 0.059083282310983976 0 -0.016548111724526419 0.059580048712433879 0 -0.016579550971878746 0.059083282310983976 0 -0.016548111724526419 0.059580048712433879 0 -0.016545871468699007 0.059324648472260065 0 -0.017274458394017825 0.053596147516663972 0 -0.017402656824683813 0.053509573812209048 0 -0.016316803712491869 0.05083396259633733 0 -0.017759762908695367 0.04973087667554002 0 -0.020534511293702266 0.050836635705502078 0 -0.017759762908695367 0.04973087667554002 0 -0.020534511293702266 0.050836635705502078 0 -0.018312665048328226 0.04881816325988713 0 -0.014638633225657619 0.053489700170473178 0 -0.016381490065683593 0.053376471381710096 0 -0.016588596124556553 0.058287039666066014 0 -0.017968714439495808 0.057923420701737068 0 -0.018113061182821518 0.058080991968945651 0 -0.016588596124556553 0.058287039666066014 0 -0.016351436740371234 0.057857174666043079 0 -0.017968714439495808 0.057923420701737068 0 -0.016588596124556553 0.058287039666066014 0 -0.016587329900137931 0.059043655695310948 0 -0.016579550971878746 0.059083282310983976 0 -0.016381490065683593 0.053376471381710096 0 -0.017724167379151178 0.053247762299373655 0 -0.016548111724526419 0.059580048712433879 0 -0.016330021620024518 0.059653334270959882 0 -0.01601575741263233 0.060329629674332252 0 -0.017968714439495808 0.057923420701737068 0 -0.018113061182821518 0.058080991968945651 0 -0.019612584520853352 0.057829201723938455 0 -0.017402656824683813 0.053509573812209048 0 -0.017724167379151178 0.053247762299373655 0 -0.020534511293702266 0.050836635705502078 0 -0.025320896264788801 0.050887110991946996 0 -0.022857815268212574 0.049557955748367362 0 -0.020534511293702266 0.050836635705502078 0 -0.022857815268212574 0.049557955748367362 0 -0.021396371737576005 0.049119946516245024 0 -0.020534511293702266 0.050836635705502078 0 -0.021396371737576005 0.049119946516245024 0 -0.020097594790151316 0.049003460522969375 0 -0.016548111724526419 0.059580048712433879 0 -0.016545871468699007 0.059324648472260065 0 -0.016330021620024518 0.059653334270959882 0 -0.016576634196916663 0.059127208982670085 0 -0.016545871468699007 0.059324648472260065 0 -0.016493661722494508 0.059334480615313982 0 -0.016545871468699007 0.059324648472260065 0 -0.016493661722494508 0.059334480615313982 0 -0.016330021620024518 0.059653334270959882 0 -0.016435663080843103 0.059331334852808539 0 -0.016556737812469097 0.059168097662960523 0 -0.016493661722494508 0.059334480615313982 0 -0.016435663080843103 0.059331334852808539 0 -0.016493661722494508 0.059334480615313982 0 -0.016229097565317738 0.059541308983773633 0 -0.016493661722494508 0.059334480615313982 0 -0.016330021620024518 0.059653334270959882 0 -0.016229097565317738 0.059541308983773633 0 -0.015713654829369386 0.059767076051402059 0 -0.016229097565317738 0.059541308983773633 0 -0.0159872851517367 0.059884722889908863 0 -0.016330021620024518 0.059653334270959882 0 -0.016229097565317738 0.059541308983773633 0 -0.0159872851517367 0.059884722889908863 0 -0.015558718286316607 0.060219046172100915 0 -0.0159872851517367 0.059884722889908863 0 -0.01601575741263233 0.060329629674332252 0 -0.016330021620024518 0.059653334270959882 0 -0.0159872851517367 0.059884722889908863 0 -0.01601575741263233 0.060329629674332252 0 -0.027422758346235733 0.047912069138919454 0 -0.025320896264788801 0.050887110991946996 0 -0.024588500820138769 0.047324124177577281 0 -0.025320896264788801 0.050887110991946996 0 -0.024588500820138769 0.047324124177577281 0 -0.022857815268212574 0.049557955748367362 0 -0.024588500820138769 0.047324124177577281 0 -0.022588950158701413 0.047457535727128082 0 -0.022857815268212574 0.049557955748367362 0 -0.027422758346235733 0.047912069138919454 0 -0.026644010924336717 0.044952032325970379 0 -0.024588500820138769 0.047324124177577281 0 -0.026644010924336717 0.044952032325970379 0 -0.024588500820138769 0.047324124177577281 0 -0.022269358667828962 0.045428129621775164 0 -0.02467460999133915 0.044630348525566924 0 -0.020711244850258832 0.044954822101824533 0 -0.021660874559596081 0.043191743878445384 0 -0.02634704564493295 0.044773340820768719 0 -0.025560228857248384 0.044837535278264132 0 -0.020711244850258832 0.044954822101824533 0 -0.018625826384462234 0.043775288621910921 0 -0.020257126443318254 0.043250021055985959 0 -0.020711244850258832 0.044954822101824533 0 -0.020257126443318254 0.043250021055985959 0 -0.021660874559596081 0.043191743878445384 0 -0.022269358667828962 0.045428129621775164 0 -0.021068890921118483 0.047908321548879793 0 -0.01933115156644423 0.04784514102750239 0 -0.021068890921118483 0.047908321548879793 0 -0.022588950158701413 0.047457535727128082 0 -0.021396371737576005 0.049119946516245024 0 -0.024588500820138769 0.047324124177577281 0 -0.022269358667828962 0.045428129621775164 0 -0.022588950158701413 0.047457535727128082 0 -0.022269358667828962 0.045428129621775164 0 -0.021068890921118483 0.047908321548879793 0 -0.022588950158701413 0.047457535727128082 0 -0.022588950158701413 0.047457535727128082 0 -0.022857815268212574 0.049557955748367362 0 -0.021396371737576005 0.049119946516245024 0 -0.021068890921118483 0.047908321548879793 0 -0.021396371737576005 0.049119946516245024 0 -0.020097594790151316 0.049003460522969375 0 -0.018312665048328226 0.04881816325988713 0 -0.01933115156644423 0.04784514102750239 0 -0.018105307771618659 0.045803962809505418 0 -0.020097594790151316 0.049003460522969375 0 -0.018312665048328226 0.04881816325988713 0 -0.01933115156644423 0.04784514102750239 0 -0.021068890921118483 0.047908321548879793 0 -0.020097594790151316 0.049003460522969375 0 -0.01933115156644423 0.04784514102750239 0 -0.020534511293702266 0.050836635705502078 0 -0.020097594790151316 0.049003460522969375 0 -0.018312665048328226 0.04881816325988713 0 -0.022269358667828962 0.045428129621775164 0 -0.01933115156644423 0.04784514102750239 0 -0.018105307771618659 0.045803962809505418 0 -0.025560228857248384 0.044837535278264132 0 -0.025212880089442793 0.044866853441161536 0 -0.020711244850258832 0.044954822101824533 0 -0.018105307771618659 0.045803962809505418 0 -0.018625826384462234 0.043775288621910921 0 -0.018105307771618659 0.045803962809505418 0 -0.016345722011356725 0.043488136723720261 0 -0.018625826384462234 0.043775288621910921 0 -0.018105307771618659 0.045803962809505418 0 -0.016345722011356725 0.043488136723720261 0 -0.014723919412585773 0.046490470775569968 0 -0.018312665048328226 0.04881816325988713 0 -0.018105307771618659 0.045803962809505418 0 -0.015980737521379424 0.048544690266955418 0 -0.018105307771618659 0.045803962809505418 0 -0.015980737521379424 0.048544690266955418 0 -0.014723919412585773 0.046490470775569968 0 -0.017759762908695367 0.04973087667554002 0 -0.018312665048328226 0.04881816325988713 0 -0.015980737521379424 0.048544690266955418 0 -0.01584666961144077 0.040115311795557787 0 -0.016345722011356725 0.043488136723720261 0 -0.017706827369293136 0.041647554478225324 0 -0.01584666961144077 0.040115311795557787 0 -0.017706827369293136 0.041647554478225324 0 -0.017872484330196406 0.039674254017452747 0 -0.018625826384462234 0.043775288621910921 0 -0.019136408025761113 0.042234560507065033 0 -0.017706827369293136 0.041647554478225324 0 -0.016345722011356725 0.043488136723720261 0 -0.018625826384462234 0.043775288621910921 0 -0.017706827369293136 0.041647554478225324 0 -0.018625826384462234 0.043775288621910921 0 -0.019136408025761113 0.042234560507065033 0 -0.020257126443318254 0.043250021055985959 0 -0.019136408025761113 0.042234560507065033 0 -0.017706827369293136 0.041647554478225324 0 -0.019321342424846861 0.040431520861076771 0 -0.017706827369293136 0.041647554478225324 0 -0.019321342424846861 0.040431520861076771 0 -0.017872484330196406 0.039674254017452747 0 -0.019321342424846861 0.040431520861076771 0 -0.02135137820201349 0.040232090886359699 0 -0.020328004884531958 0.038902173188166883 0 -0.019136408025761113 0.042234560507065033 0 -0.019321342424846861 0.040431520861076771 0 -0.021051945289930308 0.041860552795672697 0 -0.019321342424846861 0.040431520861076771 0 -0.02135137820201349 0.040232090886359699 0 -0.021051945289930308 0.041860552795672697 0 -0.019136408025761113 0.042234560507065033 0 -0.020257126443318254 0.043250021055985959 0 -0.021051945289930308 0.041860552795672697 0 -0.020257126443318254 0.043250021055985959 0 -0.021051945289930308 0.041860552795672697 0 -0.021660874559596081 0.043191743878445384 0 -0.021660874559596081 0.043191743878445384 0 -0.02382127862862778 0.036750787886163379 0 -0.0258812019566372 0.041271738614637822 0 -0.030681625178544683 0.031367212173385922 0 -0.031091906696288096 0.030751459627460752 0 -0.02467460999133915 0.044630348525566924 0 -0.021660874559596081 0.043191743878445384 0 -0.0258812019566372 0.041271738614637822 0 -0.021051945289930308 0.041860552795672697 0 -0.021660874559596081 0.043191743878445384 0 -0.023826166400360598 0.040793785164412351 0 -0.02135137820201349 0.040232090886359699 0 -0.023826166400360598 0.040793785164412351 0 -0.022424426056444374 0.038694507222062691 0 -0.02135137820201349 0.040232090886359699 0 -0.021051945289930308 0.041860552795672697 0 -0.023826166400360598 0.040793785164412351 0 -0.022424426056444374 0.038694507222062691 0 -0.023064613518570549 0.036237728987356485 0 -0.026113591148524993 0.037618707209468083 0 -0.022424426056444374 0.038694507222062691 0 -0.023064613518570549 0.036237728987356485 0 -0.021010587932392421 0.037068588938784008 0 -0.023064613518570549 0.036237728987356485 0 -0.021480792297817561 0.035354792315558187 0 -0.022816256607053498 0.034165639694908337 0 -0.023064613518570549 0.036237728987356485 0 -0.021010587932392421 0.037068588938784008 0 -0.021480792297817561 0.035354792315558187 0 -0.021010587932392421 0.037068588938784008 0 -0.021480792297817561 0.035354792315558187 0 -0.019649315311700027 0.035483614535595544 0 -0.021010587932392421 0.037068588938784008 0 -0.019649315311700027 0.035483614535595544 0 -0.01952054357353732 0.03757098186429262 0 -0.021010587932392421 0.037068588938784008 0 -0.020328004884531958 0.038902173188166883 0 -0.01952054357353732 0.03757098186429262 0 -0.022424426056444374 0.038694507222062691 0 -0.021010587932392421 0.037068588938784008 0 -0.020328004884531958 0.038902173188166883 0 -0.02135137820201349 0.040232090886359699 0 -0.022424426056444374 0.038694507222062691 0 -0.020328004884531958 0.038902173188166883 0 -0.019321342424846861 0.040431520861076771 0 -0.020328004884531958 0.038902173188166883 0 -0.018811769438024258 0.038596143606511028 0 -0.019321342424846861 0.040431520861076771 0 -0.018811769438024258 0.038596143606511028 0 -0.017872484330196406 0.039674254017452747 0 -0.018811769438024258 0.038596143606511028 0 -0.017872484330196406 0.039674254017452747 0 -0.018092248702929352 0.037562025867681141 0 -0.026770232444412557 0.032496448360223168 0 -0.026789016946006463 0.032485721197569886 0 -0.020328004884531958 0.038902173188166883 0 -0.018811769438024258 0.038596143606511028 0 -0.01952054357353732 0.03757098186429262 0 -0.018811769438024258 0.038596143606511028 0 -0.017954686393932353 0.037452953960026791 0 -0.01952054357353732 0.03757098186429262 0 -0.026380165716245997 0.032821311056636257 0 -0.026789016946006463 0.032485721197569886 0 -0.019649315311700027 0.035483614535595544 0 -0.017954686393932353 0.037452953960026791 0 -0.01952054357353732 0.03757098186429262 0 -0.017947000314035923 0.03717463011599885 0 -0.018010688819409388 0.035172189402115535 0 -0.015910237596526031 0.034346120030960624 0 -0.019680273753523513 0.035283514640650653 0 -0.017947000314035923 0.03717463011599885 0 -0.018010688819409388 0.035172189402115535 0 -0.026789016946006463 0.032485721197569886 0 -0.028503162849470409 0.031254282699760119 0 -0.018680689970080953 0.037483424707188753 0 -0.015731928725521101 0.037331141314067569 0 -0.016539241486574704 0.034490414280971562 0 -0.016113542267256493 0.040251920383709047 0 -0.018680689970080953 0.037483424707188753 0 -0.015731928725521101 0.037331141314067569 0 -0.025335366675625349 0.033897510197569369 0 -0.026789016946006463 0.032485721197569886 0 -0.01584666961144077 0.040115311795557787 0 -0.017872484330196406 0.039674254017452747 0 -0.018092248702929352 0.037562025867681141 0 -0.036326884606599386 0.038330944706659341 0 -0.029849333292336907 0.037266389010122664 0 -0.03474994141890772 0.033295310150568379 0 -0.036326884606599386 0.038330944706659341 0 -0.03474994141890772 0.033295310150568379 0 -0.039722572516478226 0.033647744458385441 0 -0.036326884606599386 0.038330944706659341 0 -0.039722572516478226 0.033647744458385441 0 -0.042067928935288941 0.037901894480942028 0 -0.036326884606599386 0.038330944706659341 0 -0.040049359181446247 0.041476837177883058 0 -0.042067928935288941 0.037901894480942028 0 -0.036692370217278607 0.043735795862741587 0 -0.036326884606599386 0.038330944706659341 0 -0.040049359181446247 0.041476837177883058 0 -0.030385432914746817 0.04427583080183975 0 -0.036692370217278607 0.043735795862741587 0 -0.036326884606599386 0.038330944706659341 0 -0.030385432914746817 0.04427583080183975 0 -0.0258812019566372 0.041271738614637822 0 -0.029849333292336907 0.037266389010122664 0 -0.030385432914746817 0.04427583080183975 0 -0.036326884606599386 0.038330944706659341 0 -0.029849333292336907 0.037266389010122664 0 -0.02382127862862778 0.036750787886163379 0 -0.0258812019566372 0.041271738614637822 0 -0.029849333292336907 0.037266389010122664 0 -0.02382127862862778 0.036750787886163379 0 -0.029849333292336907 0.037266389010122664 0 -0.026967899118682449 0.030212923762363248 0 -0.029849333292336907 0.037266389010122664 0 -0.031641128929150435 0.029783113330172015 0 -0.03474994141890772 0.033295310150568379 0 -0.029849333292336907 0.037266389010122664 0 -0.031641128929150435 0.029783113330172015 0 -0.026967899118682449 0.030212923762363248 0 -0.023826166400360598 0.040793785164412351 0 -0.022424426056444374 0.038694507222062691 0 -0.026113591148524993 0.037618707209468083 0 -0.031091906696288096 0.030751459627460752 0 -0.032184385896664051 0.029148138273349885 0 -0.023064613518570549 0.036237728987356485 0 -0.026113591148524993 0.037618707209468083 0 -0.024882053818070637 0.033759925253162314 0 -0.026113591148524993 0.037618707209468083 0 -0.028353137134386735 0.034248293179292177 0 -0.024882053818070637 0.033759925253162314 0 -0.032184385896664051 0.029148138273349885 0 -0.033767439185066563 0.026891798797596362 0 -0.031641128929150435 0.029783113330172015 0 -0.026967899118682449 0.030212923762363248 0 -0.030283208439454642 0.023572665041475063 0 -0.031641128929150435 0.029783113330172015 0 -0.036467930075698797 0.028002905321719351 0 -0.030283208439454642 0.023572665041475063 0 -0.031641128929150435 0.029783113330172015 0 -0.03474994141890772 0.033295310150568379 0 -0.036467930075698797 0.028002905321719351 0 -0.03474994141890772 0.033295310150568379 0 -0.039722572516478226 0.033647744458385441 0 -0.036467930075698797 0.028002905321719351 0 -0.039722572516478226 0.033647744458385441 0 -0.036467930075698797 0.028002905321719351 0 -0.042750979767959323 0.029493300839805822 0 -0.036467930075698797 0.028002905321719351 0 -0.039712500020320694 0.024826972047881393 0 -0.036252269917614995 0.021530940351260179 0 -0.036467930075698797 0.028002905321719351 0 -0.039712500020320694 0.024826972047881393 0 -0.042750979767959323 0.029493300839805822 0 -0.039712500020320694 0.024826972047881393 0 -0.046200606379841809 0.025775847583710276 0 -0.042750979767959323 0.029493300839805822 0 -0.046200606379841809 0.025775847583710276 0 -0.047918737159336276 0.03027989205219684 0 -0.051715052066243779 0.028632557742836181 0 -0.046200606379841809 0.025775847583710276 0 -0.047918737159336276 0.03027989205219684 0 -0.042750979767959323 0.029493300839805822 0 -0.047918737159336276 0.03027989205219684 0 -0.045960430936561013 0.034668701794257191 0 -0.050634910666332376 0.033879896725202086 0 -0.047918737159336276 0.03027989205219684 0 -0.042750979767959323 0.029493300839805822 0 -0.045960430936561013 0.034668701794257191 0 -0.039722572516478226 0.033647744458385441 0 -0.042750979767959323 0.029493300839805822 0 -0.045960430936561013 0.034668701794257191 0 -0.039722572516478226 0.033647744458385441 0 -0.042067928935288941 0.037901894480942028 0 -0.045960430936561013 0.034668701794257191 0 -0.042067928935288941 0.037901894480942028 0 -0.045960430936561013 0.034668701794257191 0 -0.047469566467156658 0.039967817177572425 0 -0.045960430936561013 0.034668701794257191 0 -0.047469566467156658 0.039967817177572425 0 -0.050126741406605703 0.037628373463702715 0 -0.045960430936561013 0.034668701794257191 0 -0.050126741406605703 0.037628373463702715 0 -0.050634910666332376 0.033879896725202086 0 -0.047469566467156658 0.039967817177572425 0 -0.04417609400284718 0.042172284613974445 0 -0.049016982251276042 0.043530812696045543 0 -0.042067928935288941 0.037901894480942028 0 -0.047469566467156658 0.039967817177572425 0 -0.04417609400284718 0.042172284613974445 0 -0.040049359181446247 0.041476837177883058 0 -0.042067928935288941 0.037901894480942028 0 -0.04417609400284718 0.042172284613974445 0 -0.056441354582551582 0.038654506882304977 0 -0.052793044901867862 0.041671019419749558 0 -0.057228174707549234 0.043739296200921832 0 -0.056441354582551582 0.038654506882304977 0 -0.060647591455093859 0.039717779324954565 0 -0.057228174707549234 0.043739296200921832 0 -0.056441354582551582 0.038654506882304977 0 -0.058396115398388806 0.035997068572125215 0 -0.060647591455093859 0.039717779324954565 0 -0.047469566467156658 0.039967817177572425 0 -0.052793044901867862 0.041671019419749558 0 -0.049016982251276042 0.043530812696045543 0 -0.047469566467156658 0.039967817177572425 0 -0.052793044901867862 0.041671019419749558 0 -0.050126741406605703 0.037628373463702715 0 -0.052793044901867862 0.041671019419749558 0 -0.053089766930769958 0.038118016932456991 0 -0.050126741406605703 0.037628373463702715 0 -0.056441354582551582 0.038654506882304977 0 -0.052793044901867862 0.041671019419749558 0 -0.053089766930769958 0.038118016932456991 0 -0.053089766930769958 0.038118016932456991 0 -0.050634910666332376 0.033879896725202086 0 -0.054929014208431659 0.033494248072640301 0 -0.053089766930769958 0.038118016932456991 0 -0.050126741406605703 0.037628373463702715 0 -0.050634910666332376 0.033879896725202086 0 -0.056441354582551582 0.038654506882304977 0 -0.058396115398388806 0.035997068572125215 0 -0.054929014208431659 0.033494248072640301 0 -0.056441354582551582 0.038654506882304977 0 -0.053089766930769958 0.038118016932456991 0 -0.054929014208431659 0.033494248072640301 0 -0.058396115398388806 0.035997068572125215 0 -0.057602840882799003 0.033429513296420882 0 -0.059165735494268928 0.034034923481152661 0 -0.058396115398388806 0.035997068572125215 0 -0.057602840882799003 0.033429513296420882 0 -0.054929014208431659 0.033494248072640301 0 -0.054929014208431659 0.033494248072640301 0 -0.051715052066243779 0.028632557742836181 0 -0.056502946691463024 0.028250464590680712 0 -0.057602840882799003 0.033429513296420882 0 -0.056502946691463024 0.028250464590680712 0 -0.060412660500473919 0.03341748104740612 0 -0.057602840882799003 0.033429513296420882 0 -0.054929014208431659 0.033494248072640301 0 -0.056502946691463024 0.028250464590680712 0 -0.027322522666760635 0.028241065088863617 0 -0.023944551211395101 0.032319071044497466 0 -0.047918737159336276 0.03027989205219684 0 -0.050634910666332376 0.033879896725202086 0 -0.051715052066243779 0.028632557742836181 0 -0.050634910666332376 0.033879896725202086 0 -0.054929014208431659 0.033494248072640301 0 -0.051715052066243779 0.028632557742836181 0 -0.051715052066243779 0.028632557742836181 0 -0.056502946691463024 0.028250464590680712 0 -0.052565358166272204 0.022927377470605369 0 -0.046200606379841809 0.025775847583710276 0 -0.051715052066243779 0.028632557742836181 0 -0.052565358166272204 0.022927377470605369 0 -0.027322522666760635 0.028241065088863617 0 -0.029921242517789642 0.024378234629913714 0 -0.044972681155468541 -0.0011163942426497182 0 -0.044138073198126682 -0.0011120619289258444 0 -0.044290093695170618 -0.00060882882829635203 0 -0.044138073198126682 -0.0011120619289258444 0 -0.043455070278721301 -0.00081414549278306637 0 -0.044290093695170618 -0.00060882882829635203 0 -0.044138073198126682 -0.0011120619289258444 0 -0.043887166979624831 -0.0015155069933707804 0 -0.043455070278721301 -0.00081414549278306637 0 -0.044138073198126682 -0.0011120619289258444 0 -0.043887166979624831 -0.0015155069933707804 0 -0.044529072549221636 -0.0017194747720296563 0 -0.044972681155468541 -0.0011163942426497182 0 -0.044138073198126682 -0.0011120619289258444 0 -0.044529072549221636 -0.0017194747720296563 0 -0.057602840882799003 0.033429513296420882 0 -0.060412660500473919 0.03341748104740612 0 -0.059165735494268928 0.034034923481152661 0 -0.04184087438359118 -0.00055027062508940629 0 -0.042448438607308736 -0.00038745339457946237 0 -0.042783828494494802 -0.0010307227588138269 0 -0.042448438607308736 -0.00038745339457946237 0 -0.043455070278721301 -0.00081414549278306637 0 -0.042783828494494802 -0.0010307227588138269 0 -0.043887166979624831 -0.0015155069933707804 0 -0.043455070278721301 -0.00081414549278306637 0 -0.043270543548396427 -0.001683751204032447 0 -0.043455070278721301 -0.00081414549278306637 0 -0.043270543548396427 -0.001683751204032447 0 -0.042783828494494802 -0.0010307227588138269 0 -0.042245987812471145 -0.001745889869444336 0 -0.043270543548396427 -0.001683751204032447 0 -0.042783828494494802 -0.0010307227588138269 0 -0.042245987812471145 -0.001745889869444336 0 -0.042195603930274397 -0.0028235467473473803 0 -0.042760733464351712 -0.0023011498557174545 0 -0.042245987812471145 -0.001745889869444336 0 -0.043270543548396427 -0.001683751204032447 0 -0.042760733464351712 -0.0023011498557174545 0 -0.043270543548396427 -0.001683751204032447 0 -0.042760733464351712 -0.0023011498557174545 0 -0.043274376547479378 -0.0029803751202882095 0 -0.043270543548396427 -0.001683751204032447 0 -0.043274376547479378 -0.0029803751202882095 0 -0.043966285923170582 -0.0022683638634693973 0 -0.019041601420153792 0.034032305867742564 0 -0.021583985554337812 0.032940051660607962 0 -0.021337815533779472 0.03316159372510602 0 -0.021682169635733588 0.033247983751354335 0 -0.021369572777959377 0.032869457219781177 0 -0.021712685375067008 0.035449007766617933 0 -0.01775749989148331 0.037354799772242778 0 -0.019041601420153792 0.034032305867742564 0 -0.016229656728888476 0.035603503006576519 0 -0.042195603930274397 -0.0028235467473473803 0 -0.043274376547479378 -0.0029803751202882095 0 -0.04236950354219652 -0.0038275861606703768 0 -0.042195603930274397 -0.0028235467473473803 0 -0.042760733464351712 -0.0023011498557174545 0 -0.043274376547479378 -0.0029803751202882095 0 -0.023944551211395101 0.032319071044497466 0 -0.021712685375067008 0.035449007766617933 0 -0.058396115398388806 0.035997068572125215 0 -0.060412660500473919 0.03341748104740612 0 -0.060647591455093859 0.039717779324954565 0 -0.023944551211395101 0.032319071044497466 0 -0.021583985554337812 0.032940051660607962 0 -0.060412660500473919 0.03341748104740612 0 -0.064928987047712841 0.039225854502442752 0 -0.060647591455093859 0.039717779324954565 0 -0.058396115398388806 0.035997068572125215 0 -0.060412660500473919 0.03341748104740612 0 -0.059165735494268928 0.034034923481152661 0 -0.022001163671824444 0.033625211546283056 0 -0.021666939162441744 0.033394355429691366 0 -0.021682169635733588 0.033247983751354335 0 -0.043887166979624831 -0.0015155069933707804 0 -0.043270543548396427 -0.001683751204032447 0 -0.043966285923170582 -0.0022683638634693973 0 -0.043887166979624831 -0.0015155069933707804 0 -0.044529072549221636 -0.0017194747720296563 0 -0.043966285923170582 -0.0022683638634693973 0 -0.021337815533779472 0.03316159372510602 0 -0.021666939162441744 0.033394355429691366 0 -0.021682169635733588 0.033247983751354335 0 -0.064928987047712841 0.039225854502442752 0 -0.060647591455093859 0.039717779324954565 0 -0.061679694557928072 0.046265553199773664 0 -0.060647591455093859 0.039717779324954565 0 -0.061679694557928072 0.046265553199773664 0 -0.057228174707549234 0.043739296200921832 0 -0.021432212582293938 0.040669928364575725 0 -0.01775749989148331 0.037354799772242778 0 -0.064928987047712841 0.039225854502442752 0 -0.061679694557928072 0.046265553199773664 0 -0.06945786882943257 0.044962487214811796 0 -0.01020742283467165 0.062515659548669444 0 -0.0083520730368518026 0.062743688199615982 0 -0.0085743095714612503 0.061621327014101134 0 -0.012699661821608338 0.05684045093233854 0 -0.01243545202630217 0.056940582449798209 0 -0.01020742283467165 0.062515659548669444 0 -0.010470323878924255 0.06138617591186632 0 -0.0085743095714612503 0.061621327014101134 0 -0.01020742283467165 0.062515659548669444 0 -0.010470323878924255 0.06138617591186632 0 -0.012381867455304042 0.06219565676253621 0 -0.021337815533779472 0.03316159372510602 0 -0.021011792584307635 0.032928289782764956 0 -0.021369572777959377 0.032869457219781177 0 -0.012694497421475073 0.038283688379164064 0 -0.013262059284662609 0.038191044132749562 0 -0.012890181269901362 0.037731464474782081 0 -0.016229656728888476 0.035603503006576519 0 -0.01775749989148331 0.037354799772242778 0 -0.01775749989148331 0.037354799772242778 0 -0.014931672308063202 0.04006283398870835 0 -0.0083520730368518026 0.062743688199615982 0 -0.0085743095714612503 0.061621327014101134 0 -0.0077269122609684255 0.06180014604005727 0 -0.012012545143210988 0.042337042960625015 0 -0.014931672308063202 0.04006283398870835 0 -0.0071969718290613655 0.061079037055633681 0 -0.0077269122609684255 0.06180014604005727 0 -0.0079488047931039855 0.060966405556818072 0 -0.0085743095714612503 0.061621327014101134 0 -0.0079488047931039855 0.060966405556818072 0 -0.00863906932007329 0.060766586096977299 0 -0.0085743095714612503 0.061621327014101134 0 -0.0077269122609684255 0.06180014604005727 0 -0.0079488047931039855 0.060966405556818072 0 -0.0079488047931039855 0.060966405556818072 0 -0.00863906932007329 0.060766586096977299 0 -0.0081578907878604705 0.060235810133339965 0 -0.0088793061923019799 0.060048066401036319 0 -0.00863906932007329 0.060766586096977299 0 -0.0081578907878604705 0.060235810133339965 0 -0.0071969718290613655 0.061079037055633681 0 -0.0079488047931039855 0.060966405556818072 0 -0.0074319985947122278 0.060354002969652827 0 -0.0079488047931039855 0.060966405556818072 0 -0.0081578907878604705 0.060235810133339965 0 -0.0074319985947122278 0.060354002969652827 0 -0.0096400225545123126 0.061060414113107801 0 -0.0092074124921814361 0.061125621637333427 0 -0.0094475308134260513 0.060583305834861795 0 -0.0096400225545123126 0.061060414113107801 0 -0.0099326182800437719 0.060706484708197693 0 -0.010402294147851905 0.061355915101342931 0 -0.0097558187031459472 0.061609935987073157 0 -0.0096400225545123126 0.061060414113107801 0 -0.010402294147851905 0.061355915101342931 0 -0.0097558187031459472 0.061609935987073157 0 -0.0096400225545123126 0.061060414113107801 0 -0.0092074124921814361 0.061125621637333427 0 -0.0085743095714612503 0.061621327014101134 0 -0.00863906932007329 0.060766586096977299 0 -0.0092074124921814361 0.061125621637333427 0 -0.0097558187031459472 0.061609935987073157 0 -0.0085743095714612503 0.061621327014101134 0 -0.0092074124921814361 0.061125621637333427 0 -0.00863906932007329 0.060766586096977299 0 -0.0092074124921814361 0.061125621637333427 0 -0.0094475308134260513 0.060583305834861795 0 -0.0088793061923019799 0.060048066401036319 0 -0.00863906932007329 0.060766586096977299 0 -0.0094475308134260513 0.060583305834861795 0 -0.0094655738419700472 0.060038815050037234 0 -0.0088793061923019799 0.060048066401036319 0 -0.0094475308134260513 0.060583305834861795 0 -0.0094655738419700472 0.060038815050037234 0 -0.0094475308134260513 0.060583305834861795 0 -0.0098550124364581611 0.060334882646083332 0 -0.0096400225545123126 0.061060414113107801 0 -0.0094475308134260513 0.060583305834861795 0 -0.0099326182800437719 0.060706484708197693 0 -0.0094475308134260513 0.060583305834861795 0 -0.0099326182800437719 0.060706484708197693 0 -0.0098550124364581611 0.060334882646083332 0 -0.010946697761752057 0.060444265313781602 0 -0.011008742107623324 0.060856526794074446 0 -0.010402294147851905 0.061355915101342931 0 -0.010090606471897542 0.060117878576878468 0 -0.0098550124364581611 0.060334882646083332 0 -0.010236735618001799 0.060283122456572531 0 -0.010556121485600988 0.060129530252446196 0 -0.010540513141900567 0.060227519657646347 0 -0.0099326182800437719 0.060706484708197693 0 -0.0098550124364581611 0.060334882646083332 0 -0.010236735618001799 0.060283122456572531 0 -0.0099326182800437719 0.060706484708197693 0 -0.010236735618001799 0.060283122456572531 0 -0.010402294147851905 0.061355915101342931 0 -0.010946697761752057 0.060444265313781602 0 -0.011008742107623324 0.060856526794074446 0 -0.011350892465301521 0.060526870915470134 0 -0.011244402477015905 0.060249781059826299 0 -0.010946697761752057 0.060444265313781602 0 -0.011350892465301521 0.060526870915470134 0 -0.0097558187031459472 0.061609935987073157 0 -0.010402294147851905 0.061355915101342931 0 -0.011230802752501897 0.061548131777037655 0 -0.011008742107623324 0.060856526794074446 0 -0.011004857698692992 0.061141135002686149 0 -0.010402294147851905 0.061355915101342931 0 -0.011004857698692992 0.061141135002686149 0 -0.010402294147851905 0.061355915101342931 0 -0.011230802752501897 0.061548131777037655 0 -0.011350473725826338 0.061143681132374131 0 -0.011741617034868404 0.061252969261350904 0 -0.011230802752501897 0.061548131777037655 0 -0.011004857698692992 0.061141135002686149 0 -0.011350473725826338 0.061143681132374131 0 -0.011230802752501897 0.061548131777037655 0 -0.011004857698692992 0.061141135002686149 0 -0.011350473725826338 0.061143681132374131 0 -0.011216290849874393 0.060893830721099419 0 -0.011350473725826338 0.061143681132374131 0 -0.011216290849874393 0.060893830721099419 0 -0.011521048946293116 0.060902013323291315 0 -0.011008742107623324 0.060856526794074446 0 -0.011004857698692992 0.061141135002686149 0 -0.011216290849874393 0.060893830721099419 0 -0.011350473725826338 0.061143681132374131 0 -0.011521048946293116 0.060902013323291315 0 -0.011741617034868404 0.061252969261350904 0 -0.011521048946293116 0.060902013323291315 0 -0.011350892465301521 0.060526870915470134 0 -0.011700552802491557 0.060660360194428165 0 -0.011008742107623324 0.060856526794074446 0 -0.011216290849874393 0.060893830721099419 0 -0.011350892465301521 0.060526870915470134 0 -0.011216290849874393 0.060893830721099419 0 -0.011521048946293116 0.060902013323291315 0 -0.011350892465301521 0.060526870915470134 0 -0.011759067216121764 0.060344953675316469 0 -0.011350892465301521 0.060526870915470134 0 -0.011700552802491557 0.060660360194428165 0 -0.011759067216121764 0.060344953675316469 0 -0.012058365264515283 0.060570010054759524 0 -0.011700552802491557 0.060660360194428165 0 -0.01214423066402316 0.060232718562889323 0 -0.011759067216121764 0.060344953675316469 0 -0.012058365264515283 0.060570010054759524 0 -0.012058365264515283 0.060570010054759524 0 -0.012200101007907315 0.060869803965601536 0 -0.01188642333634451 0.06088931491681325 0 -0.011521048946293116 0.060902013323291315 0 -0.01188642333634451 0.06088931491681325 0 -0.011700552802491557 0.060660360194428165 0 -0.012058365264515283 0.060570010054759524 0 -0.01188642333634451 0.06088931491681325 0 -0.011700552802491557 0.060660360194428165 0 -0.01214423066402316 0.060232718562889323 0 -0.012058365264515283 0.060570010054759524 0 -0.012596087669573307 0.060548475420987409 0 -0.012058365264515283 0.060570010054759524 0 -0.012200101007907315 0.060869803965601536 0 -0.012596087669573307 0.060548475420987409 0 -0.012200101007907315 0.060869803965601536 0 -0.012596087669573307 0.060548475420987409 0 -0.012419946519419597 0.061071395288167393 0 -0.015390957816108521 0.055350524599755827 0 -0.014305987717961913 0.056050740679010544 0 -0.013440315897613939 0.061345179325171854 0 -0.012814774384448903 0.061057831522529631 0 -0.012265219228600596 0.06142512903914793 0 -0.012596087669573307 0.060548475420987409 0 -0.012814774384448903 0.061057831522529631 0 -0.012419946519419597 0.061071395288167393 0 -0.012419946519419597 0.061071395288167393 0 -0.012265219228600596 0.06142512903914793 0 -0.012092353861852484 0.061114394239895987 0 -0.012814774384448903 0.061057831522529631 0 -0.012419946519419597 0.061071395288167393 0 -0.012265219228600596 0.06142512903914793 0 -0.012265219228600596 0.06142512903914793 0 -0.011741617034868404 0.061252969261350904 0 -0.011230802752501897 0.061548131777037655 0 -0.014305987717961913 0.056050740679010544 0 -0.013372938334596456 0.056544099829029422 0 -0.011521048946293116 0.060902013323291315 0 -0.01188642333634451 0.06088931491681325 0 -0.011741617034868404 0.061252969261350904 0 -0.01188642333634451 0.06088931491681325 0 -0.012092353861852484 0.061114394239895987 0 -0.011741617034868404 0.061252969261350904 0 -0.012200101007907315 0.060869803965601536 0 -0.01188642333634451 0.06088931491681325 0 -0.012092353861852484 0.061114394239895987 0 -0.012200101007907315 0.060869803965601536 0 -0.012419946519419597 0.061071395288167393 0 -0.012092353861852484 0.061114394239895987 0 -0.012265219228600596 0.06142512903914793 0 -0.012092353861852484 0.061114394239895987 0 -0.011741617034868404 0.061252969261350904 0 -0.045753548343638567 0.048881707064705106 0 -0.048919601524979761 0.046347367043681295 0 -0.053779408962454825 0.047625752600783389 0 -0.014854193193268616 0.061055302927949022 0 -0.014682261697517967 0.061821117623452923 0 -0.012608408890558269 0.061202302917864507 0 -0.037962335258505155 0.049784343878911931 0 -0.045753548343638567 0.048881707064705106 0 -0.041046972820314734 0.047520364436765494 0 -0.045753548343638567 0.048881707064705106 0 -0.041046972820314734 0.047520364436765494 0 -0.043327673670451636 0.04666410611619131 0 -0.022100041334396182 0.04881145768878576 0 -0.023055849439216396 0.046363901244874633 0 -0.016983768805883863 0.061431211323309094 0 -0.014854193193268616 0.061055302927949022 0 -0.014682261697517967 0.061821117623452923 0 -0.045753548343638567 0.048881707064705106 0 -0.043327673670451636 0.04666410611619131 0 -0.045566821086232286 0.045139113205536846 0 -0.04417609400284718 0.042172284613974445 0 -0.04098400478049815 0.045137227085034586 0 -0.045566821086232286 0.045139113205536846 0 -0.04098400478049815 0.045137227085034586 0 -0.043327673670451636 0.04666410611619131 0 -0.045566821086232286 0.045139113205536846 0 -0.041046972820314734 0.047520364436765494 0 -0.04098400478049815 0.045137227085034586 0 -0.043327673670451636 0.04666410611619131 0 -0.040049359181446247 0.041476837177883058 0 -0.04417609400284718 0.042172284613974445 0 -0.04098400478049815 0.045137227085034586 0 -0.04417609400284718 0.042172284613974445 0 -0.045566821086232286 0.045139113205536846 0 -0.049016982251276042 0.043530812696045543 0 -0.048919601524979761 0.046347367043681295 0 -0.045566821086232286 0.045139113205536846 0 -0.049016982251276042 0.043530812696045543 0 -0.045753548343638567 0.048881707064705106 0 -0.048919601524979761 0.046347367043681295 0 -0.045566821086232286 0.045139113205536846 0 -0.048919601524979761 0.046347367043681295 0 -0.051756926718402554 0.044755420481451431 0 -0.053779408962454825 0.047625752600783389 0 -0.052793044901867862 0.041671019419749558 0 -0.049016982251276042 0.043530812696045543 0 -0.051756926718402554 0.044755420481451431 0 -0.048919601524979761 0.046347367043681295 0 -0.049016982251276042 0.043530812696045543 0 -0.051756926718402554 0.044755420481451431 0 -0.051756926718402554 0.044755420481451431 0 -0.053890133396373351 0.04444452116184347 0 -0.053779408962454825 0.047625752600783389 0 -0.052793044901867862 0.041671019419749558 0 -0.051756926718402554 0.044755420481451431 0 -0.053890133396373351 0.04444452116184347 0 -0.052793044901867862 0.041671019419749558 0 -0.053890133396373351 0.04444452116184347 0 -0.057228174707549234 0.043739296200921832 0 -0.061679694557928072 0.046265553199773664 0 -0.057228174707549234 0.043739296200921832 0 -0.053779408962454825 0.047625752600783389 0 -0.053890133396373351 0.04444452116184347 0 -0.057228174707549234 0.043739296200921832 0 -0.053779408962454825 0.047625752600783389 0 -0.021432212582293938 0.040669928364575725 0 -0.02297071262139223 0.043665720849784449 0 -0.012699661821608338 0.05684045093233854 0 -0.013372938334596456 0.056544099829029422 0 -0.010470323878924255 0.06138617591186632 0 -0.012608408890558269 0.061202302917864507 0 -0.012381867455304042 0.06219565676253621 0 -0.014682261697517967 0.061821117623452923 0 -0.012608408890558269 0.061202302917864507 0 -0.012381867455304042 0.06219565676253621 0 -0.023055849439216396 0.046363901244874633 0 -0.02297071262139223 0.043665720849784449 0 -0.056461177997111693 0.042388031990408255 0 -0.05785312835317373 0.043240839686718477 0 -0.056477395302388517 0.04475560487796832 0 -0.055000479649297017 0.043797944971215676 0 -0.056461177997111693 0.042388031990408255 0 -0.056477395302388517 0.04475560487796832 0 -0.055000479649297017 0.043797944971215676 0 -0.056461177997111693 0.042388031990408255 0 -0.05499966609313009 0.040818821915677983 0 -0.052190919610232159 0.03782751944553376 0 -0.051970546172538219 0.037395359638786277 0 -0.056461177997111693 0.042388031990408255 0 -0.05785312835317373 0.043240839686718477 0 -0.057414440725713146 0.040406985413247609 0 -0.058452035596578175 0.043310520517296822 0 -0.05785312835317373 0.043240839686718477 0 -0.058240233815286049 0.042753575769491931 0 -0.05785312835317373 0.043240839686718477 0 -0.058240233815286049 0.042753575769491931 0 -0.057652964696051565 0.042604156092865331 0 -0.058452035596578175 0.043310520517296822 0 -0.058827298074768393 0.042895499514557511 0 -0.058240233815286049 0.042753575769491931 0 -0.058452035596578175 0.043310520517296822 0 -0.058347650720916966 0.043901388893581292 0 -0.058968930754097822 0.043685205766067867 0 -0.058452035596578175 0.043310520517296822 0 -0.058347650720916966 0.043901388893581292 0 -0.05785312835317373 0.043240839686718477 0 -0.058347650720916966 0.043901388893581292 0 -0.05785312835317373 0.043240839686718477 0 -0.057697341570751855 0.044421967956200174 0 -0.058347650720916966 0.043901388893581292 0 -0.058611690055490447 0.04480561549624644 0 -0.058968930754097822 0.043685205766067867 0 -0.058347650720916966 0.043901388893581292 0 -0.057697341570751855 0.044421967956200174 0 -0.058611690055490447 0.04480561549624644 0 -0.049808137285169272 0.056501063529043549 0 -0.052888565232779419 0.05385226456531049 0 -0.050493109354905481 0.054606576520287636 0 -0.051789390166905903 0.047056873016977183 0 -0.05411705522040406 0.046742083940086991 0 -0.049808137285169272 0.056501063529043549 0 -0.052888565232779419 0.05385226456531049 0 -0.053312326008324244 0.054221317881056545 0 -0.057697341570751855 0.044421967956200174 0 -0.058611690055490447 0.04480561549624644 0 -0.057427396714812118 0.045282430492906103 0 -0.054118105593699208 0.046748200488821723 0 -0.05411705522040406 0.046742083940086991 0 -0.053409059637028265 0.053636875704222126 0 -0.054998892383580016 0.047799835894298634 0 -0.054218524093459466 0.051483682687063305 0 -0.05411705522040406 0.046742083940086991 0 -0.054593257609231671 0.045289923160165953 0 -0.058252208265483309 0.047412978880598845 0 -0.056627236263526295 0.045609005644051043 0 -0.056220225435771938 0.046651036991526076 0 -0.052888565232779419 0.05385226456531049 0 -0.053409059637028265 0.053636875704222126 0 -0.054218524093459466 0.051483682687063305 0 -0.05785312835317373 0.043240839686718477 0 -0.057697341570751855 0.044421967956200174 0 -0.056477395302388517 0.04475560487796832 0 -0.057697341570751855 0.044421967956200174 0 -0.057427396714812118 0.045282430492906103 0 -0.056477395302388517 0.04475560487796832 0 -0.054993893115163242 0.043809782117835296 0 -0.054593257609231671 0.045289923160165953 0 -0.055000000088190601 0.043799254153793099 0 -0.056627236263526295 0.045609005644051043 0 -0.054999996542029223 0.045793522275326001 0 -0.056627236263526295 0.045609005644051043 0 -0.054999996542029223 0.045793522275326001 0 -0.056220225435771938 0.046651036991526076 0 -0.054999996542029223 0.045793522275326001 0 -0.054999999429843412 0.047787777470781466 0 -0.056220225435771938 0.046651036991526076 0 -0.05411705522040406 0.046742083940086991 0 -0.054995374463439148 0.047780882246381461 0 -0.058252208265483309 0.047412978880598845 0 -0.054999999429843412 0.047787777470781466 0 -0.056220225435771938 0.046651036991526076 0 -0.054998892383580016 0.047799835894298634 0 -0.054218524093459466 0.051483682687063305 0 -0.054999267894472549 0.050540525373884718 0 -0.054999854153497674 0.054991786033780285 0 -0.049508316569577347 0.054901039721860632 0 -0.044046183832727452 0.054997697639693602 0 -0.052888565232779419 0.05385226456531049 0 -0.054218524093459466 0.051483682687063305 0 -0.052245663797488608 0.053063766678340903 0 -0.054218524093459466 0.051483682687063305 0 -0.053581085243976194 0.051267543681474834 0 -0.052245663797488608 0.053063766678340903 0 -0.054218524093459466 0.051483682687063305 0 -0.053581085243976194 0.051267543681474834 0 -0.054999267894472549 0.050540525373884718 0 -0.054699916037628908 0.050661156695258766 0 -0.054998116053729937 0.050547352068789124 0 -0.053003429119900636 0.053721303714210973 0 -0.054994554356462465 0.050561160702097138 0 -0.054999854153497674 0.054991786033780285 0 -0.053003429119900636 0.053721303714210973 0 -0.054999854153497674 0.054991786033780285 0 -0.049508316569577347 0.054901039721860632 0 -0.053003429119900636 0.053721303714210973 0 -0.049508316569577347 0.054901039721860632 0 -0.0502217154891327 0.054433034062118857 0 -0.0502217154891327 0.054433034062118857 0 -0.050493109354905481 0.054606576520287636 0 -0.048998925366935855 0.055076682499379061 0 -0.049508316569577347 0.054901039721860632 0 -0.0502217154891327 0.054433034062118857 0 -0.048998925366935855 0.055076682499379061 0 -0.053581085243976194 0.051267543681474834 0 -0.0502217154891327 0.054433034062118857 0 -0.052245663797488608 0.053063766678340903 0 -0.054699916037628908 0.050661156695258766 0 -0.054629056085756238 0.05071477527770335 0 -0.052888565232779419 0.05385226456531049 0 -0.052245663797488608 0.053063766678340903 0 -0.050493109354905481 0.054606576520287636 0 -0.049808137285169272 0.056501063529043549 0 -0.050493109354905481 0.054606576520287636 0 -0.048419223314549911 0.055887733569288278 0 -0.0502217154891327 0.054433034062118857 0 -0.052245663797488608 0.053063766678340903 0 -0.050493109354905481 0.054606576520287636 0 -0.050493109354905481 0.054606576520287636 0 -0.048419223314549911 0.055887733569288278 0 -0.048998925366935855 0.055076682499379061 0 -0.048419223314549911 0.055887733569288278 0 -0.0478895160616368 0.055635746693786153 0 -0.048998925366935855 0.055076682499379061 0 -0.048419223314549911 0.055887733569288278 0 -0.0478895160616368 0.055635746693786153 0 -0.046856693211915192 0.056123184568649134 0 -0.048419223314549911 0.055887733569288278 0 -0.046856693211915192 0.056123184568649134 0 -0.047488655912144247 0.057578119008378857 0 -0.047576349308964233 0.055368201113067728 0 -0.047039454080611241 0.055519892605580108 0 -0.046266001363052492 0.055473857619781644 0 -0.0478895160616368 0.055635746693786153 0 -0.047576349308964233 0.055368201113067728 0 -0.046856693211915192 0.056123184568649134 0 -0.049508316569577347 0.054901039721860632 0 -0.047576349308964233 0.055368201113067728 0 -0.048998925366935855 0.055076682499379061 0 -0.0478895160616368 0.055635746693786153 0 -0.047576349308964233 0.055368201113067728 0 -0.048998925366935855 0.055076682499379061 0 -0.049508316569577347 0.054901039721860632 0 -0.047576349308964233 0.055368201113067728 0 -0.047039454080611241 0.055519892605580108 0 -0.049508316569577347 0.054901039721860632 0 -0.047039454080611241 0.055519892605580108 0 -0.044046183832727452 0.054997697639693602 0 -0.047039454080611241 0.055519892605580108 0 -0.044046183832727452 0.054997697639693602 0 -0.043513692717498283 0.056952164123672211 0 -0.040012506366502741 0.056723477497604827 0 -0.039784594626033939 0.056728507823779445 0 -0.047039454080611241 0.055519892605580108 0 -0.04629645045779919 0.05487128780433926 0 -0.046266001363052492 0.055473857619781644 0 -0.044046183832727452 0.054997697639693602 0 -0.043513692717498283 0.056952164123672211 0 -0.040780271631600314 0.057226862355211405 0 -0.039784594626033939 0.056728507823779445 0 -0.039166530899958155 0.056741411857983259 0 -0.04629645045779919 0.05487128780433926 0 -0.046266001363052492 0.055473857619781644 0 -0.044487965686525639 0.054176258622672328 0 -0.045859074230190096 0.054979769540223905 0 -0.044619750272901042 0.05583617659004371 0 -0.043221226695286878 0.054810279845366169 0 -0.045859074230190096 0.054979769540223905 0 -0.044619750272901042 0.05583617659004371 0 -0.045708633844618984 0.056134482452153238 0 -0.043674748037161606 0.055085942188721281 0 -0.043102680021798026 0.055066375525247312 0 -0.043907071186250021 0.055094331568720907 0 -0.043674748037161606 0.055085942188721281 0 -0.047576349308964233 0.055368201113067728 0 -0.045859074230190096 0.054979769540223905 0 -0.046856693211915192 0.056123184568649134 0 -0.045859074230190096 0.054979769540223905 0 -0.046856693211915192 0.056123184568649134 0 -0.045708633844618984 0.056134482452153238 0 -0.046856693211915192 0.056123184568649134 0 -0.045708633844618984 0.056134482452153238 0 -0.046054977002640045 0.057045946798016105 0 -0.044619750272901042 0.05583617659004371 0 -0.045708633844618984 0.056134482452153238 0 -0.044776353619095814 0.056893207602619615 0 -0.045708633844618984 0.056134482452153238 0 -0.044776353619095814 0.056893207602619615 0 -0.046054977002640045 0.057045946798016105 0 -0.044776353619095814 0.056893207602619615 0 -0.045281493870433259 0.058484069046009605 0 -0.046054977002640045 0.057045946798016105 0 -0.044776353619095814 0.056893207602619615 0 -0.045281493870433259 0.058484069046009605 0 -0.043611952299974929 0.057697220663305765 0 -0.059873221818396417 0.044307773382525714 0 -0.059904253020006487 0.043763106355736291 0 -0.060342322661833321 0.044223734970104268 0 -0.059873221818396417 0.044307773382525714 0 -0.05935458554093808 0.044505817241406814 0 -0.059563384307397681 0.043947210263651573 0 -0.046856693211915192 0.056123184568649134 0 -0.046054977002640045 0.057045946798016105 0 -0.047488655912144247 0.057578119008378857 0 -0.046397061454942712 0.047287000447638429 0 -0.049336611497725086 0.04723120729125925 0 -0.045281493870433259 0.058484069046009605 0 -0.046054977002640045 0.057045946798016105 0 -0.047488655912144247 0.057578119008378857 0 -0.058611690055490447 0.04480561549624644 0 -0.05935458554093808 0.044505817241406814 0 -0.058968930754097822 0.043685205766067867 0 -0.049808137285169272 0.056501063529043549 0 -0.048419223314549911 0.055887733569288278 0 -0.047488655912144247 0.057578119008378857 0 -0.051789390166905903 0.047056873016977183 0 -0.049336611497725086 0.04723120729125925 0 -0.05935458554093808 0.044505817241406814 0 -0.058968930754097822 0.043685205766067867 0 -0.059563384307397681 0.043947210263651573 0 -0.058968930754097822 0.043685205766067867 0 -0.059386014280416816 0.043506143599370696 0 -0.059563384307397681 0.043947210263651573 0 -0.058968930754097822 0.043685205766067867 0 -0.059538300104541794 0.04314217254098577 0 -0.058827298074768393 0.042895499514557511 0 -0.058452035596578175 0.043310520517296822 0 -0.058968930754097822 0.043685205766067867 0 -0.058827298074768393 0.042895499514557511 0 -0.046754569332721367 0.040872109137366087 0 -0.046283630218414237 0.041049905755866034 0 -0.059386014280416816 0.043506143599370696 0 -0.059904253020006487 0.043763106355736291 0 -0.059733858078270308 0.043276819350551742 0 -0.059904253020006487 0.043763106355736291 0 -0.060048831277419008 0.043370349399269148 0 -0.059733858078270308 0.043276819350551742 0 -0.059873221818396417 0.044307773382525714 0 -0.059904253020006487 0.043763106355736291 0 -0.059563384307397681 0.043947210263651573 0 -0.059386014280416816 0.043506143599370696 0 -0.059904253020006487 0.043763106355736291 0 -0.059563384307397681 0.043947210263651573 0 -0.060276519756777031 0.043729583223289889 0 -0.060577820505400115 0.043794399528194326 0 -0.060342322661833321 0.044223734970104268 0 -0.059904253020006487 0.043763106355736291 0 -0.060276519756777031 0.043729583223289889 0 -0.060342322661833321 0.044223734970104268 0 -0.059904253020006487 0.043763106355736291 0 -0.060276519756777031 0.043729583223289889 0 -0.060048831277419008 0.043370349399269148 0 -0.060276519756777031 0.043729583223289889 0 -0.060334098126471926 0.043406968314563893 0 -0.060048831277419008 0.043370349399269148 0 -0.038710136699960679 0.045927475899773473 0 -0.040146647333365273 0.044417340125041088 0 -0.060276519756777031 0.043729583223289889 0 -0.060577820505400115 0.043794399528194326 0 -0.060334098126471926 0.043406968314563893 0 -0.0019317443091010618 0.05819066611420215 0 -0.0011166251798921097 0.062056223521703383 0 0.0022260307028666082 0.05746178490698025 0 -0.0019317443091010618 0.05819066611420215 0 -0.0058536781476482341 0.059536901199131673 0 -0.0011166251798921097 0.062056223521703383 0 -0.0058536781476482341 0.059536901199131673 0 -0.0063305443180871031 0.063209408180500776 0 -0.0011166251798921097 0.062056223521703383 0 -0.0063305443180871031 0.063209408180500776 0 -0.0011166251798921097 0.062056223521703383 0 -0.0040669183564286792 0.066059149647799686 0 -0.038710136699960679 0.045927475899773473 0 -0.0374713484003154 0.047128824312644375 0 -0.0374713484003154 0.047128824312644375 0 -0.042601632009718345 0.047244272083100038 0 -0.060577820505400115 0.043794399528194326 0 -0.060807033984090292 0.044162262409870895 0 -0.060342322661833321 0.044223734970104268 0 -0.039722692531390061 0.059932648012887287 0 -0.040585660271700873 0.058500904257503997 0 -0.042609529622757582 0.059321957674903163 0 -0.040663686168076495 0.062141625048619309 0 -0.039243627090814061 0.060070990325500014 0 -0.036386514330099096 0.062674840300567108 0 -0.0374713484003154 0.047128824312644375 0 -0.03195774158285402 0.050198538151044532 0 -0.0063305443180871031 0.063209408180500776 0 -0.0040669183564286792 0.066059149647799686 0 -0.0091581207113935383 0.065270074735828076 0 -0.0374713484003154 0.047128824312644375 0 -0.037779962583744164 0.047763504215258983 0 -0.037779962583744164 0.047763504215258983 0 -0.037866445709336359 0.047951503651110325 0 -0.039722692531390061 0.059932648012887287 0 -0.0387844113269891 0.058769896461129463 0 -0.040585660271700873 0.058500904257503997 0 -0.0387844113269891 0.058769896461129463 0 -0.040585660271700873 0.058500904257503997 0 -0.03990834641174671 0.057050290464426834 0 -0.040585660271700873 0.058500904257503997 0 -0.041887232276015013 0.057423376171483277 0 -0.03990834641174671 0.057050290464426834 0 -0.040585660271700873 0.058500904257503997 0 -0.042609529622757582 0.059321957674903163 0 -0.041887232276015013 0.057423376171483277 0 -0.042609529622757582 0.059321957674903163 0 -0.043611952299974929 0.057697220663305765 0 -0.041887232276015013 0.057423376171483277 0 -0.046397061454942712 0.047287000447638429 0 -0.042601632009718345 0.047244272083100038 0 -0.045281493870433259 0.058484069046009605 0 -0.042609529622757582 0.059321957674903163 0 -0.043611952299974929 0.057697220663305765 0 -0.044776353619095814 0.056893207602619615 0 -0.043611952299974929 0.057697220663305765 0 -0.043369713054552644 0.056331284609597125 0 -0.044046183832727452 0.054997697639693602 0 -0.040780271631600314 0.057226862355211405 0 -0.035846064737228331 0.055000343827967577 0 -0.043611952299974929 0.057697220663305765 0 -0.043369713054552644 0.056331284609597125 0 -0.041887232276015013 0.057423376171483277 0 -0.044619750272901042 0.05583617659004371 0 -0.044776353619095814 0.056893207602619615 0 -0.043369713054552644 0.056331284609597125 0 -0.043369713054552644 0.056331284609597125 0 -0.041768186858049318 0.05607839908936281 0 -0.041887232276015013 0.057423376171483277 0 -0.043102680021798026 0.055066375525247312 0 -0.042455779127146209 0.055045373683224014 0 -0.041768186858049318 0.05607839908936281 0 -0.043221226695286878 0.054810279845366169 0 -0.040309615939944976 0.054793468433378692 0 -0.043369713054552644 0.056331284609597125 0 -0.041768186858049318 0.05607839908936281 0 -0.043221226695286878 0.054810279845366169 0 -0.044619750272901042 0.05583617659004371 0 -0.043369713054552644 0.056331284609597125 0 -0.043221226695286878 0.054810279845366169 0 -0.046266001363052492 0.055473857619781644 0 -0.04387139604762013 0.055318873672972398 0 -0.044487965686525639 0.054176258622672328 0 -0.040780271631600314 0.057226862355211405 0 -0.038047473052007383 0.057179723210275334 0 -0.035846064737228331 0.055000343827967577 0 -0.04387139604762013 0.055318873672972398 0 -0.044487965686525639 0.054176258622672328 0 -0.041905651596702377 0.053494230936913155 0 -0.04387139604762013 0.055318873672972398 0 -0.041905651596702377 0.053494230936913155 0 -0.040562936088824053 0.055060280568572886 0 -0.039166530899958155 0.056741411857983259 0 -0.038258117005666788 0.056770451707057905 0 -0.035846064737228331 0.055000343827967577 0 -0.035337251480516099 0.057061463263372712 0 -0.032827565226716315 0.056646327204814807 0 -0.038047473052007383 0.057179723210275334 0 -0.035846064737228331 0.055000343827967577 0 -0.035337251480516099 0.057061463263372712 0 -0.038258117005666788 0.056770451707057905 0 -0.037228688054812865 0.05683563711456778 0 -0.041905651596702377 0.053494230936913155 0 -0.038908604218966275 0.052892560642200936 0 -0.040562936088824053 0.055060280568572886 0 -0.038908604218966275 0.052892560642200936 0 -0.040562936088824053 0.055060280568572886 0 -0.036835284960851332 0.054719889937096075 0 -0.042455779127146209 0.055045373683224014 0 -0.042128399076272791 0.055034906367354107 0 -0.038200290788346657 0.056219321991582152 0 -0.040309615939944976 0.054793468433378692 0 -0.03990834641174671 0.057050290464426834 0 -0.038200290788346657 0.056219321991582152 0 -0.040309615939944976 0.054793468433378692 0 -0.036835284960851332 0.054719889937096075 0 -0.041768186858049318 0.05607839908936281 0 -0.040309615939944976 0.054793468433378692 0 -0.03990834641174671 0.057050290464426834 0 -0.041768186858049318 0.05607839908936281 0 -0.041887232276015013 0.057423376171483277 0 -0.03990834641174671 0.057050290464426834 0 -0.038200290788346657 0.056219321991582152 0 -0.03990834641174671 0.057050290464426834 0 -0.037751229419246961 0.057852888951113748 0 -0.0387844113269891 0.058769896461129463 0 -0.03990834641174671 0.057050290464426834 0 -0.037751229419246961 0.057852888951113748 0 -0.038200290788346657 0.056219321991582152 0 -0.037751229419246961 0.057852888951113748 0 -0.03573487408389369 0.056496389980811766 0 -0.037751229419246961 0.057852888951113748 0 -0.03573487408389369 0.056496389980811766 0 -0.035804934118664485 0.059627909288462295 0 -0.03573487408389369 0.056496389980811766 0 -0.03300302992325739 0.058276438467135143 0 -0.035804934118664485 0.059627909288462295 0 -0.03573487408389369 0.056496389980811766 0 -0.03520049585669479 0.054254998238176561 0 -0.032905361722858135 0.05453570684710498 0 -0.03573487408389369 0.056496389980811766 0 -0.032905361722858135 0.05453570684710498 0 -0.03300302992325739 0.058276438467135143 0 -0.038200290788346657 0.056219321991582152 0 -0.03573487408389369 0.056496389980811766 0 -0.036835284960851332 0.054719889937096075 0 -0.03573487408389369 0.056496389980811766 0 -0.036835284960851332 0.054719889937096075 0 -0.03520049585669479 0.054254998238176561 0 -0.038908604218966275 0.052892560642200936 0 -0.036835284960851332 0.054719889937096075 0 -0.03642817636349515 0.053577251320739108 0 -0.037228688054812865 0.05683563711456778 0 -0.03626887990543691 0.056960231583552449 0 -0.035337251480516099 0.057061463263372712 0 -0.032628397181852141 0.05681957238513205 0 -0.032827565226716315 0.056646327204814807 0 -0.038908604218966275 0.052892560642200936 0 -0.035709867839122923 0.05237992888663788 0 -0.03642817636349515 0.053577251320739108 0 -0.035846064737228331 0.055000343827967577 0 -0.032827565226716315 0.056646327204814807 0 -0.029763931858265185 0.054999738096666341 0 -0.03626887990543691 0.056960231583552449 0 -0.036267650544014929 0.05696085017044461 0 -0.035709867839122923 0.05237992888663788 0 -0.03642817636349515 0.053577251320739108 0 -0.03520049585669479 0.054254998238176561 0 -0.036835284960851332 0.054719889937096075 0 -0.03642817636349515 0.053577251320739108 0 -0.03520049585669479 0.054254998238176561 0 -0.03626887990543691 0.056960231583552449 0 -0.035300780674845544 0.057462817122730631 0 -0.031994125387933996 0.05674417341168167 0 -0.030097848744068189 0.056746947001234185 0 -0.030351348414654696 0.0583202706825484 0 -0.035709867839122923 0.05237992888663788 0 -0.03520049585669479 0.054254998238176561 0 -0.032905361722858135 0.05453570684710498 0 -0.032608924883587215 0.056817282180292715 0 -0.031994125387933996 0.05674417341168167 0 -0.030351348414654696 0.0583202706825484 0 -0.032626719095866751 0.056814178003707333 0 -0.031994125387933996 0.05674417341168167 0 -0.032827565226716315 0.056646327204814807 0 -0.03626887990543691 0.056960231583552449 0 -0.036256201443530103 0.05695933945068625 0 -0.031994125387933996 0.05674417341168167 0 -0.032827565226716315 0.056646327204814807 0 -0.029763931858265185 0.054999738096666341 0 -0.027175153784890348 0.056545226798293415 0 -0.029763931858265185 0.054999738096666341 0 -0.028504508939119703 0.057258503953183569 0 -0.031994125387933996 0.05674417341168167 0 -0.029763931858265185 0.054999738096666341 0 -0.030097848744068189 0.056746947001234185 0 -0.029763931858265185 0.054999738096666341 0 -0.030097848744068189 0.056746947001234185 0 -0.028504508939119703 0.057258503953183569 0 -0.030097848744068189 0.056746947001234185 0 -0.028504508939119703 0.057258503953183569 0 -0.030351348414654696 0.0583202706825484 0 -0.027175153784890348 0.056545226798293415 0 -0.027265385697428365 0.058178198288383484 0 -0.028504508939119703 0.057258503953183569 0 -0.027265385697428365 0.058178198288383484 0 -0.028504508939119703 0.057258503953183569 0 -0.028254040157034706 0.059491849620323681 0 -0.028504508939119703 0.057258503953183569 0 -0.030351348414654696 0.0583202706825484 0 -0.028254040157034706 0.059491849620323681 0 -0.035300780674845544 0.057462817122730631 0 -0.034576959662212844 0.057886862901919606 0 -0.032905361722858135 0.05453570684710498 0 -0.03300302992325739 0.058276438467135143 0 -0.02987556169214544 0.057076909784763527 0 -0.03300302992325739 0.058276438467135143 0 -0.02987556169214544 0.057076909784763527 0 -0.030487882022056084 0.060590572542078183 0 -0.02692712751144823 0.060029735131649976 0 -0.02987556169214544 0.057076909784763527 0 -0.030487882022056084 0.060590572542078183 0 -0.02692712751144823 0.060029735131649976 0 -0.028219968728589524 0.063703523327582029 0 -0.030487882022056084 0.060590572542078183 0 -0.024991470501464746 0.054551732489556332 0 -0.028017622927236172 0.052622892814501512 0 -0.028219968728589524 0.063703523327582029 0 -0.030487882022056084 0.060590572542078183 0 -0.032236430865808567 0.063234757423246704 0 -0.030487882022056084 0.060590572542078183 0 -0.032236430865808567 0.063234757423246704 0 -0.033569364568923392 0.060865840285707164 0 -0.03300302992325739 0.058276438467135143 0 -0.030487882022056084 0.060590572542078183 0 -0.033569364568923392 0.060865840285707164 0 -0.03300302992325739 0.058276438467135143 0 -0.033569364568923392 0.060865840285707164 0 -0.035804934118664485 0.059627909288462295 0 -0.033569364568923392 0.060865840285707164 0 -0.035804934118664485 0.059627909288462295 0 -0.036386514330099096 0.062674840300567108 0 -0.039243627090814061 0.060070990325500014 0 -0.037751229419246961 0.057852888951113748 0 -0.035804934118664485 0.059627909288462295 0 -0.039243627090814061 0.060070990325500014 0 -0.035804934118664485 0.059627909288462295 0 -0.036386514330099096 0.062674840300567108 0 -0.032236430865808567 0.063234757423246704 0 -0.033569364568923392 0.060865840285707164 0 -0.036386514330099096 0.062674840300567108 0 -0.028017622927236172 0.052622892814501512 0 -0.03195774158285402 0.050198538151044532 0 -0.013714990129366092 0.06453099838320174 0 -0.0091581207113935383 0.065270074735828076 0 -0.010213729033983272 0.061252481564505919 0 -0.013714990129366092 0.06453099838320174 0 -0.010213729033983272 0.061252481564505919 0 -0.01368619740847715 0.061014948143111133 0 -0.0063305443180871031 0.063209408180500776 0 -0.0091581207113935383 0.065270074735828076 0 -0.010213729033983272 0.061252481564505919 0 -0.0058536781476482341 0.059536901199131673 0 -0.010213729033983272 0.061252481564505919 0 -0.0088042757299314524 0.057688254515359152 0 -0.0058536781476482341 0.059536901199131673 0 -0.0063305443180871031 0.063209408180500776 0 -0.010213729033983272 0.061252481564505919 0 -0.010213729033983272 0.061252481564505919 0 -0.01368619740847715 0.061014948143111133 0 -0.012340671733919699 0.058287535287929598 0 -0.010213729033983272 0.061252481564505919 0 -0.012340671733919699 0.058287535287929598 0 -0.0088042757299314524 0.057688254515359152 0 -0.01368619740847715 0.061014948143111133 0 -0.014988726534022724 0.058627159469490202 0 -0.012340671733919699 0.058287535287929598 0 -0.01368619740847715 0.061014948143111133 0 -0.016572393626334399 0.061243055995044655 0 -0.014988726534022724 0.058627159469490202 0 -0.024755712453262708 0.054690723482021288 0 -0.024662514453340709 0.05471045602763102 0 -0.015850591135295359 0.058857489205503141 0 -0.015858938990249306 0.059295116092381688 0 -0.014988726534022724 0.058627159469490202 0 -0.01629545322443721 0.059130943684142068 0 -0.015850591135295359 0.058857489205503141 0 -0.015858938990249306 0.059295116092381688 0 -0.018024993225082581 0.063979202059382512 0 -0.013714990129366092 0.06453099838320174 0 -0.016572393626334399 0.061243055995044655 0 -0.024991470501464746 0.054551732489556332 0 -0.024755712453262708 0.054690723482021288 0 -0.013714990129366092 0.06453099838320174 0 -0.01368619740847715 0.061014948143111133 0 -0.016572393626334399 0.061243055995044655 0 -0.012552289226818992 0.051130206614176769 0 -0.0088003124907385499 0.051701686034399619 0 -0.012274906608424068 0.048737979069979016 0 -0.012767080829901188 0.053581953877686016 0 -0.011011545754532653 0.053657419414694485 0 -0.016067809872890058 0.058006299827514124 0 -0.016351436740371234 0.057857174666043079 0 -0.014694590805285318 0.056526248533374297 0 -0.016316803712491869 0.05083396259633733 0 -0.012552289226818992 0.051130206614176769 0 -0.014417138525713368 0.04918440518796198 0 -0.014638633225657619 0.053489700170473178 0 -0.012767080829901188 0.053581953877686016 0 -0.012552289226818992 0.051130206614176769 0 -0.012274906608424068 0.048737979069979016 0 -0.014417138525713368 0.04918440518796198 0 -0.014694590805285318 0.056526248533374297 0 -0.015889170953252259 0.058386524972645543 0 -0.014988726534022724 0.058627159469490202 0 -0.016067809872890058 0.058006299827514124 0 -0.014694590805285318 0.056526248533374297 0 -0.015889170953252259 0.058386524972645543 0 -0.016306641632632197 0.058898328994795281 0 -0.015850591135295359 0.058857489205503141 0 -0.015889170953252259 0.058386524972645543 0 -0.015850591135295359 0.058857489205503141 0 -0.015889170953252259 0.058386524972645543 0 -0.014988726534022724 0.058627159469490202 0 -0.014694590805285318 0.056526248533374297 0 -0.014988726534022724 0.058627159469490202 0 -0.012340671733919699 0.058287535287929598 0 -0.012340671733919699 0.058287535287929598 0 -0.0088042757299314524 0.057688254515359152 0 -0.010827333874121837 0.055477588314498866 0 -0.014694590805285318 0.056526248533374297 0 -0.012340671733919699 0.058287535287929598 0 -0.010827333874121837 0.055477588314498866 0 -0.0088042757299314524 0.057688254515359152 0 -0.010827333874121837 0.055477588314498866 0 -0.0061729270854736333 0.054639809182809418 0 -0.011011545754532653 0.053657419414694485 0 -0.0096345798357202299 0.053715763395637495 0 -0.0088003124907385499 0.051701686034399619 0 -0.0076411615930617139 0.049127055573867609 0 -0.0049225818951124005 0.052501293961709765 0 -0.0088003124907385499 0.051701686034399619 0 -0.01018127449466001 0.047642678198628212 0 -0.012274906608424068 0.048737979069979016 0 -0.0088003124907385499 0.051701686034399619 0 -0.01018127449466001 0.047642678198628212 0 -0.0076411615930617139 0.049127055573867609 0 -0.0076411615930617139 0.049127055573867609 0 -0.0074139724775741291 0.045146548555031064 0 -0.0049022108111230374 0.048460575825180215 0 -0.01018127449466001 0.047642678198628212 0 -0.0076411615930617139 0.049127055573867609 0 -0.0074139724775741291 0.045146548555031064 0 -0.01018127449466001 0.047642678198628212 0 -0.0074139724775741291 0.045146548555031064 0 -0.010668148764436718 0.043995242223292305 0 -0.01018127449466001 0.047642678198628212 0 -0.012254639629591085 0.045943262511283056 0 -0.010668148764436718 0.043995242223292305 0 -0.01018127449466001 0.047642678198628212 0 -0.012254639629591085 0.045943262511283056 0 -0.012274906608424068 0.048737979069979016 0 -0.012274906608424068 0.048737979069979016 0 -0.014417138525713368 0.04918440518796198 0 -0.014723919412585773 0.046490470775569968 0 -0.015980737521379424 0.048544690266955418 0 -0.014417138525713368 0.04918440518796198 0 -0.014723919412585773 0.046490470775569968 0 -0.012254639629591085 0.045943262511283056 0 -0.014723919412585773 0.046490470775569968 0 -0.013520461531044825 0.042963235277774056 0 -0.012254639629591085 0.045943262511283056 0 -0.012274906608424068 0.048737979069979016 0 -0.014723919412585773 0.046490470775569968 0 -0.01584666961144077 0.040115311795557787 0 -0.016345722011356725 0.043488136723720261 0 -0.013520461531044825 0.042963235277774056 0 -0.016345722011356725 0.043488136723720261 0 -0.014723919412585773 0.046490470775569968 0 -0.013520461531044825 0.042963235277774056 0 -0.012254639629591085 0.045943262511283056 0 -0.013520461531044825 0.042963235277774056 0 -0.010668148764436718 0.043995242223292305 0 -0.013520461531044825 0.042963235277774056 0 -0.010668148764436718 0.043995242223292305 0 -0.012046402173607237 0.040564204501341676 0 -0.025335366675625349 0.033897510197569369 0 -0.024808028717157125 0.034415761221500106 0 -0.016113542267256493 0.040251920383709047 0 -0.013520461531044825 0.042963235277774056 0 -0.012046402173607237 0.040564204501341676 0 -0.016113542267256493 0.040251920383709047 0 -0.012046402173607237 0.040564204501341676 0 -0.0128117508136026 0.037554547607869096 0 -0.016113542267256493 0.040251920383709047 0 -0.015731928725521101 0.037331141314067569 0 -0.0128117508136026 0.037554547607869096 0 -0.012046402173607237 0.040564204501341676 0 -0.0128117508136026 0.037554547607869096 0 -0.0098066670929406671 0.037637792343141054 0 -0.0128117508136026 0.037554547607869096 0 -0.0098066670929406671 0.037637792343141054 0 -0.010885570510598002 0.033707993728912054 0 -0.0128117508136026 0.037554547607869096 0 -0.013944054341190813 0.034885413816601867 0 -0.010885570510598002 0.033707993728912054 0 -0.015731928725521101 0.037331141314067569 0 -0.0128117508136026 0.037554547607869096 0 -0.013944054341190813 0.034885413816601867 0 -0.015731928725521101 0.037331141314067569 0 -0.013944054341190813 0.034885413816601867 0 -0.016539241486574704 0.034490414280971562 0 -0.0073459379442145419 0.035909383262443646 0 -0.0098066670929406671 0.037637792343141054 0 -0.010885570510598002 0.033707993728912054 0 -0.012046402173607237 0.040564204501341676 0 -0.0098066670929406671 0.037637792343141054 0 -0.0087444895803141659 0.041287440722383946 0 -0.0098066670929406671 0.037637792343141054 0 -0.0068921385237155526 0.038865436571783304 0 -0.0087444895803141659 0.041287440722383946 0 -0.0073459379442145419 0.035909383262443646 0 -0.0068921385237155526 0.038865436571783304 0 -0.0037131140600800811 0.038121453946268202 0 -0.0073459379442145419 0.035909383262443646 0 -0.0098066670929406671 0.037637792343141054 0 -0.0068921385237155526 0.038865436571783304 0 -0.0068921385237155526 0.038865436571783304 0 -0.0087444895803141659 0.041287440722383946 0 -0.0054892097818316065 0.041553807815546177 0 -0.010668148764436718 0.043995242223292305 0 -0.012046402173607237 0.040564204501341676 0 -0.0087444895803141659 0.041287440722383946 0 -0.0074139724775741291 0.045146548555031064 0 -0.010668148764436718 0.043995242223292305 0 -0.0087444895803141659 0.041287440722383946 0 -0.0074139724775741291 0.045146548555031064 0 -0.0087444895803141659 0.041287440722383946 0 -0.0054892097818316065 0.041553807815546177 0 -0.0074139724775741291 0.045146548555031064 0 -0.0033379901278607826 0.044714358287428556 0 -0.0054892097818316065 0.041553807815546177 0 -0.0033379901278607826 0.044714358287428556 0 -0.0025924587619758173 0.041544335071981596 0 -0.0054892097818316065 0.041553807815546177 0 -0.0033379901278607826 0.044714358287428556 0 -0.00046216387136367281 0.043005117692245652 0 -0.00018350168977324452 0.045587500715062755 0 -0.0033379901278607826 0.044714358287428556 0 -0.0025924587619758173 0.041544335071981596 0 -0.00046216387136367281 0.043005117692245652 0 -0.0025924587619758173 0.041544335071981596 0 3.9737644053976459e-06 0.040425705860823502 0 -0.00046216387136367281 0.043005117692245652 0 -0.0025924587619758173 0.041544335071981596 0 -0.0037131140600800811 0.038121453946268202 0 3.9737644053976459e-06 0.040425705860823502 0 -0.0025924587619758173 0.041544335071981596 0 -0.0054892097818316065 0.041553807815546177 0 -0.0037131140600800811 0.038121453946268202 0 -0.0068921385237155526 0.038865436571783304 0 -0.0054892097818316065 0.041553807815546177 0 -0.0037131140600800811 0.038121453946268202 0 -0.050114492745661647 0.019437254719585052 0 -0.050723028196349995 0.019733260054358357 0 -0.050583533130044142 0.01838636477547724 0 -0.034929486573278525 0.034162213118349764 0 -0.037073595202566721 0.035616341370233638 0 -0.050114492745661647 0.019437254719585052 0 -0.05033996845401429 0.01979656216149988 0 -0.050723028196349995 0.019733260054358357 0 -0.033388843321533399 0.032704824389813661 0 -0.034929486573278525 0.034162213118349764 0 -0.050221310414609199 0.019611704811698508 0 -0.050114492745661647 0.019437254719585052 0 -0.05033996845401429 0.01979656216149988 0 -0.052381064860813509 0.020272500065251473 0 -0.050723028196349995 0.019733260054358357 0 -0.052124086176024008 0.019103319394814348 0 -0.052381064860813509 0.020272500065251473 0 -0.050723028196349995 0.019733260054358357 0 -0.051120848744454592 0.020975447042946269 0 -0.051241898478486689 0.018874095749931787 0 -0.051830558804711137 0.018149465124502509 0 -0.050583533130044142 0.01838636477547724 0 -0.050723028196349995 0.019733260054358357 0 -0.051241898478486689 0.018874095749931787 0 -0.052124086176024008 0.019103319394814348 0 -0.050723028196349995 0.019733260054358357 0 -0.051241898478486689 0.018874095749931787 0 -0.050583533130044142 0.01838636477547724 0 -0.051241898478486689 0.018874095749931787 0 -0.052124086176024008 0.019103319394814348 0 -0.051830558804711137 0.018149465124502509 0 -0.052124086176024008 0.019103319394814348 0 -0.051830558804711137 0.018149465124502509 0 -0.053473444733682429 0.018094620283381196 0 -0.051830558804711137 0.018149465124502509 0 -0.050583533130044142 0.01838636477547724 0 -0.052264245373167866 0.016581702604224764 0 -0.051830558804711137 0.018149465124502509 0 -0.052264245373167866 0.016581702604224764 0 -0.053473444733682429 0.018094620283381196 0 -0.037073595202566721 0.035616341370233638 0 -0.040173948382995033 0.036958453492113609 0 3.9737644053976459e-06 0.040425705860823502 0 -0.00046216387136367281 0.043005117692245652 0 0.0034842936216517325 0.042662526173609022 0 -0.00046216387136367281 0.043005117692245652 0 0.0022304919367458222 0.044544720364066905 0 0.0043708869635697744 0.042532333243694494 0 -0.037555795068369487 0.036906209313942048 0 -0.040173948382995033 0.036958453492113609 0 -0.00046216387136367281 0.043005117692245652 0 0.0022304919367458222 0.044544720364066905 0 -0.00018350168977324452 0.045587500715062755 0 0.0022304919367458222 0.044544720364066905 0 0.0043708869635697744 0.042532333243694494 0 0.0043526236589681308 0.04501600965085719 0 0.0043708869635697744 0.042532333243694494 0 0.0043526236589681308 0.04501600965085719 0 0.0068485351087552949 0.04409703802921798 0 0.0043526236589681308 0.04501600965085719 0 0.0028792042167300742 0.046642312789829318 0 0.0057685677786180924 0.046616107109996023 0 0.0022304919367458222 0.044544720364066905 0 0.0043526236589681308 0.04501600965085719 0 0.0028792042167300742 0.046642312789829318 0 0.0028792042167300742 0.046642312789829318 0 0.0041980509814376673 0.049242698780334958 0 0.0057685677786180924 0.046616107109996023 0 0.0041980509814376673 0.049242698780334958 0 0.0048118137823058068 0.052376055056935322 0 0.0070210356987136712 0.049018721794072212 0 0.0028792042167300742 0.046642312789829318 0 0.0041980509814376673 0.049242698780334958 0 0.0015444768467114743 0.048837786527708094 0 0.0041980509814376673 0.049242698780334958 0 0.0015444768467114743 0.048837786527708094 0 0.0033500109980749491 0.051254695947020805 0 0.0015444768467114743 0.048837786527708094 0 0.0033500109980749491 0.051254695947020805 0 0.00041392175758680512 0.050996116801719997 0 0.0015444768467114743 0.048837786527708094 0 -0.0013356634033171646 0.048172193232542494 0 0.00041392175758680512 0.050996116801719997 0 0.0028792042167300742 0.046642312789829318 0 0.0015444768467114743 0.048837786527708094 0 -0.00018350168977324452 0.045587500715062755 0 0.0022304919367458222 0.044544720364066905 0 0.0028792042167300742 0.046642312789829318 0 -0.00018350168977324452 0.045587500715062755 0 0.0015444768467114743 0.048837786527708094 0 -0.00018350168977324452 0.045587500715062755 0 -0.0013356634033171646 0.048172193232542494 0 -0.0033379901278607826 0.044714358287428556 0 -0.0049022108111230374 0.048460575825180215 0 -0.0013356634033171646 0.048172193232542494 0 -0.0033379901278607826 0.044714358287428556 0 -0.00018350168977324452 0.045587500715062755 0 -0.0013356634033171646 0.048172193232542494 0 -0.0074139724775741291 0.045146548555031064 0 -0.0033379901278607826 0.044714358287428556 0 -0.0049022108111230374 0.048460575825180215 0 -0.0076411615930617139 0.049127055573867609 0 -0.0049022108111230374 0.048460575825180215 0 -0.0049225818951124005 0.052501293961709765 0 -0.0049022108111230374 0.048460575825180215 0 -0.0013356634033171646 0.048172193232542494 0 -0.0023995790016606059 0.050911656215990801 0 -0.0013356634033171646 0.048172193232542494 0 -0.0023995790016606059 0.050911656215990801 0 0.00041392175758680512 0.050996116801719997 0 -0.0023995790016606059 0.050911656215990801 0 0.00041392175758680512 0.050996116801719997 0 -0.00067730283402416068 0.053868403894186581 0 -0.0096345798357202299 0.053715763395637495 0 -0.0090527277237125725 0.05374161590581325 0 -0.0023995790016606059 0.050911656215990801 0 -0.0049225818951124005 0.052501293961709765 0 -0.00067730283402416068 0.053868403894186581 0 -0.0049022108111230374 0.048460575825180215 0 -0.0023995790016606059 0.050911656215990801 0 -0.0049225818951124005 0.052501293961709765 0 -0.0058536781476482341 0.059536901199131673 0 -0.0088042757299314524 0.057688254515359152 0 -0.0061729270854736333 0.054639809182809418 0 -0.0019317443091010618 0.05819066611420215 0 -0.0058536781476482341 0.059536901199131673 0 -0.0061729270854736333 0.054639809182809418 0 -0.0019317443091010618 0.05819066611420215 0 -0.0061729270854736333 0.054639809182809418 0 -0.00067730283402416068 0.053868403894186581 0 -0.0019317443091010618 0.05819066611420215 0 0.0022260307028666082 0.05746178490698025 0 -0.00067730283402416068 0.053868403894186581 0 0.0022260307028666082 0.05746178490698025 0 -0.00067730283402416068 0.053868403894186581 0 0.0022311869876189159 0.053405305006565339 0 0.0022260307028666082 0.05746178490698025 0 0.0052984431109074984 0.052646381471291449 0 0.0022311869876189159 0.053405305006565339 0 -0.060334098126471926 0.043406968314563893 0 -0.060048831277419008 0.043370349399269148 0 -0.060074097911101534 0.043024236215746019 0 -0.040146647333365273 0.044417340125041088 0 -0.042013924455756399 0.042819656200499677 0 0.0041980509814376673 0.049242698780334958 0 0.0048118137823058068 0.052376055056935322 0 0.0033500109980749491 0.051254695947020805 0 -0.042013924455756399 0.042819656200499677 0 -0.041612646829804111 0.043051924764839024 0 0.0052984431109074984 0.052646381471291449 0 0.0033500109980749491 0.051254695947020805 0 0.0022311869876189159 0.053405305006565339 0 0.0033500109980749491 0.051254695947020805 0 0.00041392175758680512 0.050996116801719997 0 0.0022311869876189159 0.053405305006565339 0 0.00041392175758680512 0.050996116801719997 0 -0.00067730283402416068 0.053868403894186581 0 0.0022311869876189159 0.053405305006565339 0 -0.059683084744126313 0.042189887981607117 0 -0.060149241335970938 0.042142262823228541 0 -0.059809140808800752 0.04174865203392613 0 -0.059683084744126313 0.042189887981607117 0 -0.060149241335970938 0.042142262823228541 0 -0.06008296106981563 0.042683781884390849 0 -0.060641168307109292 0.042246467433363896 0 -0.060149241335970938 0.042142262823228541 0 -0.06027618071820804 0.041702854138380756 0 -0.060641168307109292 0.042246467433363896 0 -0.060149241335970938 0.042142262823228541 0 -0.06008296106981563 0.042683781884390849 0 -0.042013924455756399 0.042819656200499677 0 -0.044777092143833602 0.041648704023362113 0 -0.060048831277419008 0.043370349399269148 0 -0.060074097911101534 0.043024236215746019 0 -0.059733858078270308 0.043276819350551742 0 -0.046283630218414237 0.041049905755866034 0 -0.044777092143833602 0.041648704023362113 0 -0.059683084744126313 0.042189887981607117 0 -0.06008296106981563 0.042683781884390849 0 -0.059356315790458775 0.042581916423940672 0 -0.059538300104541794 0.04314217254098577 0 -0.06008296106981563 0.042683781884390849 0 -0.059356315790458775 0.042581916423940672 0 -0.059538300104541794 0.04314217254098577 0 -0.059356315790458775 0.042581916423940672 0 -0.058827298074768393 0.042895499514557511 0 -0.059356315790458775 0.042581916423940672 0 -0.058827298074768393 0.042895499514557511 0 -0.058832223203409355 0.042446800552340035 0 -0.059356315790458775 0.042581916423940672 0 -0.058832223203409355 0.042446800552340035 0 -0.059283445965204143 0.042226993392813383 0 -0.058832223203409355 0.042446800552340035 0 -0.058999232181995688 0.042052424958392121 0 -0.058298831376358995 0.04217098755463345 0 -0.058832223203409355 0.042446800552340035 0 -0.058999232181995688 0.042052424958392121 0 -0.059283445965204143 0.042226993392813383 0 -0.059683084744126313 0.042189887981607117 0 -0.059356315790458775 0.042581916423940672 0 -0.059283445965204143 0.042226993392813383 0 -0.058999232181995688 0.042052424958392121 0 -0.059283445965204143 0.042226993392813383 0 -0.059385209161365402 0.041866613819825829 0 -0.059683084744126313 0.042189887981607117 0 -0.059283445965204143 0.042226993392813383 0 -0.059385209161365402 0.041866613819825829 0 -0.059683084744126313 0.042189887981607117 0 -0.059385209161365402 0.041866613819825829 0 -0.059809140808800752 0.04174865203392613 0 -0.048942383204673978 0.036921918891363863 0 -0.046911395420059995 0.03823012995996674 0 -0.059385209161365402 0.041866613819825829 0 -0.059019280097368003 0.041712552011555173 0 -0.05945995322912636 0.041434142830189147 0 -0.059385209161365402 0.041866613819825829 0 -0.05945995322912636 0.041434142830189147 0 -0.059809140808800752 0.04174865203392613 0 -0.061785229451570153 0.036209943227088981 0 -0.061084381742500124 0.035252123960333601 0 -0.060102859212586776 0.035868365070824394 0 -0.058999232181995688 0.042052424958392121 0 -0.059019981186630044 0.041705617791036043 0 -0.058298831376358995 0.04217098755463345 0 -0.048972250861939993 0.036979822312766704 0 -0.048942383204673978 0.036921918891363863 0 -0.058999232181995688 0.042052424958392121 0 -0.059385209161365402 0.041866613819825829 0 -0.059019280097368003 0.041712552011555173 0 -0.048942383204673978 0.036921918891363863 0 -0.049024029577661062 0.035514486361467409 0 -0.061785229451570153 0.036209943227088981 0 -0.061894998101837309 0.034475121671641011 0 -0.061084381742500124 0.035252123960333601 0 -0.061894998101837309 0.034475121671641011 0 -0.061084381742500124 0.035252123960333601 0 -0.060754522533106141 0.033750982286466898 0 -0.047973712907112227 0.035943574695081942 0 -0.047953121330527169 0.035948452236512211 0 -0.047972440133307613 0.035956909316154584 0 -0.047986016834190674 0.035951717390816929 0 -0.047973712907112227 0.035943574695081942 0 -0.047972440133307613 0.035956909316154584 0 -0.04798934562659269 0.035937984445958311 0 -0.047986016834190674 0.035951717390816929 0 -0.047973712907112227 0.035943574695081942 0 -0.05945995322912636 0.041434142830189147 0 -0.059901332913911455 0.041155942257081406 0 -0.059809140808800752 0.04174865203392613 0 -0.046911395420059995 0.03823012995996674 0 -0.044549803000464364 0.039667301716095747 0 -0.060149241335970938 0.042142262823228541 0 -0.059809140808800752 0.04174865203392613 0 -0.06027618071820804 0.041702854138380756 0 -0.059901332913911455 0.041155942257081406 0 -0.059809140808800752 0.04174865203392613 0 -0.06027618071820804 0.041702854138380756 0 -0.042013924455756399 0.042819656200499677 0 -0.042964847118695276 0.041122053127660443 0 0.0041980509814376673 0.049242698780334958 0 0.0070210356987136712 0.049018721794072212 0 0.0057685677786180924 0.046616107109996023 0 0.0092769448160146331 0.045659682057799911 0 0.0057685677786180924 0.046616107109996023 0 0.0068485351087552949 0.04409703802921798 0 -0.044549803000464364 0.039667301716095747 0 -0.042964847118695276 0.041122053127660443 0 0.0092769448160146331 0.045659682057799911 0 0.0070210356987136712 0.049018721794072212 0 0.0057685677786180924 0.046616107109996023 0 0.0043526236589681308 0.04501600965085719 0 0.0057685677786180924 0.046616107109996023 0 0.0068485351087552949 0.04409703802921798 0 -0.047902365248922642 0.035966864201981946 0 -0.047928488008818208 0.035955507308089517 0 -0.04794931370482744 0.035969276105407323 0 -0.040173948382995033 0.036958453492113609 0 -0.044769895612333341 0.035502946018477734 0 -0.044549803000464364 0.039667301716095747 0 -0.041930956061519926 0.038516567805251097 0 -0.040173948382995033 0.036958453492113609 0 -0.041930956061519926 0.038516567805251097 0 -0.04794931370482744 0.035969276105407323 0 -0.047962635791658534 0.035962267511124107 0 -0.047974446935948684 0.03596669881477111 0 -0.047953121330527169 0.035948452236512211 0 -0.04794931370482744 0.035969276105407323 0 -0.047962635791658534 0.035962267511124107 0 -0.047953121330527169 0.035948452236512211 0 -0.047928488008818208 0.035955507308089517 0 -0.04794931370482744 0.035969276105407323 0 -0.047953121330527169 0.035948452236512211 0 -0.047962635791658534 0.035962267511124107 0 -0.047972440133307613 0.035956909316154584 0 -0.054933323395333966 0.016426095527005552 0 -0.053473444733682429 0.018094620283381196 0 -0.055851884653569953 0.018399390018129839 0 -0.052264245373167866 0.016581702604224764 0 -0.054933323395333966 0.016426095527005552 0 -0.053473444733682429 0.018094620283381196 0 -0.052124086176024008 0.019103319394814348 0 -0.053473444733682429 0.018094620283381196 0 -0.054256159723770507 0.019943827170496323 0 -0.055851884653569953 0.018399390018129839 0 -0.054256159723770507 0.019943827170496323 0 -0.056415711345106541 0.020492487331985623 0 -0.053473444733682429 0.018094620283381196 0 -0.055851884653569953 0.018399390018129839 0 -0.054256159723770507 0.019943827170496323 0 -0.054256159723770507 0.019943827170496323 0 -0.056415711345106541 0.020492487331985623 0 -0.055689952598768924 0.022348352195558405 0 -0.052381064860813509 0.020272500065251473 0 -0.054256159723770507 0.019943827170496323 0 -0.053461292517827955 0.022317350856165145 0 -0.052381064860813509 0.020272500065251473 0 -0.052124086176024008 0.019103319394814348 0 -0.054256159723770507 0.019943827170496323 0 -0.059748923620310715 0.022411658587960098 0 -0.058513416436000748 0.020824253655897251 0 -0.058331168640420435 0.022711660484630362 0 -0.049496603403464526 0.032063382259680737 0 -0.049655778865510869 0.031482154671348149 0 -0.056415711345106541 0.020492487331985623 0 -0.058331168640420435 0.022711660484630362 0 -0.055689952598768924 0.022348352195558405 0 -0.056415711345106541 0.020492487331985623 0 -0.058228648841989868 0.019326301414271271 0 -0.058331168640420435 0.022711660484630362 0 -0.055851884653569953 0.018399390018129839 0 -0.056415711345106541 0.020492487331985623 0 -0.058228648841989868 0.019326301414271271 0 -0.055851884653569953 0.018399390018129839 0 -0.058228648841989868 0.019326301414271271 0 -0.057892563007356193 0.016497868149760685 0 -0.059748923620310715 0.022411658587960098 0 -0.058513416436000748 0.020824253655897251 0 -0.060295396163077476 0.020353286250276593 0 -0.058513416436000748 0.020824253655897251 0 -0.059502045876219274 0.019583083095722716 0 -0.060295396163077476 0.020353286250276593 0 -0.059502045876219274 0.019583083095722716 0 -0.058675159872623076 0.018368483021144636 0 -0.060410796813309721 0.018776976007352626 0 -0.048985399480654286 0.034154919085258098 0 -0.05051566744654383 0.033313375839580196 0 -0.058513416436000748 0.020824253655897251 0 -0.059502045876219274 0.019583083095722716 0 -0.058675159872623076 0.018368483021144636 0 -0.049496603403464526 0.032063382259680737 0 -0.048985399480654286 0.034154919085258098 0 -0.058228648841989868 0.019326301414271271 0 -0.058268715845980305 0.016527952278193671 0 -0.057892563007356193 0.016497868149760685 0 -0.048985399480654286 0.034154919085258098 0 -0.048536895426745517 0.034296602628836034 0 -0.04794931370482744 0.035969276105407323 0 -0.047983236945412608 0.035966839293616146 0 -0.047974446935948684 0.03596669881477111 0 -0.054933323395333966 0.016426095527005552 0 -0.055851884653569953 0.018399390018129839 0 -0.057892563007356193 0.016497868149760685 0 -0.044769895612333341 0.035502946018477734 0 -0.048536895426745517 0.034296602628836034 0 -0.048536895426745517 0.034296602628836034 0 -0.048535633153523799 0.034298315491606862 0 -0.047986016834190674 0.035951717390816929 0 -0.047981183859345002 0.035967780996981037 0 -0.047972440133307613 0.035956909316154584 0 -0.047962635791658534 0.035962267511124107 0 -0.047974446935948684 0.03596669881477111 0 -0.047972440133307613 0.035956909316154584 0 -0.047981183859345002 0.035967780996981037 0 -0.047974446935948684 0.03596669881477111 0 -0.047972440133307613 0.035956909316154584 0 -0.047986016834190674 0.035951717390816929 0 -0.047984420229086173 0.035967897826108729 0 -0.047981183859345002 0.035967780996981037 0 -0.061894998101837309 0.034475121671641011 0 -0.062006954639334443 0.032750088490513508 0 -0.060754522533106141 0.033750982286466898 0 -0.062006954639334443 0.032750088490513508 0 -0.060754522533106141 0.033750982286466898 0 -0.060488250574730507 0.032394523414823323 0 -0.049024029577661062 0.035514486361467409 0 -0.048985399480654286 0.034154919085258098 0 -0.060754522533106141 0.033750982286466898 0 -0.059349328605102558 0.034118155283728552 0 -0.060144306034365942 0.034869366188136144 0 -0.060754522533106141 0.033750982286466898 0 -0.059535521851347584 0.033025668880039272 0 -0.059349328605102558 0.034118155283728552 0 -0.060754522533106141 0.033750982286466898 0 -0.059535521851347584 0.033025668880039272 0 -0.060488250574730507 0.032394523414823323 0 -0.059349328605102558 0.034118155283728552 0 -0.05855426019540496 0.0333693727945664 0 -0.058145350908515081 0.034639651766018249 0 -0.05166224166457517 0.032475259498763051 0 -0.051706314946326729 0.032475248690357769 0 -0.059535521851347584 0.033025668880039272 0 -0.059349328605102558 0.034118155283728552 0 -0.05855426019540496 0.0333693727945664 0 -0.051514665210035983 0.032520148749693584 0 -0.051903881275454512 0.032543896425756502 0 -0.058717869521752696 0.033125710859595078 0 -0.059240347121309572 0.031577941028693247 0 -0.057654100083431491 0.03296496142058896 0 -0.05166224166457517 0.032475259498763051 0 -0.051514665210035983 0.032520148749693584 0 -0.059535521851347584 0.033025668880039272 0 -0.05855426019540496 0.0333693727945664 0 -0.058967761436560372 0.032077617308254661 0 -0.051514665210035983 0.032520148749693584 0 -0.05051566744654383 0.033313375839580196 0 -0.062134540210733294 0.019134406836762239 0 -0.060410796813309721 0.018776976007352626 0 -0.060295396163077476 0.020353286250276593 0 -0.059535521851347584 0.033025668880039272 0 -0.058967761436560372 0.032077617308254661 0 -0.060488250574730507 0.032394523414823323 0 -0.059502045876219274 0.019583083095722716 0 -0.060410796813309721 0.018776976007352626 0 -0.060295396163077476 0.020353286250276593 0 -0.062134540210733294 0.019134406836762239 0 -0.060295396163077476 0.020353286250276593 0 -0.061416213094038143 0.021475051474990889 0 -0.051514665210035983 0.032520148749693584 0 -0.052267819352827947 0.031135280008004935 0 -0.059247097133392525 0.03123662223461247 0 -0.058546173159036777 0.029254687525360135 0 -0.057406196377780792 0.030842136830611745 0 -0.059247097133392525 0.03123662223461247 0 -0.058546173159036777 0.029254687525360135 0 -0.060128765570746992 0.028269163950093445 0 -0.058546173159036777 0.029254687525360135 0 -0.060128765570746992 0.028269163950093445 0 -0.05929121598311049 0.026310181008789367 0 -0.058546173159036777 0.029254687525360135 0 -0.057903599762645475 0.026316356329782933 0 -0.05929121598311049 0.026310181008789367 0 -0.059748923620310715 0.022411658587960098 0 -0.061416213094038143 0.021475051474990889 0 -0.060393782514144768 0.024442095297279011 0 -0.052267819352827947 0.031135280008004935 0 -0.052506441248730128 0.030700018050693629 0 -0.060128765570746992 0.028269163950093445 0 -0.060393782514144768 0.024442095297279011 0 -0.05929121598311049 0.026310181008789367 0 -0.059748923620310715 0.022411658587960098 0 -0.060295396163077476 0.020353286250276593 0 -0.061416213094038143 0.021475051474990889 0 -0.054999823713720246 0.028893384874465057 0 -0.056766408205097464 0.028921998214647082 0 -0.056216774700828788 0.026928195958755275 0 -0.056766408205097464 0.028921998214647082 0 -0.057903599762645475 0.026316356329782933 0 -0.056216774700828788 0.026928195958755275 0 -0.058546173159036777 0.029254687525360135 0 -0.056766408205097464 0.028921998214647082 0 -0.057903599762645475 0.026316356329782933 0 -0.058546173159036777 0.029254687525360135 0 -0.056766408205097464 0.028921998214647082 0 -0.057406196377780792 0.030842136830611745 0 -0.056766408205097464 0.028921998214647082 0 -0.055785881579161721 0.030715098238857229 0 -0.057406196377780792 0.030842136830611745 0 -0.054999823713720246 0.028893384874465057 0 -0.056766408205097464 0.028921998214647082 0 -0.055785881579161721 0.030715098238857229 0 -0.054999823713720246 0.028893384874465057 0 -0.055785881579161721 0.030715098238857229 0 -0.054999896355233086 0.031874649419216743 0 -0.055785881579161721 0.030715098238857229 0 -0.056584894477546333 0.032341541217558202 0 -0.054999896355233086 0.031874649419216743 0 -0.056584894477546333 0.032341541217558202 0 -0.054999896355233086 0.031874649419216743 0 -0.055520676416912475 0.033045897217418553 0 -0.056584894477546333 0.032341541217558202 0 -0.057547579103168371 0.031200408322597944 0 -0.057654100083431491 0.03296496142058896 0 -0.055785881579161721 0.030715098238857229 0 -0.056584894477546333 0.032341541217558202 0 -0.057547579103168371 0.031200408322597944 0 -0.059240347121309572 0.031577941028693247 0 -0.057547579103168371 0.031200408322597944 0 -0.057654100083431491 0.03296496142058896 0 -0.052005324501868559 0.032546076940204172 0 -0.051903881275454512 0.032543896425756502 0 -0.058717869521752696 0.033125710859595078 0 -0.057654100083431491 0.03296496142058896 0 -0.058145350908515081 0.034639651766018249 0 -0.057654100083431491 0.03296496142058896 0 -0.056921875378091888 0.033828597246325108 0 -0.058145350908515081 0.034639651766018249 0 -0.056584894477546333 0.032341541217558202 0 -0.057654100083431491 0.03296496142058896 0 -0.056921875378091888 0.033828597246325108 0 -0.054999896355233086 0.031874649419216743 0 -0.055520676416912475 0.033045897217418553 0 -0.055000006298098307 0.034855990657945472 0 -0.056921875378091888 0.033828597246325108 0 -0.055520676416912475 0.033045897217418553 0 -0.056269101457177492 0.035110911408730072 0 -0.052345784740097732 0.036953516107816525 0 -0.052327172670769903 0.037071538616603124 0 -0.056584894477546333 0.032341541217558202 0 -0.056921875378091888 0.033828597246325108 0 -0.055520676416912475 0.033045897217418553 0 -0.055520676416912475 0.033045897217418553 0 -0.055000006298098307 0.034855990657945472 0 -0.056273499696113699 0.035426295257235861 0 -0.055000006298098307 0.034855990657945472 0 -0.056273499696113699 0.035426295257235861 0 -0.055889068285734755 0.036649467865164168 0 -0.052327172670769903 0.037071538616603124 0 -0.052224814557117201 0.037285752642601623 0 -0.056273499696113699 0.035426295257235861 0 -0.055889068285734755 0.036649467865164168 0 -0.056976878604589921 0.037804726755483527 0 -0.055889068285734755 0.036649467865164168 0 -0.056976878604589921 0.037804726755483527 0 -0.054999974994509565 0.037837011535151538 0 -0.055000006298098307 0.034855990657945472 0 -0.055889068285734755 0.036649467865164168 0 -0.054999974994509565 0.037837011535151538 0 -0.056269101457177492 0.035110911408730072 0 -0.056935055041809922 0.037028276390054342 0 -0.057511668538836609 0.035816286751245305 0 -0.056935055041809922 0.037028276390054342 0 -0.057511668538836609 0.035816286751245305 0 -0.058121612697226245 0.037251528162390225 0 -0.057511668538836609 0.035816286751245305 0 -0.05719249658849862 0.034794819141078251 0 -0.058145350908515081 0.034639651766018249 0 -0.056269101457177492 0.035110911408730072 0 -0.057511668538836609 0.035816286751245305 0 -0.05719249658849862 0.034794819141078251 0 -0.056921875378091888 0.033828597246325108 0 -0.056269101457177492 0.035110911408730072 0 -0.05719249658849862 0.034794819141078251 0 -0.056921875378091888 0.033828597246325108 0 -0.05719249658849862 0.034794819141078251 0 -0.058145350908515081 0.034639651766018249 0 -0.058145350908515081 0.034639651766018249 0 -0.059188584993729164 0.035195091849887422 0 -0.058721995682988096 0.036130107215406972 0 -0.057511668538836609 0.035816286751245305 0 -0.058145350908515081 0.034639651766018249 0 -0.058721995682988096 0.036130107215406972 0 -0.059349328605102558 0.034118155283728552 0 -0.058145350908515081 0.034639651766018249 0 -0.059188584993729164 0.035195091849887422 0 -0.061084381742500124 0.035252123960333601 0 -0.060754522533106141 0.033750982286466898 0 -0.060144306034365942 0.034869366188136144 0 -0.059349328605102558 0.034118155283728552 0 -0.059188584993729164 0.035195091849887422 0 -0.060144306034365942 0.034869366188136144 0 -0.059188584993729164 0.035195091849887422 0 -0.060144306034365942 0.034869366188136144 0 -0.060102859212586776 0.035868365070824394 0 -0.061084381742500124 0.035252123960333601 0 -0.060144306034365942 0.034869366188136144 0 -0.060102859212586776 0.035868365070824394 0 -0.060102859212586776 0.035868365070824394 0 -0.058721995682988096 0.036130107215406972 0 -0.059682934016011067 0.037562867470359411 0 -0.048942383204673978 0.036921918891363863 0 -0.050905347141467015 0.037037429697160222 0 -0.061785229451570153 0.036209943227088981 0 -0.060102859212586776 0.035868365070824394 0 -0.059682934016011067 0.037562867470359411 0 -0.059188584993729164 0.035195091849887422 0 -0.060102859212586776 0.035868365070824394 0 -0.058721995682988096 0.036130107215406972 0 -0.058721995682988096 0.036130107215406972 0 -0.058121612697226245 0.037251528162390225 0 -0.059682934016011067 0.037562867470359411 0 -0.057511668538836609 0.035816286751245305 0 -0.058721995682988096 0.036130107215406972 0 -0.058121612697226245 0.037251528162390225 0 -0.050905347141467015 0.037037429697160222 0 -0.051970546172538219 0.037395359638786277 0 -0.058121612697226245 0.037251528162390225 0 -0.059682934016011067 0.037562867470359411 0 -0.057544295600363449 0.038923788479303813 0 -0.058827298074768393 0.042895499514557511 0 -0.058832223203409355 0.042446800552340035 0 -0.058240233815286049 0.042753575769491931 0 -0.058832223203409355 0.042446800552340035 0 -0.058298831376358995 0.04217098755463345 0 -0.058240233815286049 0.042753575769491931 0 -0.058298831376358995 0.04217098755463345 0 -0.058240233815286049 0.042753575769491931 0 -0.057652964696051565 0.042604156092865331 0 -0.05785312835317373 0.043240839686718477 0 -0.057414440725713146 0.040406985413247609 0 -0.057575927486678571 0.040306643428067189 0 -0.056461177997111693 0.042388031990408255 0 -0.057414440725713146 0.040406985413247609 0 -0.056198418410742419 0.040703468570594176 0 -0.051971631479438785 0.037395216778730443 0 -0.051970546172538219 0.037395359638786277 0 -0.057414440725713146 0.040406985413247609 0 -0.056831439360712013 0.039713214089033957 0 -0.056198418410742419 0.040703468570594176 0 -0.057414440725713146 0.040406985413247609 0 -0.057607596950531435 0.040277083741885211 0 -0.056831439360712013 0.039713214089033957 0 -0.056461177997111693 0.042388031990408255 0 -0.056198418410742419 0.040703468570594176 0 -0.05499966609313009 0.040818821915677983 0 -0.056198418410742419 0.040703468570594176 0 -0.05499966609313009 0.040818821915677983 0 -0.055985242643893492 0.039360397798609642 0 -0.056831439360712013 0.039713214089033957 0 -0.056198418410742419 0.040703468570594176 0 -0.055985242643893492 0.039360397798609642 0 -0.056976878604589921 0.037804726755483527 0 -0.056831439360712013 0.039713214089033957 0 -0.055985242643893492 0.039360397798609642 0 -0.05499966609313009 0.040818821915677983 0 -0.055985242643893492 0.039360397798609642 0 -0.054999974994509565 0.037837011535151538 0 -0.056976878604589921 0.037804726755483527 0 -0.055985242643893492 0.039360397798609642 0 -0.054999974994509565 0.037837011535151538 0 -0.056976878604589921 0.037804726755483527 0 -0.057607596950531435 0.040277083741885211 0 -0.056831439360712013 0.039713214089033957 0 -0.056935055041809922 0.037028276390054342 0 -0.058121612697226245 0.037251528162390225 0 -0.057544295600363449 0.038923788479303813 0 -0.052224814557117201 0.037285752642601623 0 -0.051970546172538219 0.037395359638786277 0 -0.057100897822245804 0.016116117221917775 0 -0.056068017681198956 0.017177594920729216 0 -0.05718487197668546 0.017846699594073919 0 -0.057100897822245804 0.016116117221917775 0 -0.058180985697259296 0.017183432503558083 0 -0.05718487197668546 0.017846699594073919 0 -0.056467737947210689 0.01604203617203245 0 -0.055737348971357147 0.016998865779945534 0 -0.056826317598313032 0.01545794547249983 0 -0.057262807498756771 0.015457929115576599 0 -0.056144610699759144 0.016713811341640319 0 -0.056468448505858262 0.016041801758332381 0 -0.056467737947210689 0.01604203617203245 0 -0.056144610699759144 0.016713811341640319 0 -0.054999895830785857 0.015671957414448618 0 -0.055000027120436293 0.017961879088771525 0 -0.056144610699759144 0.016713811341640319 0 -0.054999895830785857 0.015671957414448618 0 -0.055950752296811908 0.015587396258573898 0 -0.056826317598313032 0.01545794547249983 0 -0.056144610699759144 0.016713811341640319 0 -0.055950752296811908 0.015587396258573898 0 -0.054999895830785857 0.015671957414448618 0 -0.055830296487088343 0.014518892080986208 0 -0.055000139478800614 0.01338266229872602 0 -0.055830296487088343 0.014518892080986208 0 -0.05701296242831258 0.013413544385740611 0 -0.055000139478800614 0.01338266229872602 0 -0.056826317598313032 0.01545794547249983 0 -0.055830296487088343 0.014518892080986208 0 -0.05701296242831258 0.013413544385740611 0 -0.056826317598313032 0.01545794547249983 0 -0.055950752296811908 0.015587396258573898 0 -0.055830296487088343 0.014518892080986208 0 -0.054999895830785857 0.015671957414448618 0 -0.055950752296811908 0.015587396258573898 0 -0.055830296487088343 0.014518892080986208 0 -0.056826317598313032 0.01545794547249983 0 -0.057229600233454046 0.015447830947377381 0 -0.05701296242831258 0.013413544385740611 0 -0.057229600233454046 0.015447830947377381 0 -0.059193320778338943 0.013233702332576813 0 -0.05701296242831258 0.013413544385740611 0 -0.056264519026713894 0.015199717336484793 0 -0.056804610932541168 0.015205074966994095 0 -0.056803180992243532 0.014637219051630927 0 -0.056467737947210689 0.01604203617203245 0 -0.057191995928835573 0.014253958516193928 0 -0.057233209485949087 0.014775087451303013 0 -0.056804610932541168 0.015205074966994095 0 -0.056803180992243532 0.014637219051630927 0 -0.057233209485949087 0.014775087451303013 0 -0.057347894647070907 0.01521266623238369 0 -0.056804610932541168 0.015205074966994095 0 -0.060536523724185991 0.020622241814072163 0 -0.060221690162721768 0.020488935538435164 0 -0.060555538548662892 0.020630669971426503 0 -0.060221690162721768 0.020488935538435164 0 -0.060071135736593284 0.020425249437710929 0 -0.060555538548662892 0.020630669971426503 0 -0.060071135736593284 0.020425249437710929 0 -0.060458769654245445 0.020464283376089173 0 -0.060469863590298017 0.020378619988793159 0 -0.061499650916160609 0.016110954897245434 0 -0.060290395702023526 0.016930124073315109 0 -0.06075199463004486 0.018064997527244907 0 -0.05772611561908466 0.016604758086952026 0 -0.057733149690959142 0.016413095639867269 0 -0.061499650916160609 0.016110954897245434 0 -0.060290395702023526 0.016930124073315109 0 -0.059218501166416568 0.016110121445494785 0 -0.057657794583970766 0.016392930748804154 0 -0.057658293304082321 0.016646120574103265 0 -0.057657794583970766 0.016392930748804154 0 -0.057103307430316705 0.016212004209231638 0 -0.060290395702023526 0.016930124073315109 0 -0.059386589278800833 0.017590831670671769 0 -0.06075199463004486 0.018064997527244907 0 -0.056467737947210689 0.01604203617203245 0 -0.057103307430316705 0.016212004209231638 0 -0.057100897822245804 0.016116117221917775 0 -0.059218501166416568 0.016110121445494785 0 -0.058180985697259296 0.017183432503558083 0 -0.060290395702023526 0.016930124073315109 0 -0.059218501166416568 0.016110121445494785 0 -0.059386589278800833 0.017590831670671769 0 -0.059218501166416568 0.016110121445494785 0 -0.059386589278800833 0.017590831670671769 0 -0.058180985697259296 0.017183432503558083 0 -0.059386589278800833 0.017590831670671769 0 -0.058180985697259296 0.017183432503558083 0 -0.058397407042117551 0.018536741860711154 0 -0.059386589278800833 0.017590831670671769 0 -0.058397407042117551 0.018536741860711154 0 -0.059332526949744266 0.018864408056412089 0 -0.058397407042117551 0.018536741860711154 0 -0.058565247150916856 0.019744217739230668 0 -0.057414052149456093 0.019599327530473089 0 -0.058397407042117551 0.018536741860711154 0 -0.059332526949744266 0.018864408056412089 0 -0.058565247150916856 0.019744217739230668 0 -0.057658293304082321 0.016646120574103265 0 -0.057651136423779975 0.016745904824276507 0 -0.060221690162721768 0.020488935538435164 0 -0.060071135736593284 0.020425249437710929 0 -0.059798523185776838 0.020310093551621111 0 -0.059332526949744266 0.018864408056412089 0 -0.06075199463004486 0.018064997527244907 0 -0.059798523185776838 0.020310093551621111 0 -0.060071135736593284 0.020425249437710929 0 -0.060365496405759569 0.020527511307006776 0 -0.060458769654245445 0.020464283376089173 0 -0.059386589278800833 0.017590831670671769 0 -0.059332526949744266 0.018864408056412089 0 -0.06075199463004486 0.018064997527244907 0 -0.060071135736593284 0.020425249437710929 0 -0.060217510843624297 0.020568735587180156 0 -0.060365496405759569 0.020527511307006776 0 -0.060217510843624297 0.020568735587180156 0 -0.059798523185776838 0.020310093551621111 0 -0.060401782241862198 0.021118254286161774 0 -0.060071135736593284 0.020425249437710929 0 -0.060217510843624297 0.020568735587180156 0 -0.059798523185776838 0.020310093551621111 0 -0.058565247150916856 0.019744217739230668 0 -0.058533213403991667 0.020926072126602763 0 -0.057414052149456093 0.019599327530473089 0 -0.059798523185776838 0.020310093551621111 0 -0.058565247150916856 0.019744217739230668 0 -0.058533213403991667 0.020926072126602763 0 -0.059332526949744266 0.018864408056412089 0 -0.059798523185776838 0.020310093551621111 0 -0.058565247150916856 0.019744217739230668 0 -0.057414052149456093 0.019599327530473089 0 -0.056181648798136828 0.019654136453861746 0 -0.057054490553173305 0.021526123374231647 0 -0.058533213403991667 0.020926072126602763 0 -0.057414052149456093 0.019599327530473089 0 -0.057054490553173305 0.021526123374231647 0 -0.057414052149456093 0.019599327530473089 0 -0.056370206286801984 0.018492435900048631 0 -0.056181648798136828 0.019654136453861746 0 -0.057414052149456093 0.019599327530473089 0 -0.05718487197668546 0.017846699594073919 0 -0.056370206286801984 0.018492435900048631 0 -0.058397407042117551 0.018536741860711154 0 -0.057414052149456093 0.019599327530473089 0 -0.05718487197668546 0.017846699594073919 0 -0.058180985697259296 0.017183432503558083 0 -0.058397407042117551 0.018536741860711154 0 -0.05718487197668546 0.017846699594073919 0 -0.055737348971357147 0.016998865779945534 0 -0.055004081964055353 0.017955095720106645 0 -0.056068017681198956 0.017177594920729216 0 -0.05718487197668546 0.017846699594073919 0 -0.056370206286801984 0.018492435900048631 0 -0.056068017681198956 0.017177594920729216 0 -0.055000046774940213 0.017962849401715237 0 -0.056370206286801984 0.018492435900048631 0 -0.055000046774940213 0.017962849401715237 0 -0.056370206286801984 0.018492435900048631 0 -0.056181648798136828 0.019654136453861746 0 -0.055000046774940213 0.017962849401715237 0 -0.05499992819219738 0.020612171562222149 0 -0.056181648798136828 0.019654136453861746 0 -0.05499992819219738 0.020612171562222149 0 -0.056181648798136828 0.019654136453861746 0 -0.057054490553173305 0.021526123374231647 0 -0.05499992819219738 0.020612171562222149 0 -0.057054490553173305 0.021526123374231647 0 -0.055000001147739605 0.023262349030155439 0 -0.057054490553173305 0.021526123374231647 0 -0.057319118399951255 0.024024581291127278 0 -0.059394126927853307 0.02220465448918825 0 -0.057054490553173305 0.021526123374231647 0 -0.055000001147739605 0.023262349030155439 0 -0.057319118399951255 0.024024581291127278 0 -0.055000001147739605 0.023262349030155439 0 -0.057319118399951255 0.024024581291127278 0 -0.054999967072854303 0.025912527605517117 0 -0.057210953297447076 0.023598046115003917 0 -0.056216774700828788 0.026928195958755275 0 -0.054999667112858724 0.025911534923552516 0 -0.055892756261627423 0.025211210080140687 0 -0.055003374419164558 0.025909819867444343 0 -0.057210953297447076 0.023598046115003917 0 -0.057903599762645475 0.026316356329782933 0 -0.056216774700828788 0.026928195958755275 0 -0.054999823713720246 0.028893384874465057 0 -0.056216774700828788 0.026928195958755275 0 -0.054999667112858724 0.025911534923552516 0 -0.060393782514144768 0.024442095297279011 0 -0.05929121598311049 0.026310181008789367 0 -0.05933531729327373 0.024027414015280822 0 -0.057903599762645475 0.026316356329782933 0 -0.05929121598311049 0.026310181008789367 0 -0.05933531729327373 0.024027414015280822 0 -0.057210953297447076 0.023598046115003917 0 -0.057903599762645475 0.026316356329782933 0 -0.05933531729327373 0.024027414015280822 0 -0.060393782514144768 0.024442095297279011 0 -0.05933531729327373 0.024027414015280822 0 -0.060108662689589837 0.0238053689125035 0 -0.05933531729327373 0.024027414015280822 0 -0.060108662689589837 0.0238053689125035 0 -0.060051402738016381 0.022720113669895153 0 -0.060393782514144768 0.024442095297279011 0 -0.060108662689589837 0.0238053689125035 0 -0.059864256758522319 0.024030688701900855 0 -0.05933531729327373 0.024027414015280822 0 -0.060051402738016381 0.022720113669895153 0 -0.059029384145991924 0.022216775850358604 0 -0.057210953297447076 0.023598046115003917 0 -0.05933531729327373 0.024027414015280822 0 -0.059029384145991924 0.022216775850358604 0 -0.055892756261627423 0.025211210080140687 0 -0.056547016610858432 0.024698257672291148 0 -0.058533213403991667 0.020926072126602763 0 -0.057054490553173305 0.021526123374231647 0 -0.059394126927853307 0.02220465448918825 0 -0.059798523185776838 0.020310093551621111 0 -0.058533213403991667 0.020926072126602763 0 -0.059394126927853307 0.02220465448918825 0 -0.059798523185776838 0.020310093551621111 0 -0.059394126927853307 0.02220465448918825 0 -0.060401782241862198 0.021118254286161774 0 -0.060051402738016381 0.022720113669895153 0 -0.059029384145991924 0.022216775850358604 0 -0.060401782241862198 0.021118254286161774 0 -0.056547016610858432 0.024698257672291148 0 -0.056801647395733741 0.024498881814405654 0 -0.060051402738016381 0.022720113669895153 0 -0.060770039558180271 0.021932090218438935 0 -0.060401782241862198 0.021118254286161774 0 -0.060770039558180271 0.021932090218438935 0 -0.06112890356603435 0.021115881297404285 0 -0.060401782241862198 0.021118254286161774 0 -0.060770039558180271 0.021932090218438935 0 -0.06112890356603435 0.021115881297404285 0 -0.061518349410907468 0.022088286361610296 0 -0.060770039558180271 0.021932090218438935 0 -0.061518349410907468 0.022088286361610296 0 -0.060935203132556362 0.02326739515971131 0 -0.056702045062556508 0.027605550467034463 0 -0.058216964668304144 0.025549290324387564 0 -0.056445870895741872 0.025772882846451715 0 -0.055802297844066318 0.021899045939325658 0 -0.055979810226053854 0.021902794694256579 0 -0.060051402738016381 0.022720113669895153 0 -0.060770039558180271 0.021932090218438935 0 -0.060935203132556362 0.02326739515971131 0 -0.060108662689589837 0.0238053689125035 0 -0.060935203132556362 0.02326739515971131 0 -0.059864256758522319 0.024030688701900855 0 -0.060108662689589837 0.0238053689125035 0 -0.060051402738016381 0.022720113669895153 0 -0.060935203132556362 0.02326739515971131 0 -0.058216964668304144 0.025549290324387564 0 -0.058253794134911704 0.024135113971521766 0 -0.059864256758522319 0.024030688701900855 0 -0.055979810226053854 0.021902794694256579 0 -0.056055002056146087 0.021881834382818748 0 -0.058216964668304144 0.025549290324387564 0 -0.056709650603763199 0.024185911770092095 0 -0.056445870895741872 0.025772882846451715 0 -0.058216964668304144 0.025549290324387564 0 -0.056709650603763199 0.024185911770092095 0 -0.058253794134911704 0.024135113971521766 0 -0.056709650603763199 0.024185911770092095 0 -0.058331168640420435 0.022711660484630362 0 -0.055689952598768924 0.022348352195558405 0 -0.056709650603763199 0.024185911770092095 0 -0.058253794134911704 0.024135113971521766 0 -0.058331168640420435 0.022711660484630362 0 -0.059748923620310715 0.022411658587960098 0 -0.058331168640420435 0.022711660484630362 0 -0.059864256758522319 0.024030688701900855 0 -0.059748923620310715 0.022411658587960098 0 -0.060393782514144768 0.024442095297279011 0 -0.059864256758522319 0.024030688701900855 0 -0.058253794134911704 0.024135113971521766 0 -0.058331168640420435 0.022711660484630362 0 -0.059864256758522319 0.024030688701900855 0 -0.054256159723770507 0.019943827170496323 0 -0.053461292517827955 0.022317350856165145 0 -0.055689952598768924 0.022348352195558405 0 -0.053461292517827955 0.022317350856165145 0 -0.055689952598768924 0.022348352195558405 0 -0.054925169367198025 0.024548778153850776 0 -0.056709650603763199 0.024185911770092095 0 -0.055689952598768924 0.022348352195558405 0 -0.054925169367198025 0.024548778153850776 0 -0.056709650603763199 0.024185911770092095 0 -0.054925169367198025 0.024548778153850776 0 -0.056445870895741872 0.025772882846451715 0 -0.053461292517827955 0.022317350856165145 0 -0.054925169367198025 0.024548778153850776 0 -0.053182358621218791 0.025598695590197326 0 -0.053461292517827955 0.022317350856165145 0 -0.053182358621218791 0.025598695590197326 0 -0.051219915945104527 0.024604777639944935 0 -0.053182358621218791 0.025598695590197326 0 -0.054301912453475772 0.027323938456198578 0 -0.051502498177117391 0.027497833668005969 0 -0.054925169367198025 0.024548778153850776 0 -0.053182358621218791 0.025598695590197326 0 -0.054301912453475772 0.027323938456198578 0 -0.054925169367198025 0.024548778153850776 0 -0.054301912453475772 0.027323938456198578 0 -0.056445870895741872 0.025772882846451715 0 -0.056702045062556508 0.027605550467034463 0 -0.054301912453475772 0.027323938456198578 0 -0.056445870895741872 0.025772882846451715 0 -0.056702045062556508 0.027605550467034463 0 -0.054301912453475772 0.027323938456198578 0 -0.055083199786452569 0.029861024062901639 0 -0.055802297844066318 0.021899045939325658 0 -0.05557884316022664 0.021791191521972064 0 -0.06112890356603435 0.021115881297404285 0 -0.061518349410907468 0.022088286361610296 0 -0.062255108911415599 0.020941179655339644 0 -0.054301912453475772 0.027323938456198578 0 -0.053346174380308704 0.02900153537106178 0 -0.055083199786452569 0.029861024062901639 0 -0.054301912453475772 0.027323938456198578 0 -0.053346174380308704 0.02900153537106178 0 -0.051502498177117391 0.027497833668005969 0 -0.053346174380308704 0.02900153537106178 0 -0.053003308716491039 0.0301989157977294 0 -0.055083199786452569 0.029861024062901639 0 -0.055246068599212016 0.021678231121320661 0 -0.055250165935068526 0.021712281962697696 0 -0.055290541935767441 0.021647015094594647 0 -0.055250165935068526 0.021712281962697696 0 -0.055304146627254143 0.021639502712739199 0 -0.055290541935767441 0.021647015094594647 0 -0.053346174380308704 0.02900153537106178 0 -0.053003308716491039 0.0301989157977294 0 -0.0517524242216661 0.030218042797742494 0 -0.055251784926166489 0.021647212331319346 0 -0.055246068599212016 0.021678231121320661 0 -0.055290541935767441 0.021647015094594647 0 -0.055581694966615525 0.021743820166908002 0 -0.05557884316022664 0.021791191521972064 0 -0.055251784926166489 0.021647212331319346 0 -0.055246068599212016 0.021678231121320661 0 -0.055220628820310556 0.021647458308717536 0 -0.055370728234145003 0.021769288311077745 0 -0.05557884316022664 0.021791191521972064 0 -0.055370728234145003 0.021769288311077745 0 -0.055369494557909835 0.021768895136428264 0 -0.055252306315365055 0.021647989497752831 0 -0.055304146627254143 0.021639502712739199 0 -0.055290541935767441 0.021647015094594647 0 -0.060526539364898636 0.020674070377097859 0 -0.060802951130502297 0.020722948992948433 0 -0.060485431289759056 0.02088745146073424 0 -0.060526539364898636 0.020674070377097859 0 -0.060802951130502297 0.020722948992948433 0 -0.060917417653455021 0.020789710458160086 0 -0.055246068599212016 0.021678231121320661 0 -0.055250165935068526 0.021712281962697696 0 -0.055226481627771093 0.021730985011982569 0 -0.060802951130502297 0.020722948992948433 0 -0.060949219691541157 0.020828166648193397 0 -0.060830962643785208 0.020720831035316356 0 -0.055714181338994459 0.021771083916141715 0 -0.05557884316022664 0.021791191521972064 0 -0.06112890356603435 0.021115881297404285 0 -0.060949219691541157 0.020828166648193397 0 -0.060917417653455021 0.020789710458160086 0 -0.060802951130502297 0.020722948992948433 0 -0.060949219691541157 0.020828166648193397 0 -0.060917417653455021 0.020789710458160086 0 -0.06112890356603435 0.021115881297404285 0 -0.060949219691541157 0.020828166648193397 0 -0.060830962643785208 0.020720831035316356 0 -0.06112890356603435 0.021115881297404285 0 -0.060601018668101067 0.020725143361111139 0 -0.060830962643785208 0.020720831035316356 0 -0.06112890356603435 0.021115881297404285 0 -0.060401782241862198 0.021118254286161774 0 -0.060601018668101067 0.020725143361111139 0 -0.060217510843624297 0.020568735587180156 0 -0.060401782241862198 0.021118254286161774 0 -0.060601018668101067 0.020725143361111139 0 -0.060217510843624297 0.020568735587180156 0 -0.060601018668101067 0.020725143361111139 0 -0.060365496405759569 0.020527511307006776 0 -0.060601018668101067 0.020725143361111139 0 -0.060365496405759569 0.020527511307006776 0 -0.060600832259637791 0.020565762951143408 0 -0.060365496405759569 0.020527511307006776 0 -0.060600832259637791 0.020565762951143408 0 -0.060458769654245445 0.020464283376089173 0 -0.060802951130502297 0.020722948992948433 0 -0.060830962643785208 0.020720831035316356 0 -0.060774904033206449 0.020658724957825794 0 -0.060601018668101067 0.020725143361111139 0 -0.060600832259637791 0.020565762951143408 0 -0.060830962643785208 0.020720831035316356 0 -0.060600832259637791 0.020565762951143408 0 -0.060830962643785208 0.020720831035316356 0 -0.060774904033206449 0.020658724957825794 0 -0.060774904033206449 0.020658724957825794 0 -0.060711459666736155 0.020553995410396712 0 -0.060737016134084061 0.020907539123694658 0 -0.060600832259637791 0.020565762951143408 0 -0.060774904033206449 0.020658724957825794 0 -0.060711459666736155 0.020553995410396712 0 -0.058093760008115627 0.016544267641566301 0 -0.057733149690959142 0.016413095639867269 0 -0.060600832259637791 0.020565762951143408 0 -0.060711459666736155 0.020553995410396712 0 -0.060458769654245445 0.020464283376089173 0 -0.060711459666736155 0.020553995410396712 0 -0.060458769654245445 0.020464283376089173 0 -0.060469863590298017 0.020378619988793159 0 -0.057657794583970766 0.016392930748804154 0 -0.057733149690959142 0.016413095639867269 0 -0.057285202102898919 0.015335189692542149 0 -0.057348943084511689 0.015335941419298451 0 -0.057639438868973977 0.014703854870456747 0 -0.057657794583970766 0.016392930748804154 0 -0.057747270820162074 0.016064269042099916 0 -0.057733149690959142 0.016413095639867269 0 -0.057854626106160871 0.01524775228677012 0 -0.062129079309458032 0.020799174251969144 0 -0.063641798634578306 0.020805670027398037 0 -0.062956529229408434 0.022374441706303254 0 -0.057285202102898919 0.015335189692542149 0 -0.057639438868973977 0.014703854870456747 0 -0.057590515044468882 0.014582076375582276 0 -0.057233209485949087 0.014775087451303013 0 -0.057347894647070907 0.01521266623238369 0 -0.057619832615992871 0.014535852140311291 0 -0.062129079309458032 0.020799174251969144 0 -0.061529115172783026 0.021793806930192072 0 -0.062956529229408434 0.022374441706303254 0 -0.062129079309458032 0.020799174251969144 0 -0.061529115172783026 0.021793806930192072 0 -0.060737016134084061 0.020907539123694658 0 -0.061529115172783026 0.021793806930192072 0 -0.060737016134084061 0.020907539123694658 0 -0.060566914436424944 0.022082591249706476 0 -0.055769685586739143 0.02199697391168506 0 -0.055906911389765321 0.022058570090061833 0 -0.060222239434465336 0.021368049633706556 0 -0.060737016134084061 0.020907539123694658 0 -0.060566914436424944 0.022082591249706476 0 -0.060222239434465336 0.021368049633706556 0 -0.060485431289759056 0.02088745146073424 0 -0.060737016134084061 0.020907539123694658 0 -0.060802951130502297 0.020722948992948433 0 -0.060774904033206449 0.020658724957825794 0 -0.060737016134084061 0.020907539123694658 0 -0.060802951130502297 0.020722948992948433 0 -0.060485431289759056 0.02088745146073424 0 -0.060737016134084061 0.020907539123694658 0 -0.058093760008115627 0.016544267641566301 0 -0.058197679635347117 0.016588428034872399 0 -0.055178471924707359 0.021741806199564322 0 -0.055194032192997851 0.021787957819710199 0 -0.055118331419967366 0.021741075473091894 0 -0.055405327030378114 0.021843887362021978 0 -0.0549223932637984 0.02163095011002724 0 -0.057193446692613885 0.020957031292742671 0 -0.056133154668602477 0.021286745457441289 0 -0.055633072167580136 0.019763909766220937 0 -0.057440058158505836 0.020617245365645884 0 -0.057193446692613885 0.020957031292742671 0 -0.055633072167580136 0.019763909766220937 0 -0.055581694966615525 0.021743820166908002 0 -0.055405327030378114 0.021843887362021978 0 -0.060222239434465336 0.021368049633706556 0 -0.060485431289759056 0.02088745146073424 0 -0.059964754646411038 0.021055941387338847 0 -0.055250165935068526 0.021712281962697696 0 -0.055194032192997851 0.021787957819710199 0 -0.055226481627771093 0.021730985011982569 0 -0.060526539364898636 0.020674070377097859 0 -0.060485431289759056 0.02088745146073424 0 -0.059964754646411038 0.021055941387338847 0 -0.055178471924707359 0.021741806199564322 0 -0.055194032192997851 0.021787957819710199 0 -0.055226481627771093 0.021730985011982569 0 -0.057505666364696478 0.020524628512803351 0 -0.057193446692613885 0.020957031292742671 0 -0.057935708131636163 0.021649767393382095 0 -0.058984020315203493 0.021266892704970817 0 -0.057935708131636163 0.021649767393382095 0 -0.058779966981626054 0.02282140091909789 0 -0.055405327030378114 0.021843887362021978 0 -0.055409492437884088 0.021839412555072973 0 -0.055769685586739143 0.02199697391168506 0 -0.055405327030378114 0.021843887362021978 0 -0.058984020315203493 0.021266892704970817 0 -0.057505666364696478 0.020524628512803351 0 -0.057935708131636163 0.021649767393382095 0 -0.057193446692613885 0.020957031292742671 0 -0.057935708131636163 0.021649767393382095 0 -0.057043611934380421 0.021528376659321585 0 -0.057935708131636163 0.021649767393382095 0 -0.057043611934380421 0.021528376659321585 0 -0.056949962687731975 0.022229730272331553 0 -0.057043611934380421 0.021528376659321585 0 -0.056133154668602477 0.021286745457441289 0 -0.056949962687731975 0.022229730272331553 0 -0.056133154668602477 0.021286745457441289 0 -0.055560636765043553 0.022315813232841337 0 -0.056949962687731975 0.022229730272331553 0 -0.057193446692613885 0.020957031292742671 0 -0.057043611934380421 0.021528376659321585 0 -0.056133154668602477 0.021286745457441289 0 -0.05458470208034772 0.021043956681982459 0 -0.054457517472190194 0.022334402296500765 0 -0.055560636765043553 0.022315813232841337 0 -0.056133154668602477 0.021286745457441289 0 -0.05458470208034772 0.021043956681982459 0 -0.055560636765043553 0.022315813232841337 0 -0.05458470208034772 0.021043956681982459 0 -0.052999981507349865 0.022184456615557426 0 -0.054457517472190194 0.022334402296500765 0 -0.05458470208034772 0.021043956681982459 0 -0.052887808649877681 0.020812803062606362 0 -0.052999981507349865 0.022184456615557426 0 -0.05458470208034772 0.021043956681982459 0 -0.053943141351026874 0.018999930963326264 0 -0.052887808649877681 0.020812803062606362 0 -0.056133154668602477 0.021286745457441289 0 -0.05458470208034772 0.021043956681982459 0 -0.055633072167580136 0.019763909766220937 0 -0.05458470208034772 0.021043956681982459 0 -0.055633072167580136 0.019763909766220937 0 -0.053943141351026874 0.018999930963326264 0 -0.055118331419967366 0.021741075473091894 0 -0.055088379760774187 0.021694987886449201 0 -0.055131446208374846 0.021700325931577499 0 -0.055088379760774187 0.021694987886449201 0 -0.055029160684333001 0.021678059696653356 0 -0.05510269556218484 0.02168177316607809 0 -0.0549223932637984 0.02163095011002724 0 -0.054403553820314726 0.021432266150913051 0 -0.055118331419967366 0.021741075473091894 0 -0.055088379760774187 0.021694987886449201 0 -0.055041584312825735 0.021693992748129862 0 -0.05510269556218484 0.02168177316607809 0 -0.055131162446137721 0.021681815068556386 0 -0.055131446208374846 0.021700325931577499 0 -0.055088379760774187 0.021694987886449201 0 -0.05510269556218484 0.02168177316607809 0 -0.055131446208374846 0.021700325931577499 0 -0.055088379760774187 0.021694987886449201 0 -0.055041584312825735 0.021693992748129862 0 -0.055029160684333001 0.021678059696653356 0 -0.055047284885906406 0.021651760159456974 0 -0.055029160684333001 0.021678059696653356 0 -0.055107927110448561 0.021668316835019952 0 -0.055047284885906406 0.021651760159456974 0 -0.055029160684333001 0.021678059696653356 0 -0.054971919901987458 0.021649724827396011 0 -0.055047284885906406 0.021651760159456974 0 -0.055107927110448561 0.021668316835019952 0 -0.05511643883479931 0.021654162622139157 0 -0.055253922515354735 0.021749710380568242 0 -0.055267358630447003 0.021749584783001 0 -0.055029160684333001 0.021678059696653356 0 -0.05510269556218484 0.02168177316607809 0 -0.055124285663868372 0.021661332328470097 0 -0.054200183090295083 0.021408908340360105 0 -0.054647939555051893 0.021565805366923829 0 -0.05510269556218484 0.02168177316607809 0 -0.055124285663868372 0.021661332328470097 0 -0.055131162446137721 0.021681815068556386 0 -0.055124285663868372 0.021661332328470097 0 -0.0551562189465531 0.021681156409535506 0 -0.055219346266772329 0.021642125314426188 0 -0.055107927110448561 0.021668316835019952 0 -0.05511643883479931 0.021654162622139157 0 -0.055183976812542036 0.021656379009341142 0 -0.055267358630447003 0.021749584783001 0 -0.055300728418596068 0.02174951425269421 0 -0.05047056230133664 0.019437158146634225 0 -0.050257085644193865 0.019448442347087824 0 -0.050379723640565977 0.019551776487249508 0 -0.054647939555051893 0.021565805366923829 0 -0.055300728418596068 0.02174951425269421 0 -0.055124285663868372 0.021661332328470097 0 -0.0551562189465531 0.021681156409535506 0 -0.055131162446137721 0.021681815068556386 0 -0.0551562189465531 0.021681156409535506 0 -0.055131446208374846 0.021700325931577499 0 -0.055160073326771308 0.021711777690352589 0 -0.055178471924707359 0.021741806199564322 0 -0.055118331419967366 0.021741075473091894 0 -0.055160073326771308 0.021711777690352589 0 -0.0551562189465531 0.021681156409535506 0 -0.055131162446137721 0.021681815068556386 0 -0.055131446208374846 0.021700325931577499 0 -0.0551562189465531 0.021681156409535506 0 -0.055179246353719458 0.021691742057600352 0 -0.055160073326771308 0.021711777690352589 0 -0.055179246353719458 0.021691742057600352 0 -0.055160073326771308 0.021711777690352589 0 -0.055196643605611578 0.021714333980891277 0 -0.055178471924707359 0.021741806199564322 0 -0.055160073326771308 0.021711777690352589 0 -0.055196643605611578 0.021714333980891277 0 -0.055118331419967366 0.021741075473091894 0 -0.055131446208374846 0.021700325931577499 0 -0.055160073326771308 0.021711777690352589 0 -0.055299354955243324 0.021746466507551559 0 -0.055300728418596068 0.02174951425269421 0 -0.055226481627771093 0.021730985011982569 0 -0.055196643605611578 0.021714333980891277 0 -0.055219346266772329 0.021642125314426188 0 -0.055178471924707359 0.021741806199564322 0 -0.055226481627771093 0.021730985011982569 0 -0.055196643605611578 0.021714333980891277 0 -0.0551562189465531 0.021681156409535506 0 -0.055179246353719458 0.021691742057600352 0 -0.055219346266772329 0.021642125314426188 0 -0.055179246353719458 0.021691742057600352 0 -0.055196643605611578 0.021714333980891277 0 -0.055219346266772329 0.021642125314426188 0 -0.055246068599212016 0.021678231121320661 0 -0.055226481627771093 0.021730985011982569 0 -0.055220628820310556 0.021647458308717536 0 -0.055370728234145003 0.021769288311077745 0 -0.055300728418596068 0.02174951425269421 0 -0.053346174380308704 0.02900153537106178 0 -0.0517524242216661 0.030218042797742494 0 -0.051502498177117391 0.027497833668005969 0 -0.055300728418596068 0.02174951425269421 0 -0.055087953771925484 0.021820755678659171 0 -0.050257085644193865 0.019448442347087824 0 -0.050379723640565977 0.019551776487249508 0 -0.05027569707503849 0.019685081946134466 0 -0.050379723640565977 0.019551776487249508 0 -0.050520040579928545 0.019677512140070713 0 -0.05027569707503849 0.019685081946134466 0 -0.05047056230133664 0.019437158146634225 0 -0.050379723640565977 0.019551776487249508 0 -0.050520040579928545 0.019677512140070713 0 -0.050520040579928545 0.019677512140070713 0 -0.05027569707503849 0.019685081946134466 0 -0.050399168559406508 0.020126938996725924 0 -0.055087953771925484 0.021820755678659171 0 -0.054956373800897795 0.021771988175214977 0 -0.053182358621218791 0.025598695590197326 0 -0.051502498177117391 0.027497833668005969 0 -0.051219915945104527 0.024604777639944935 0 -0.050520040579928545 0.019677512140070713 0 -0.050717741422530646 0.020373359108059815 0 -0.05050768768425392 0.019961021909448807 0 -0.050520040579928545 0.019677512140070713 0 -0.050399168559406508 0.020126938996725924 0 -0.050717741422530646 0.020373359108059815 0 -0.05033996845401429 0.01979656216149988 0 -0.050723028196349995 0.019733260054358357 0 -0.050717741422530646 0.020373359108059815 0 -0.050723028196349995 0.019733260054358357 0 -0.050717741422530646 0.020373359108059815 0 -0.051120848744454592 0.020975447042946269 0 -0.054956373800897795 0.021771988175214977 0 -0.054911873911516633 0.021726525580888473 0 -0.053461292517827955 0.022317350856165145 0 -0.051219915945104527 0.024604777639944935 0 -0.051120848744454592 0.020975447042946269 0 -0.050399168559406508 0.020126938996725924 0 -0.050717741422530646 0.020373359108059815 0 -0.051120848744454592 0.020975447042946269 0 -0.052381064860813509 0.020272500065251473 0 -0.053461292517827955 0.022317350856165145 0 -0.051120848744454592 0.020975447042946269 0 -0.050221310414609199 0.019611704811698508 0 -0.05033996845401429 0.01979656216149988 0 -0.050344215714355114 0.019635420077867033 0 -0.05033996845401429 0.01979656216149988 0 -0.050717741422530646 0.020373359108059815 0 -0.05050768768425392 0.019961021909448807 0 -0.05033996845401429 0.01979656216149988 0 -0.05050768768425392 0.019961021909448807 0 -0.050344215714355114 0.019635420077867033 0 -0.050520040579928545 0.019677512140070713 0 -0.05050768768425392 0.019961021909448807 0 -0.050473340798629841 0.019626683170049283 0 -0.050344215714355114 0.019635420077867033 0 -0.050473340798629841 0.019626683170049283 0 -0.050391084913082702 0.01934555394475675 0 -0.05050768768425392 0.019961021909448807 0 -0.050344215714355114 0.019635420077867033 0 -0.050473340798629841 0.019626683170049283 0 -0.050473340798629841 0.019626683170049283 0 -0.050487568420923223 0.019445984469749079 0 -0.050391084913082702 0.01934555394475675 0 -0.050487568420923223 0.019445984469749079 0 -0.050442952236936123 0.019155371199317522 0 -0.050391084913082702 0.01934555394475675 0 -0.050520040579928545 0.019677512140070713 0 -0.050473340798629841 0.019626683170049283 0 -0.050487568420923223 0.019445984469749079 0 -0.05047056230133664 0.019437158146634225 0 -0.050520040579928545 0.019677512140070713 0 -0.050487568420923223 0.019445984469749079 0 -0.050492153477961293 0.019330672304347367 0 -0.05047056230133664 0.019437158146634225 0 -0.050487568420923223 0.019445984469749079 0 -0.050492153477961293 0.019330672304347367 0 -0.050487568420923223 0.019445984469749079 0 -0.050442952236936123 0.019155371199317522 0 -0.050442952236936123 0.019155371199317522 0 -0.050421942514483523 0.018837353635483806 0 -0.050442419726891487 0.019107119008480385 0 -0.050492153477961293 0.019330672304347367 0 -0.050442952236936123 0.019155371199317522 0 -0.050442419726891487 0.019107119008480385 0 -0.050442952236936123 0.019155371199317522 0 -0.050421942514483523 0.018837353635483806 0 -0.050395693098767604 0.018894438723287395 0 -0.050421942514483523 0.018837353635483806 0 -0.050395693098767604 0.018894438723287395 0 -0.050423721271859449 0.018605434213148361 0 -0.050442952236936123 0.019155371199317522 0 -0.050395693098767604 0.018894438723287395 0 -0.050391084913082702 0.01934555394475675 0 -0.050395693098767604 0.018894438723287395 0 -0.050391084913082702 0.01934555394475675 0 -0.050329120316306972 0.019353445229285775 0 -0.050344215714355114 0.019635420077867033 0 -0.050391084913082702 0.01934555394475675 0 -0.050329120316306972 0.019353445229285775 0 -0.050395693098767604 0.018894438723287395 0 -0.050329120316306972 0.019353445229285775 0 -0.050409503573014117 0.019024625884786758 0 -0.050329120316306972 0.019353445229285775 0 -0.050424420466624369 0.019438079286139949 0 -0.050409503573014117 0.019024625884786758 0 -0.033388843321533399 0.032704824389813661 0 -0.032126096943026747 0.031355780420189328 0 -0.050221310414609199 0.019611704811698508 0 -0.050329120316306972 0.019353445229285775 0 -0.050424420466624369 0.019438079286139949 0 -0.050221310414609199 0.019611704811698508 0 -0.050344215714355114 0.019635420077867033 0 -0.050329120316306972 0.019353445229285775 0 -0.013944054341190813 0.034885413816601867 0 -0.010885570510598002 0.033707993728912054 0 -0.014404595287359052 0.031497471584053062 0 -0.030794292481801398 0.030255729417332337 0 -0.028503162849470409 0.031254282699760119 0 -0.013944054341190813 0.034885413816601867 0 -0.014404595287359052 0.031497471584053062 0 -0.016539241486574704 0.034490414280971562 0 -0.032126096943026747 0.031355780420189328 0 -0.030794292481801398 0.030255729417332337 0 -0.050424420466624369 0.019438079286139949 0 -0.050409503573014117 0.019024625884786758 0 -0.050947392236314788 0.019115138523996263 0 -0.050409503573014117 0.019024625884786758 0 -0.050947392236314788 0.019115138523996263 0 -0.050402886207861756 0.018385043938694164 0 -0.049606327224927298 0.017280137528063233 0 -0.049530955214743461 0.017774214813186195 0 -0.050402886207861756 0.018385043938694164 0 -0.030794292481801398 0.030255729417332337 0 -0.031094834299492724 0.030150832528851482 0 -0.049530955214743461 0.017774214813186195 0 -0.050402886207861756 0.018385043938694164 0 -0.049916767477088633 0.018170854021279291 0 -0.049530955214743461 0.017774214813186195 0 -0.049916767477088633 0.018170854021279291 0 -0.049109646926199374 0.017484516767490181 0 -0.050395693098767604 0.018894438723287395 0 -0.050409503573014117 0.019024625884786758 0 -0.050402886207861756 0.018385043938694164 0 -0.050395693098767604 0.018894438723287395 0 -0.050402886207861756 0.018385043938694164 0 -0.050423721271859449 0.018605434213148361 0 -0.050423721271859449 0.018605434213148361 0 -0.049818181617051351 0.0185234641541294 0 -0.050465729375492548 0.018714105691057553 0 -0.050402886207861756 0.018385043938694164 0 -0.050423721271859449 0.018605434213148361 0 -0.049916767477088633 0.018170854021279291 0 -0.050421942514483523 0.018837353635483806 0 -0.050423721271859449 0.018605434213148361 0 -0.050465729375492548 0.018714105691057553 0 -0.050423721271859449 0.018605434213148361 0 -0.049916767477088633 0.018170854021279291 0 -0.049818181617051351 0.0185234641541294 0 -0.049916767477088633 0.018170854021279291 0 -0.049818181617051351 0.0185234641541294 0 -0.049109646926199374 0.017484516767490181 0 -0.049818181617051351 0.0185234641541294 0 -0.049948554894848042 0.019112676167359583 0 -0.048737773241421423 0.018835787245966306 0 -0.049818181617051351 0.0185234641541294 0 -0.049948554894848042 0.019112676167359583 0 -0.050465729375492548 0.018714105691057553 0 -0.049679753996391442 0.019752137543670726 0 -0.050604295277161357 0.019823645796521391 0 -0.049663675653331303 0.020505433133750913 0 -0.049948554894848042 0.019112676167359583 0 -0.049679753996391442 0.019752137543670726 0 -0.050604295277161357 0.019823645796521391 0 -0.050604295277161357 0.019823645796521391 0 -0.050465729375492548 0.018714105691057553 0 -0.051364132892275774 0.019151725495020165 0 -0.049948554894848042 0.019112676167359583 0 -0.050604295277161357 0.019823645796521391 0 -0.050465729375492548 0.018714105691057553 0 -0.050421942514483523 0.018837353635483806 0 -0.050465729375492548 0.018714105691057553 0 -0.050372205958792049 0.018827239173463992 0 -0.050465729375492548 0.018714105691057553 0 -0.052381334812923723 0.018290378157742052 0 -0.051364132892275774 0.019151725495020165 0 -0.053698016504551228 0.021227820332301164 0 -0.053895277866470297 0.02127665945407695 0 -0.053823519658502884 0.021230078410314945 0 -0.053895277866470297 0.02127665945407695 0 -0.054200183090295083 0.021408908340360105 0 -0.053895277866470297 0.02127665945407695 0 -0.054403553820314726 0.021432266150913051 0 -0.053895277866470297 0.02127665945407695 0 -0.055041584312825735 0.021693992748129862 0 -0.055029160684333001 0.021678059696653356 0 -0.054971919901987458 0.021649724827396011 0 -0.053943141351026874 0.018999930963326264 0 -0.052111197987524414 0.019710312693119104 0 -0.052887808649877681 0.020812803062606362 0 -0.053943141351026874 0.018999930963326264 0 -0.052381334812923723 0.018290378157742052 0 -0.052111197987524414 0.019710312693119104 0 -0.052381334812923723 0.018290378157742052 0 -0.051364132892275774 0.019151725495020165 0 -0.052111197987524414 0.019710312693119104 0 -0.050604295277161357 0.019823645796521391 0 -0.051364132892275774 0.019151725495020165 0 -0.052111197987524414 0.019710312693119104 0 -0.050604295277161357 0.019823645796521391 0 -0.052111197987524414 0.019710312693119104 0 -0.051566420026208523 0.020878345171344577 0 -0.056085102603727843 0.013064616336588031 0 -0.056224928262964075 0.012733192664448346 0 -0.052111197987524414 0.019710312693119104 0 -0.051762011528942414 0.020989819369353686 0 -0.052887808649877681 0.020812803062606362 0 -0.052887808649877681 0.020812803062606362 0 -0.052157808684273464 0.021859228936524783 0 -0.052999981507349865 0.022184456615557426 0 -0.051762011528942414 0.020989819369353686 0 -0.052887808649877681 0.020812803062606362 0 -0.052157808684273464 0.021859228936524783 0 -0.056224928262964075 0.012733192664448346 0 -0.05668461476890499 0.011630966361467526 0 -0.051762011528942414 0.020989819369353686 0 -0.052157808684273464 0.021859228936524783 0 -0.051397688862443842 0.022229532988600687 0 -0.051566420026208523 0.020878345171344577 0 -0.050567182628424204 0.021551893873676994 0 -0.051119869610761433 0.021886817885518325 0 -0.051566420026208523 0.020878345171344577 0 -0.050348639948395488 0.020976148062190721 0 -0.050567182628424204 0.021551893873676994 0 -0.050348639948395488 0.020976148062190721 0 -0.050012069135274145 0.021654620654868409 0 -0.049525913046669277 0.021221645777573028 0 -0.050348639948395488 0.020976148062190721 0 -0.049663675653331303 0.020505433133750913 0 -0.049525913046669277 0.021221645777573028 0 -0.050348639948395488 0.020976148062190721 0 -0.050567182628424204 0.021551893873676994 0 -0.050012069135274145 0.021654620654868409 0 -0.050012069135274145 0.021654620654868409 0 -0.049525913046669277 0.021221645777573028 0 -0.049345978787894838 0.021849372363782139 0 -0.050604295277161357 0.019823645796521391 0 -0.050348639948395488 0.020976148062190721 0 -0.049663675653331303 0.020505433133750913 0 -0.050604295277161357 0.019823645796521391 0 -0.051566420026208523 0.020878345171344577 0 -0.050348639948395488 0.020976148062190721 0 -0.050625430522091598 0.023165887691954008 0 -0.050108532274229498 0.022833742022703326 0 -0.050357693011397989 0.022102113163193667 0 -0.056424827256801958 0.0096553353816328132 0 -0.05668461476890499 0.011630966361467526 0 -0.056424827256801958 0.0096553353816328132 0 -0.05642492454745282 0.0098612898457037974 0 -0.05642492454745282 0.0098612898457037974 0 -0.056385928206058387 0.0099899752308853455 0 -0.050003819209308013 0.023076639233883374 0 -0.050089519519108859 0.022828176892961707 0 -0.049255668817484999 0.022315873704142519 0 -0.058314928460378335 0.0097266315562537006 0 -0.054313475318338557 0.0091453058994893678 0 -0.054874933233503349 0.0075261467733127143 0 -0.056377477260399995 0.0094708563192167864 0 -0.05642492454745282 0.0098612898457037974 0 -0.05642492454745282 0.0098612898457037974 0 -0.056307566973420549 0.010168081580726906 0 -0.050088618442766464 0.022853754053446342 0 -0.04980036466434902 0.022164399389248711 0 -0.049255668817484999 0.022315873704142519 0 -0.050088618442766464 0.022853754053446342 0 -0.050357693011397989 0.022102113163193667 0 -0.04980036466434902 0.022164399389248711 0 -0.050012069135274145 0.021654620654868409 0 -0.04980036466434902 0.022164399389248711 0 -0.049345978787894838 0.021849372363782139 0 -0.050567182628424204 0.021551893873676994 0 -0.050012069135274145 0.021654620654868409 0 -0.050357693011397989 0.022102113163193667 0 -0.050012069135274145 0.021654620654868409 0 -0.050357693011397989 0.022102113163193667 0 -0.04980036466434902 0.022164399389248711 0 -0.050567182628424204 0.021551893873676994 0 -0.050357693011397989 0.022102113163193667 0 -0.050729345203773139 0.022017682030301945 0 -0.050625430522091598 0.023165887691954008 0 -0.050357693011397989 0.022102113163193667 0 -0.050729345203773139 0.022017682030301945 0 -0.050625430522091598 0.023165887691954008 0 -0.050729345203773139 0.022017682030301945 0 -0.051119869610761433 0.021886817885518325 0 -0.050567182628424204 0.021551893873676994 0 -0.050729345203773139 0.022017682030301945 0 -0.051119869610761433 0.021886817885518325 0 -0.05668461476890499 0.011630966361467526 0 -0.057157567253248616 0.010636810501380095 0 -0.052157808684273464 0.021859228936524783 0 -0.051397688862443842 0.022229532988600687 0 -0.052343560603907824 0.023419902542273576 0 -0.052157808684273464 0.021859228936524783 0 -0.052999981507349865 0.022184456615557426 0 -0.052343560603907824 0.023419902542273576 0 -0.053204281673729217 0.023138554921267093 0 -0.052343560603907824 0.023419902542273576 0 -0.05347393739453702 0.023747096346948361 0 -0.052999981507349865 0.022184456615557426 0 -0.053204281673729217 0.023138554921267093 0 -0.052343560603907824 0.023419902542273576 0 -0.056385057692228478 0.0091675189111058691 0 -0.056668086403676578 0.008402409214867115 0 -0.057124102552074618 0.0090502651206207912 0 -0.059885861100601567 -0.0020273878583513122 0 -0.059619627857595961 -0.0014911325404966041 0 -0.058689902400042578 -0.0023377728167798982 0 -0.056385057692228478 0.0091675189111058691 0 -0.057124102552074618 0.0090502651206207912 0 -0.057003207512374934 0.0095611366569390548 0 -0.052343560603907824 0.023419902542273576 0 -0.053148404965470325 0.024436350081150551 0 -0.05347393739453702 0.023747096346948361 0 -0.057157567253248616 0.010636810501380095 0 -0.057524449960338259 0.0091687284296060496 0 -0.056993649141099646 0.0090572376009070473 0 -0.057524449960338259 0.0091687284296060496 0 -0.057124102552074618 0.0090502651206207912 0 -0.057003207512374934 0.0095611366569390548 0 -0.057579678126275714 0.0096976415546131765 0 -0.059881714719570656 -0.0019695116093344819 0 -0.060961910801479051 -0.0017264409846201798 0 -0.060928909984460246 -0.001315771667541636 0 -0.059885861100601567 -0.0020273878583513122 0 -0.060928909984460246 -0.001315771667541636 0 -0.060190549849332593 -0.0014012202129896573 0 -0.056993649141099646 0.0090572376009070473 0 -0.056954535707796704 0.0088738905778209375 0 -0.06042680430600459 -0.0010032770410976998 0 -0.060928909984460246 -0.001315771667541636 0 -0.060190549849332593 -0.0014012202129896573 0 -0.06042680430600459 -0.0010032770410976998 0 -0.060928909984460246 -0.001315771667541636 0 -0.060827889819484039 -0.00069930103729321641 0 -0.059885861100601567 -0.0020273878583513122 0 -0.059619627857595961 -0.0014911325404966041 0 -0.060190549849332593 -0.0014012202129896573 0 -0.059619627857595961 -0.0014911325404966041 0 -0.060190549849332593 -0.0014012202129896573 0 -0.059830484644534498 -0.0010438148733064741 0 -0.06042680430600459 -0.0010032770410976998 0 -0.060190549849332593 -0.0014012202129896573 0 -0.059830484644534498 -0.0010438148733064741 0 -0.059619627857595961 -0.0014911325404966041 0 -0.059830484644534498 -0.0010438148733064741 0 -0.05919685506002903 -0.0012056374452307438 0 -0.05919685506002903 -0.0012056374452307438 0 -0.05848791551702795 -0.0011614967935804157 0 -0.058895322658910648 -0.0017621723692457438 0 -0.05919685506002903 -0.0012056374452307438 0 -0.05848791551702795 -0.0011614967935804157 0 -0.059290780713472435 -0.00063670751143216856 0 -0.05848791551702795 -0.0011614967935804157 0 -0.058895322658910648 -0.0017621723692457438 0 -0.058262466299122184 -0.0017513511768136433 0 -0.058895322658910648 -0.0017621723692457438 0 -0.05852151445432105 -0.0020871453045107702 0 -0.058262466299122184 -0.0017513511768136433 0 -0.059619627857595961 -0.0014911325404966041 0 -0.05919685506002903 -0.0012056374452307438 0 -0.058895322658910648 -0.0017621723692457438 0 -0.056424827256801958 0.0096553353816328132 0 -0.056993649141099646 0.0090572376009070473 0 -0.058820642014586838 -0.0026900440027230015 0 -0.059885861100601567 -0.0020273878583513122 0 -0.058689902400042578 -0.0023377728167798982 0 -0.056212704057059221 0.0088501183805490234 0 -0.056341272767841143 0.0091755788081827033 0 -0.059619627857595961 -0.0014911325404966041 0 -0.058895322658910648 -0.0017621723692457438 0 -0.058487938024685222 -0.0026266080975285958 0 -0.05852151445432105 -0.0020871453045107702 0 -0.05838774753543774 -0.0023663246707658426 0 -0.058262466299122184 -0.0017513511768136433 0 -0.058895322658910648 -0.0017621723692457438 0 -0.05852151445432105 -0.0020871453045107702 0 -0.058487938024685222 -0.0026266080975285958 0 -0.05852151445432105 -0.0020871453045107702 0 -0.05838774753543774 -0.0023663246707658426 0 -0.058487938024685222 -0.0026266080975285958 0 -0.058314928460378335 0.0097266315562537006 0 -0.054313475318338557 0.0091453058994893678 0 -0.057461564900498446 0.012034394757672163 0 -0.056347623309042819 0.009155703737462887 0 -0.056341272767841143 0.0091755788081827033 0 -0.056424827256801958 0.0096553353816328132 0 -0.056341272767841143 0.0091755788081827033 0 -0.054585545465530363 0.0034364696629839791 0 -0.054646035554296243 0.0030537796564024649 0 -0.05476751997300517 0.0033106463732535062 0 -0.057901203444095203 -0.0031311798002517308 0 -0.05838774753543774 -0.0023663246707658426 0 -0.057385659393938776 -0.0017309678446968163 0 -0.056377477260399995 0.0094708563192167864 0 -0.056704687272696876 0.0078337850081427185 0 -0.056377477260399995 0.0094708563192167864 0 -0.056341272767841143 0.0091755788081827033 0 -0.057901203444095203 -0.0031311798002517308 0 -0.05838774753543774 -0.0023663246707658426 0 -0.058476222690764308 -0.0026064066968879067 0 -0.05838774753543774 -0.0023663246707658426 0 -0.057385659393938776 -0.0017309678446968163 0 -0.058262466299122184 -0.0017513511768136433 0 -0.05848791551702795 -0.0011614967935804157 0 -0.057385659393938776 -0.0017309678446968163 0 -0.058018022662050514 -0.00032011379877686986 0 -0.05848791551702795 -0.0011614967935804157 0 -0.057385659393938776 -0.0017309678446968163 0 -0.058262466299122184 -0.0017513511768136433 0 -0.057385659393938776 -0.0017309678446968163 0 -0.058018022662050514 -0.00032011379877686986 0 -0.056743585467251501 -0.0003623960747942015 0 -0.05848791551702795 -0.0011614967935804157 0 -0.058018022662050514 -0.00032011379877686986 0 -0.059290780713472435 -0.00063670751143216856 0 -0.058018022662050514 -0.00032011379877686986 0 -0.059290780713472435 -0.00063670751143216856 0 -0.059374786739115955 0.00027629670099611943 0 -0.058018022662050514 -0.00032011379877686986 0 -0.058639314494417422 0.00082720910464343679 0 -0.059374786739115955 0.00027629670099611943 0 -0.058639314494417422 0.00082720910464343679 0 -0.059616361412594271 0.001186533159310145 0 -0.059374786739115955 0.00027629670099611943 0 -0.058018022662050514 -0.00032011379877686986 0 -0.058639314494417422 0.00082720910464343679 0 -0.057573753925434512 0.0010746616335417585 0 -0.058018022662050514 -0.00032011379877686986 0 -0.057573753925434512 0.0010746616335417585 0 -0.056743585467251501 -0.0003623960747942015 0 -0.057573753925434512 0.0010746616335417585 0 -0.058670015637891974 0.0016003080013883054 0 -0.057640443258986138 0.002573183592759157 0 -0.058639314494417422 0.00082720910464343679 0 -0.057573753925434512 0.0010746616335417585 0 -0.058670015637891974 0.0016003080013883054 0 -0.058670015637891974 0.0016003080013883054 0 -0.059397571448777789 0.002144734790974556 0 -0.059616361412594271 0.001186533159310145 0 -0.058639314494417422 0.00082720910464343679 0 -0.058670015637891974 0.0016003080013883054 0 -0.059616361412594271 0.001186533159310145 0 -0.058670015637891974 0.0016003080013883054 0 -0.059397571448777789 0.002144734790974556 0 -0.057640443258986138 0.002573183592759157 0 -0.059397571448777789 0.002144734790974556 0 -0.057640443258986138 0.002573183592759157 0 -0.058798080404010286 0.0026010659807065959 0 -0.060942067691961983 0.0020412148602703623 0 -0.061440112343023268 0.0023395820060036401 0 -0.060608836837433122 0.0026263932570404179 0 -0.060342047106809474 0.0017607792564190367 0 -0.060942067691961983 0.0020412148602703623 0 -0.060608836837433122 0.0026263932570404179 0 -0.060342047106809474 0.0017607792564190367 0 -0.060942067691961983 0.0020412148602703623 0 -0.061107287385835631 0.0013733963522452159 0 -0.059397571448777789 0.002144734790974556 0 -0.060342047106809474 0.0017607792564190367 0 -0.059616361412594271 0.001186533159310145 0 -0.059397571448777789 0.002144734790974556 0 -0.060342047106809474 0.0017607792564190367 0 -0.060608836837433122 0.0026263932570404179 0 -0.060342047106809474 0.0017607792564190367 0 -0.059616361412594271 0.001186533159310145 0 -0.060608075910567542 0.00096018094108363326 0 -0.060342047106809474 0.0017607792564190367 0 -0.060608075910567542 0.00096018094108363326 0 -0.061107287385835631 0.0013733963522452159 0 -0.060608075910567542 0.00096018094108363326 0 -0.061226265268815694 0.00068055029063049432 0 -0.061107287385835631 0.0013733963522452159 0 -0.060608075910567542 0.00096018094108363326 0 -0.060890652011173364 5.3548141276041677e-05 0 -0.060162646111642425 0.00037143213386699251 0 -0.060608075910567542 0.00096018094108363326 0 -0.060890652011173364 5.3548141276041677e-05 0 -0.061226265268815694 0.00068055029063049432 0 -0.059616361412594271 0.001186533159310145 0 -0.060608075910567542 0.00096018094108363326 0 -0.060162646111642425 0.00037143213386699251 0 -0.059616361412594271 0.001186533159310145 0 -0.060162646111642425 0.00037143213386699251 0 -0.059374786739115955 0.00027629670099611943 0 -0.060162646111642425 0.00037143213386699251 0 -0.059374786739115955 0.00027629670099611943 0 -0.06020947267925935 -0.00051565673358313128 0 -0.059290780713472435 -0.00063670751143216856 0 -0.059374786739115955 0.00027629670099611943 0 -0.06020947267925935 -0.00051565673358313128 0 -0.059830484644534498 -0.0010438148733064741 0 -0.059290780713472435 -0.00063670751143216856 0 -0.06020947267925935 -0.00051565673358313128 0 -0.06042680430600459 -0.0010032770410976998 0 -0.059830484644534498 -0.0010438148733064741 0 -0.06020947267925935 -0.00051565673358313128 0 -0.059830484644534498 -0.0010438148733064741 0 -0.05919685506002903 -0.0012056374452307438 0 -0.059290780713472435 -0.00063670751143216856 0 -0.060890652011173364 5.3548141276041677e-05 0 -0.06020947267925935 -0.00051565673358313128 0 -0.060827889819484039 -0.00069930103729321641 0 -0.060890652011173364 5.3548141276041677e-05 0 -0.060162646111642425 0.00037143213386699251 0 -0.06020947267925935 -0.00051565673358313128 0 -0.06042680430600459 -0.0010032770410976998 0 -0.06020947267925935 -0.00051565673358313128 0 -0.060827889819484039 -0.00069930103729321641 0 -0.060890652011173364 5.3548141276041677e-05 0 -0.061611859778125534 -0.0007254492249624383 0 -0.061552764130077556 0.00024139784964843258 0 -0.061611859778125534 -0.0007254492249624383 0 -0.062187050928756156 0.00028543109642648279 0 -0.061552764130077556 0.00024139784964843258 0 -0.060890652011173364 5.3548141276041677e-05 0 -0.060827889819484039 -0.00069930103729321641 0 -0.061611859778125534 -0.0007254492249624383 0 -0.061720864857527966 -0.00039746432633157774 0 -0.062165201087096909 -0.00027445993389783326 0 -0.062187050928756156 0.00028543109642648279 0 -0.062165201087096909 -0.00027445993389783326 0 -0.062655452349309679 0.00013978244458383033 0 -0.062237827834673631 -0.00083782012958771694 0 -0.058405183113232707 0.0079030217728836907 0 -0.05830330394086071 0.0092730608803767208 0 -0.057390135105507292 0.0084671187038390036 0 -0.05735897805071017 0.0082543947269508363 0 -0.061720864857527966 -0.00039746432633157774 0 -0.062165201087096909 -0.00027445993389783326 0 -0.061964620942046113 -0.00058614499452380481 0 -0.062165201087096909 -0.00027445993389783326 0 -0.062187050928756156 0.00028543109642648279 0 -0.062655452349309679 0.00013978244458383033 0 -0.062187050928756156 0.00028543109642648279 0 -0.062516823771206959 0.00070712989343444277 0 -0.062655452349309679 0.00013978244458383033 0 -0.062187050928756156 0.00028543109642648279 0 -0.062516823771206959 0.00070712989343444277 0 -0.061829741267073017 0.00085629581643386558 0 -0.062187050928756156 0.00028543109642648279 0 -0.061552764130077556 0.00024139784964843258 0 -0.061829741267073017 0.00085629581643386558 0 -0.060890652011173364 5.3548141276041677e-05 0 -0.061552764130077556 0.00024139784964843258 0 -0.061226265268815694 0.00068055029063049432 0 -0.061552764130077556 0.00024139784964843258 0 -0.061226265268815694 0.00068055029063049432 0 -0.061829741267073017 0.00085629581643386558 0 -0.061107287385835631 0.0013733963522452159 0 -0.061829741267073017 0.00085629581643386558 0 -0.061748177296701116 0.0016866553573226758 0 -0.061226265268815694 0.00068055029063049432 0 -0.061107287385835631 0.0013733963522452159 0 -0.061829741267073017 0.00085629581643386558 0 -0.062313692060265692 0.0011610099853431063 0 -0.061748177296701116 0.0016866553573226758 0 -0.062568146581108861 0.0016769707643496151 0 -0.061829741267073017 0.00085629581643386558 0 -0.062313692060265692 0.0011610099853431063 0 -0.061748177296701116 0.0016866553573226758 0 -0.062516823771206959 0.00070712989343444277 0 -0.062313692060265692 0.0011610099853431063 0 -0.062628351806716026 0.0012270093595250135 0 -0.062516823771206959 0.00070712989343444277 0 -0.061829741267073017 0.00085629581643386558 0 -0.062313692060265692 0.0011610099853431063 0 -0.062313692060265692 0.0011610099853431063 0 -0.062568146581108861 0.0016769707643496151 0 -0.062628351806716026 0.0012270093595250135 0 -0.062021803006117926 0.0022483367471837386 0 -0.061748177296701116 0.0016866553573226758 0 -0.062568146581108861 0.0016769707643496151 0 -0.062021803006117926 0.0022483367471837386 0 -0.062580699302930365 0.0022607898786053651 0 -0.062568146581108861 0.0016769707643496151 0 -0.060942067691961983 0.0020412148602703623 0 -0.061107287385835631 0.0013733963522452159 0 -0.061748177296701116 0.0016866553573226758 0 -0.062021803006117926 0.0022483367471837386 0 -0.061440112343023268 0.0023395820060036401 0 -0.061748177296701116 0.0016866553573226758 0 -0.060942067691961983 0.0020412148602703623 0 -0.061440112343023268 0.0023395820060036401 0 -0.061748177296701116 0.0016866553573226758 0 -0.063493493165157289 0.0026393347994932656 0 -0.063503765005810092 0.0025711612000110049 0 -0.06342907189731524 0.0026394479215731668 0 -0.058495830102945776 0.0071843036182933336 0 -0.058533333967613635 0.0069699801739185382 0 -0.063503765005810092 0.0025711612000110049 0 -0.063450965106349566 0.0026789635504425539 0 -0.063400112235794753 0.0026802367792388977 0 -0.063493493165157289 0.0026393347994932656 0 -0.063503765005810092 0.0025711612000110049 0 -0.063450965106349566 0.0026789635504425539 0 -0.063493493165157289 0.0026393347994932656 0 -0.063574919070603239 0.0026712879922923633 0 -0.06342907189731524 0.0026394479215731668 0 -0.062945680339683605 0.0020902795025573191 0 -0.063115407175507274 0.0013644477070305896 0 -0.06342907189731524 0.0026394479215731668 0 -0.062945680339683605 0.0020902795025573191 0 -0.062580699302930365 0.0022607898786053651 0 -0.062991509950487773 0.0025376765507728314 0 -0.062945680339683605 0.0020902795025573191 0 -0.062580699302930365 0.0022607898786053651 0 -0.062568146581108861 0.0016769707643496151 0 -0.062945680339683605 0.0020902795025573191 0 -0.062568146581108861 0.0016769707643496151 0 -0.063115407175507274 0.0013644477070305896 0 -0.063574919070603239 0.0026712879922923633 0 -0.063522004539113247 0.0028715370970267915 0 -0.063595358424752918 0.0029801621113941783 0 -0.062568146581108861 0.0016769707643496151 0 -0.063115407175507274 0.0013644477070305896 0 -0.062628351806716026 0.0012270093595250135 0 -0.062516823771206959 0.00070712989343444277 0 -0.063115407175507274 0.0013644477070305896 0 -0.062628351806716026 0.0012270093595250135 0 -0.063574919070603239 0.0026712879922923633 0 -0.063460842809972676 0.0027251323893626826 0 -0.063522004539113247 0.0028715370970267915 0 -0.063460842809972676 0.0027251323893626826 0 -0.06344150424013606 0.0028777546223959422 0 -0.063522004539113247 0.0028715370970267915 0 -0.063493493165157289 0.0026393347994932656 0 -0.063574919070603239 0.0026712879922923633 0 -0.063460842809972676 0.0027251323893626826 0 -0.063450965106349566 0.0026789635504425539 0 -0.063424029281603553 0.002771598764776693 0 -0.063400112235794753 0.0026802367792388977 0 -0.063493493165157289 0.0026393347994932656 0 -0.063460842809972676 0.0027251323893626826 0 -0.063450965106349566 0.0026789635504425539 0 -0.063460842809972676 0.0027251323893626826 0 -0.063450965106349566 0.0026789635504425539 0 -0.063424029281603553 0.002771598764776693 0 -0.059804056635756123 0.0070660087268005229 0 -0.059754209560855892 0.0071194724159211967 0 -0.063460842809972676 0.0027251323893626826 0 -0.063288182424758213 0.0028680906110847351 0 -0.06344150424013606 0.0028777546223959422 0 -0.059754209560855892 0.0071194724159211967 0 -0.059781332010550366 0.0069101015433969204 0 -0.063288182424758213 0.0028680906110847351 0 -0.06344150424013606 0.0028777546223959422 0 -0.063497293412993469 0.0030547648324585103 0 -0.063288182424758213 0.0028680906110847351 0 -0.063450259648880791 0.0031261425269132571 0 -0.063432086239842367 0.0033639507363838433 0 -0.06328614117969858 0.0030026795200408132 0 -0.063317194052199322 0.0032213329907317526 0 -0.06326339169792139 0.0031499518016547667 0 -0.063522004539113247 0.0028715370970267915 0 -0.063497293412993469 0.0030547648324585103 0 -0.063595358424752918 0.0029801621113941783 0 -0.06344150424013606 0.0028777546223959422 0 -0.063522004539113247 0.0028715370970267915 0 -0.063497293412993469 0.0030547648324585103 0 -0.063288182424758213 0.0028680906110847351 0 -0.063497293412993469 0.0030547648324585103 0 -0.063450259648880791 0.0031261425269132571 0 -0.062516823771206959 0.00070712989343444277 0 -0.063115407175507274 0.0013644477070305896 0 -0.062655452349309679 0.00013978244458383033 0 -0.063574919070603239 0.0026712879922923633 0 -0.063595358424752918 0.0029801621113941783 0 -0.063779185700389776 0.0031088723892852615 0 -0.058495830102945776 0.0071843036182933336 0 -0.058405183113232707 0.0079030217728836907 0 -0.063595358424752918 0.0029801621113941783 0 -0.063779185700389776 0.0031088723892852615 0 -0.063583890642218782 0.0032177794683810601 0 -0.063497293412993469 0.0030547648324585103 0 -0.063595358424752918 0.0029801621113941783 0 -0.063583890642218782 0.0032177794683810601 0 -0.063779185700389776 0.0031088723892852615 0 -0.063618267056825148 0.0034933835608165847 0 -0.063951377982258542 0.003577112823376213 0 -0.063779185700389776 0.0031088723892852615 0 -0.063583890642218782 0.0032177794683810601 0 -0.063618267056825148 0.0034933835608165847 0 -0.063583890642218782 0.0032177794683810601 0 -0.063432086239842367 0.0033639507363838433 0 -0.063618267056825148 0.0034933835608165847 0 -0.06328614117969858 0.0030026795200408132 0 -0.063317194052199322 0.0032213329907317526 0 -0.063432086239842367 0.0033639507363838433 0 -0.063317194052199322 0.0032213329907317526 0 -0.063312844550681494 0.0033172912063001532 0 -0.063253596226996792 0.0032440530251281741 0 -0.063583890642218782 0.0032177794683810601 0 -0.063450259648880791 0.0031261425269132571 0 -0.063432086239842367 0.0033639507363838433 0 -0.063497293412993469 0.0030547648324585103 0 -0.063583890642218782 0.0032177794683810601 0 -0.063450259648880791 0.0031261425269132571 0 -0.063317194052199322 0.0032213329907317526 0 -0.063432086239842367 0.0033639507363838433 0 -0.063312844550681494 0.0033172912063001532 0 -0.063432086239842367 0.0033639507363838433 0 -0.063312844550681494 0.0033172912063001532 0 -0.063308417110189932 0.0034113852447194373 0 -0.059060014432531095 0.010200145394020711 0 -0.059058930958809389 0.010197986986469168 0 -0.058680406511753831 0.027359971263094932 0 -0.058501309395222037 0.027320949091212163 0 -0.058731572566544266 0.027142150941344492 0 -0.058662525239172862 0.026709752135039237 0 -0.058688018685312926 0.025897700599725567 0 -0.056571095853143682 0.025602055954194101 0 -0.059058930958809389 0.010197986986469168 0 -0.058730194834003185 0.009784186179985015 0 -0.058501309395222037 0.027320949091212163 0 -0.058662525239172862 0.026709752135039237 0 -0.058731572566544266 0.027142150941344492 0 -0.058501309395222037 0.027320949091212163 0 -0.058662525239172862 0.026709752135039237 0 -0.056571095853143682 0.025602055954194101 0 -0.059058930958809389 0.010197986986469168 0 -0.05951356653262032 0.012301922992949986 0 -0.063432086239842367 0.0033639507363838433 0 -0.063308417110189932 0.0034113852447194373 0 -0.063618267056825148 0.0034933835608165847 0 -0.058213978530066483 0.024880732215900522 0 -0.056571095853143682 0.025602055954194101 0 -0.057204504096857657 0.024283644637913267 0 -0.058688018685312926 0.025897700599725567 0 -0.058213978530066483 0.024880732215900522 0 -0.056571095853143682 0.025602055954194101 0 -0.056571095853143682 0.025602055954194101 0 -0.057204504096857657 0.024283644637913267 0 -0.056191448953081556 0.024124211749019173 0 -0.058730194834003185 0.009784186179985015 0 -0.05830330394086071 0.0092730608803767208 0 -0.055049802954329638 0.02415123143478309 0 -0.055209589699497907 0.024847037996332838 0 -0.054641507919766324 0.024319664544197397 0 -0.055209589699497907 0.024847037996332838 0 -0.054383649160399498 0.024668091582364125 0 -0.054641507919766324 0.024319664544197397 0 -0.056020506262435529 0.025028704024415836 0 -0.055049802954329638 0.02415123143478309 0 -0.055209589699497907 0.024847037996332838 0 -0.062165201087096909 -0.00027445993389783326 0 -0.061964620942046113 -0.00058614499452380481 0 -0.062237827834673631 -0.00083782012958771694 0 -0.05830330394086071 0.0092730608803767208 0 -0.058322632523369472 0.0093749886915874634 0 -0.054383649160399498 0.024668091582364125 0 -0.054641507919766324 0.024319664544197397 0 -0.054226563242556487 0.0242975693205905 0 -0.060961910801479051 -0.0017264409846201798 0 -0.060928909984460246 -0.001315771667541636 0 -0.061611859778125534 -0.0007254492249624383 0 -0.057524449960338259 0.0091687284296060496 0 -0.05830330394086071 0.0092730608803767208 0 -0.053148404965470325 0.024436350081150551 0 -0.054383583902061952 0.024696612421702627 0 -0.054226563242556487 0.0242975693205905 0 -0.057524449960338259 0.0091687284296060496 0 -0.057390135105507292 0.0084671187038390036 0 -0.061248931963299925 -0.0010607246180803175 0 -0.061964620942046113 -0.00058614499452380481 0 -0.062237827834673631 -0.00083782012958771694 0 -0.061248931963299925 -0.0010607246180803175 0 -0.061720864857527966 -0.00039746432633157774 0 -0.061964620942046113 -0.00058614499452380481 0 -0.060928909984460246 -0.001315771667541636 0 -0.060827889819484039 -0.00069930103729321641 0 -0.061611859778125534 -0.0007254492249624383 0 -0.05347393739453702 0.023747096346948361 0 -0.054226563242556487 0.0242975693205905 0 -0.054045688647493879 0.023217385086213425 0 -0.053148404965470325 0.024436350081150551 0 -0.05347393739453702 0.023747096346948361 0 -0.054226563242556487 0.0242975693205905 0 -0.05951356653262032 0.012301922992949986 0 -0.059552995781710194 0.013319729595447131 0 -0.055049802954329638 0.02415123143478309 0 -0.054641507919766324 0.024319664544197397 0 -0.054045688647493879 0.023217385086213425 0 -0.054641507919766324 0.024319664544197397 0 -0.054226563242556487 0.0242975693205905 0 -0.054045688647493879 0.023217385086213425 0 -0.056571095853143682 0.025602055954194101 0 -0.054699859547719318 0.023867834924664967 0 -0.056191448953081556 0.024124211749019173 0 -0.054699859547719318 0.023867834924664967 0 -0.056473667226235744 0.023006905316842324 0 -0.056191448953081556 0.024124211749019173 0 -0.053204281673729217 0.023138554921267093 0 -0.05347393739453702 0.023747096346948361 0 -0.054045688647493879 0.023217385086213425 0 -0.052999981507349865 0.022184456615557426 0 -0.053204281673729217 0.023138554921267093 0 -0.054045688647493879 0.023217385086213425 0 -0.052999981507349865 0.022184456615557426 0 -0.054699859547719318 0.023867834924664967 0 -0.054457517472190194 0.022334402296500765 0 -0.059505646454058363 0.013597844373198331 0 -0.059552995781710194 0.013319729595447131 0 -0.054699859547719318 0.023867834924664967 0 -0.055560636765043553 0.022315813232841337 0 -0.056473667226235744 0.023006905316842324 0 -0.054699859547719318 0.023867834924664967 0 -0.054457517472190194 0.022334402296500765 0 -0.055560636765043553 0.022315813232841337 0 -0.055560636765043553 0.022315813232841337 0 -0.056473667226235744 0.023006905316842324 0 -0.056949962687731975 0.022229730272331553 0 -0.056473667226235744 0.023006905316842324 0 -0.056949962687731975 0.022229730272331553 0 -0.057483357623021099 0.023332643940913448 0 -0.057935708131636163 0.021649767393382095 0 -0.056949962687731975 0.022229730272331553 0 -0.057785278712962587 0.022508756699091373 0 -0.057935708131636163 0.021649767393382095 0 -0.057785278712962587 0.022508756699091373 0 -0.058779966981626054 0.02282140091909789 0 -0.057785278712962587 0.022508756699091373 0 -0.057483357623021099 0.023332643940913448 0 -0.058779966981626054 0.02282140091909789 0 -0.056949962687731975 0.022229730272331553 0 -0.057785278712962587 0.022508756699091373 0 -0.057483357623021099 0.023332643940913448 0 -0.057483357623021099 0.023332643940913448 0 -0.058201446605362049 0.023995706845525218 0 -0.057204504096857657 0.024283644637913267 0 -0.057483357623021099 0.023332643940913448 0 -0.058201446605362049 0.023995706845525218 0 -0.058779966981626054 0.02282140091909789 0 -0.058213978530066483 0.024880732215900522 0 -0.058201446605362049 0.023995706845525218 0 -0.059239562332573312 0.024193600850424348 0 -0.058213978530066483 0.024880732215900522 0 -0.058201446605362049 0.023995706845525218 0 -0.057204504096857657 0.024283644637913267 0 -0.056473667226235744 0.023006905316842324 0 -0.057204504096857657 0.024283644637913267 0 -0.056191448953081556 0.024124211749019173 0 -0.056473667226235744 0.023006905316842324 0 -0.057483357623021099 0.023332643940913448 0 -0.057204504096857657 0.024283644637913267 0 -0.060596000545907532 0.024545701956751608 0 -0.061398751837402635 0.023016860781795302 0 -0.062272704376974748 0.024117773585596549 0 -0.060158775619952989 0.02334356314966092 0 -0.060596000545907532 0.024545701956751608 0 -0.061398751837402635 0.023016860781795302 0 -0.060158775619952989 0.02334356314966092 0 -0.059239562332573312 0.024193600850424348 0 -0.058779966981626054 0.02282140091909789 0 -0.060158775619952989 0.02334356314966092 0 -0.060596000545907532 0.024545701956751608 0 -0.059239562332573312 0.024193600850424348 0 -0.058201446605362049 0.023995706845525218 0 -0.059239562332573312 0.024193600850424348 0 -0.058779966981626054 0.02282140091909789 0 -0.060158775619952989 0.02334356314966092 0 -0.058779966981626054 0.02282140091909789 0 -0.060566914436424944 0.022082591249706476 0 -0.058984020315203493 0.021266892704970817 0 -0.058779966981626054 0.02282140091909789 0 -0.060566914436424944 0.022082591249706476 0 -0.061529115172783026 0.021793806930192072 0 -0.060566914436424944 0.022082591249706476 0 -0.061398751837402635 0.023016860781795302 0 -0.060158775619952989 0.02334356314966092 0 -0.060566914436424944 0.022082591249706476 0 -0.061398751837402635 0.023016860781795302 0 -0.061398751837402635 0.023016860781795302 0 -0.062956529229408434 0.022374441706303254 0 -0.062272704376974748 0.024117773585596549 0 -0.057854626106160871 0.01524775228677012 0 -0.057981218537443889 0.013831753203177222 0 -0.061529115172783026 0.021793806930192072 0 -0.061398751837402635 0.023016860781795302 0 -0.062956529229408434 0.022374441706303254 0 -0.057639438868973977 0.014703854870456747 0 -0.057590515044468882 0.014582076375582276 0 -0.05793006931916115 0.0140789274057755 0 -0.057233209485949087 0.014775087451303013 0 -0.057619832615992871 0.014535852140311291 0 -0.057343289614938293 0.014064336912388247 0 -0.057747270820162074 0.016064269042099916 0 -0.057784507868436162 0.015936671273712975 0 -0.057619832615992871 0.014535852140311291 0 -0.057896839351958329 0.013840477141814628 0 -0.057343289614938293 0.014064336912388247 0 -0.057590515044468882 0.014582076375582276 0 -0.05793006931916115 0.0140789274057755 0 -0.057896839351958329 0.013840477141814628 0 -0.057981218537443889 0.013831753203177222 0 -0.058189217822489363 0.011963252742004743 0 -0.060596000545907532 0.024545701956751608 0 -0.062272704376974748 0.024117773585596549 0 -0.061431595477481102 0.025985997406805735 0 -0.05793006931916115 0.0140789274057755 0 -0.057896839351958329 0.013840477141814628 0 -0.058208360201232781 0.013466341456831036 0 -0.057896839351958329 0.013840477141814628 0 -0.058208360201232781 0.013466341456831036 0 -0.057898675184905338 0.013466315841742252 0 -0.058298844122192689 0.010919278297825102 0 -0.057817487165219533 0.012545312513231262 0 -0.057896839351958329 0.013840477141814628 0 -0.057898675184905338 0.013466315841742252 0 -0.057343289614938293 0.014064336912388247 0 -0.062994585393536778 0.0091345343931072617 0 -0.060544790686221248 0.0092550676208891357 0 -0.061107729183204944 0.01115521474527603 0 -0.062994585393536778 0.0091345343931072617 0 -0.061184331603010837 0.0074262750515523323 0 -0.062435763908722894 0.0070525336399325771 0 -0.062994585393536778 0.0091345343931072617 0 -0.061184331603010837 0.0074262750515523323 0 -0.060544790686221248 0.0092550676208891357 0 -0.058298844122192689 0.010919278297825102 0 -0.058574103018144877 0.009392611279627254 0 -0.058208360201232781 0.013466341456831036 0 -0.057898675184905338 0.013466315841742252 0 -0.058485481495670212 0.012839836888167555 0 -0.058189217822489363 0.011963252742004743 0 -0.058574103018144877 0.009392611279627254 0 -0.061431595477481102 0.025985997406805735 0 -0.060137204606284168 0.02593737811260784 0 -0.060603237207894678 0.027736555624031371 0 -0.060596000545907532 0.024545701956751608 0 -0.061431595477481102 0.025985997406805735 0 -0.060137204606284168 0.02593737811260784 0 -0.060596000545907532 0.024545701956751608 0 -0.060137204606284168 0.02593737811260784 0 -0.059384383207008631 0.025190129220442607 0 -0.058688018685312926 0.025897700599725567 0 -0.060137204606284168 0.02593737811260784 0 -0.059384383207008631 0.025190129220442607 0 -0.058213978530066483 0.024880732215900522 0 -0.059239562332573312 0.024193600850424348 0 -0.059384383207008631 0.025190129220442607 0 -0.060596000545907532 0.024545701956751608 0 -0.059239562332573312 0.024193600850424348 0 -0.059384383207008631 0.025190129220442607 0 -0.058688018685312926 0.025897700599725567 0 -0.058213978530066483 0.024880732215900522 0 -0.059384383207008631 0.025190129220442607 0 -0.060137204606284168 0.02593737811260784 0 -0.059253550937755819 0.026650381151245055 0 -0.0594280735720428 0.027326645765082678 0 -0.058853943621974589 0.010065679580172203 0 -0.058928143351504578 0.0084736120648123848 0 -0.058662525239172862 0.026709752135039237 0 -0.058688018685312926 0.025897700599725567 0 -0.059253550937755819 0.026650381151245055 0 -0.060137204606284168 0.02593737811260784 0 -0.0594280735720428 0.027326645765082678 0 -0.059880559850554668 0.028583867885692778 0 -0.058688018685312926 0.025897700599725567 0 -0.060137204606284168 0.02593737811260784 0 -0.059253550937755819 0.026650381151245055 0 -0.059253550937755819 0.026650381151245055 0 -0.059058178336598613 0.027173580707185833 0 -0.0594280735720428 0.027326645765082678 0 -0.058662525239172862 0.026709752135039237 0 -0.059253550937755819 0.026650381151245055 0 -0.059058178336598613 0.027173580707185833 0 -0.058662525239172862 0.026709752135039237 0 -0.059058178336598613 0.027173580707185833 0 -0.058731572566544266 0.027142150941344492 0 -0.058680406511753831 0.027359971263094932 0 -0.059058178336598613 0.027173580707185833 0 -0.058731572566544266 0.027142150941344492 0 -0.058680406511753831 0.027359971263094932 0 -0.059058178336598613 0.027173580707185833 0 -0.059000721695375749 0.027611810349818043 0 -0.059000721695375749 0.027611810349818043 0 -0.0594280735720428 0.027326645765082678 0 -0.059280785880807228 0.028027620023186456 0 -0.058680406511753831 0.027359971263094932 0 -0.058505874017549302 0.027319282778128617 0 -0.059000721695375749 0.027611810349818043 0 -0.059058930958809389 0.010197986986469168 0 -0.059060363524784838 0.0090042262476054766 0 -0.058505874017549302 0.027319282778128617 0 -0.059000721695375749 0.027611810349818043 0 -0.059276857669438063 0.028014666176795905 0 -0.063312844550681494 0.0033172912063001532 0 -0.063308417110189932 0.0034113852447194373 0 -0.063189740450006068 0.0032926916971590019 0 -0.059082028877476753 0.0090520675995474347 0 -0.059060363524784838 0.0090042262476054766 0 -0.059058178336598613 0.027173580707185833 0 -0.059000721695375749 0.027611810349818043 0 -0.0594280735720428 0.027326645765082678 0 -0.0594280735720428 0.027326645765082678 0 -0.059880559850554668 0.028583867885692778 0 -0.059280785880807228 0.028027620023186456 0 -0.058928143351504578 0.0084736120648123848 0 -0.059060363524784838 0.0090042262476054766 0 -0.06045562002525233 0.010580926270240995 0 -0.057157565046497785 0.0075436652303918598 0 -0.059711886295661522 0.01135127088769986 0 -0.063194636983370647 0.0032053318484241478 0 -0.063189740450006068 0.0032926916971590019 0 -0.063117417790257632 0.003184609988335748 0 -0.059060363524784838 0.0090042262476054766 0 -0.059049241003609747 0.0082122625718481154 0 -0.058928143351504578 0.0084736120648123848 0 -0.059049241003609747 0.0082122625718481154 0 -0.063312844550681494 0.0033172912063001532 0 -0.063253596226996792 0.0032440530251281741 0 -0.063189740450006068 0.0032926916971590019 0 -0.063317194052199322 0.0032213329907317526 0 -0.063253596226996792 0.0032440530251281741 0 -0.06326339169792139 0.0031499518016547667 0 -0.063194636983370647 0.0032053318484241478 0 -0.063253596226996792 0.0032440530251281741 0 -0.06326339169792139 0.0031499518016547667 0 -0.063194636983370647 0.0032053318484241478 0 -0.063253596226996792 0.0032440530251281741 0 -0.063189740450006068 0.0032926916971590019 0 -0.060137204606284168 0.02593737811260784 0 -0.059946962738585567 0.028415021110704708 0 -0.060603237207894678 0.027736555624031371 0 -0.057301977816196649 0.010690366024458697 0 -0.061208462814831145 0.0066448370428443676 0 -0.05876100486696377 0.012034096006356894 0 -0.064865826118824896 0.0071621486951662962 0 -0.06446940241870662 0.0064332029466683633 0 -0.065326821022388321 0.0061358833687563648 0 -0.058928143351504578 0.0084736120648123848 0 -0.058574103018144877 0.009392611279627254 0 -0.058574103018144877 0.009392611279627254 0 -0.058796812511443627 0.0080831505273294968 0 -0.064865826118824896 0.0071621486951662962 0 -0.06446940241870662 0.0064332029466683633 0 -0.06368431118224939 0.006690123146447232 0 -0.057205067184101392 0.006381717864375417 0 -0.057952116692185925 0.0070691553933739408 0 -0.058267495820848642 0.0064014825487189618 0 -0.06446940241870662 0.0064332029466683633 0 -0.065161308609384433 0.005983454454925514 0 -0.063098302588625713 0.0059403791281832834 0 -0.058943841384639026 0.0076986873879378928 0 -0.058574204854796752 0.0062600684733502762 0 -0.057945416589087112 0.0031772797077103234 0 -0.057714913712910883 0.0036835091828283 0 -0.058865592028130277 0.0045458454806776511 0 -0.057666797820981691 0.0057322450588301018 0 -0.057538799276470834 0.0057983353019402245 0 -0.058031303503911079 0.0065321524722828147 0 -0.058765847316535912 0.0078349518724652022 0 -0.058399961511819906 0.0066359962155192204 0 -0.058765847316535912 0.0078349518724652022 0 -0.05840081538313896 0.0067468085157869756 0 -0.057666797820981691 0.0057322450588301018 0 -0.058031303503911079 0.0065321524722828147 0 -0.05827112411886412 0.0062873044509204551 0 -0.06446940241870662 0.0064332029466683633 0 -0.065161308609384433 0.005983454454925514 0 -0.065326821022388321 0.0061358833687563648 0 -0.063478968566197322 0.00866332214915355 0 -0.056092175390977016 0.0018593932068590702 0 -0.053097418676689469 0.008453919971663575 0 -0.058765847316535912 0.0078349518724652022 0 -0.058875422094232875 0.0078557041815884299 0 -0.058796812511443627 0.0080831505273294968 0 -0.058875422094232875 0.0078557041815884299 0 -0.066967469380758121 0.0085025113079716646 0 -0.064427221631550652 0.014096206844482935 0 -0.060477323759471589 0.0082307745149593319 0 -0.058765847316535912 0.0078349518724652022 0 -0.058796812511443627 0.0080831505273294968 0 -0.057666797820981691 0.0057322450588301018 0 -0.057569602102232831 0.00573029560800771 0 -0.057538799276470834 0.0057983353019402245 0 -0.063194636983370647 0.0032053318484241478 0 -0.06326339169792139 0.0031499518016547667 0 -0.063151572640905568 0.0031491169427695373 0 -0.059219874034310775 0.0078995540719748302 0 -0.059192698133042461 0.0079073381179535565 0 -0.06328614117969858 0.0030026795200408132 0 -0.06326339169792139 0.0031499518016547667 0 -0.063150890763991316 0.0031494404049255504 0 -0.063194636983370647 0.0032053318484241478 0 -0.063151572640905568 0.0031491169427695373 0 -0.063117417790257632 0.003184609988335748 0 -0.058789746692804047 0.005652112547464133 0 -0.059803903868627599 0.0064493654603493284 0 -0.058403267544330395 0.0095330902056838477 0 -0.060017843903752435 0.0044376405929011662 0 -0.060705558958674945 0.004451642522376763 0 -0.060517841567403245 0.0063374335690620995 0 -0.059192698133042461 0.0079073381179535565 0 -0.059049241003609747 0.0082122625718481154 0 -0.054513221680082678 0.0096240743129789724 0 -0.061976375725460761 0.0018935812372335565 0 -0.064058533579918378 0.0098167360344486865 0 -0.059192698133042461 0.0079073381179535565 0 -0.059024485281706382 0.007850927775838323 0 -0.058928143351504578 0.0084736120648123848 0 -0.058796812511443627 0.0080831505273294968 0 -0.056488940900384171 -0.0011490671459536831 0 -0.066967469380758121 0.0085025113079716646 0 -0.060477323759471589 0.0082307745149593319 0 -0.056488940900384171 -0.0011490671459536831 0 -0.060477323759471589 0.0082307745149593319 0 -0.05105205792748569 0.0044825274363319081 0 -0.060477323759471589 0.0082307745149593319 0 -0.05105205792748569 0.0044825274363319081 0 -0.05352061992732738 0.013876201932959463 0 -0.059049241003609747 0.0082122625718481154 0 -0.059024485281706382 0.007850927775838323 0 -0.064427221631550652 0.014096206844482935 0 -0.060477323759471589 0.0082307745149593319 0 -0.05352061992732738 0.013876201932959463 0 -0.058875422094232875 0.0078557041815884299 0 -0.059024485281706382 0.007850927775838323 0 -0.059024485281706382 0.007850927775838323 0 -0.058943841384639026 0.0076986873879378928 0 -0.062878583605670557 0.0071037422868908563 0 -0.055573560581896858 0.0069563959000954884 0 -0.061005762213555075 0.011227783104482612 0 -0.058875422094232875 0.0078557041815884299 0 -0.058943841384639026 0.0076986873879378928 0 -0.059024485281706382 0.007850927775838323 0 -0.059137000243081161 0.0072523379907884749 0 -0.058943841384639026 0.0076986873879378928 0 -0.059137000243081161 0.0072523379907884749 0 -0.059754209560855892 0.0071194724159211967 0 -0.059192698133042461 0.0079073381179535565 0 -0.057842394781636594 0.0066907599179874527 0 -0.060017843903752435 0.0044376405929011662 0 -0.060517841567403245 0.0063374335690620995 0 -0.059137000243081161 0.0072523379907884749 0 -0.059591789717111869 0.0063155608646088017 0 -0.059447036346326497 0.0055960424021328902 0 -0.05904621809450742 0.0064768293565877688 0 -0.059367529604142259 0.006393529026497799 0 -0.059754209560855892 0.0071194724159211967 0 -0.059591789717111869 0.0063155608646088017 0 -0.057842394781636594 0.0066907599179874527 0 -0.060517841567403245 0.0063374335690620995 0 -0.058915264643524493 0.0098653368539905768 0 -0.059137000243081161 0.0072523379907884749 0 -0.059276632688743391 0.0063180692726276435 0 -0.057606343499802926 0.0047632280317139435 0 -0.058865592028130277 0.0045458454806776511 0 -0.058648673753364772 0.0056856055501766211 0 -0.057714913712910883 0.0036835091828283 0 -0.057606343499802926 0.0047632280317139435 0 -0.058865592028130277 0.0045458454806776511 0 -0.058648673753364772 0.0056856055501766211 0 -0.057497376015843066 0.0058445474845615786 0 -0.058982615811763166 0.0068872669503080028 0 -0.059825478839596408 0.0059249832232751761 0 -0.059591789717111869 0.0063155608646088017 0 -0.063728666338631126 0.0023211349154534096 0 -0.064037333223392653 0.0016461250657319698 0 -0.064225188247147041 0.002195062996238143 0 -0.057606343499802926 0.0047632280317139435 0 -0.058648673753364772 0.0056856055501766211 0 -0.057497376015843066 0.0058445474845615786 0 -0.059591789717111869 0.0063155608646088017 0 -0.059423189533958524 0.005415446454758696 0 -0.05904621809450742 0.0064768293565877688 0 -0.059367529604142259 0.006393529026497799 0 -0.059287864387878558 0.007191138506237196 0 -0.059276632688743391 0.0063180692726276435 0 -0.059423189533958524 0.005415446454758696 0 -0.058050290744801898 0.0054448123154723178 0 -0.0572890082458632 0.0042952155877784377 0 -0.056583243966114208 0.0044804797507929641 0 -0.057950244937752922 0.0048006849187640739 0 -0.058336400368766486 0.0060948677488218174 0 -0.063025832978399504 0.0014253781943180958 0 -0.06280560784991665 0.00019194695923445206 0 -0.060826211180589465 -0.00060267326280725195 0 -0.063025832978399504 0.0014253781943180958 0 -0.06280560784991665 0.00019194695923445206 0 -0.064000299998585281 0.00025034162925593242 0 -0.058865592028130277 0.0045458454806776511 0 -0.058648673753364772 0.0056856055501766211 0 -0.05978723950955183 0.0059173559643452833 0 -0.058574204854796752 0.0062600684733502762 0 -0.058238607742470479 0.0048866131518261607 0 -0.058031303503911079 0.0065321524722828147 0 -0.058877112537798572 0.006844146364176849 0 -0.058525337060930736 0.0072682196069947637 0 -0.058050290744801898 0.0054448123154723178 0 -0.058238607742470479 0.0048866131518261607 0 -0.058050290744801898 0.0054448123154723178 0 -0.058399961511819906 0.0066359962155192204 0 -0.058031303503911079 0.0065321524722828147 0 -0.058877112537798572 0.006844146364176849 0 -0.05827112411886412 0.0062873044509204551 0 -0.058699854007498255 0.0077571721174772524 0 -0.057952116692185925 0.0070691553933739408 0 -0.059021906826360535 0.0073687505398543308 0 -0.056583243966114208 0.0044804797507929641 0 -0.057159237154040872 0.0037856791035997752 0 -0.057950244937752922 0.0048006849187640739 0 -0.058050290744801898 0.0054448123154723178 0 -0.05786733304212649 0.0056371909073972817 0 -0.05786733304212649 0.0056371909073972817 0 -0.057510584855524391 0.0049905674735755872 0 -0.057527659009329588 0.0074808754212576899 0 -0.057547802772718107 0.0057795438777827118 0 -0.058914852428914984 0.0058068754897858807 0 -0.057527659009329588 0.0074808754212576899 0 -0.057547802772718107 0.0057795438777827118 0 -0.05618079670977693 0.0057525394099707215 0 -0.05802487593991075 0.0063171757030882226 0 -0.05840081538313896 0.0067468085157869756 0 -0.05786733304212649 0.0056371909073972817 0 -0.05840081538313896 0.0067468085157869756 0 -0.057952116692185925 0.0070691553933739408 0 -0.059021906826360535 0.0073687505398543308 0 -0.058267495820848642 0.0064014825487189618 0 -0.062994585393536778 0.0091345343931072617 0 -0.06368431118224939 0.006690123146447232 0 -0.062435763908722894 0.0070525336399325771 0 -0.062994585393536778 0.0091345343931072617 0 -0.064865826118824896 0.0071621486951662962 0 -0.06368431118224939 0.006690123146447232 0 -0.06446940241870662 0.0064332029466683633 0 -0.063098302588625713 0.0059403791281832834 0 -0.06368431118224939 0.006690123146447232 0 -0.05840081538313896 0.0067468085157869756 0 -0.058428641928510015 0.0067641297997675957 0 -0.063093912836240024 0.0059291283714691563 0 -0.06368431118224939 0.006690123146447232 0 -0.062435763908722894 0.0070525336399325771 0 -0.061589807424452393 0.0058946453543091823 0 -0.061184331603010837 0.0074262750515523323 0 -0.062435763908722894 0.0070525336399325771 0 -0.061589807424452393 0.0058946453543091823 0 -0.063093912836240024 0.0059291283714691563 0 -0.062435763908722894 0.0070525336399325771 0 -0.061589807424452393 0.0058946453543091823 0 -0.061184331603010837 0.0074262750515523323 0 -0.060562541308814354 0.006505170256450212 0 -0.057003761776423356 0.0057770449463052957 0 -0.056708946877086372 0.0056796428265605235 0 -0.060562541308814354 0.006505170256450212 0 -0.058589012012135781 0.006645357771046286 0 -0.059905301225647675 0.0060744294652224405 0 -0.061184331603010837 0.0074262750515523323 0 -0.058564546472537705 0.0066206283049122265 0 -0.059788194116296864 0.0080081524117878809 0 -0.061184331603010837 0.0074262750515523323 0 -0.060562541308814354 0.006505170256450212 0 -0.058589012012135781 0.006645357771046286 0 -0.058552595269318976 0.0065514598980871315 0 -0.057747695546593071 0.0076100152886577821 0 -0.058749247106057036 0.0087288851432429631 0 -0.056708946877086372 0.0056796428265605235 0 -0.056742176779981078 0.0058008675429095224 0 -0.058566417767266302 0.0029602938928627392 0 -0.056768015485717728 0.0029240200583690729 0 -0.05746509636705497 0.0047004445954298571 0 -0.056715065160284399 0.0054272853198786587 0 -0.057567670171610956 0.0058926394757568452 0 -0.058515563620339113 0.0058301728495291942 0 -0.059905301225647675 0.0060744294652224405 0 -0.060081762742403046 0.0058615837469033361 0 -0.056708946877086372 0.0056796428265605235 0 -0.056715065160284399 0.0054272853198786587 0 -0.058589012012135781 0.006645357771046286 0 -0.058515563620339113 0.0058301728495291942 0 -0.059905301225647675 0.0060744294652224405 0 -0.05786733304212649 0.0056371909073972817 0 -0.057567670171610956 0.0058926394757568452 0 -0.061589807424452393 0.0058946453543091823 0 -0.060562541308814354 0.006505170256450212 0 -0.060082078757880894 0.0058615939386014526 0 -0.05802487593991075 0.0063171757030882226 0 -0.057567670171610956 0.0058926394757568452 0 -0.060562541308814354 0.006505170256450212 0 -0.059905301225647675 0.0060744294652224405 0 -0.060082078757880894 0.0058615939386014526 0 -0.057568809181346117 0.0058919287391345923 0 -0.057567670171610956 0.0058926394757568452 0 -0.05500991188815145 0.0050457617882831395 0 -0.056768015485717728 0.0029240200583690729 0 -0.056421560302079905 0.0050570260842834518 0 -0.056768015485717728 0.0029240200583690729 0 -0.056421560302079905 0.0050570260842834518 0 -0.05746509636705497 0.0047004445954298571 0 -0.05500991188815145 0.0050457617882831395 0 -0.056421560302079905 0.0050570260842834518 0 -0.05601028680917839 0.0063295995876447532 0 -0.056421560302079905 0.0050570260842834518 0 -0.05746509636705497 0.0047004445954298571 0 -0.057367264080024641 0.0060450552427102101 0 -0.058566417767266302 0.0029602938928627392 0 -0.05746509636705497 0.0047004445954298571 0 -0.058840539353679028 0.0060088961255454106 0 -0.056715065160284399 0.0054272853198786587 0 -0.056508603976027548 0.0043091892240238894 0 -0.05746509636705497 0.0047004445954298571 0 -0.057367264080024641 0.0060450552427102101 0 -0.058840539353679028 0.0060088961255454106 0 -0.058637407482105115 0.0010083287967610384 0 -0.058476594003859274 0.001119240646256647 0 -0.05832520834428824 -0.00059373262924272707 0 -0.056550454057947466 0.0041909870175064435 0 -0.05715725730238512 0.0043337436109370537 0 -0.056486022652232883 0.0041957323917921775 0 -0.056491216715690254 0.0040963432842248881 0 -0.056550454057947466 0.0041909870175064435 0 -0.056731465117322022 0.003674203367034736 0 -0.057367264080024641 0.0060450552427102101 0 -0.058711682332801281 0.0064409482975445048 0 -0.05701097742113273 0.0076132610891993689 0 -0.057367264080024641 0.0060450552427102101 0 -0.058840539353679028 0.0060088961255454106 0 -0.058711682332801281 0.0064409482975445048 0 -0.056508603976027548 0.0043091892240238894 0 -0.056486022652232883 0.0041957323917921775 0 -0.056508603976027548 0.0043091892240238894 0 -0.056550454057947466 0.0041909870175064435 0 -0.057047419661400978 0.0030620412458439907 0 -0.056346174372781284 0.0054144857123388261 0 -0.057205685990253496 0.0048218765533513718 0 -0.056550454057947466 0.0041909870175064435 0 -0.056486022652232883 0.0041957323917921775 0 -0.057367264080024641 0.0060450552427102101 0 -0.05601028680917839 0.0063295995876447532 0 -0.05701097742113273 0.0076132610891993689 0 -0.057950244937752922 0.0048006849187640739 0 -0.058336400368766486 0.0060948677488218174 0 -0.058741160035650997 0.0058156421564389913 0 -0.057510584855524391 0.0049905674735755872 0 -0.05715725730238512 0.0043337436109370537 0 -0.056421560302079905 0.0050570260842834518 0 -0.057367264080024641 0.0060450552427102101 0 -0.05601028680917839 0.0063295995876447532 0 -0.054999987505063401 0.00073704876099902673 0 -0.056802635962723821 0.0004211521797333636 0 -0.056747061145683175 0.0023525015534214713 0 -0.058412555593072568 0.0015813200501194817 0 -0.058383903060461838 0.0012634687134104234 0 -0.056701419373768401 0.0024231369689189266 0 -0.05849145773767158 0.0011373945167517433 0 -0.056802635962723821 0.0004211521797333636 0 -0.056747061145683175 0.0023525015534214713 0 -0.05849145773767158 0.0011373945167517433 0 -0.057738617678603957 0.00010486074041077179 0 -0.05832520834428824 -0.00059373262924272707 0 -0.05849145773767158 0.0011373945167517433 0 -0.056802635962723821 0.0004211521797333636 0 -0.057738617678603957 0.00010486074041077179 0 -0.056486022652232883 0.0041957323917921775 0 -0.055791730991254326 0.0038471542358623186 0 -0.058412555593072568 0.0015813200501194817 0 -0.056701419373768401 0.0024231369689189266 0 -0.056724769834563919 0.0035822043416108033 0 -0.058412555593072568 0.0015813200501194817 0 -0.056724769834563919 0.0035822043416108033 0 -0.05752687909439521 0.0045655691000169385 0 -0.056508603976027548 0.0043091892240238894 0 -0.056270120813777247 0.0052213283828607187 0 -0.056701419373768401 0.0024231369689189266 0 -0.054999995224461619 0.0035730027512462861 0 -0.055845805320656486 0.0036970778549586586 0 -0.055791730991254326 0.0038471542358623186 0 -0.055006063663200516 0.0035770630817483248 0 -0.056701419373768401 0.0024231369689189266 0 -0.055845805320656486 0.0036970778549586586 0 -0.056724769834563919 0.0035822043416108033 0 -0.054999987505063401 0.00073704876099902673 0 -0.056747061145683175 0.0023525015534214713 0 -0.054999997343826615 0.0035728972429664245 0 -0.055845805320656486 0.0036970778549586586 0 -0.055000000507074188 0.0043960592793336412 0 -0.055767710621099142 0.0046150328029480516 0 -0.054999995224461619 0.0035730027512462861 0 -0.055845805320656486 0.0036970778549586586 0 -0.055000000507074188 0.0043960592793336412 0 -0.0556117371854059 0.0049076722759352305 0 -0.056270120813777247 0.0052213283828607187 0 -0.055845805320656486 0.0036970778549586586 0 -0.055767710621099142 0.0046150328029480516 0 -0.056724769834563919 0.0035822043416108033 0 -0.0556117371854059 0.0049076722759352305 0 -0.0562118099310282 0.0055524440926423609 0 -0.054999997631970728 0.0043961574398842509 0 -0.055788560772691884 0.0046371289100315682 0 -0.055885760489072497 0.0058944225180122597 0 -0.055006881542933816 0.0044066946853112314 0 -0.0556117371854059 0.0049076722759352305 0 -0.057563267897212875 0.0049911099042895856 0 -0.054559621689961292 0.0040819053484787184 0 -0.054266015412663515 0.005067122299718254 0 -0.055915290246993959 0.0038442067655663028 0 -0.056105733801476848 0.0059604256331896779 0 -0.056732078620856219 0.0038607180380166805 0 -0.055767710621099142 0.0046150328029480516 0 -0.056724769834563919 0.0035822043416108033 0 -0.05752687909439521 0.0045655691000169385 0 -0.0562118099310282 0.0055524440926423609 0 -0.056270120813777247 0.0052213283828607187 0 -0.054816690932343384 0.0071483569045735045 0 -0.059659425619451693 0.0053071411908160778 0 -0.059084998573280867 0.0072344406804271035 0 -0.054511183453725798 0.0037489083295143529 0 -0.054816690932343384 0.0071483569045735045 0 -0.059659425619451693 0.0053071411908160778 0 -0.056715065160284399 0.0054272853198786587 0 -0.056270120813777247 0.0052213283828607187 0 -0.057274196627572806 0.006167193212114978 0 -0.057747695546593071 0.0076100152886577821 0 -0.056553285119421294 0.0085686557906142283 0 -0.0562118099310282 0.0055524440926423609 0 -0.055832109138116509 0.0081529333514222067 0 -0.058552595269318976 0.0065514598980871315 0 -0.057274196627572806 0.006167193212114978 0 -0.057747695546593071 0.0076100152886577821 0 -0.056708946877086372 0.0056796428265605235 0 -0.0562118099310282 0.0055524440926423609 0 -0.057450336945903013 0.0051416153032284879 0 -0.055885760489072497 0.0058944225180122597 0 -0.056634221153364049 0.0078862620108590218 0 -0.054999997631970728 0.0043961574398842509 0 -0.055885760489072497 0.0058944225180122597 0 -0.054999996839945726 0.0073915496771391762 0 -0.055788560772691884 0.0046371289100315682 0 -0.057450336945903013 0.0051416153032284879 0 -0.055885760489072497 0.0058944225180122597 0 -0.055885760489072497 0.0058944225180122597 0 -0.054999996839945726 0.0073915496771391762 0 -0.056634221153364049 0.0078862620108590218 0 -0.054999996839945726 0.0073915496771391762 0 -0.056634221153364049 0.0078862620108590218 0 -0.054999996978097758 0.010386956888336029 0 -0.055832109138116509 0.0081529333514222067 0 -0.05542282109552181 0.010763099273042228 0 -0.056634221153364049 0.0078862620108590218 0 -0.054999996978097758 0.010386956888336029 0 -0.055817359398538387 0.010634399520588292 0 -0.056553285119421294 0.0085686557906142283 0 -0.058438869841259844 0.010746407497634218 0 -0.055809276464291277 0.010961004942554552 0 -0.056553285119421294 0.0085686557906142283 0 -0.058749247106057036 0.0087288851432429631 0 -0.058438869841259844 0.010746407497634218 0 -0.057747695546593071 0.0076100152886577821 0 -0.056553285119421294 0.0085686557906142283 0 -0.058749247106057036 0.0087288851432429631 0 -0.058564546472537705 0.0066206283049122265 0 -0.058749247106057036 0.0087288851432429631 0 -0.059788194116296864 0.0080081524117878809 0 -0.061184331603010837 0.0074262750515523323 0 -0.059788194116296864 0.0080081524117878809 0 -0.060544790686221248 0.0092550676208891357 0 -0.058749247106057036 0.0087288851432429631 0 -0.059788194116296864 0.0080081524117878809 0 -0.060544790686221248 0.0092550676208891357 0 -0.060544790686221248 0.0092550676208891357 0 -0.058438869841259844 0.010746407497634218 0 -0.061107729183204944 0.01115521474527603 0 -0.058749247106057036 0.0087288851432429631 0 -0.060544790686221248 0.0092550676208891357 0 -0.058438869841259844 0.010746407497634218 0 -0.058438869841259844 0.010746407497634218 0 -0.061107729183204944 0.01115521474527603 0 -0.059193320778338943 0.013233702332576813 0 -0.057817487165219533 0.012545312513231262 0 -0.057191995928835573 0.014253958516193928 0 -0.057233209485949087 0.014775087451303013 0 -0.057343289614938293 0.014064336912388247 0 -0.056803180992243532 0.014637219051630927 0 -0.058438869841259844 0.010746407497634218 0 -0.059193320778338943 0.013233702332576813 0 -0.05701296242831258 0.013413544385740611 0 -0.05701296242831258 0.013413544385740611 0 -0.055000139478800614 0.01338266229872602 0 -0.055809276464291277 0.010961004942554552 0 -0.054999997318539079 0.01338236207275089 0 -0.054999996978097758 0.010386956888336029 0 -0.055817359398538387 0.010634399520588292 0 -0.055000380678947559 0.013372001499940002 0 -0.05542282109552181 0.010763099273042228 0 -0.058438869841259844 0.010746407497634218 0 -0.05701296242831258 0.013413544385740611 0 -0.055809276464291277 0.010961004942554552 0 -0.046311179560544549 0.0019409213243726071 0 -0.045339940030869892 0.0031509899215347416 0 -0.045028065328835708 0.0011800710957598369 0 -0.04318620703085424 0.016418289257528158 0 -0.043216206441367706 0.016500758099597619 0 -0.046311179560544549 0.0019409213243726071 0 -0.046501082551102496 0.0020547849338387113 0 -0.046547670939833044 0.0019594218585340713 0 -0.046311179560544549 0.0019409213243726071 0 -0.046501082551102496 0.0020547849338387113 0 -0.046901282737923301 0.0028687438488299273 0 -0.046501082551102496 0.0020547849338387113 0 -0.046901282737923301 0.0028687438488299273 0 -0.045537961547756037 0.0015054828615226686 0 -0.046501082551102496 0.0020547849338387113 0 -0.046547670939833044 0.0019594218585340713 0 -0.045537961547756037 0.0015054828615226686 0 -0.045355763728109573 0.0010474860900709421 0 -0.045537961547756037 0.0015054828615226686 0 -0.044976169223082438 0.00070779377360771366 0 -0.037738425603472021 0.013907337555540907 0 -0.038203127538737398 0.013483324040606736 0 -0.046311179560544549 0.0019409213243726071 0 -0.046901282737923301 0.0028687438488299273 0 -0.045339940030869892 0.0031509899215347416 0 -0.046901282737923301 0.0028687438488299273 0 -0.045339940030869892 0.0031509899215347416 0 -0.04553656329794914 0.0057601869613356426 0 -0.037738425603472021 0.013907337555540907 0 -0.036247711841313424 0.015233327028180369 0 -0.045339940030869892 0.0031509899215347416 0 -0.04344734454364433 0.0055094257874927621 0 -0.04553656329794914 0.0057601869613356426 0 -0.045339940030869892 0.0031509899215347416 0 -0.043409677862043618 0.0022933059009991974 0 -0.04344734454364433 0.0055094257874927621 0 -0.041282809409111679 0.0038341166755094321 0 -0.043409677862043618 0.0022933059009991974 0 -0.04344734454364433 0.0055094257874927621 0 -0.039648055821431327 0.019455073662884008 0 -0.041463302319435721 0.017900328888726721 0 -0.035170534865300813 0.023486892308863243 0 -0.037133007944737888 0.021714418742918674 0 -0.037619939789592716 0.019503500199565052 0 -0.039648055821431327 0.019455073662884008 0 -0.039498184646354767 0.019628218809274029 0 -0.03446291812489985 0.020795775800460475 0 -0.037619939789592716 0.019503500199565052 0 -0.035595602342562094 0.01927099958943293 0 -0.035061753558152553 0.023686303774419524 0 -0.03446291812489985 0.020795775800460475 0 -0.037619939789592716 0.019503500199565052 0 -0.045339940030869892 0.0031509899215347416 0 -0.043409677862043618 0.0022933059009991974 0 -0.045028065328835708 0.0011800710957598369 0 -0.041463302319435721 0.017900328888726721 0 -0.043216206441367706 0.016500758099597619 0 -0.037133007944737888 0.021714418742918674 0 -0.039128388822899582 0.019945491168689142 0 -0.037619939789592716 0.019503500199565052 0 -0.05005248107493987 -0.00074930337408042602 0 -0.050117811155064425 0.00075784745970619658 0 -0.051694973386587496 8.8195062978877103e-06 0 -0.050117811155064425 0.00075784745970619658 0 -0.051694973386587496 8.8195062978877103e-06 0 -0.050731995702497 0.0023247396055727076 0 -0.039128388822899582 0.019945491168689142 0 -0.037619939789592716 0.019503500199565052 0 -0.036738723603501201 0.018910394496285572 0 -0.043216206441367706 0.016500758099597619 0 -0.043035829267017163 0.016006654134065365 0 -0.051694973386587496 8.8195062978877103e-06 0 -0.050731995702497 0.0023247396055727076 0 -0.05328194349176954 0.00070799077107047009 0 -0.03446291812489985 0.020795775800460475 0 -0.035595602342562094 0.01927099958943293 0 -0.03429878923538654 0.017849220761868158 0 -0.035595602342562094 0.01927099958943293 0 -0.036738723603501201 0.018910394496285572 0 -0.03429878923538654 0.017849220761868158 0 -0.037619939789592716 0.019503500199565052 0 -0.035595602342562094 0.01927099958943293 0 -0.036738723603501201 0.018910394496285572 0 -0.043035829267017163 0.016006654134065365 0 -0.042897609342057504 0.015623234191262395 0 -0.04374888983531685 0.014923462320605896 0 -0.042897609342057504 0.015623234191262395 0 -0.050731995702497 0.0023247396055727076 0 -0.053057210577802973 0.0010816330038438988 0 -0.053653288075257731 0.0024567697370610699 0 -0.050117811155064425 0.00075784745970619658 0 -0.050731995702497 0.0023247396055727076 0 -0.049115219623927793 0.0016975546172727949 0 -0.050731995702497 0.0023247396055727076 0 -0.049115219623927793 0.0016975546172727949 0 -0.048640384532824571 0.0028594160173011055 0 -0.049115219623927793 0.0016975546172727949 0 -0.04712180605530774 0.0019746921564142502 0 -0.048640384532824571 0.0028594160173011055 0 -0.049115219623927793 0.0016975546172727949 0 -0.0487085687763191 0.00039056985229981878 0 -0.04712180605530774 0.0019746921564142502 0 -0.050117811155064425 0.00075784745970619658 0 -0.049115219623927793 0.0016975546172727949 0 -0.0487085687763191 0.00039056985229981878 0 -0.043749923147636469 0.015823950224594738 0 -0.043916613518908083 0.015609448747338602 0 -0.046311179560544549 0.0019409213243726071 0 -0.046515871674173086 0.0019572628707142377 0 -0.046547670939833044 0.0019594218585340713 0 -0.046311179560544549 0.0019409213243726071 0 -0.046405984393005632 0.0019508512908724997 0 -0.046515871674173086 0.0019572628707142377 0 -0.043216206441367706 0.016500758099597619 0 -0.043749923147636469 0.015823950224594738 0 -0.05005248107493987 -0.00074930337408042602 0 -0.050117811155064425 0.00075784745970619658 0 -0.0487085687763191 0.00039056985229981878 0 -0.046515871674173086 0.0019572628707142377 0 -0.046547670939833044 0.0019594218585340713 0 -0.04712180605530774 0.0019746921564142502 0 -0.046547670939833044 0.0019594218585340713 0 -0.04712180605530774 0.0019746921564142502 0 -0.046032454699810862 0.0021480960492162755 0 -0.04712180605530774 0.0019746921564142502 0 -0.046390686710460843 0.0026434691672554481 0 -0.046032454699810862 0.0021480960492162755 0 -0.04712180605530774 0.0019746921564142502 0 -0.047199723760833992 0.0029372726553345023 0 -0.048640384532824571 0.0028594160173011055 0 -0.04712180605530774 0.0019746921564142502 0 -0.046390686710460843 0.0026434691672554481 0 -0.047199723760833992 0.0029372726553345023 0 -0.046390686710460843 0.0026434691672554481 0 -0.045311559616933388 0.0028603860839664132 0 -0.046384413073919266 0.0035794577499639719 0 -0.046390686710460843 0.0026434691672554481 0 -0.045311559616933388 0.0028603860839664132 0 -0.046032454699810862 0.0021480960492162755 0 -0.045311559616933388 0.0028603860839664132 0 -0.044402263903993024 0.0027726208062056582 0 -0.044942414752083826 0.0021072396363527842 0 -0.045311559616933388 0.0028603860839664132 0 -0.044402263903993024 0.0027726208062056582 0 -0.044412505827547355 0.0035066092652909649 0 -0.044942414752083826 0.0021072396363527842 0 -0.043874460153540976 0.0022184652189442267 0 -0.044304483228373645 0.0014921038265746083 0 -0.044402263903993024 0.0027726208062056582 0 -0.044942414752083826 0.0021072396363527842 0 -0.043874460153540976 0.0022184652189442267 0 -0.045311559616933388 0.0028603860839664132 0 -0.044942414752083826 0.0021072396363527842 0 -0.046032454699810862 0.0021480960492162755 0 -0.046547670939833044 0.0019594218585340713 0 -0.046032454699810862 0.0021480960492162755 0 -0.045537961547756037 0.0015054828615226686 0 -0.044942414752083826 0.0021072396363527842 0 -0.046032454699810862 0.0021480960492162755 0 -0.045537961547756037 0.0015054828615226686 0 -0.042364554755881301 0.0031823992096862209 0 -0.043410682741783002 0.0032832806881866274 0 -0.042807077491227474 0.0022913649892636716 0 -0.041806175551520275 0.0023149163563631918 0 -0.042364554755881301 0.0031823992096862209 0 -0.042807077491227474 0.0022913649892636716 0 -0.044402263903993024 0.0027726208062056582 0 -0.043410682741783002 0.0032832806881866274 0 -0.043874460153540976 0.0022184652189442267 0 -0.043410682741783002 0.0032832806881866274 0 -0.043874460153540976 0.0022184652189442267 0 -0.042807077491227474 0.0022913649892636716 0 -0.044402263903993024 0.0027726208062056582 0 -0.043410682741783002 0.0032832806881866274 0 -0.044412505827547355 0.0035066092652909649 0 -0.043874460153540976 0.0022184652189442267 0 -0.042807077491227474 0.0022913649892636716 0 -0.043128686314967891 0.0014200522756079978 0 -0.042254850127623159 0.001589329558356436 0 -0.042807077491227474 0.0022913649892636716 0 -0.043128686314967891 0.0014200522756079978 0 -0.041806175551520275 0.0023149163563631918 0 -0.042254850127623159 0.001589329558356436 0 -0.042807077491227474 0.0022913649892636716 0 -0.042254850127623159 0.001589329558356436 0 -0.042176090324565346 0.00070239635364131175 0 -0.043128686314967891 0.0014200522756079978 0 -0.043128686314967891 0.0014200522756079978 0 -0.043601633296688196 0.00087441457065105322 0 -0.044304483228373645 0.0014921038265746083 0 -0.043874460153540976 0.0022184652189442267 0 -0.043128686314967891 0.0014200522756079978 0 -0.044304483228373645 0.0014921038265746083 0 -0.042176090324565346 0.00070239635364131175 0 -0.043128686314967891 0.0014200522756079978 0 -0.043601633296688196 0.00087441457065105322 0 -0.042176090324565346 0.00070239635364131175 0 -0.043601633296688196 0.00087441457065105322 0 -0.042922153364924047 0.0004343959868324696 0 -0.045537961547756037 0.0015054828615226686 0 -0.044304483228373645 0.0014921038265746083 0 -0.044422341989168161 0.00081063620341343095 0 -0.044942414752083826 0.0021072396363527842 0 -0.045537961547756037 0.0015054828615226686 0 -0.044304483228373645 0.0014921038265746083 0 -0.043601633296688196 0.00087441457065105322 0 -0.044304483228373645 0.0014921038265746083 0 -0.044422341989168161 0.00081063620341343095 0 -0.045537961547756037 0.0015054828615226686 0 -0.044422341989168161 0.00081063620341343095 0 -0.044976169223082438 0.00070779377360771366 0 -0.044422341989168161 0.00081063620341343095 0 -0.044976169223082438 0.00070779377360771366 0 -0.04437356670653219 0.00034448988687774823 0 -0.043601633296688196 0.00087441457065105322 0 -0.044422341989168161 0.00081063620341343095 0 -0.043668157792059084 0.00040961685269322486 0 -0.044422341989168161 0.00081063620341343095 0 -0.04437356670653219 0.00034448988687774823 0 -0.043668157792059084 0.00040961685269322486 0 -0.04437356670653219 0.00034448988687774823 0 -0.043668157792059084 0.00040961685269322486 0 -0.043751904238753941 4.9922618662816432e-05 0 -0.04437356670653219 0.00034448988687774823 0 -0.044374618169567219 -7.6782368163022107e-05 0 -0.043751904238753941 4.9922618662816432e-05 0 -0.04437356670653219 0.00034448988687774823 0 -0.044374618169567219 -7.6782368163022107e-05 0 -0.044907960962207533 0.00024621117796898501 0 -0.044976169223082438 0.00070779377360771366 0 -0.04437356670653219 0.00034448988687774823 0 -0.044907960962207533 0.00024621117796898501 0 -0.042176090324565346 0.00070239635364131175 0 -0.042268833985542938 0.00016886240493280293 0 -0.042922153364924047 0.0004343959868324696 0 -0.043601633296688196 0.00087441457065105322 0 -0.042922153364924047 0.0004343959868324696 0 -0.043668157792059084 0.00040961685269322486 0 -0.043668157792059084 0.00040961685269322486 0 -0.042950228240658521 0.00012370280327918482 0 -0.043751904238753941 4.9922618662816432e-05 0 -0.042922153364924047 0.0004343959868324696 0 -0.043668157792059084 0.00040961685269322486 0 -0.042950228240658521 0.00012370280327918482 0 -0.042268833985542938 0.00016886240493280293 0 -0.042922153364924047 0.0004343959868324696 0 -0.042950228240658521 0.00012370280327918482 0 -0.042268833985542938 0.00016886240493280293 0 -0.042950228240658521 0.00012370280327918482 0 -0.042340961415125555 5.2136507409114322e-05 0 -0.042950228240658521 0.00012370280327918482 0 -0.042340961415125555 5.2136507409114322e-05 0 -0.0431004084221632 -0.00019186241154312518 0 -0.0431004084221632 -0.00019186241154312518 0 -0.043751904238753941 4.9922618662816432e-05 0 -0.043795856809580466 -0.00028628177625850869 0 -0.042950228240658521 0.00012370280327918482 0 -0.0431004084221632 -0.00019186241154312518 0 -0.043751904238753941 4.9922618662816432e-05 0 -0.042448438607308736 -0.00038745339457946237 0 -0.043455070278721301 -0.00081414549278306637 0 -0.0431004084221632 -0.00019186241154312518 0 -0.043455070278721301 -0.00081414549278306637 0 -0.0431004084221632 -0.00019186241154312518 0 -0.043795856809580466 -0.00028628177625850869 0 -0.042448438607308736 -0.00038745339457946237 0 -0.042340961415125555 5.2136507409114322e-05 0 -0.0431004084221632 -0.00019186241154312518 0 -0.044374618169567219 -7.6782368163022107e-05 0 -0.044896356028269961 -0.0003138683219898956 0 -0.044907960962207533 0.00024621117796898501 0 -0.044374618169567219 -7.6782368163022107e-05 0 -0.043751904238753941 4.9922618662816432e-05 0 -0.043795856809580466 -0.00028628177625850869 0 -0.043455070278721301 -0.00081414549278306637 0 -0.043795856809580466 -0.00028628177625850869 0 -0.044290093695170618 -0.00060882882829635203 0 -0.044374618169567219 -7.6782368163022107e-05 0 -0.043795856809580466 -0.00028628177625850869 0 -0.044290093695170618 -0.00060882882829635203 0 -0.044972681155468541 -0.0011163942426497182 0 -0.044290093695170618 -0.00060882882829635203 0 -0.044896356028269961 -0.0003138683219898956 0 -0.044374618169567219 -7.6782368163022107e-05 0 -0.044290093695170618 -0.00060882882829635203 0 -0.044896356028269961 -0.0003138683219898956 0 -0.044972681155468541 -0.0011163942426497182 0 -0.045415719252220481 -0.00058794914147491538 0 -0.044896356028269961 -0.0003138683219898956 0 -0.029921242517789642 0.024378234629913714 0 -0.031942250335838585 0.020795582501019403 0 -0.045415719252220481 -0.00058794914147491538 0 -0.04535800907953938 3.8663234306414385e-05 0 -0.045823219386282525 -7.694056705027809e-05 0 -0.04535800907953938 3.8663234306414385e-05 0 -0.045779256708304204 0.00034365635793724914 0 -0.045823219386282525 -7.694056705027809e-05 0 -0.045415719252220481 -0.00058794914147491538 0 -0.04535800907953938 3.8663234306414385e-05 0 -0.044896356028269961 -0.0003138683219898956 0 -0.04535800907953938 3.8663234306414385e-05 0 -0.044896356028269961 -0.0003138683219898956 0 -0.044907960962207533 0.00024621117796898501 0 -0.04535800907953938 3.8663234306414385e-05 0 -0.044907960962207533 0.00024621117796898501 0 -0.045330452165315366 0.00062308380332973322 0 -0.04535800907953938 3.8663234306414385e-05 0 -0.045330452165315366 0.00062308380332973322 0 -0.045779256708304204 0.00034365635793724914 0 -0.045355763728109573 0.0010474860900709421 0 -0.045330452165315366 0.00062308380332973322 0 -0.045699221298426934 0.00072511217880223331 0 -0.045330452165315366 0.00062308380332973322 0 -0.045699221298426934 0.00072511217880223331 0 -0.045779256708304204 0.00034365635793724914 0 -0.044976169223082438 0.00070779377360771366 0 -0.044907960962207533 0.00024621117796898501 0 -0.045330452165315366 0.00062308380332973322 0 -0.045355763728109573 0.0010474860900709421 0 -0.044976169223082438 0.00070779377360771366 0 -0.045330452165315366 0.00062308380332973322 0 -0.04176799356720734 0.0081191102156631008 0 -0.04344734454364433 0.0055094257874927621 0 -0.042714959182365383 0.0091123945239677817 0 -0.041282809409111679 0.0038341166755094321 0 -0.04176799356720734 0.0081191102156631008 0 -0.04344734454364433 0.0055094257874927621 0 -0.036247711841313424 0.015233327028180369 0 -0.03356687855975627 0.017559827328220118 0 -0.04344734454364433 0.0055094257874927621 0 -0.04553656329794914 0.0057601869613356426 0 -0.042714959182365383 0.0091123945239677817 0 -0.045699221298426934 0.00072511217880223331 0 -0.045779256708304204 0.00034365635793724914 0 -0.046178063265892126 0.00039935519070922657 0 -0.03356687855975627 0.017559827328220118 0 -0.031942250335838585 0.020795582501019403 0 -0.045779256708304204 0.00034365635793724914 0 -0.046178063265892126 0.00039935519070922657 0 -0.045823219386282525 -7.694056705027809e-05 0 -0.044244546940008608 0.011898968621844358 0 -0.042762541625033484 0.017041446141738741 0 -0.037346767315451564 0.016410672909337534 0 -0.04176799356720734 0.0081191102156631008 0 -0.043671444187340369 0.010358713495292261 0 -0.037655109854104661 0.0088582863569469858 0 -0.033578556250733783 0.017533232196257804 0 -0.03356687855975627 0.017559827328220118 0 -0.044244546940008608 0.011898968621844358 0 -0.042762541625033484 0.017041446141738741 0 -0.04848648292953639 0.017398072080526166 0 -0.042762541625033484 0.017041446141738741 0 -0.042764566839969813 0.021603776490117976 0 -0.039791742251961651 0.020313980021913043 0 -0.042762541625033484 0.017041446141738741 0 -0.04848648292953639 0.017398072080526166 0 -0.046893495583973578 0.021375517656649645 0 -0.052565358166272204 0.022927377470605369 0 -0.04848648292953639 0.017398072080526166 0 -0.046893495583973578 0.021375517656649645 0 -0.046200606379841809 0.025775847583710276 0 -0.052565358166272204 0.022927377470605369 0 -0.046893495583973578 0.021375517656649645 0 -0.039712500020320694 0.024826972047881393 0 -0.046200606379841809 0.025775847583710276 0 -0.042764566839969813 0.021603776490117976 0 -0.042762541625033484 0.017041446141738741 0 -0.046893495583973578 0.021375517656649645 0 -0.042764566839969813 0.021603776490117976 0 -0.046200606379841809 0.025775847583710276 0 -0.046893495583973578 0.021375517656649645 0 -0.042764566839969813 0.021603776490117976 0 -0.039712500020320694 0.024826972047881393 0 -0.042764566839969813 0.021603776490117976 0 -0.039791742251961651 0.020313980021913043 0 -0.039712500020320694 0.024826972047881393 0 -0.036252269917614995 0.021530940351260179 0 -0.039791742251961651 0.020313980021913043 0 -0.036252269917614995 0.021530940351260179 0 -0.039791742251961651 0.020313980021913043 0 -0.037346767315451564 0.016410672909337534 0 -0.042762541625033484 0.017041446141738741 0 -0.039791742251961651 0.020313980021913043 0 -0.037346767315451564 0.016410672909337534 0 -0.036252269917614995 0.021530940351260179 0 -0.037346767315451564 0.016410672909337534 0 -0.033739251541047538 0.016578864583089877 0 -0.030592783477176776 0.030791336237687785 0 -0.028662328270415101 0.031399037476094897 0 -0.028888598926214031 0.029644219016368153 0 -0.036252269917614995 0.021530940351260179 0 -0.033739251541047538 0.016578864583089877 0 -0.030283208439454642 0.023572665041475063 0 -0.03565225683593759 0.024316314151956737 0 -0.033767439185066563 0.026891798797596362 0 -0.036467930075698797 0.028002905321719351 0 -0.036252269917614995 0.021530940351260179 0 -0.030283208439454642 0.023572665041475063 0 -0.028353137134386735 0.034248293179292177 0 -0.024882053818070637 0.033759925253162314 0 -0.026821057686426321 0.030898802719716335 0 -0.024882053818070637 0.033759925253162314 0 -0.024644870101602705 0.030737658291485271 0 -0.026821057686426321 0.030898802719716335 0 -0.024882053818070637 0.033759925253162314 0 -0.024644870101602705 0.030737658291485271 0 -0.0232530250552456 0.03202653469478825 0 -0.024644870101602705 0.030737658291485271 0 -0.026821057686426321 0.030898802719716335 0 -0.025764862229640358 0.028512104142578255 0 -0.028353137134386735 0.034248293179292177 0 -0.028662328270415101 0.031399037476094897 0 -0.026821057686426321 0.030898802719716335 0 -0.030592783477176776 0.030791336237687785 0 -0.028353137134386735 0.034248293179292177 0 -0.028662328270415101 0.031399037476094897 0 -0.028662328270415101 0.031399037476094897 0 -0.026821057686426321 0.030898802719716335 0 -0.028888598926214031 0.029644219016368153 0 -0.028888598926214031 0.029644219016368153 0 -0.027469119022172861 0.028845293807379314 0 -0.029175393379339758 0.028144210069673881 0 -0.026821057686426321 0.030898802719716335 0 -0.028888598926214031 0.029644219016368153 0 -0.027469119022172861 0.028845293807379314 0 -0.027469119022172861 0.028845293807379314 0 -0.025764862229640358 0.028512104142578255 0 -0.027953880860707683 0.027196780352296595 0 -0.027469119022172861 0.028845293807379314 0 -0.029175393379339758 0.028144210069673881 0 -0.027953880860707683 0.027196780352296595 0 -0.029175393379339758 0.028144210069673881 0 -0.027953880860707683 0.027196780352296595 0 -0.02945335861657248 0.026947317933264704 0 -0.026821057686426321 0.030898802719716335 0 -0.027469119022172861 0.028845293807379314 0 -0.025764862229640358 0.028512104142578255 0 -0.026202959426615307 0.026284714342135449 0 -0.027520245655498245 0.025344392142084199 0 -0.025816308871501176 0.023242992855621543 0 -0.026202959426615307 0.026284714342135449 0 -0.023977252865942142 0.026583343650340641 0 -0.025816308871501176 0.023242992855621543 0 -0.036742930319147854 0.022888176645880717 0 -0.038742486897593915 0.020571639714041634 0 -0.025764862229640358 0.028512104142578255 0 -0.026202959426615307 0.026284714342135449 0 -0.023977252865942142 0.026583343650340641 0 -0.025764862229640358 0.028512104142578255 0 -0.026202959426615307 0.026284714342135449 0 -0.027953880860707683 0.027196780352296595 0 -0.027953880860707683 0.027196780352296595 0 -0.028894397035057022 0.025728241941403638 0 -0.02945335861657248 0.026947317933264704 0 -0.026202959426615307 0.026284714342135449 0 -0.027953880860707683 0.027196780352296595 0 -0.027520245655498245 0.025344392142084199 0 -0.027953880860707683 0.027196780352296595 0 -0.027520245655498245 0.025344392142084199 0 -0.028894397035057022 0.025728241941403638 0 -0.027520245655498245 0.025344392142084199 0 -0.028894397035057022 0.025728241941403638 0 -0.028257937488187505 0.024316547669375514 0 -0.028894397035057022 0.025728241941403638 0 -0.0305299316606529 0.026099752698522272 0 -0.02956955150472618 0.024496480154473532 0 -0.0305299316606529 0.026099752698522272 0 -0.031186200082810308 0.02478423755773804 0 -0.02956955150472618 0.024496480154473532 0 -0.0305299316606529 0.026099752698522272 0 -0.02945335861657248 0.026947317933264704 0 -0.030237251596430946 0.027542538814531062 0 -0.028894397035057022 0.025728241941403638 0 -0.0305299316606529 0.026099752698522272 0 -0.02945335861657248 0.026947317933264704 0 -0.0305299316606529 0.026099752698522272 0 -0.031256453190284889 0.02728194828213298 0 -0.032264912288179799 0.026185975668791384 0 -0.0305299316606529 0.026099752698522272 0 -0.031256453190284889 0.02728194828213298 0 -0.030237251596430946 0.027542538814531062 0 -0.0305299316606529 0.026099752698522272 0 -0.032264912288179799 0.026185975668791384 0 -0.031186200082810308 0.02478423755773804 0 -0.039648055821431327 0.019455073662884008 0 -0.037659768557366621 0.021748062614986109 0 -0.041282809409111679 0.0038341166755094321 0 -0.04176799356720734 0.0081191102156631008 0 -0.037655109854104661 0.0088582863569469858 0 -0.035062947074790254 0.023649306122740809 0 -0.032264912288179799 0.026185975668791384 0 -0.032835284749586614 0.027259786103435366 0 -0.039648055821431327 0.019455073662884008 0 -0.039325816410535501 0.01974722260138503 0 -0.031256453190284889 0.02728194828213298 0 -0.032264912288179799 0.026185975668791384 0 -0.032835284749586614 0.027259786103435366 0 -0.043671444187340369 0.010358713495292261 0 -0.037346767315451564 0.016410672909337534 0 -0.037655109854104661 0.0088582863569469858 0 -0.03356687855975627 0.017559827328220118 0 -0.033890831130442542 0.01735604080674483 0 -0.037346767315451564 0.016410672909337534 0 -0.033739251541047538 0.016578864583089877 0 -0.037655109854104661 0.0088582863569469858 0 -0.03565225683593759 0.024316314151956737 0 -0.037659768557366621 0.021748062614986109 0 -0.030592783477176776 0.030791336237687785 0 -0.032835284749586614 0.027259786103435366 0 -0.03051064614086945 0.028451428746620031 0 -0.030592783477176776 0.030791336237687785 0 -0.028888598926214031 0.029644219016368153 0 -0.03051064614086945 0.028451428746620031 0 -0.028888598926214031 0.029644219016368153 0 -0.029175393379339758 0.028144210069673881 0 -0.03051064614086945 0.028451428746620031 0 -0.029175393379339758 0.028144210069673881 0 -0.03051064614086945 0.028451428746620031 0 -0.030237251596430946 0.027542538814531062 0 -0.029175393379339758 0.028144210069673881 0 -0.02945335861657248 0.026947317933264704 0 -0.030237251596430946 0.027542538814531062 0 -0.031256453190284889 0.02728194828213298 0 -0.032835284749586614 0.027259786103435366 0 -0.03051064614086945 0.028451428746620031 0 -0.031256453190284889 0.02728194828213298 0 -0.03051064614086945 0.028451428746620031 0 -0.030237251596430946 0.027542538814531062 0 -0.030794292481801398 0.030255729417332337 0 -0.033058528670232575 0.027532282098407634 0 -0.013872417189178126 0.031504641745098864 0 -0.016223757115239715 0.031603660546558839 0 -0.015910237596526031 0.034346120030960624 0 -0.013872417189178126 0.031504641745098864 0 -0.016223757115239715 0.031603660546558839 0 -0.016794362415146879 0.029637221791892036 0 -0.016223757115239715 0.031603660546558839 0 -0.018298700540967033 0.030717356941195213 0 -0.016794362415146879 0.029637221791892036 0 -0.016223757115239715 0.031603660546558839 0 -0.015910237596526031 0.034346120030960624 0 -0.017840498005384647 0.032288264701549031 0 -0.018010688819409388 0.035172189402115535 0 -0.015910237596526031 0.034346120030960624 0 -0.018880061930319939 0.033720879272682476 0 -0.015910237596526031 0.034346120030960624 0 -0.018880061930319939 0.033720879272682476 0 -0.017840498005384647 0.032288264701549031 0 -0.019680273753523513 0.035283514640650653 0 -0.018010688819409388 0.035172189402115535 0 -0.018880061930319939 0.033720879272682476 0 -0.018880061930319939 0.033720879272682476 0 -0.019193052209706993 0.032215755572455762 0 -0.017840498005384647 0.032288264701549031 0 -0.019193052209706993 0.032215755572455762 0 -0.017840498005384647 0.032288264701549031 0 -0.018298700540967033 0.030717356941195213 0 -0.016223757115239715 0.031603660546558839 0 -0.017840498005384647 0.032288264701549031 0 -0.018298700540967033 0.030717356941195213 0 -0.019193052209706993 0.032215755572455762 0 -0.018298700540967033 0.030717356941195213 0 -0.020013333396501579 0.030788137303418294 0 -0.020013333396501579 0.030788137303418294 0 -0.020522584248428517 0.033135202222099085 0 -0.022334388731963271 0.030088665730562767 0 -0.035027257296544788 0.02496881033206351 0 -0.035477661121246125 0.024408581838206243 0 -0.019193052209706993 0.032215755572455762 0 -0.020013333396501579 0.030788137303418294 0 -0.020522584248428517 0.033135202222099085 0 -0.020522584248428517 0.033135202222099085 0 -0.021413021694703847 0.033421367726916409 0 -0.022182916575237115 0.029908857564753869 0 -0.018880061930319939 0.033720879272682476 0 -0.019193052209706993 0.032215755572455762 0 -0.020522584248428517 0.033135202222099085 0 -0.026380165716245997 0.032821311056636257 0 -0.026270382102523131 0.032904329897526959 0 -0.019680273753523513 0.035283514640650653 0 -0.020522584248428517 0.033135202222099085 0 -0.021413021694703847 0.033421367726916409 0 -0.019680273753523513 0.035283514640650653 0 -0.018880061930319939 0.033720879272682476 0 -0.020522584248428517 0.033135202222099085 0 -0.021480792297817561 0.035354792315558187 0 -0.019649315311700027 0.035483614535595544 0 -0.021413021694703847 0.033421367726916409 0 -0.023064613518570549 0.036237728987356485 0 -0.024882053818070637 0.033759925253162314 0 -0.022816256607053498 0.034165639694908337 0 -0.021413021694703847 0.033421367726916409 0 -0.022816256607053498 0.034165639694908337 0 -0.0232530250552456 0.03202653469478825 0 -0.021480792297817561 0.035354792315558187 0 -0.021413021694703847 0.033421367726916409 0 -0.022816256607053498 0.034165639694908337 0 -0.024882053818070637 0.033759925253162314 0 -0.022816256607053498 0.034165639694908337 0 -0.0232530250552456 0.03202653469478825 0 -0.021413021694703847 0.033421367726916409 0 -0.0232530250552456 0.03202653469478825 0 -0.022182916575237115 0.029908857564753869 0 -0.024644870101602705 0.030737658291485271 0 -0.0232530250552456 0.03202653469478825 0 -0.022182916575237115 0.029908857564753869 0 -0.035477661121246125 0.024408581838206243 0 -0.036742930319147854 0.022888176645880717 0 -0.024644870101602705 0.030737658291485271 0 -0.025764862229640358 0.028512104142578255 0 -0.022182916575237115 0.029908857564753869 0 -0.025764862229640358 0.028512104142578255 0 -0.022182916575237115 0.029908857564753869 0 -0.023977252865942142 0.026583343650340641 0 -0.022334388731963271 0.030088665730562767 0 -0.022068329658180126 0.027878328265244803 0 -0.024142536831153111 0.026965195151163662 0 -0.024142536831153111 0.026965195151163662 0 -0.022820874773351207 0.025744337152774476 0 -0.025957856058527164 0.023763836577160819 0 -0.022068329658180126 0.027878328265244803 0 -0.024142536831153111 0.026965195151163662 0 -0.022820874773351207 0.025744337152774476 0 -0.054462624432638537 0.014125770009593593 0 -0.052157177431521241 0.014061775095973644 0 -0.051776145184734494 0.016395860649908559 0 -0.03703211523406319 0.022718670471765387 0 -0.035124156067804231 0.02503933141909926 0 -0.022068329658180126 0.027878328265244803 0 -0.022820874773351207 0.025744337152774476 0 -0.019759417888583188 0.02771326577769917 0 -0.020013333396501579 0.030788137303418294 0 -0.022334388731963271 0.030088665730562767 0 -0.019759417888583188 0.02771326577769917 0 -0.022334388731963271 0.030088665730562767 0 -0.022068329658180126 0.027878328265244803 0 -0.019759417888583188 0.02771326577769917 0 -0.051776145184734494 0.016395860649908559 0 -0.050241298726833299 0.016042849067356257 0 -0.049407292892855809 0.017853737053919214 0 -0.018298700540967033 0.030717356941195213 0 -0.020013333396501579 0.030788137303418294 0 -0.019759417888583188 0.02771326577769917 0 -0.018298700540967033 0.030717356941195213 0 -0.019759417888583188 0.02771326577769917 0 -0.016794362415146879 0.029637221791892036 0 -0.035124156067804231 0.02503933141909926 0 -0.033058528670232575 0.027532282098407634 0 -0.052157177431521241 0.014061775095973644 0 -0.051776145184734494 0.016395860649908559 0 -0.050241298726833299 0.016042849067356257 0 -0.052157177431521241 0.014061775095973644 0 -0.050241298726833299 0.016042849067356257 0 -0.04922725167200924 0.013446486505710967 0 -0.049818181617051351 0.0185234641541294 0 -0.049109646926199374 0.017484516767490181 0 -0.048737773241421423 0.018835787245966306 0 -0.055052976460688997 0.01359776458627544 0 -0.055206163724305687 0.013403184177285638 0 -0.050241298726833299 0.016042849067356257 0 -0.049109646926199374 0.017484516767490181 0 -0.04922725167200924 0.013446486505710967 0 -0.049530955214743461 0.017774214813186195 0 -0.049109646926199374 0.017484516767490181 0 -0.049407292892855809 0.017853737053919214 0 -0.050241298726833299 0.016042849067356257 0 -0.049109646926199374 0.017484516767490181 0 -0.049407292892855809 0.017853737053919214 0 -0.049606327224927298 0.017280137528063233 0 -0.049530955214743461 0.017774214813186195 0 -0.049407292892855809 0.017853737053919214 0 -0.049679753996391442 0.019752137543670726 0 -0.048737773241421423 0.018835787245966306 0 -0.049010559857123277 0.020111784103428228 0 -0.049948554894848042 0.019112676167359583 0 -0.049679753996391442 0.019752137543670726 0 -0.048737773241421423 0.018835787245966306 0 -0.052157177431521241 0.014061775095973644 0 -0.04922725167200924 0.013446486505710967 0 -0.052147392782821177 0.011493239816230436 0 -0.055206163724305687 0.013403184177285638 0 -0.055680309094709932 0.012818231551232465 0 -0.048737773241421423 0.018835787245966306 0 -0.048288562596587828 0.019915806304443662 0 -0.049010559857123277 0.020111784103428228 0 -0.04922725167200924 0.013446486505710967 0 -0.050452473236876468 0.0096095450530464723 0 -0.052147392782821177 0.011493239816230436 0 -0.050452473236876468 0.0096095450530464723 0 -0.052629914618879906 0.0095192329794700076 0 -0.052147392782821177 0.011493239816230436 0 -0.052629914618879906 0.0095192329794700076 0 -0.053780631584363504 0.010405305101566446 0 -0.053825084325849828 0.0086444007252302821 0 -0.052147392782821177 0.011493239816230436 0 -0.053547442959532975 0.012261862494543068 0 -0.053780631584363504 0.010405305101566446 0 -0.052629914618879906 0.0095192329794700076 0 -0.052147392782821177 0.011493239816230436 0 -0.053780631584363504 0.010405305101566446 0 -0.052157177431521241 0.014061775095973644 0 -0.052147392782821177 0.011493239816230436 0 -0.053547442959532975 0.012261862494543068 0 -0.054462624432638537 0.014125770009593593 0 -0.052157177431521241 0.014061775095973644 0 -0.053547442959532975 0.012261862494543068 0 -0.054462624432638537 0.014125770009593593 0 -0.055095173322522138 0.011256555454984865 0 -0.056905157314610488 0.011961920353479961 0 -0.054462624432638537 0.014125770009593593 0 -0.053547442959532975 0.012261862494543068 0 -0.055095173322522138 0.011256555454984865 0 -0.03703211523406319 0.022718670471765387 0 -0.038742486897593915 0.020571639714041634 0 -0.055095173322522138 0.011256555454984865 0 -0.053780631584363504 0.010405305101566446 0 -0.054859078392053645 0.0092097098197625286 0 -0.053547442959532975 0.012261862494543068 0 -0.055095173322522138 0.011256555454984865 0 -0.053780631584363504 0.010405305101566446 0 -0.053780631584363504 0.010405305101566446 0 -0.054859078392053645 0.0092097098197625286 0 -0.053825084325849828 0.0086444007252302821 0 -0.055095173322522138 0.011256555454984865 0 -0.054859078392053645 0.0092097098197625286 0 -0.056222376751516236 0.00963574749712676 0 -0.054859078392053645 0.0092097098197625286 0 -0.053825084325849828 0.0086444007252302821 0 -0.054998670836942834 0.0076910603571953839 0 -0.054859078392053645 0.0092097098197625286 0 -0.054998670836942834 0.0076910603571953839 0 -0.055679066954793188 0.008544829477353192 0 -0.053825084325849828 0.0086444007252302821 0 -0.0539423687334269 0.0073135011973445643 0 -0.054998670836942834 0.0076910603571953839 0 -0.054998670836942834 0.0076910603571953839 0 -0.055009751145368269 0.0058706488206167412 0 -0.056120855030875105 0.0074215215942504695 0 -0.0539423687334269 0.0073135011973445643 0 -0.054998670836942834 0.0076910603571953839 0 -0.055009751145368269 0.0058706488206167412 0 -0.055009751145368269 0.0058706488206167412 0 -0.053403587680650566 0.005583962529447462 0 -0.054574555070886967 0.0048990676778989592 0 -0.055009751145368269 0.0058706488206167412 0 -0.05359199613471817 0.0064590659110138364 0 -0.053403587680650566 0.005583962529447462 0 -0.0539423687334269 0.0073135011973445643 0 -0.055009751145368269 0.0058706488206167412 0 -0.05359199613471817 0.0064590659110138364 0 -0.05359199613471817 0.0064590659110138364 0 -0.052415741049096444 0.0065471909197600195 0 -0.053183804016248074 0.0071004669965446217 0 -0.055026970293021484 0.0036945049443418056 0 -0.054990624421340159 0.0036165138664338912 0 -0.055045606443562094 0.0035906263388204994 0 -0.053403587680650566 0.005583962529447462 0 -0.052202348935900408 0.0062900543206392623 0 -0.053665563044967647 0.004565608255841686 0 -0.05359199613471817 0.0064590659110138364 0 -0.053403587680650566 0.005583962529447462 0 -0.052415741049096444 0.0065471909197600195 0 -0.056502711272083415 0.011812678955629395 0 -0.056589046385831968 0.011279894174815796 0 -0.053403587680650566 0.005583962529447462 0 -0.052202348935900408 0.0062900543206392623 0 -0.052415741049096444 0.0065471909197600195 0 -0.056502711272083415 0.011812678955629395 0 -0.056498543031141012 0.011808498247651917 0 -0.050452473236876468 0.0096095450530464723 0 -0.052078549221573685 0.006236393009741251 0 -0.052415741049096444 0.0065471909197600195 0 -0.050452473236876468 0.0096095450530464723 0 -0.052415741049096444 0.0065471909197600195 0 -0.052740732378076152 0.0080794212807742561 0 -0.052415741049096444 0.0065471909197600195 0 -0.053183804016248074 0.0071004669965446217 0 -0.052740732378076152 0.0080794212807742561 0 -0.0539423687334269 0.0073135011973445643 0 -0.053183804016248074 0.0071004669965446217 0 -0.052740732378076152 0.0080794212807742561 0 -0.0539423687334269 0.0073135011973445643 0 -0.05359199613471817 0.0064590659110138364 0 -0.053183804016248074 0.0071004669965446217 0 -0.052629914618879906 0.0095192329794700076 0 -0.053825084325849828 0.0086444007252302821 0 -0.052740732378076152 0.0080794212807742561 0 -0.053825084325849828 0.0086444007252302821 0 -0.0539423687334269 0.0073135011973445643 0 -0.052740732378076152 0.0080794212807742561 0 -0.050452473236876468 0.0096095450530464723 0 -0.052629914618879906 0.0095192329794700076 0 -0.052740732378076152 0.0080794212807742561 0 -0.048288562596587828 0.019915806304443662 0 -0.048528889742318636 0.021071498578591984 0 -0.048955172359519059 0.020780428401866027 0 -0.048288562596587828 0.019915806304443662 0 -0.047785361121470554 0.021061484665021953 0 -0.048528889742318636 0.021071498578591984 0 -0.055680309094709932 0.012818231551232465 0 -0.056502711272083415 0.011812678955629395 0 -0.047785361121470554 0.021061484665021953 0 -0.048528889742318636 0.021071498578591984 0 -0.048884039449908663 0.022082273373810451 0 -0.056502711272083415 0.011812678955629395 0 -0.056258191965681673 0.010609252557974135 0 -0.048528889742318636 0.021071498578591984 0 -0.049006409707940519 0.021420381191329482 0 -0.048884039449908663 0.022082273373810451 0 -0.048528889742318636 0.021071498578591984 0 -0.049006409707940519 0.021420381191329482 0 -0.048955172359519059 0.020780428401866027 0 -0.049006409707940519 0.021420381191329482 0 -0.049525913046669277 0.021221645777573028 0 -0.049345978787894838 0.021849372363782139 0 -0.049006409707940519 0.021420381191329482 0 -0.049525913046669277 0.021221645777573028 0 -0.048955172359519059 0.020780428401866027 0 -0.049663675653331303 0.020505433133750913 0 -0.049525913046669277 0.021221645777573028 0 -0.048955172359519059 0.020780428401866027 0 -0.048288562596587828 0.019915806304443662 0 -0.048955172359519059 0.020780428401866027 0 -0.049010559857123277 0.020111784103428228 0 -0.049663675653331303 0.020505433133750913 0 -0.048955172359519059 0.020780428401866027 0 -0.049010559857123277 0.020111784103428228 0 -0.049679753996391442 0.019752137543670726 0 -0.049663675653331303 0.020505433133750913 0 -0.049010559857123277 0.020111784103428228 0 -0.031817310006030303 0.0214852983851096 0 -0.030300351640181137 0.022593290281933767 0 -0.028626870564000761 0.021444761133346583 0 -0.031817310006030303 0.0214852983851096 0 -0.028626870564000761 0.021444761133346583 0 -0.031458311653911074 0.019642849829143473 0 -0.058350713911202508 0.011268734581989414 0 -0.059002531633297203 0.009150785597986124 0 -0.061411357591824201 0.0092838057612011429 0 -0.040431238209747394 0.01872662120152184 0 -0.041851638503998111 0.01706001242748886 0 -0.03446291812489985 0.020795775800460475 0 -0.031817310006030303 0.0214852983851096 0 -0.032292863059276103 0.023336465259257141 0 -0.03446291812489985 0.020795775800460475 0 -0.031817310006030303 0.0214852983851096 0 -0.031458311653911074 0.019642849829143473 0 -0.035061753558152553 0.023686303774419524 0 -0.03446291812489985 0.020795775800460475 0 -0.032292863059276103 0.023336465259257141 0 -0.032264912288179799 0.026185975668791384 0 -0.032292863059276103 0.023336465259257141 0 -0.031186200082810308 0.02478423755773804 0 -0.035061753558152553 0.023686303774419524 0 -0.032264912288179799 0.026185975668791384 0 -0.032292863059276103 0.023336465259257141 0 -0.032292863059276103 0.023336465259257141 0 -0.031186200082810308 0.02478423755773804 0 -0.030657262764541057 0.023819489428056364 0 -0.031817310006030303 0.0214852983851096 0 -0.032292863059276103 0.023336465259257141 0 -0.030300351640181137 0.022593290281933767 0 -0.032292863059276103 0.023336465259257141 0 -0.030657262764541057 0.023819489428056364 0 -0.030300351640181137 0.022593290281933767 0 -0.030657262764541057 0.023819489428056364 0 -0.030300351640181137 0.022593290281933767 0 -0.028731183736030282 0.023088535413218109 0 -0.030657262764541057 0.023819489428056364 0 -0.02956955150472618 0.024496480154473532 0 -0.028731183736030282 0.023088535413218109 0 -0.031186200082810308 0.02478423755773804 0 -0.030657262764541057 0.023819489428056364 0 -0.02956955150472618 0.024496480154473532 0 -0.038742486897593915 0.020571639714041634 0 -0.040431238209747394 0.01872662120152184 0 -0.028894397035057022 0.025728241941403638 0 -0.02956955150472618 0.024496480154473532 0 -0.028257937488187505 0.024316547669375514 0 -0.028731183736030282 0.023088535413218109 0 -0.025816308871501176 0.023242992855621543 0 -0.028626870564000761 0.021444761133346583 0 -0.02956955150472618 0.024496480154473532 0 -0.028257937488187505 0.024316547669375514 0 -0.028731183736030282 0.023088535413218109 0 -0.028257937488187505 0.024316547669375514 0 -0.028731183736030282 0.023088535413218109 0 -0.025816308871501176 0.023242992855621543 0 -0.027520245655498245 0.025344392142084199 0 -0.028257937488187505 0.024316547669375514 0 -0.025816308871501176 0.023242992855621543 0 -0.030300351640181137 0.022593290281933767 0 -0.028731183736030282 0.023088535413218109 0 -0.028626870564000761 0.021444761133346583 0 -0.055095173322522138 0.011256555454984865 0 -0.056905157314610488 0.011961920353479961 0 -0.056222376751516236 0.00963574749712676 0 -0.038742486897593915 0.020571639714041634 0 -0.039992147251803195 0.01899264126614774 0 -0.056905157314610488 0.011961920353479961 0 -0.056222376751516236 0.00963574749712676 0 -0.057839750317156109 0.009390945780900389 0 -0.056222376751516236 0.00963574749712676 0 -0.057839750317156109 0.009390945780900389 0 -0.056754203229788081 0.0085895446213655139 0 -0.056222376751516236 0.00963574749712676 0 -0.055679066954793188 0.008544829477353192 0 -0.056754203229788081 0.0085895446213655139 0 -0.054859078392053645 0.0092097098197625286 0 -0.056222376751516236 0.00963574749712676 0 -0.055679066954793188 0.008544829477353192 0 -0.055161757545759631 0.013286675934338929 0 -0.058350713911202508 0.011268734581989414 0 -0.056981728844749419 0.010082139086345931 0 -0.058350713911202508 0.011268734581989414 0 -0.056981728844749419 0.010082139086345931 0 -0.059002531633297203 0.009150785597986124 0 -0.056981728844749419 0.010082139086345931 0 -0.059002531633297203 0.009150785597986124 0 -0.058806681495898815 0.0069827082722659544 0 -0.039992147251803195 0.01899264126614774 0 -0.040425959251409155 0.018432810253329514 0 -0.057839750317156109 0.009390945780900389 0 -0.057254740514121306 0.0077275102614162688 0 -0.058806681495898815 0.0069827082722659544 0 -0.057839750317156109 0.009390945780900389 0 -0.057254740514121306 0.0077275102614162688 0 -0.056754203229788081 0.0085895446213655139 0 -0.057254740514121306 0.0077275102614162688 0 -0.058806681495898815 0.0069827082722659544 0 -0.056640263258489656 0.0062517850891347596 0 -0.054998670836942834 0.0076910603571953839 0 -0.055679066954793188 0.008544829477353192 0 -0.056120855030875105 0.0074215215942504695 0 -0.055679066954793188 0.008544829477353192 0 -0.056754203229788081 0.0085895446213655139 0 -0.056120855030875105 0.0074215215942504695 0 -0.057254740514121306 0.0077275102614162688 0 -0.056754203229788081 0.0085895446213655139 0 -0.056120855030875105 0.0074215215942504695 0 -0.057254740514121306 0.0077275102614162688 0 -0.056120855030875105 0.0074215215942504695 0 -0.056640263258489656 0.0062517850891347596 0 -0.055009751145368269 0.0058706488206167412 0 -0.056640263258489656 0.0062517850891347596 0 -0.056605123620227411 0.0042575888856262144 0 -0.055009751145368269 0.0058706488206167412 0 -0.056605123620227411 0.0042575888856262144 0 -0.05555592187004893 0.0041889327042347619 0 -0.055009751145368269 0.0058706488206167412 0 -0.056120855030875105 0.0074215215942504695 0 -0.056640263258489656 0.0062517850891347596 0 -0.058806681495898815 0.0069827082722659544 0 -0.056605123620227411 0.0042575888856262144 0 -0.060626359643164041 0.0057261291786340563 0 -0.044612010093525389 0.01541655167743369 0 -0.044219886339916373 0.015479474873513968 0 -0.058806681495898815 0.0069827082722659544 0 -0.056640263258489656 0.0062517850891347596 0 -0.056605123620227411 0.0042575888856262144 0 -0.055000010394103155 0.0022441303015004969 0 -0.053653288075257731 0.0024567697370610699 0 -0.055257134281107713 0.0036446652796032742 0 -0.056605123620227411 0.0042575888856262144 0 -0.055000010394103155 0.0022441303015004969 0 -0.055257134281107713 0.0036446652796032742 0 -0.059002531633297203 0.009150785597986124 0 -0.058806681495898815 0.0069827082722659544 0 -0.060715314431061575 0.0076480777286299035 0 -0.058806681495898815 0.0069827082722659544 0 -0.060626359643164041 0.0057261291786340563 0 -0.060715314431061575 0.0076480777286299035 0 -0.059002531633297203 0.009150785597986124 0 -0.060715314431061575 0.0076480777286299035 0 -0.061411357591824201 0.0092838057612011429 0 -0.03446291812489985 0.020795775800460475 0 -0.031458311653911074 0.019642849829143473 0 -0.03429878923538654 0.017849220761868158 0 -0.060626359643164041 0.0057261291786340563 0 -0.060715314431061575 0.0076480777286299035 0 -0.064400816453522386 0.007378655277831366 0 -0.041851638503998111 0.01706001242748886 0 -0.042897609342057504 0.015623234191262395 0 -0.060715314431061575 0.0076480777286299035 0 -0.061411357591824201 0.0092838057612011429 0 -0.064400816453522386 0.007378655277831366 0 -0.044219886339916373 0.015479474873513968 0 -0.042897609342057504 0.015623234191262395 0 -0.055000010394103155 0.0022441303015004969 0 -0.053057210577802973 0.0010816330038438988 0 -0.053653288075257731 0.0024567697370610699 0 -0.053653288075257731 0.0024567697370610699 0 -0.053480590088219315 0.0037071306385659331 0 -0.055257134281107713 0.0036446652796032742 0 -0.053480590088219315 0.0037071306385659331 0 -0.055435584478081459 0.0043150784966868106 0 -0.053501012574063603 0.0048389015727355643 0 -0.053480590088219315 0.0037071306385659331 0 -0.055435584478081459 0.0043150784966868106 0 -0.055257134281107713 0.0036446652796032742 0 -0.055435584478081459 0.0043150784966868106 0 -0.055257134281107713 0.0036446652796032742 0 -0.056005705388453564 0.0040642939627149278 0 -0.056605123620227411 0.0042575888856262144 0 -0.055257134281107713 0.0036446652796032742 0 -0.056005705388453564 0.0040642939627149278 0 -0.056605123620227411 0.0042575888856262144 0 -0.05555592187004893 0.0041889327042347619 0 -0.056005705388453564 0.0040642939627149278 0 -0.05555592187004893 0.0041889327042347619 0 -0.055552582814755572 0.0036878302624410914 0 -0.056005705388453564 0.0040642939627149278 0 -0.055552582814755572 0.0036878302624410914 0 -0.056005705388453564 0.0040642939627149278 0 -0.055798274488628667 0.0035280215901144179 0 -0.055435584478081459 0.0043150784966868106 0 -0.056005705388453564 0.0040642939627149278 0 -0.055798274488628667 0.0035280215901144179 0 -0.055885815986038576 0.0035832361527830493 0 -0.055927027728308987 0.0036038260578911746 0 -0.056177386327164534 0.0052505364098699644 0 -0.055707284342567519 0.005751481576608518 0 -0.054601652826851747 0.0056827032159574246 0 -0.055435584478081459 0.0043150784966868106 0 -0.056177386327164534 0.0052505364098699644 0 -0.054601652826851747 0.0056827032159574246 0 -0.055552582814755572 0.0036878302624410914 0 -0.055798274488628667 0.0035280215901144179 0 -0.055354240848598482 0.0033500025657959565 0 -0.055927027728308987 0.0036038260578911746 0 -0.055998716212215797 0.0036246791574815534 0 -0.056177386327164534 0.0052505364098699644 0 -0.056151573776286684 0.0053320879608566912 0 -0.05602958409067308 0.0056143496596942474 0 -0.056177386327164534 0.0052505364098699644 0 -0.055707284342567519 0.005751481576608518 0 -0.05602958409067308 0.0056143496596942474 0 -0.054601652826851747 0.0056827032159574246 0 -0.05351522844863682 0.0069792073491029413 0 -0.051972206185189301 0.00610714258214332 0 -0.054601652826851747 0.0056827032159574246 0 -0.053501012574063603 0.0048389015727355643 0 -0.051972206185189301 0.00610714258214332 0 -0.055435584478081459 0.0043150784966868106 0 -0.054601652826851747 0.0056827032159574246 0 -0.053501012574063603 0.0048389015727355643 0 -0.054808099045296738 0.0034638587577596127 0 -0.054888060850119443 0.0036174660881911477 0 -0.054922902332774817 0.0035151764035402989 0 -0.054585545465530363 0.0034364696629839791 0 -0.054808099045296738 0.0034638587577596127 0 -0.05476751997300517 0.0033106463732535062 0 -0.054585545465530363 0.0034364696629839791 0 -0.054808099045296738 0.0034638587577596127 0 -0.054888060850119443 0.0036174660881911477 0 -0.050003819209308013 0.023076639233883374 0 -0.049255668817484999 0.022315873704142519 0 -0.048884039449908663 0.022082273373810451 0 -0.056377477260399995 0.0094708563192167864 0 -0.056258191965681673 0.010609252557974135 0 -0.054808099045296738 0.0034638587577596127 0 -0.054925853196745499 0.0033743932626360794 0 -0.05476751997300517 0.0033106463732535062 0 -0.054808099045296738 0.0034638587577596127 0 -0.054922902332774817 0.0035151764035402989 0 -0.054925853196745499 0.0033743932626360794 0 -0.04980036466434902 0.022164399389248711 0 -0.049255668817484999 0.022315873704142519 0 -0.049345978787894838 0.021849372363782139 0 -0.049255668817484999 0.022315873704142519 0 -0.049345978787894838 0.021849372363782139 0 -0.048884039449908663 0.022082273373810451 0 -0.049006409707940519 0.021420381191329482 0 -0.049345978787894838 0.021849372363782139 0 -0.048884039449908663 0.022082273373810451 0 -0.054888060850119443 0.0036174660881911477 0 -0.054972083109569796 0.0035672747621717533 0 -0.054922902332774817 0.0035151764035402989 0 -0.055026970293021484 0.0036945049443418056 0 -0.054888060850119443 0.0036174660881911477 0 -0.054990624421340159 0.0036165138664338912 0 -0.054888060850119443 0.0036174660881911477 0 -0.054990624421340159 0.0036165138664338912 0 -0.054972083109569796 0.0035672747621717533 0 -0.054990624421340159 0.0036165138664338912 0 -0.054972083109569796 0.0035672747621717533 0 -0.055022962502619246 0.0035626457937640659 0 -0.054972083109569796 0.0035672747621717533 0 -0.055024484375477793 0.0035030502728400164 0 -0.055022962502619246 0.0035626457937640659 0 -0.055024484375477793 0.0035030502728400164 0 -0.055121936835195902 0.0033567134867364132 0 -0.054925853196745499 0.0033743932626360794 0 -0.054972083109569796 0.0035672747621717533 0 -0.055024484375477793 0.0035030502728400164 0 -0.054922902332774817 0.0035151764035402989 0 -0.055024484375477793 0.0035030502728400164 0 -0.054922902332774817 0.0035151764035402989 0 -0.054925853196745499 0.0033743932626360794 0 -0.055024484375477793 0.0035030502728400164 0 -0.055009596660902813 0.0035579451626485559 0 -0.055121936835195902 0.0033567134867364132 0 -0.055024484375477793 0.0035030502728400164 0 -0.055022962502619246 0.0035626457937640659 0 -0.055009596660902813 0.0035579451626485559 0 -0.055022962502619246 0.0035626457937640659 0 -0.055045606443562094 0.0035906263388204994 0 -0.055009596660902813 0.0035579451626485559 0 -0.056589046385831968 0.011279894174815796 0 -0.05662188334875963 0.011097392961789628 0 -0.054990624421340159 0.0036165138664338912 0 -0.055022962502619246 0.0035626457937640659 0 -0.055045606443562094 0.0035906263388204994 0 -0.053403587680650566 0.005583962529447462 0 -0.053665563044967647 0.004565608255841686 0 -0.054574555070886967 0.0048990676778989592 0 -0.053665563044967647 0.004565608255841686 0 -0.054574555070886967 0.0048990676778989592 0 -0.055009596660902813 0.0035579451626485559 0 -0.055009751145368269 0.0058706488206167412 0 -0.05555592187004893 0.0041889327042347619 0 -0.054574555070886967 0.0048990676778989592 0 -0.05555592187004893 0.0041889327042347619 0 -0.054574555070886967 0.0048990676778989592 0 -0.055009596660902813 0.0035579451626485559 0 -0.05555592187004893 0.0041889327042347619 0 -0.055552582814755572 0.0036878302624410914 0 -0.055009596660902813 0.0035579451626485559 0 -0.055552582814755572 0.0036878302624410914 0 -0.055009596660902813 0.0035579451626485559 0 -0.055354240848598482 0.0033500025657959565 0 -0.055354240848598482 0.0033500025657959565 0 -0.055525790171497946 0.0029280346412698336 0 -0.055300013969926821 0.0030627810951640512 0 -0.055798274488628667 0.0035280215901144179 0 -0.055354240848598482 0.0033500025657959565 0 -0.055525790171497946 0.0029280346412698336 0 -0.055300013969926821 0.0030627810951640512 0 -0.055121936835195902 0.0033567134867364132 0 -0.055104585059001371 0.0029569599500886986 0 -0.055354240848598482 0.0033500025657959565 0 -0.055300013969926821 0.0030627810951640512 0 -0.055121936835195902 0.0033567134867364132 0 -0.055009596660902813 0.0035579451626485559 0 -0.055354240848598482 0.0033500025657959565 0 -0.055121936835195902 0.0033567134867364132 0 -0.054925853196745499 0.0033743932626360794 0 -0.055104585059001371 0.0029569599500886986 0 -0.054849252805885304 0.0031774403155227322 0 -0.055121936835195902 0.0033567134867364132 0 -0.054925853196745499 0.0033743932626360794 0 -0.055104585059001371 0.0029569599500886986 0 -0.054646035554296243 0.0030537796564024649 0 -0.055104585059001371 0.0029569599500886986 0 -0.054849252805885304 0.0031774403155227322 0 -0.054646035554296243 0.0030537796564024649 0 -0.055104585059001371 0.0029569599500886986 0 -0.054846310302034934 0.0024582317702841736 0 -0.054646035554296243 0.0030537796564024649 0 -0.054849252805885304 0.0031774403155227322 0 -0.05476751997300517 0.0033106463732535062 0 -0.054925853196745499 0.0033743932626360794 0 -0.054849252805885304 0.0031774403155227322 0 -0.05476751997300517 0.0033106463732535062 0 -0.056851868194261981 0.0069993016722110545 0 -0.056888964117119724 0.0067577722631515097 0 -0.057573753925434512 0.0010746616335417585 0 -0.056743585467251501 -0.0003623960747942015 0 -0.055703638287709023 0.0015388469168198849 0 -0.054846310302034934 0.0024582317702841736 0 -0.055373152994432753 0.002176716201182496 0 -0.055703638287709023 0.0015388469168198849 0 -0.056704687272696876 0.0078337850081427185 0 -0.056851868194261981 0.0069993016722110545 0 -0.055104585059001371 0.0029569599500886986 0 -0.054846310302034934 0.0024582317702841736 0 -0.055373152994432753 0.002176716201182496 0 -0.055104585059001371 0.0029569599500886986 0 -0.055373152994432753 0.002176716201182496 0 -0.055512234953690523 0.0023993166243760767 0 -0.056070147853209178 0.0036241478940065288 0 -0.056152280818713027 0.0036317029765229984 0 -0.056116360984141855 0.0046502847240534701 0 -0.056360260548391432 0.0039612700660463952 0 -0.056444567392160735 0.003669074691159705 0 -0.055373152994432753 0.002176716201182496 0 -0.055512234953690523 0.0023993166243760767 0 -0.055592252615103657 0.0015600399840758348 0 -0.055373152994432753 0.002176716201182496 0 -0.055592252615103657 0.0015600399840758348 0 -0.055703638287709023 0.0015388469168198849 0 -0.056116360984141855 0.0046502847240534701 0 -0.056278616922051571 0.0041511963776440612 0 -0.056360260548391432 0.0039612700660463952 0 -0.056116360984141855 0.0046502847240534701 0 -0.056182817446039895 0.0045301226710148445 0 -0.056278616922051571 0.0041511963776440612 0 -0.055998716212215797 0.0036246791574815534 0 -0.056070147853209178 0.0036241478940065288 0 -0.055525790171497946 0.0029280346412698336 0 -0.055300013969926821 0.0030627810951640512 0 -0.055512234953690523 0.0023993166243760767 0 -0.055300013969926821 0.0030627810951640512 0 -0.055104585059001371 0.0029569599500886986 0 -0.055512234953690523 0.0023993166243760767 0 -0.056151573776286684 0.0053320879608566912 0 -0.056116360984141855 0.0046502847240534701 0 -0.056121562299430057 0.0050528697546853643 0 -0.056182817446039895 0.0045301226710148445 0 -0.056121562299430057 0.0050528697546853643 0 -0.056101653228181607 0.0047627427907275281 0 -0.056116360984141855 0.0046502847240534701 0 -0.056182817446039895 0.0045301226710148445 0 -0.056121562299430057 0.0050528697546853643 0 -0.056182817446039895 0.0045301226710148445 0 -0.056173387206592519 0.004436593284942972 0 -0.056101653228181607 0.0047627427907275281 0 -0.056182817446039895 0.0045301226710148445 0 -0.056243032591010239 0.0042200089216317049 0 -0.056173387206592519 0.004436593284942972 0 -0.056243032591010239 0.0042200089216317049 0 -0.056173387206592519 0.004436593284942972 0 -0.0562141664873195 0.0042165144308072876 0 -0.056173387206592519 0.004436593284942972 0 -0.0562141664873195 0.0042165144308072876 0 -0.056162534235546242 0.0043661687336826989 0 -0.056212477374607141 0.0041604041349706522 0 -0.0562141664873195 0.0042165144308072876 0 -0.056162534235546242 0.0043661687336826989 0 -0.056212477374607141 0.0041604041349706522 0 -0.056190385410061723 0.0042176805109898933 0 -0.056162534235546242 0.0043661687336826989 0 -0.056212477374607141 0.0041604041349706522 0 -0.056257578302211703 0.0040261832313926776 0 -0.056215867883036938 0.0041116104587797762 0 -0.056212477374607141 0.0041604041349706522 0 -0.056190385410061723 0.0042176805109898933 0 -0.056215867883036938 0.0041116104587797762 0 -0.056257578302211703 0.0040261832313926776 0 -0.056254504033334193 0.0040729233469594638 0 -0.056323170685642611 0.0039293791380934848 0 -0.056212477374607141 0.0041604041349706522 0 -0.056257578302211703 0.0040261832313926776 0 -0.056254504033334193 0.0040729233469594638 0 -0.056212477374607141 0.0041604041349706522 0 -0.056254504033334193 0.0040729233469594638 0 -0.0562141664873195 0.0042165144308072876 0 -0.056243032591010239 0.0042200089216317049 0 -0.0562141664873195 0.0042165144308072876 0 -0.056284284908302049 0.0040451325089644625 0 -0.056254504033334193 0.0040729233469594638 0 -0.0562141664873195 0.0042165144308072876 0 -0.056284284908302049 0.0040451325089644625 0 -0.056243032591010239 0.0042200089216317049 0 -0.056284284908302049 0.0040451325089644625 0 -0.056336068935366482 0.0039688756159887862 0 -0.056349617899350779 0.0039129614904921915 0 -0.056284284908302049 0.0040451325089644625 0 -0.056336068935366482 0.0039688756159887862 0 -0.056349617899350779 0.0039129614904921915 0 -0.056284284908302049 0.0040451325089644625 0 -0.056323170685642611 0.0039293791380934848 0 -0.056323170685642611 0.0039293791380934848 0 -0.056445010010122781 0.003758190116269643 0 -0.056327582654093572 0.003906879451273158 0 -0.056254504033334193 0.0040729233469594638 0 -0.056284284908302049 0.0040451325089644625 0 -0.056323170685642611 0.0039293791380934848 0 -0.056349617899350779 0.0039129614904921915 0 -0.056323170685642611 0.0039293791380934848 0 -0.056412022414393345 0.0038023301521657705 0 -0.056257578302211703 0.0040261832313926776 0 -0.056323170685642611 0.0039293791380934848 0 -0.056327582654093572 0.003906879451273158 0 -0.056515552060862263 0.0036655830258679164 0 -0.056612057064439621 0.0035841750804368813 0 -0.056445010010122781 0.003758190116269643 0 -0.056412022414393345 0.0038023301521657705 0 -0.056515552060862263 0.0036655830258679164 0 -0.056445010010122781 0.003758190116269643 0 -0.056323170685642611 0.0039293791380934848 0 -0.056412022414393345 0.0038023301521657705 0 -0.056445010010122781 0.003758190116269643 0 -0.056412022414393345 0.0038023301521657705 0 -0.056434733926292231 0.0037764756372092143 0 -0.056515552060862263 0.0036655830258679164 0 -0.056434733926292231 0.0037764756372092143 0 -0.056336068935366482 0.0039688756159887862 0 -0.056466324975608162 0.0037294766944084281 0 -0.056349617899350779 0.0039129614904921915 0 -0.056412022414393345 0.0038023301521657705 0 -0.056434733926292231 0.0037764756372092143 0 -0.056349617899350779 0.0039129614904921915 0 -0.056434733926292231 0.0037764756372092143 0 -0.056336068935366482 0.0039688756159887862 0 -0.056336068935366482 0.0039688756159887862 0 -0.056278616922051571 0.0041511963776440612 0 -0.056466324975608162 0.0037294766944084281 0 -0.056243032591010239 0.0042200089216317049 0 -0.056336068935366482 0.0039688756159887862 0 -0.056278616922051571 0.0041511963776440612 0 -0.056182817446039895 0.0045301226710148445 0 -0.056243032591010239 0.0042200089216317049 0 -0.056278616922051571 0.0041511963776440612 0 -0.056278616922051571 0.0041511963776440612 0 -0.056360260548391432 0.0039612700660463952 0 -0.056466324975608162 0.0037294766944084281 0 -0.056360260548391432 0.0039612700660463952 0 -0.056444567392160735 0.003669074691159705 0 -0.05647506452376086 0.0037116446529866782 0 -0.056444567392160735 0.003669074691159705 0 -0.05660608560730241 0.0035197551052860744 0 -0.056936073452605977 0.0031916713621751931 0 -0.056444567392160735 0.003669074691159705 0 -0.05660608560730241 0.0035197551052860744 0 -0.05647506452376086 0.0037116446529866782 0 -0.05660608560730241 0.0035197551052860744 0 -0.056466324975608162 0.0037294766944084281 0 -0.056593770613115719 0.0035537187856905274 0 -0.05660608560730241 0.0035197551052860744 0 -0.05647506452376086 0.0037116446529866782 0 -0.056466324975608162 0.0037294766944084281 0 -0.056360260548391432 0.0039612700660463952 0 -0.05647506452376086 0.0037116446529866782 0 -0.056466324975608162 0.0037294766944084281 0 -0.056434733926292231 0.0037764756372092143 0 -0.056466324975608162 0.0037294766944084281 0 -0.056555848694819319 0.0036038930328111921 0 -0.056466324975608162 0.0037294766944084281 0 -0.056593770613115719 0.0035537187856905274 0 -0.056555848694819319 0.0036038930328111921 0 -0.056434733926292231 0.0037764756372092143 0 -0.056555848694819319 0.0036038930328111921 0 -0.056515552060862263 0.0036655830258679164 0 -0.056555848694819319 0.0036038930328111921 0 -0.056515552060862263 0.0036655830258679164 0 -0.056682408003001609 0.0034879064115289397 0 -0.056515552060862263 0.0036655830258679164 0 -0.056682408003001609 0.0034879064115289397 0 -0.056612057064439621 0.0035841750804368813 0 -0.056682408003001609 0.0034879064115289397 0 -0.056899857263580628 0.0033433953387076811 0 -0.056612057064439621 0.0035841750804368813 0 -0.056682408003001609 0.0034879064115289397 0 -0.056757804858286687 0.0033763379378827525 0 -0.056899857263580628 0.0033433953387076811 0 -0.05660608560730241 0.0035197551052860744 0 -0.056757804858286687 0.0033763379378827525 0 -0.056936073452605977 0.0031916713621751931 0 -0.056555848694819319 0.0036038930328111921 0 -0.056682408003001609 0.0034879064115289397 0 -0.056757804858286687 0.0033763379378827525 0 -0.05660608560730241 0.0035197551052860744 0 -0.056593770613115719 0.0035537187856905274 0 -0.056757804858286687 0.0033763379378827525 0 -0.056593770613115719 0.0035537187856905274 0 -0.056555848694819319 0.0036038930328111921 0 -0.056757804858286687 0.0033763379378827525 0 -0.056757804858286687 0.0033763379378827525 0 -0.057219359257480493 0.0030411254876741836 0 -0.056899857263580628 0.0033433953387076811 0 -0.056757804858286687 0.0033763379378827525 0 -0.056936073452605977 0.0031916713621751931 0 -0.057219359257480493 0.0030411254876741836 0 -0.057640443258986138 0.002573183592759157 0 -0.056936073452605977 0.0031916713621751931 0 -0.057219359257480493 0.0030411254876741836 0 -0.057640443258986138 0.002573183592759157 0 -0.056444567392160735 0.003669074691159705 0 -0.056936073452605977 0.0031916713621751931 0 -0.057573753925434512 0.0010746616335417585 0 -0.057640443258986138 0.002573183592759157 0 -0.055703638287709023 0.0015388469168198849 0 -0.057640443258986138 0.002573183592759157 0 -0.055592252615103657 0.0015600399840758348 0 -0.055703638287709023 0.0015388469168198849 0 -0.056212307234807996 0.0036537103906347499 0 -0.056152280818713027 0.0036317029765229984 0 -0.055756077909127247 0.0064884347716341693 0 -0.055957881052955995 0.0053722418852037218 0 -0.056215623787268673 0.0054332652406316601 0 -0.056982825070794267 0.0056540840586660149 0 -0.055756077909127247 0.0064884347716341693 0 -0.056215623787268673 0.0054332652406316601 0 -0.043407643698679763 -0.0008472035044288143 0 -0.043750074093371796 -0.00084504909435496466 0 -0.053704435262011033 0.0088365976582535609 0 -0.05351522844863682 0.0069792073491029413 0 -0.055756077909127247 0.0064884347716341693 0 -0.053704435262011033 0.0088365976582535609 0 -0.05351522844863682 0.0069792073491029413 0 -0.052347581317920402 0.0085835862461270951 0 -0.054601652826851747 0.0056827032159574246 0 -0.05351522844863682 0.0069792073491029413 0 -0.055756077909127247 0.0064884347716341693 0 -0.055707284342567519 0.005751481576608518 0 -0.054601652826851747 0.0056827032159574246 0 -0.055756077909127247 0.0064884347716341693 0 -0.055707284342567519 0.005751481576608518 0 -0.055756077909127247 0.0064884347716341693 0 -0.05602958409067308 0.0056143496596942474 0 -0.056151573776286684 0.0053320879608566912 0 -0.05602958409067308 0.0056143496596942474 0 -0.056121562299430057 0.0050528697546853643 0 -0.056121562299430057 0.0050528697546853643 0 -0.055957881052955995 0.0053722418852037218 0 -0.056101653228181607 0.0047627427907275281 0 -0.05602958409067308 0.0056143496596942474 0 -0.056121562299430057 0.0050528697546853643 0 -0.055957881052955995 0.0053722418852037218 0 -0.055756077909127247 0.0064884347716341693 0 -0.05602958409067308 0.0056143496596942474 0 -0.055957881052955995 0.0053722418852037218 0 -0.055957881052955995 0.0053722418852037218 0 -0.056061600620603273 0.0049147537950069205 0 -0.056101653228181607 0.0047627427907275281 0 -0.055957881052955995 0.0053722418852037218 0 -0.056061600620603273 0.0049147537950069205 0 -0.056127828891172578 0.00483785983533802 0 -0.055957881052955995 0.0053722418852037218 0 -0.056127828891172578 0.00483785983533802 0 -0.056215623787268673 0.0054332652406316601 0 -0.056061600620603273 0.0049147537950069205 0 -0.056101653228181607 0.0047627427907275281 0 -0.05613693392293212 0.0045808796693278418 0 -0.056173387206592519 0.004436593284942972 0 -0.056101653228181607 0.0047627427907275281 0 -0.056162534235546242 0.0043661687336826989 0 -0.056101653228181607 0.0047627427907275281 0 -0.056162534235546242 0.0043661687336826989 0 -0.05613693392293212 0.0045808796693278418 0 -0.056162534235546242 0.0043661687336826989 0 -0.05613693392293212 0.0045808796693278418 0 -0.056180802409751485 0.0043690120741180184 0 -0.05613693392293212 0.0045808796693278418 0 -0.056180802409751485 0.0043690120741180184 0 -0.056271742844648802 0.0044024481129172951 0 -0.056180802409751485 0.0043690120741180184 0 -0.056271742844648802 0.0044024481129172951 0 -0.056221932055472067 0.0042534138713470346 0 -0.056180802409751485 0.0043690120741180184 0 -0.056194796428729439 0.0042298090490540596 0 -0.056221932055472067 0.0042534138713470346 0 -0.056162534235546242 0.0043661687336826989 0 -0.056180802409751485 0.0043690120741180184 0 -0.056194796428729439 0.0042298090490540596 0 -0.056190385410061723 0.0042176805109898933 0 -0.056162534235546242 0.0043661687336826989 0 -0.056194796428729439 0.0042298090490540596 0 -0.056061600620603273 0.0049147537950069205 0 -0.056127828891172578 0.00483785983533802 0 -0.056271742844648802 0.0044024481129172951 0 -0.056061600620603273 0.0049147537950069205 0 -0.05613693392293212 0.0045808796693278418 0 -0.056271742844648802 0.0044024481129172951 0 -0.056127828891172578 0.00483785983533802 0 -0.055879391466850337 0.0044535695538242435 0 -0.056196964312654446 0.004341213586226079 0 -0.052062012068367892 -0.00097385523048951032 0 -0.051971317250040269 -0.0011186350502282835 0 -0.052636113924172313 -0.00091950481021707043 0 -0.052395047599116354 -0.0010814094443621924 0 -0.056127828891172578 0.00483785983533802 0 -0.05667580083311146 0.0045559571128905114 0 -0.056196964312654446 0.004341213586226079 0 -0.056127828891172578 0.00483785983533802 0 -0.056215623787268673 0.0054332652406316601 0 -0.056737399753105509 0.0050681410918595312 0 -0.056127828891172578 0.00483785983533802 0 -0.056737399753105509 0.0050681410918595312 0 -0.05667580083311146 0.0045559571128905114 0 -0.056982825070794267 0.0056540840586660149 0 -0.056215623787268673 0.0054332652406316601 0 -0.056737399753105509 0.0050681410918595312 0 -0.056982825070794267 0.0056540840586660149 0 -0.056737399753105509 0.0050681410918595312 0 -0.057235253189965911 0.005092229560935968 0 -0.056737399753105509 0.0050681410918595312 0 -0.057258862926414585 0.0047098517412463769 0 -0.057235253189965911 0.005092229560935968 0 -0.056737399753105509 0.0050681410918595312 0 -0.05667580083311146 0.0045559571128905114 0 -0.057258862926414585 0.0047098517412463769 0 -0.05667580083311146 0.0045559571128905114 0 -0.057258862926414585 0.0047098517412463769 0 -0.057017473323781494 0.0040874330618937138 0 -0.057258862926414585 0.0047098517412463769 0 -0.05754032061319491 0.0044526256461088539 0 -0.057017473323781494 0.0040874330618937138 0 -0.05754032061319491 0.0044526256461088539 0 -0.057678614964985539 0.0041223144615608782 0 -0.057017473323781494 0.0040874330618937138 0 -0.057258862926414585 0.0047098517412463769 0 -0.057641614125190178 0.0046792514588936997 0 -0.057532686763966438 0.0049005681098158969 0 -0.057258862926414585 0.0047098517412463769 0 -0.057641614125190178 0.0046792514588936997 0 -0.05754032061319491 0.0044526256461088539 0 -0.057641614125190178 0.0046792514588936997 0 -0.05754032061319491 0.0044526256461088539 0 -0.057796822752166487 0.0045090978841112002 0 -0.05754032061319491 0.0044526256461088539 0 -0.057796822752166487 0.0045090978841112002 0 -0.057678614964985539 0.0041223144615608782 0 -0.057501694997923396 0.0037195794299725994 0 -0.057259661278296493 0.0034859545620371181 0 -0.05724655998994202 0.0035747300923832685 0 -0.05741706275093323 0.0037637642554398257 0 -0.057501694997923396 0.0037195794299725994 0 -0.05724655998994202 0.0035747300923832685 0 -0.039786480848645403 -0.00093023313182985534 0 -0.040987677057334006 -0.00023258149589926893 0 -0.041140407851708201 -0.00074380514620009321 0 -0.042831189773918428 0.00045839554367579585 0 -0.057796822752166487 0.0045090978841112002 0 -0.058356428170437777 0.004831882709232951 0 -0.057678614964985539 0.0041223144615608782 0 -0.057930867681731918 0.0039666616695973132 0 -0.057685343191559907 0.0035992443016127523 0 -0.057259661278296493 0.0034859545620371181 0 -0.057796822752166487 0.0045090978841112002 0 -0.057893738906138838 0.0047171830924862927 0 -0.058356428170437777 0.004831882709232951 0 -0.057641614125190178 0.0046792514588936997 0 -0.057796822752166487 0.0045090978841112002 0 -0.057893738906138838 0.0047171830924862927 0 -0.057641614125190178 0.0046792514588936997 0 -0.057893738906138838 0.0047171830924862927 0 -0.057795397877462448 0.0049184398198270493 0 -0.057795397877462448 0.0049184398198270493 0 -0.058356428170437777 0.004831882709232951 0 -0.057734309493848814 0.0051713173149400271 0 -0.057893738906138838 0.0047171830924862927 0 -0.057795397877462448 0.0049184398198270493 0 -0.058356428170437777 0.004831882709232951 0 -0.042347488034529875 -0.00084810316289036288 0 -0.041296941534524116 -0.0006891971030360748 0 -0.040251565503032424 -0.0010771121336509719 0 -0.039555076983595477 -0.00068669468781909601 0 -0.040500280746307911 -0.00030058120061039593 0 -0.041140407851708201 -0.00074380514620009321 0 -0.042347488034529875 -0.00084810316289036288 0 -0.056982825070794267 0.0056540840586660149 0 -0.057722344543132895 0.0051634886159665216 0 -0.057648182262292381 0.005135345169497897 0 -0.056982825070794267 0.0056540840586660149 0 -0.057235253189965911 0.005092229560935968 0 -0.057648182262292381 0.005135345169497897 0 -0.043407643698679763 -0.0008472035044288143 0 -0.042347488034529875 -0.00084810316289036288 0 -0.042347488034529875 -0.00084810316289036288 0 -0.04235465920780937 -0.0008452125520883693 0 -0.057258862926414585 0.0047098517412463769 0 -0.057235253189965911 0.005092229560935968 0 -0.057532686763966438 0.0049005681098158969 0 -0.057235253189965911 0.005092229560935968 0 -0.057532686763966438 0.0049005681098158969 0 -0.057648182262292381 0.005135345169497897 0 -0.057641614125190178 0.0046792514588936997 0 -0.057795397877462448 0.0049184398198270493 0 -0.057532686763966438 0.0049005681098158969 0 -0.057795397877462448 0.0049184398198270493 0 -0.057734309493848814 0.0051713173149400271 0 -0.057648182262292381 0.005135345169497897 0 -0.057795397877462448 0.0049184398198270493 0 -0.057532686763966438 0.0049005681098158969 0 -0.057648182262292381 0.005135345169497897 0 -0.024289181018465229 -0.0044525063770836596 0 -0.025070216070473897 -0.0044712273421110881 0 -0.025532164936691606 -0.0051803328089980354 0 -0.024421857259815057 -0.004192487378271853 0 -0.024501573555843002 -0.0038813191980612448 0 -0.023614401196910828 -0.0040782253589801793 0 -0.024811075220356318 -0.0041816179156222077 0 -0.024874944678669176 -0.0037730414834297723 0 -0.025203591937239832 -0.0038362568127922663 0 -0.024811075220356318 -0.0041816179156222077 0 -0.024501573555843002 -0.0038813191980612448 0 -0.024874944678669176 -0.0037730414834297723 0 -0.024811075220356318 -0.0041816179156222077 0 -0.024421857259815057 -0.004192487378271853 0 -0.024501573555843002 -0.0038813191980612448 0 -0.024811075220356318 -0.0041816179156222077 0 -0.024289181018465229 -0.0044525063770836596 0 -0.025070216070473897 -0.0044712273421110881 0 -0.037808656030538255 -0.001226169537681886 0 -0.037790912251790265 -0.0012446371241593276 0 -0.024811075220356318 -0.0041816179156222077 0 -0.024289181018465229 -0.0044525063770836596 0 -0.024421857259815057 -0.004192487378271853 0 -0.037808656030538255 -0.001226169537681886 0 -0.039786480848645403 -0.00093023313182985534 0 -0.024289191162661095 -0.0044526072577002543 0 -0.024421857259815057 -0.004192487378271853 0 -0.023614401196910828 -0.0040782253589801793 0 -0.058261784611451296 0.0037755659858124558 0 -0.057930867681731918 0.0039666616695973132 0 -0.057958600607994314 0.0036300604360592547 0 -0.057930867681731918 0.0039666616695973132 0 -0.057958600607994314 0.0036300604360592547 0 -0.057685343191559907 0.0035992443016127523 0 -0.041140407851708201 -0.00074380514620009321 0 -0.039786480848645403 -0.00093023313182985534 0 -0.025288441009738226 -0.0027201244806245172 0 -0.025371553001945168 -0.0024119311588768179 0 -0.025687373166234661 -0.0024395954028888478 0 -0.025150837659854999 -0.0026405415226799537 0 -0.025288441009738226 -0.0027201244806245172 0 -0.025371553001945168 -0.0024119311588768179 0 -0.040251565503032424 -0.0010771121336509719 0 -0.040847897240889081 -0.0004955903627959921 0 -0.040500280746307911 -0.00030058120061039593 0 -0.041140407851708201 -0.00074380514620009321 0 -0.040314954841349573 -0.00086988832972200412 0 -0.024501573555843002 -0.0038813191980612448 0 -0.023614401196910828 -0.0040782253589801793 0 -0.024791946462643509 -0.0031750938807198364 0 -0.039786480848645403 -0.00093023313182985534 0 -0.037805425778014788 -0.0019347725384150924 0 -0.024791946462643509 -0.0031750938807198364 0 -0.024874944678669176 -0.0037730414834297723 0 -0.025043987882290071 -0.0035325289610849816 0 -0.024501573555843002 -0.0038813191980612448 0 -0.024791946462643509 -0.0031750938807198364 0 -0.024874944678669176 -0.0037730414834297723 0 -0.025687373166234661 -0.0024395954028888478 0 -0.025606330536297718 -0.0021311451244334979 0 -0.026015831068599376 -0.0019217571487375323 0 -0.025371553001945168 -0.0024119311588768179 0 -0.025687373166234661 -0.0024395954028888478 0 -0.025606330536297718 -0.0021311451244334979 0 -0.048156280804775582 0.0089884217146305595 0 -0.048299687770847817 0.0082663232819460211 0 -0.047700490904590866 0.0084412574221798369 0 -0.040314954841349573 -0.00086988832972200412 0 -0.039791095239789895 -0.00080373605793273867 0 -0.039791095239789895 -0.00080373605793273867 0 -0.041296941534524116 -0.0006891971030360748 0 -0.040847897240889081 -0.0004955903627959921 0 -0.041442140846685384 8.451810534688911e-05 0 -0.040500280746307911 -0.00030058120061039593 0 -0.049872816547800999 0.0095450240963316901 0 -0.049079181067861112 0.0080393758319999252 0 -0.0504311770241994 0.0076211007270528203 0 -0.048156280804775582 0.0089884217146305595 0 -0.049872816547800999 0.0095450240963316901 0 -0.049079181067861112 0.0080393758319999252 0 -0.049079181067861112 0.0080393758319999252 0 -0.0504311770241994 0.0076211007270528203 0 -0.049595179749594154 0.0066127991851856307 0 -0.049079181067861112 0.0080393758319999252 0 -0.049595179749594154 0.0066127991851856307 0 -0.047934605006777702 0.0074686304526394099 0 -0.048156280804775582 0.0089884217146305595 0 -0.049079181067861112 0.0080393758319999252 0 -0.048299687770847817 0.0082663232819460211 0 -0.049079181067861112 0.0080393758319999252 0 -0.048299687770847817 0.0082663232819460211 0 -0.047934605006777702 0.0074686304526394099 0 -0.048299687770847817 0.0082663232819460211 0 -0.047620583499205858 0.0081290474111772454 0 -0.047934605006777702 0.0074686304526394099 0 -0.047620583499205858 0.0081290474111772454 0 -0.047934605006777702 0.0074686304526394099 0 -0.047299381820046879 0.0079123874638559535 0 -0.048299687770847817 0.0082663232819460211 0 -0.047620583499205858 0.0081290474111772454 0 -0.047700490904590866 0.0084412574221798369 0 -0.051715975528767943 0.010200114969960332 0 -0.052347581317920402 0.0085835862461270951 0 -0.051199783248038928 0.0086769832068615063 0 -0.053704435262011033 0.0088365976582535609 0 -0.051715975528767943 0.010200114969960332 0 -0.052347581317920402 0.0085835862461270951 0 -0.052347581317920402 0.0085835862461270951 0 -0.051199783248038928 0.0086769832068615063 0 -0.051839776218699084 0.007643992369125655 0 -0.049872816547800999 0.0095450240963316901 0 -0.051199783248038928 0.0086769832068615063 0 -0.0504311770241994 0.0076211007270528203 0 -0.051715975528767943 0.010200114969960332 0 -0.049872816547800999 0.0095450240963316901 0 -0.051199783248038928 0.0086769832068615063 0 -0.0504311770241994 0.0076211007270528203 0 -0.051839776218699084 0.007643992369125655 0 -0.051972206185189301 0.00610714258214332 0 -0.051199783248038928 0.0086769832068615063 0 -0.0504311770241994 0.0076211007270528203 0 -0.051839776218699084 0.007643992369125655 0 -0.05351522844863682 0.0069792073491029413 0 -0.052347581317920402 0.0085835862461270951 0 -0.051839776218699084 0.007643992369125655 0 -0.05351522844863682 0.0069792073491029413 0 -0.051839776218699084 0.007643992369125655 0 -0.051972206185189301 0.00610714258214332 0 -0.053501012574063603 0.0048389015727355643 0 -0.051972206185189301 0.00610714258214332 0 -0.051634069453029376 0.0044787294616866298 0 -0.051972206185189301 0.00610714258214332 0 -0.050538079541285814 0.0054743730394636305 0 -0.051634069453029376 0.0044787294616866298 0 -0.051972206185189301 0.00610714258214332 0 -0.050538079541285814 0.0054743730394636305 0 -0.049595179749594154 0.0066127991851856307 0 -0.0504311770241994 0.0076211007270528203 0 -0.051972206185189301 0.00610714258214332 0 -0.049595179749594154 0.0066127991851856307 0 -0.049595179749594154 0.0066127991851856307 0 -0.047934605006777702 0.0074686304526394099 0 -0.048020058276646377 0.0063225229116055407 0 -0.047934605006777702 0.0074686304526394099 0 -0.048020058276646377 0.0063225229116055407 0 -0.046887531606798136 0.0070058234036264929 0 -0.048020058276646377 0.0063225229116055407 0 -0.047029715540592668 0.0060742736842725872 0 -0.046887531606798136 0.0070058234036264929 0 -0.048020058276646377 0.0063225229116055407 0 -0.047584050184930074 0.0054076998496812387 0 -0.047029715540592668 0.0060742736842725872 0 -0.048020058276646377 0.0063225229116055407 0 -0.047584050184930074 0.0054076998496812387 0 -0.048974665699550939 0.0052907050147027249 0 -0.049595179749594154 0.0066127991851856307 0 -0.048020058276646377 0.0063225229116055407 0 -0.048974665699550939 0.0052907050147027249 0 -0.050538079541285814 0.0054743730394636305 0 -0.049595179749594154 0.0066127991851856307 0 -0.048974665699550939 0.0052907050147027249 0 -0.050538079541285814 0.0054743730394636305 0 -0.048974665699550939 0.0052907050147027249 0 -0.049376168723314393 0.0041316882310282474 0 -0.048974665699550939 0.0052907050147027249 0 -0.049376168723314393 0.0041316882310282474 0 -0.048104222893658261 0.0046371507539764113 0 -0.049376168723314393 0.0041316882310282474 0 -0.048104222893658261 0.0046371507539764113 0 -0.047649283267647745 0.0037656029160496743 0 -0.047584050184930074 0.0054076998496812387 0 -0.048104222893658261 0.0046371507539764113 0 -0.047002001883650252 0.0045633490126166651 0 -0.047584050184930074 0.0054076998496812387 0 -0.048974665699550939 0.0052907050147027249 0 -0.048104222893658261 0.0046371507539764113 0 -0.048104222893658261 0.0046371507539764113 0 -0.047649283267647745 0.0037656029160496743 0 -0.047002001883650252 0.0045633490126166651 0 -0.047649283267647745 0.0037656029160496743 0 -0.046384413073919266 0.0035794577499639719 0 -0.047002001883650252 0.0045633490126166651 0 -0.047649283267647745 0.0037656029160496743 0 -0.047199723760833992 0.0029372726553345023 0 -0.048640384532824571 0.0028594160173011055 0 -0.047649283267647745 0.0037656029160496743 0 -0.047199723760833992 0.0029372726553345023 0 -0.046384413073919266 0.0035794577499639719 0 -0.049376168723314393 0.0041316882310282474 0 -0.047649283267647745 0.0037656029160496743 0 -0.048640384532824571 0.0028594160173011055 0 -0.050731995702497 0.0023247396055727076 0 -0.049376168723314393 0.0041316882310282474 0 -0.048640384532824571 0.0028594160173011055 0 -0.050731995702497 0.0023247396055727076 0 -0.049376168723314393 0.0041316882310282474 0 -0.051634069453029376 0.0044787294616866298 0 -0.050731995702497 0.0023247396055727076 0 -0.053480590088219315 0.0037071306385659331 0 -0.051634069453029376 0.0044787294616866298 0 -0.050731995702497 0.0023247396055727076 0 -0.053653288075257731 0.0024567697370610699 0 -0.053480590088219315 0.0037071306385659331 0 -0.053480590088219315 0.0037071306385659331 0 -0.053501012574063603 0.0048389015727355643 0 -0.051634069453029376 0.0044787294616866298 0 -0.050538079541285814 0.0054743730394636305 0 -0.049376168723314393 0.0041316882310282474 0 -0.051634069453029376 0.0044787294616866298 0 -0.044337324053099647 0.0044739654675117974 0 -0.043545119897185493 0.0053391968885550733 0 -0.0430277034317363 0.0043108232405732133 0 -0.044337324053099647 0.0044739654675117974 0 -0.044475076375936125 0.0052589102987559665 0 -0.043545119897185493 0.0053391968885550733 0 -0.043545119897185493 0.0053391968885550733 0 -0.042477388228940212 0.0051625859766902243 0 -0.0430277034317363 0.0043108232405732133 0 -0.042477388228940212 0.0051625859766902243 0 -0.042224568520753465 0.0045784755921675861 0 -0.0430277034317363 0.0043108232405732133 0 -0.041845949677164401 0.0039447051852492887 0 -0.042364554755881301 0.0031823992096862209 0 -0.0430277034317363 0.0043108232405732133 0 -0.041845949677164401 0.0039447051852492887 0 -0.042224568520753465 0.0045784755921675861 0 -0.0430277034317363 0.0043108232405732133 0 -0.042364554755881301 0.0031823992096862209 0 -0.043410682741783002 0.0032832806881866274 0 -0.0430277034317363 0.0043108232405732133 0 -0.043410682741783002 0.0032832806881866274 0 -0.0430277034317363 0.0043108232405732133 0 -0.043796913801512009 0.0038889495602163629 0 -0.043410682741783002 0.0032832806881866274 0 -0.043796913801512009 0.0038889495602163629 0 -0.044412505827547355 0.0035066092652909649 0 -0.044337324053099647 0.0044739654675117974 0 -0.0430277034317363 0.0043108232405732133 0 -0.043796913801512009 0.0038889495602163629 0 -0.044337324053099647 0.0044739654675117974 0 -0.043796913801512009 0.0038889495602163629 0 -0.044412505827547355 0.0035066092652909649 0 -0.045311559616933388 0.0028603860839664132 0 -0.044412505827547355 0.0035066092652909649 0 -0.045268033653666127 0.0039867914656202732 0 -0.044337324053099647 0.0044739654675117974 0 -0.044412505827547355 0.0035066092652909649 0 -0.045268033653666127 0.0039867914656202732 0 -0.045311559616933388 0.0028603860839664132 0 -0.045268033653666127 0.0039867914656202732 0 -0.046384413073919266 0.0035794577499639719 0 -0.046390686710460843 0.0026434691672554481 0 -0.047199723760833992 0.0029372726553345023 0 -0.046384413073919266 0.0035794577499639719 0 -0.045268033653666127 0.0039867914656202732 0 -0.046384413073919266 0.0035794577499639719 0 -0.04598219852388976 0.0046521706031291436 0 -0.046384413073919266 0.0035794577499639719 0 -0.047002001883650252 0.0045633490126166651 0 -0.04598219852388976 0.0046521706031291436 0 -0.04598219852388976 0.0046521706031291436 0 -0.04533516097849332 0.0054790171976779635 0 -0.046516801656218569 0.0054178326265232977 0 -0.047002001883650252 0.0045633490126166651 0 -0.04598219852388976 0.0046521706031291436 0 -0.046516801656218569 0.0054178326265232977 0 -0.047584050184930074 0.0054076998496812387 0 -0.047002001883650252 0.0045633490126166651 0 -0.046516801656218569 0.0054178326265232977 0 -0.044337324053099647 0.0044739654675117974 0 -0.045268033653666127 0.0039867914656202732 0 -0.0451450023196482 0.0047420872578136861 0 -0.045268033653666127 0.0039867914656202732 0 -0.04598219852388976 0.0046521706031291436 0 -0.0451450023196482 0.0047420872578136861 0 -0.04598219852388976 0.0046521706031291436 0 -0.0451450023196482 0.0047420872578136861 0 -0.04533516097849332 0.0054790171976779635 0 -0.044337324053099647 0.0044739654675117974 0 -0.044475076375936125 0.0052589102987559665 0 -0.0451450023196482 0.0047420872578136861 0 -0.044475076375936125 0.0052589102987559665 0 -0.0451450023196482 0.0047420872578136861 0 -0.04533516097849332 0.0054790171976779635 0 -0.044475076375936125 0.0052589102987559665 0 -0.04533516097849332 0.0054790171976779635 0 -0.044334870675567462 0.006102991532035985 0 -0.04533516097849332 0.0054790171976779635 0 -0.045182935415590403 0.0063196382949406438 0 -0.046144094249877581 0.0062591198150113636 0 -0.04533516097849332 0.0054790171976779635 0 -0.045182935415590403 0.0063196382949406438 0 -0.044334870675567462 0.006102991532035985 0 -0.045182935415590403 0.0063196382949406438 0 -0.044686756868392033 0.006734587543016821 0 -0.044334870675567462 0.006102991532035985 0 -0.047584050184930074 0.0054076998496812387 0 -0.046516801656218569 0.0054178326265232977 0 -0.047029715540592668 0.0060742736842725872 0 -0.04533516097849332 0.0054790171976779635 0 -0.046516801656218569 0.0054178326265232977 0 -0.046144094249877581 0.0062591198150113636 0 -0.046516801656218569 0.0054178326265232977 0 -0.046144094249877581 0.0062591198150113636 0 -0.047029715540592668 0.0060742736842725872 0 -0.046144094249877581 0.0062591198150113636 0 -0.046887531606798136 0.0070058234036264929 0 -0.04528389434356439 0.0071939427152334064 0 -0.046887531606798136 0.0070058234036264929 0 -0.04528389434356439 0.0071939427152334064 0 -0.046263108290426194 0.0080145461679646639 0 -0.047934605006777702 0.0074686304526394099 0 -0.046887531606798136 0.0070058234036264929 0 -0.046263108290426194 0.0080145461679646639 0 -0.046144094249877581 0.0062591198150113636 0 -0.047029715540592668 0.0060742736842725872 0 -0.046887531606798136 0.0070058234036264929 0 -0.04528389434356439 0.0071939427152334064 0 -0.043952689324144964 0.007323008528796404 0 -0.044768412092186412 0.0083218814173612911 0 -0.044686756868392033 0.006734587543016821 0 -0.04528389434356439 0.0071939427152334064 0 -0.043952689324144964 0.007323008528796404 0 -0.045182935415590403 0.0063196382949406438 0 -0.044686756868392033 0.006734587543016821 0 -0.04528389434356439 0.0071939427152334064 0 -0.045182935415590403 0.0063196382949406438 0 -0.046144094249877581 0.0062591198150113636 0 -0.04528389434356439 0.0071939427152334064 0 -0.043952689324144964 0.007323008528796404 0 -0.042687063504591324 0.0074863322724601569 0 -0.044768412092186412 0.0083218814173612911 0 -0.043952689324144964 0.007323008528796404 0 -0.044334870675567462 0.006102991532035985 0 -0.0433603463493583 0.0064169369887609679 0 -0.043952689324144964 0.007323008528796404 0 -0.0433603463493583 0.0064169369887609679 0 -0.043195158130086689 0.0069776677010919301 0 -0.044686756868392033 0.006734587543016821 0 -0.043952689324144964 0.007323008528796404 0 -0.044334870675567462 0.006102991532035985 0 -0.043545119897185493 0.0053391968885550733 0 -0.044334870675567462 0.006102991532035985 0 -0.0433603463493583 0.0064169369887609679 0 -0.044475076375936125 0.0052589102987559665 0 -0.043545119897185493 0.0053391968885550733 0 -0.044334870675567462 0.006102991532035985 0 -0.041860514128135094 0.0057950479652393288 0 -0.042477388228940212 0.0051625859766902243 0 -0.042617427765196246 0.0059956383379989008 0 -0.043545119897185493 0.0053391968885550733 0 -0.0433603463493583 0.0064169369887609679 0 -0.042617427765196246 0.0059956383379989008 0 -0.043545119897185493 0.0053391968885550733 0 -0.042477388228940212 0.0051625859766902243 0 -0.042617427765196246 0.0059956383379989008 0 -0.0433603463493583 0.0064169369887609679 0 -0.042617427765196246 0.0059956383379989008 0 -0.042787282170189872 0.0066850722682586725 0 -0.042070214027168581 0.0064925023776684996 0 -0.042617427765196246 0.0059956383379989008 0 -0.042787282170189872 0.0066850722682586725 0 -0.042070214027168581 0.0064925023776684996 0 -0.041860514128135094 0.0057950479652393288 0 -0.042617427765196246 0.0059956383379989008 0 -0.042070214027168581 0.0064925023776684996 0 -0.042787282170189872 0.0066850722682586725 0 -0.042687063504591324 0.0074863322724601569 0 -0.043952689324144964 0.007323008528796404 0 -0.043195158130086689 0.0069776677010919301 0 -0.042687063504591324 0.0074863322724601569 0 -0.042787282170189872 0.0066850722682586725 0 -0.043195158130086689 0.0069776677010919301 0 -0.042687063504591324 0.0074863322724601569 0 -0.0433603463493583 0.0064169369887609679 0 -0.042787282170189872 0.0066850722682586725 0 -0.043195158130086689 0.0069776677010919301 0 -0.027405136857321787 -0.0015910876960580991 0 -0.027461904103071436 -0.0003724187105845972 0 -0.02586299794227824 -0.0012687355836949578 0 -0.02765803337964854 -0.00018944921790015911 0 -0.026789201368220657 0.00031764871268973591 0 -0.026425201164384859 -0.00086017474365753552 0 -0.032959312903716759 -0.0006460481610617891 0 -0.033352359889850948 -0.00051088589560135977 0 -0.033037708655150086 -0.00048898840754429387 0 -0.033352359889850948 -0.00051088589560135977 0 -0.028067325748662216 -0.0016930944095324329 0 -0.026885597406886244 -0.0014699297795996154 0 -0.0267888254628923 -0.0019057460717194384 0 -0.036208713996305208 0.00011387788639050229 0 -0.036269140719284394 -0.00045494138297637077 0 -0.026789201368220657 0.00031764871268973591 0 -0.026425201164384859 -0.00086017474365753552 0 -0.024786813976452677 -0.0005225667694821847 0 -0.033352359889850948 -0.00051088589560135977 0 -0.036269140719284394 -0.00045494138297637077 0 -0.02765603151124715 -0.0019146228928470154 0 -0.027337157954765098 -0.0027920934868589553 0 -0.026464871863567288 -0.0026421751181399588 0 -0.027337157954765098 -0.0027920934868589553 0 -0.026464871863567288 -0.0026421751181399588 0 -0.026904228110408695 -0.0034574435735988587 0 -0.033352359889850948 -0.00051088589560135977 0 -0.032208674239638649 -0.0010621282389612751 0 -0.028067325748662216 -0.0016930944095324329 0 -0.0267888254628923 -0.0019057460717194384 0 -0.026835072437746708 -0.002415590074934827 0 -0.02765603151124715 -0.0019146228928470154 0 -0.027337157954765098 -0.0027920934868589553 0 -0.028062003257449637 -0.0026177132816519221 0 -0.027337157954765098 -0.0027920934868589553 0 -0.028062003257449637 -0.0026177132816519221 0 -0.027728466813197319 -0.0034215108705709387 0 -0.02840642463391085 -0.0020304565251527663 0 -0.02765603151124715 -0.0019146228928470154 0 -0.028062003257449637 -0.0026177132816519221 0 -0.03730024486015808 -0.00034839394964757706 0 -0.037034051996380872 -0.00037282177641646743 0 -0.047934605006777702 0.0074686304526394099 0 -0.047299381820046879 0.0079123874638559535 0 -0.04678018260650451 0.0076636860329644431 0 -0.047620583499205858 0.0081290474111772454 0 -0.047700490904590866 0.0084412574221798369 0 -0.046823040768336759 0.0084352008444123962 0 -0.047620583499205858 0.0081290474111772454 0 -0.047299381820046879 0.0079123874638559535 0 -0.046823040768336759 0.0084352008444123962 0 -0.047299381820046879 0.0079123874638559535 0 -0.04678018260650451 0.0076636860329644431 0 -0.046823040768336759 0.0084352008444123962 0 -0.04528389434356439 0.0071939427152334064 0 -0.046263108290426194 0.0080145461679646639 0 -0.044768412092186412 0.0083218814173612911 0 -0.026015831068599376 -0.0019217571487375323 0 -0.026885597406886244 -0.0014699297795996154 0 -0.0267888254628923 -0.0019057460717194384 0 -0.04678018260650451 0.0076636860329644431 0 -0.046823040768336759 0.0084352008444123962 0 -0.045540981237969062 0.0079096840424732282 0 -0.038018799004363578 -0.00059030617343627865 0 -0.036269140719284394 -0.00045494138297637077 0 -0.037034051996380872 -0.00037282177641646743 0 -0.036269140719284394 -0.00045494138297637077 0 -0.032208674239638649 -0.0010621282389612751 0 -0.031802601256525891 -0.0012604096260961611 0 -0.026015831068599376 -0.0019217571487375323 0 -0.0267888254628923 -0.0019057460717194384 0 -0.026271605471165877 -0.002105855754475955 0 -0.026835072437746708 -0.002415590074934827 0 -0.026271605471165877 -0.002105855754475955 0 -0.025290473346675384 -0.0033268794708938587 0 -0.0267888254628923 -0.0019057460717194384 0 -0.026835072437746708 -0.002415590074934827 0 -0.026271605471165877 -0.002105855754475955 0 -0.025687373166234661 -0.0024395954028888478 0 -0.026015831068599376 -0.0019217571487375323 0 -0.026271605471165877 -0.002105855754475955 0 -0.048156280804775582 0.0089884217146305595 0 -0.047700490904590866 0.0084412574221798369 0 -0.046823040768336759 0.0084352008444123962 0 -0.039791095239789895 -0.00080373605793273867 0 -0.038018799004363578 -0.00059030617343627865 0 -0.037805425778014788 -0.0019347725384150924 0 -0.037202970407190977 -0.0022294227772179953 0 -0.024791946462643509 -0.0031750938807198364 0 -0.026271605471165877 -0.002105855754475955 0 -0.025290473346675384 -0.0033268794708938587 0 -0.025203591937239832 -0.0038362568127922663 0 -0.025290473346675384 -0.0033268794708938587 0 -0.025573470429211008 -0.0036484021237670025 0 -0.025203591937239832 -0.0038362568127922663 0 -0.025043987882290071 -0.0035325289610849816 0 -0.025290473346675384 -0.0033268794708938587 0 -0.024874944678669176 -0.0037730414834297723 0 -0.025203591937239832 -0.0038362568127922663 0 -0.025043987882290071 -0.0035325289610849816 0 -0.024791946462643509 -0.0031750938807198364 0 -0.025043987882290071 -0.0035325289610849816 0 -0.025290473346675384 -0.0033268794708938587 0 -0.025290473346675384 -0.0033268794708938587 0 -0.025573470429211008 -0.0036484021237670025 0 -0.026053955638752971 -0.0033213085688662733 0 -0.025573470429211008 -0.0036484021237670025 0 -0.026053955638752971 -0.0033213085688662733 0 -0.02573344775263945 -0.0041232260211371639 0 -0.026464871863567288 -0.0026421751181399588 0 -0.025290473346675384 -0.0033268794708938587 0 -0.026053955638752971 -0.0033213085688662733 0 -0.026464871863567288 -0.0026421751181399588 0 -0.026053955638752971 -0.0033213085688662733 0 -0.026904228110408695 -0.0034574435735988587 0 -0.026053955638752971 -0.0033213085688662733 0 -0.026458508346220964 -0.0040614064429137838 0 -0.026904228110408695 -0.0034574435735988587 0 -0.026053955638752971 -0.0033213085688662733 0 -0.026458508346220964 -0.0040614064429137838 0 -0.02573344775263945 -0.0041232260211371639 0 -0.026458508346220964 -0.0040614064429137838 0 -0.02573344775263945 -0.0041232260211371639 0 -0.026415407791884074 -0.005014597100831698 0 -0.02573344775263945 -0.0041232260211371639 0 -0.025070216070473897 -0.0044712273421110881 0 -0.025532164936691606 -0.0051803328089980354 0 -0.025203591937239832 -0.0038362568127922663 0 -0.025573470429211008 -0.0036484021237670025 0 -0.02573344775263945 -0.0041232260211371639 0 -0.025203591937239832 -0.0038362568127922663 0 -0.02573344775263945 -0.0041232260211371639 0 -0.025070216070473897 -0.0044712273421110881 0 -0.024811075220356318 -0.0041816179156222077 0 -0.025203591937239832 -0.0038362568127922663 0 -0.025070216070473897 -0.0044712273421110881 0 -0.028540541276358959 -0.0032304039559949162 0 -0.028062003257449637 -0.0026177132816519221 0 -0.027728466813197319 -0.0034215108705709387 0 -0.028540541276358959 -0.0032304039559949162 0 -0.027728466813197319 -0.0034215108705709387 0 -0.028202475816993557 -0.0041681544208775467 0 -0.027728466813197319 -0.0034215108705709387 0 -0.026904228110408695 -0.0034574435735988587 0 -0.027411854919579634 -0.0045749555939407884 0 -0.027337157954765098 -0.0027920934868589553 0 -0.027728466813197319 -0.0034215108705709387 0 -0.026904228110408695 -0.0034574435735988587 0 -0.026458508346220964 -0.0040614064429137838 0 -0.026904228110408695 -0.0034574435735988587 0 -0.027411854919579634 -0.0045749555939407884 0 -0.026458508346220964 -0.0040614064429137838 0 -0.027411854919579634 -0.0045749555939407884 0 -0.026415407791884074 -0.005014597100831698 0 -0.027728466813197319 -0.0034215108705709387 0 -0.027411854919579634 -0.0045749555939407884 0 -0.028202475816993557 -0.0041681544208775467 0 -0.027411854919579634 -0.0045749555939407884 0 -0.028202475816993557 -0.0041681544208775467 0 -0.02844122144782435 -0.0050483083097889346 0 -0.027411854919579634 -0.0045749555939407884 0 -0.028041118550165174 -0.0059396710714763115 0 -0.02844122144782435 -0.0050483083097889346 0 -0.027411854919579634 -0.0045749555939407884 0 -0.027110667666614848 -0.0059087162470525161 0 -0.028041118550165174 -0.0059396710714763115 0 -0.027411854919579634 -0.0045749555939407884 0 -0.027110667666614848 -0.0059087162470525161 0 -0.026415407791884074 -0.005014597100831698 0 -0.027110667666614848 -0.0059087162470525161 0 -0.028041118550165174 -0.0059396710714763115 0 -0.027531719842672844 -0.0070687925511143199 0 -0.027110667666614848 -0.0059087162470525161 0 -0.02578559234190396 -0.0061660981216297827 0 -0.027531719842672844 -0.0070687925511143199 0 -0.025532164936691606 -0.0051803328089980354 0 -0.02578559234190396 -0.0061660981216297827 0 -0.02466524036311378 -0.0053430084914316747 0 -0.02573344775263945 -0.0041232260211371639 0 -0.025532164936691606 -0.0051803328089980354 0 -0.026415407791884074 -0.005014597100831698 0 -0.025532164936691606 -0.0051803328089980354 0 -0.026415407791884074 -0.005014597100831698 0 -0.02578559234190396 -0.0061660981216297827 0 -0.027110667666614848 -0.0059087162470525161 0 -0.026415407791884074 -0.005014597100831698 0 -0.02578559234190396 -0.0061660981216297827 0 -0.02578559234190396 -0.0061660981216297827 0 -0.02600610142434984 -0.0076505601547261458 0 -0.024612473811495065 -0.0070156875203417676 0 -0.034935045743706844 -0.002232202283539588 0 -0.036048537809726805 -0.0022290242393204337 0 -0.02578559234190396 -0.0061660981216297827 0 -0.02600610142434984 -0.0076505601547261458 0 -0.027531719842672844 -0.0070687925511143199 0 -0.027207065258619191 -0.0084629657408899234 0 -0.02757745587337045 -0.0083262477683009647 0 -0.027258605505361345 -0.0086626050582646833 0 -0.034935045743706844 -0.002232202283539588 0 -0.034610271904055426 -0.0022506516726332822 0 -0.027207065258619191 -0.0084629657408899234 0 -0.027258605505361345 -0.0086626050582646833 0 -0.02699649587703945 -0.0087234264343446569 0 -0.027207065258619191 -0.0084629657408899234 0 -0.02699649587703945 -0.0087234264343446569 0 -0.026860662087103689 -0.0083381484291415609 0 -0.028041118550165174 -0.0059396710714763115 0 -0.027531719842672844 -0.0070687925511143199 0 -0.028716829420328757 -0.0070418984666138253 0 -0.027531719842672844 -0.0070687925511143199 0 -0.028279705383783223 -0.0078018608457518547 0 -0.028716829420328757 -0.0070418984666138253 0 -0.02600610142434984 -0.0076505601547261458 0 -0.027531719842672844 -0.0070687925511143199 0 -0.02757745587337045 -0.0083262477683009647 0 -0.027531719842672844 -0.0070687925511143199 0 -0.02757745587337045 -0.0083262477683009647 0 -0.028279705383783223 -0.0078018608457518547 0 -0.02757745587337045 -0.0083262477683009647 0 -0.028279705383783223 -0.0078018608457518547 0 -0.028444888125122515 -0.0084099794858446594 0 -0.02757745587337045 -0.0083262477683009647 0 -0.028444888125122515 -0.0084099794858446594 0 -0.028213867678725427 -0.0090229493259070277 0 -0.028444888125122515 -0.0084099794858446594 0 -0.028213867678725427 -0.0090229493259070277 0 -0.029052043649313585 -0.0087248201449960094 0 -0.028213867678725427 -0.0090229493259070277 0 -0.028306674321049632 -0.0098289335149599078 0 -0.028761192483395256 -0.0096644954878441543 0 -0.028213867678725427 -0.0090229493259070277 0 -0.028306674321049632 -0.0098289335149599078 0 -0.02771473374279745 -0.0097640930084468905 0 -0.027257774814663759 -0.0093444894608889651 0 -0.027195873270338827 -0.0093594181361571355 0 -0.028213867678725427 -0.0090229493259070277 0 -0.027506243621239483 -0.0093442445323404684 0 -0.02771473374279745 -0.0097640930084468905 0 -0.02757745587337045 -0.0083262477683009647 0 -0.028213867678725427 -0.0090229493259070277 0 -0.027383839051138489 -0.0090999325189055486 0 -0.02757745587337045 -0.0083262477683009647 0 -0.027258605505361345 -0.0086626050582646833 0 -0.027383839051138489 -0.0090999325189055486 0 -0.027258605505361345 -0.0086626050582646833 0 -0.027121723831744403 -0.0089314332476822383 0 -0.027383839051138489 -0.0090999325189055486 0 -0.027258605505361345 -0.0086626050582646833 0 -0.02699649587703945 -0.0087234264343446569 0 -0.027121723831744403 -0.0089314332476822383 0 -0.02699649587703945 -0.0087234264343446569 0 -0.027121723831744403 -0.0089314332476822383 0 -0.026945224867710983 -0.0090275426957777023 0 -0.027121723831744403 -0.0089314332476822383 0 -0.027022886484456662 -0.0091925986710412657 0 -0.026945224867710983 -0.0090275426957777023 0 -0.027073552730269696 -0.0093898239477918886 0 -0.027195873270338827 -0.0093594181361571355 0 -0.027121723831744403 -0.0089314332476822383 0 -0.027022886484456662 -0.0091925986710412657 0 -0.027383839051138489 -0.0090999325189055486 0 -0.02687887637236545 -0.0095754478516908628 0 -0.027506243621239483 -0.0093442445323404684 0 -0.027229433201969314 -0.0097152631730816671 0 -0.027506243621239483 -0.0093442445323404684 0 -0.027229433201969314 -0.0097152631730816671 0 -0.02771473374279745 -0.0097640930084468905 0 -0.027229433201969314 -0.0097152631730816671 0 -0.027299922858617556 -0.01000469944320677 0 -0.02771473374279745 -0.0097640930084468905 0 -0.027229433201969314 -0.0097152631730816671 0 -0.027299922858617556 -0.01000469944320677 0 -0.026970058320446577 -0.0099182599852814159 0 -0.027299922858617556 -0.01000469944320677 0 -0.027583803155447385 -0.010247536728099447 0 -0.02771473374279745 -0.0097640930084468905 0 -0.026970058320446577 -0.0099182599852814159 0 -0.026759171374669381 -0.010352216621519346 0 -0.026718712853794721 -0.009706741537828717 0 -0.02687887637236545 -0.0095754478516908628 0 -0.026970058320446577 -0.0099182599852814159 0 -0.026718712853794721 -0.009706741537828717 0 -0.02687887637236545 -0.0095754478516908628 0 -0.027229433201969314 -0.0097152631730816671 0 -0.026970058320446577 -0.0099182599852814159 0 -0.027299922858617556 -0.01000469944320677 0 -0.026970058320446577 -0.0099182599852814159 0 -0.027063137736652105 -0.010208144595513379 0 -0.027063137736652105 -0.010208144595513379 0 -0.026759171374669381 -0.010352216621519346 0 -0.02720847270599731 -0.010513098106138112 0 -0.026970058320446577 -0.0099182599852814159 0 -0.027063137736652105 -0.010208144595513379 0 -0.026759171374669381 -0.010352216621519346 0 -0.027299922858617556 -0.01000469944320677 0 -0.02720847270599731 -0.010513098106138112 0 -0.027583803155447385 -0.010247536728099447 0 -0.02720847270599731 -0.010513098106138112 0 -0.027583803155447385 -0.010247536728099447 0 -0.027666273446041282 -0.010735546925749431 0 -0.027299922858617556 -0.01000469944320677 0 -0.027063137736652105 -0.010208144595513379 0 -0.02720847270599731 -0.010513098106138112 0 -0.027583803155447385 -0.010247536728099447 0 -0.02805179941737744 -0.010198317651216999 0 -0.027666273446041282 -0.010735546925749431 0 -0.016493065704166972 -0.028756055444909927 0 -0.01871764174322503 -0.028087342434803955 0 -0.02805179941737744 -0.010198317651216999 0 -0.028485466296813443 -0.010488654866528929 0 -0.027666273446041282 -0.010735546925749431 0 -0.017689775178674427 -0.029588520459096289 0 -0.017603565501284446 -0.029662700550593779 0 -0.017708970501826498 -0.029609563893420676 0 -0.016493065704166972 -0.028756055444909927 0 -0.01579083190947177 -0.028907889195160748 0 -0.028485466296813443 -0.010488654866528929 0 -0.028508844415995646 -0.01028355581737902 0 -0.028666795814546991 -0.01019117641293388 0 -0.028485466296813443 -0.010488654866528929 0 -0.028508844415995646 -0.01028355581737902 0 -0.028354213818174157 -0.010189127897889925 0 -0.028508844415995646 -0.01028355581737902 0 -0.028522106862634993 -0.010087337317139426 0 -0.028666795814546991 -0.01019117641293388 0 -0.028508844415995646 -0.01028355581737902 0 -0.028354213818174157 -0.010189127897889925 0 -0.028522106862634993 -0.010087337317139426 0 -0.02805179941737744 -0.010198317651216999 0 -0.028485466296813443 -0.010488654866528929 0 -0.028354213818174157 -0.010189127897889925 0 -0.02805179941737744 -0.010198317651216999 0 -0.028354213818174157 -0.010189127897889925 0 -0.028306674321049632 -0.0098289335149599078 0 -0.028522106862634993 -0.010087337317139426 0 -0.028306674321049632 -0.0098289335149599078 0 -0.028728579510923252 -0.0099488228338677192 0 -0.028354213818174157 -0.010189127897889925 0 -0.028522106862634993 -0.010087337317139426 0 -0.028306674321049632 -0.0098289335149599078 0 -0.028306674321049632 -0.0098289335149599078 0 -0.028728579510923252 -0.0099488228338677192 0 -0.028761192483395256 -0.0096644954878441543 0 -0.02805179941737744 -0.010198317651216999 0 -0.028306674321049632 -0.0098289335149599078 0 -0.02771473374279745 -0.0097640930084468905 0 -0.027583803155447385 -0.010247536728099447 0 -0.02805179941737744 -0.010198317651216999 0 -0.02771473374279745 -0.0097640930084468905 0 -0.026410842693742234 -0.0097085953340552301 0 -0.026376538607185154 -0.009483921452247808 0 -0.026227721260642982 -0.0097122349708963027 0 -0.026410842693742234 -0.0097085953340552301 0 -0.026303923187904359 -0.0098959044241954085 0 -0.026227721260642982 -0.0097122349708963027 0 -0.026410842693742234 -0.0097085953340552301 0 -0.026303923187904359 -0.0098959044241954085 0 -0.02643128704374326 -0.0099299525724253542 0 -0.026303923187904359 -0.0098959044241954085 0 -0.02643128704374326 -0.0099299525724253542 0 -0.026395234530323781 -0.01005291965932641 0 -0.026410842693742234 -0.0097085953340552301 0 -0.02643128704374326 -0.0099299525724253542 0 -0.02648578719565373 -0.0098777042088435078 0 -0.02643128704374326 -0.0099299525724253542 0 -0.026487089973081072 -0.0099609743871737419 0 -0.02648578719565373 -0.0098777042088435078 0 -0.026487089973081072 -0.0099609743871737419 0 -0.026528513040782346 -0.0099657447208991879 0 -0.02648578719565373 -0.0098777042088435078 0 -0.026528513040782346 -0.0099657447208991879 0 -0.02648578719565373 -0.0098777042088435078 0 -0.026531817063728924 -0.0099527202289511046 0 -0.02683908661798028 -0.010776811540672417 0 -0.026785683261108521 -0.010302736826457361 0 -0.026471243189203124 -0.011159840351021683 0 -0.026785683261108521 -0.010302736826457361 0 -0.026531817063728924 -0.0099527202289511046 0 -0.026471243189203124 -0.011159840351021683 0 -0.027156548953072568 -0.010451806211853525 0 -0.026785683261108521 -0.010302736826457361 0 -0.026718712853794721 -0.009706741537828717 0 -0.026528513040782346 -0.0099657447208991879 0 -0.026531817063728924 -0.0099527202289511046 0 -0.026577135043764296 -0.010013064244860571 0 -0.022032039894659905 -0.025822745026536906 0 -0.022050292960743081 -0.026648875242061318 0 -0.027156548953072568 -0.010451806211853525 0 -0.02683908661798028 -0.010776811540672417 0 -0.026785683261108521 -0.010302736826457361 0 -0.02687887637236545 -0.0095754478516908628 0 -0.026718712853794721 -0.009706741537828717 0 -0.026495334028762151 -0.0097664144057740369 0 -0.019892963368073138 -0.025895067038919459 0 -0.019845980798398895 -0.025185396235197867 0 -0.026785683261108521 -0.010302736826457361 0 -0.026531817063728924 -0.0099527202289511046 0 -0.026718712853794721 -0.009706741537828717 0 -0.026531817063728924 -0.0099527202289511046 0 -0.026718712853794721 -0.009706741537828717 0 -0.026495334028762151 -0.0097664144057740369 0 -0.026912106015894079 -0.0094314855243404043 0 -0.02696043250951342 -0.0094188915579225593 0 -0.026410842693742234 -0.0097085953340552301 0 -0.026717707920371651 -0.0094020596292584569 0 -0.026636639891462883 -0.0092711861588182041 0 -0.026410842693742234 -0.0097085953340552301 0 -0.02648578719565373 -0.0098777042088435078 0 -0.026495334028762151 -0.0097664144057740369 0 -0.02648578719565373 -0.0098777042088435078 0 -0.026531817063728924 -0.0099527202289511046 0 -0.026495334028762151 -0.0097664144057740369 0 -0.026717707920371651 -0.0094020596292584569 0 -0.026636639891462883 -0.0092711861588182041 0 -0.026810488052099037 -0.0091950472417698208 0 -0.026636639891462883 -0.0092711861588182041 0 -0.026810488052099037 -0.0091950472417698208 0 -0.02671251921429886 -0.00907062012681383 0 -0.026636639891462883 -0.0092711861588182041 0 -0.026552567939467454 -0.009101605503070662 0 -0.026514705206457326 -0.0092819658424909204 0 -0.026810488052099037 -0.0091950472417698208 0 -0.026945224867710983 -0.0090275426957777023 0 -0.02671251921429886 -0.00907062012681383 0 -0.027073552730269696 -0.0093898239477918886 0 -0.02696043250951342 -0.0094188915579225593 0 -0.027022886484456662 -0.0091925986710412657 0 -0.026717707920371651 -0.0094020596292584569 0 -0.026810488052099037 -0.0091950472417698208 0 -0.027022886484456662 -0.0091925986710412657 0 -0.026810488052099037 -0.0091950472417698208 0 -0.026945224867710983 -0.0090275426957777023 0 -0.02699649587703945 -0.0087234264343446569 0 -0.02671251921429886 -0.00907062012681383 0 -0.026668692917005934 -0.008667952705344038 0 -0.02699649587703945 -0.0087234264343446569 0 -0.026945224867710983 -0.0090275426957777023 0 -0.02671251921429886 -0.00907062012681383 0 -0.02671251921429886 -0.00907062012681383 0 -0.026397398945882593 -0.0089053763019126004 0 -0.026668692917005934 -0.008667952705344038 0 -0.026636639891462883 -0.0092711861588182041 0 -0.02671251921429886 -0.00907062012681383 0 -0.026552567939467454 -0.009101605503070662 0 -0.039559041179679524 -0.0025264864945383045 0 -0.03983355870223234 -0.0025581273601334689 0 -0.026397398945882593 -0.0089053763019126004 0 -0.026112602427954299 -0.0087675179666071457 0 -0.026432183431283035 -0.0086437067113896843 0 -0.026552567939467454 -0.009101605503070662 0 -0.026413715853346124 -0.009159111133566343 0 -0.02635698330445339 -0.0090265444662976473 0 -0.03983355870223234 -0.0025581273601334689 0 -0.040684434333786726 -0.0026634102980938718 0 -0.026552567939467454 -0.009101605503070662 0 -0.026413715853346124 -0.009159111133566343 0 -0.026514705206457326 -0.0092819658424909204 0 -0.026410842693742234 -0.0097085953340552301 0 -0.026376538607185154 -0.009483921452247808 0 -0.026514705206457326 -0.0092819658424909204 0 -0.026410842693742234 -0.0097085953340552301 0 -0.026636639891462883 -0.0092711861588182041 0 -0.026514705206457326 -0.0092819658424909204 0 -0.026413715853346124 -0.009159111133566343 0 -0.026514705206457326 -0.0092819658424909204 0 -0.026243002429640852 -0.0092480040104459434 0 -0.040873597707172714 -0.0028504213483613317 0 -0.041558267918902783 -0.0027910822025185573 0 -0.026376538607185154 -0.009483921452247808 0 -0.026514705206457326 -0.0092819658424909204 0 -0.026260609543445237 -0.0094238232804296791 0 -0.041558267918902783 -0.0027910822025185573 0 -0.04125834399394282 -0.0031627167605614674 0 -0.026376538607185154 -0.009483921452247808 0 -0.026260609543445237 -0.0094238232804296791 0 -0.026227721260642982 -0.0097122349708963027 0 -0.057075937141333639 0.00062619826129289206 0 -0.057451306625764136 0.0013595666442879283 0 -0.056712781979440664 0.0011512916165343791 0 -0.041558267918902783 -0.0027910822025185573 0 -0.040684434333786726 -0.0026634102980938718 0 -0.026413715853346124 -0.009159111133566343 0 -0.026243002429640852 -0.0092480040104459434 0 -0.02635698330445339 -0.0090265444662976473 0 -0.057314611305960474 0.0015912738741535473 0 -0.057119171396719244 0.0021596863753157091 0 -0.057607899274988703 0.0022033043289034619 0 -0.057314611305960474 0.0015912738741535473 0 -0.057119171396719244 0.0021596863753157091 0 -0.056622754482196287 0.0018595223093725659 0 -0.057451306625764136 0.0013595666442879283 0 -0.056643880113910618 0.0017246326373147112 0 -0.056712781979440664 0.0011512916165343791 0 -0.040684434333786726 -0.0026634102980938718 0 -0.04224014114397525 -0.0029549438537130259 0 -0.026112602427954299 -0.0087675179666071457 0 -0.02628039404421224 -0.0084494163230101841 0 -0.026432183431283035 -0.0086437067113896843 0 -0.040684434333786726 -0.0026634102980938718 0 -0.039486169723299228 -0.0024975901488622195 0 -0.02628039404421224 -0.0084494163230101841 0 -0.026432183431283035 -0.0086437067113896843 0 -0.026543350180361185 -0.0084323153127884871 0 -0.057607899274988703 0.0022033043289034619 0 -0.057856334602857211 0.0027999274439184036 0 -0.057711719755405635 0.0028637753443687681 0 -0.039486169723299228 -0.0024975901488622195 0 -0.038230354415153316 -0.0023446923039334862 0 -0.02628039404421224 -0.0084494163230101841 0 -0.026543350180361185 -0.0084323153127884871 0 -0.026446597623226896 -0.0081457226959039987 0 -0.057607899274988703 0.0022033043289034619 0 -0.05738340774726261 0.0026095531782449883 0 -0.057711719755405635 0.0028637753443687681 0 -0.057119171396719244 0.0021596863753157091 0 -0.057607899274988703 0.0022033043289034619 0 -0.05738340774726261 0.0026095531782449883 0 -0.05738340774726261 0.0026095531782449883 0 -0.057200417022925151 0.0030236088604740554 0 -0.056756809514925018 0.0025492460156378727 0 -0.057119171396719244 0.0021596863753157091 0 -0.056622754482196287 0.0018595223093725659 0 -0.056756809514925018 0.0025492460156378727 0 -0.057119171396719244 0.0021596863753157091 0 -0.05738340774726261 0.0026095531782449883 0 -0.056756809514925018 0.0025492460156378727 0 -0.02699649587703945 -0.0087234264343446569 0 -0.026668692917005934 -0.008667952705344038 0 -0.026860662087103689 -0.0083381484291415609 0 -0.026668692917005934 -0.008667952705344038 0 -0.026543350180361185 -0.0084323153127884871 0 -0.026860662087103689 -0.0083381484291415609 0 -0.026397398945882593 -0.0089053763019126004 0 -0.026668692917005934 -0.008667952705344038 0 -0.026432183431283035 -0.0086437067113896843 0 -0.026668692917005934 -0.008667952705344038 0 -0.026432183431283035 -0.0086437067113896843 0 -0.026543350180361185 -0.0084323153127884871 0 -0.024612473811495065 -0.0070156875203417676 0 -0.024283745289248582 -0.0061760269257076115 0 -0.023250989650414264 -0.0064087822216942186 0 -0.026543350180361185 -0.0084323153127884871 0 -0.026860662087103689 -0.0083381484291415609 0 -0.026446597623226896 -0.0081457226959039987 0 -0.036048537809726805 -0.0022290242393204337 0 -0.038230354415153316 -0.0023446923039334862 0 -0.02578559234190396 -0.0061660981216297827 0 -0.024612473811495065 -0.0070156875203417676 0 -0.024283745289248582 -0.0061760269257076115 0 -0.024283745289248582 -0.0061760269257076115 0 -0.023749430624509758 -0.0054367998772511424 0 -0.02466524036311378 -0.0053430084914316747 0 -0.02578559234190396 -0.0061660981216297827 0 -0.024283745289248582 -0.0061760269257076115 0 -0.02466524036311378 -0.0053430084914316747 0 -0.038230354415153316 -0.0023446923039334862 0 -0.03806922304683228 -0.0017333676243980961 0 -0.057817137730031214 0.0028166280425485062 0 -0.058030525628946381 0.0033025629927470406 0 -0.057726132172803181 0.0030967568589032931 0 -0.024283745289248582 -0.0061760269257076115 0 -0.023250989650414264 -0.0064087822216942186 0 -0.023749430624509758 -0.0054367998772511424 0 -0.037808656030538255 -0.001226169537681886 0 -0.03806922304683228 -0.0017333676243980961 0 -0.058261784611451296 0.0037755659858124558 0 -0.057958600607994314 0.0036300604360592547 0 -0.058030525628946381 0.0033025629927470406 0 -0.058030525628946381 0.0033025629927470406 0 -0.057726132172803181 0.0030967568589032931 0 -0.057743266199697475 0.0033777381707638912 0 -0.057958600607994314 0.0036300604360592547 0 -0.057743266199697475 0.0033777381707638912 0 -0.057685343191559907 0.0035992443016127523 0 -0.057958600607994314 0.0036300604360592547 0 -0.058030525628946381 0.0033025629927470406 0 -0.057743266199697475 0.0033777381707638912 0 -0.037808656030538255 -0.001226169537681886 0 -0.03721453922126651 -0.001073004961463232 0 -0.024252934119777372 -0.0044662541203995968 0 -0.023749430624509758 -0.0054367998772511424 0 -0.02466524036311378 -0.0053430084914316747 0 -0.024252934119777372 -0.0044662541203995968 0 -0.025532164936691606 -0.0051803328089980354 0 -0.02466524036311378 -0.0053430084914316747 0 -0.057200417022925151 0.0030236088604740554 0 -0.056803688433343304 0.0032901324176761106 0 -0.056756809514925018 0.0025492460156378727 0 -0.057200417022925151 0.0030236088604740554 0 -0.057482374744915792 0.0029998283513438632 0 -0.057339840154954629 0.0031833369142656581 0 -0.057200417022925151 0.0030236088604740554 0 -0.057339840154954629 0.0031833369142656581 0 -0.057112271838985616 0.0033138572270508303 0 -0.057200417022925151 0.0030236088604740554 0 -0.057112271838985616 0.0033138572270508303 0 -0.056803688433343304 0.0032901324176761106 0 -0.05738340774726261 0.0026095531782449883 0 -0.057711719755405635 0.0028637753443687681 0 -0.057482374744915792 0.0029998283513438632 0 -0.05738340774726261 0.0026095531782449883 0 -0.057200417022925151 0.0030236088604740554 0 -0.057482374744915792 0.0029998283513438632 0 -0.057817137730031214 0.0028166280425485062 0 -0.057711719755405635 0.0028637753443687681 0 -0.057726132172803181 0.0030967568589032931 0 -0.057711719755405635 0.0028637753443687681 0 -0.057726132172803181 0.0030967568589032931 0 -0.057482374744915792 0.0029998283513438632 0 -0.038230354415153316 -0.0023446923039334862 0 -0.038263558750921613 -0.0023518967137396429 0 -0.057726132172803181 0.0030967568589032931 0 -0.057482374744915792 0.0029998283513438632 0 -0.057529381251125715 0.0032336522654500418 0 -0.057482374744915792 0.0029998283513438632 0 -0.057339840154954629 0.0031833369142656581 0 -0.057529381251125715 0.0032336522654500418 0 -0.057523334969846331 0.0034051419395003013 0 -0.05737334279634565 0.0033383306711017801 0 -0.057259661278296493 0.0034859545620371181 0 -0.057339840154954629 0.0031833369142656581 0 -0.057529381251125715 0.0032336522654500418 0 -0.05737334279634565 0.0033383306711017801 0 -0.057529381251125715 0.0032336522654500418 0 -0.057523334969846331 0.0034051419395003013 0 -0.05737334279634565 0.0033383306711017801 0 -0.057726132172803181 0.0030967568589032931 0 -0.057529381251125715 0.0032336522654500418 0 -0.057743266199697475 0.0033777381707638912 0 -0.057529381251125715 0.0032336522654500418 0 -0.057523334969846331 0.0034051419395003013 0 -0.057743266199697475 0.0033777381707638912 0 -0.057523334969846331 0.0034051419395003013 0 -0.057743266199697475 0.0033777381707638912 0 -0.057685343191559907 0.0035992443016127523 0 -0.057523334969846331 0.0034051419395003013 0 -0.057685343191559907 0.0035992443016127523 0 -0.057259661278296493 0.0034859545620371181 0 -0.057259661278296493 0.0034859545620371181 0 -0.05724655998994202 0.0035747300923832685 0 -0.057112271838985616 0.0033138572270508303 0 -0.042831189773918428 0.00045839554367579585 0 -0.04336192060151365 0.00082885227216095299 0 -0.05724655998994202 0.0035747300923832685 0 -0.057112271838985616 0.0033138572270508303 0 -0.056803688433343304 0.0032901324176761106 0 -0.057678614964985539 0.0041223144615608782 0 -0.057017473323781494 0.0040874330618937138 0 -0.056803688433343304 0.0032901324176761106 0 -0.05737334279634565 0.0033383306711017801 0 -0.057259661278296493 0.0034859545620371181 0 -0.057112271838985616 0.0033138572270508303 0 -0.057339840154954629 0.0031833369142656581 0 -0.05737334279634565 0.0033383306711017801 0 -0.057112271838985616 0.0033138572270508303 0 -0.05667580083311146 0.0045559571128905114 0 -0.057017473323781494 0.0040874330618937138 0 -0.056146662192115622 0.0034951433847721725 0 -0.057017473323781494 0.0040874330618937138 0 -0.056803688433343304 0.0032901324176761106 0 -0.056146662192115622 0.0034951433847721725 0 -0.056803688433343304 0.0032901324176761106 0 -0.056151440509503277 0.002770936712139566 0 -0.056756809514925018 0.0025492460156378727 0 -0.056803688433343304 0.0032901324176761106 0 -0.056151440509503277 0.002770936712139566 0 -0.056146662192115622 0.0034951433847721725 0 -0.056151440509503277 0.002770936712139566 0 -0.056146662192115622 0.0034951433847721725 0 -0.055565832874174215 0.0029140169959398078 0 -0.056146662192115622 0.0034951433847721725 0 -0.055474751640842222 0.0033948635949718827 0 -0.055565832874174215 0.0029140169959398078 0 -0.056146662192115622 0.0034951433847721725 0 -0.055644038324390403 0.0040426157391971283 0 -0.055474751640842222 0.0033948635949718827 0 -0.05667580083311146 0.0045559571128905114 0 -0.056146662192115622 0.0034951433847721725 0 -0.055644038324390403 0.0040426157391971283 0 -0.052395047599116354 -0.0010814094443621924 0 -0.051695663119577247 -0.0015564161537151581 0 -0.055644038324390403 0.0040426157391971283 0 -0.055232612583568111 0.0035425265513224389 0 -0.054788733408808299 0.0035824401101696955 0 -0.055879391466850337 0.0044535695538242435 0 -0.056196964312654446 0.004341213586226079 0 -0.055643523732528968 0.0040582898981256395 0 -0.051971317250040269 -0.0011186350502282835 0 -0.051695663119577247 -0.0015564161537151581 0 -0.055232612583568111 0.0035425265513224389 0 -0.054788733408808299 0.0035824401101696955 0 -0.055027056479825982 0.0031635513728531088 0 -0.055644038324390403 0.0040426157391971283 0 -0.055232612583568111 0.0035425265513224389 0 -0.055474751640842222 0.0033948635949718827 0 -0.056212419683461884 0.0041224985092982057 0 -0.056205194003090854 0.0041456472264044079 0 -0.056221394983123764 0.0040750561686747804 0 -0.056212419683461884 0.0041224985092982057 0 -0.056205194003090854 0.0041456472264044079 0 -0.056194796428729439 0.0042298090490540596 0 -0.056190385410061723 0.0042176805109898933 0 -0.056205194003090854 0.0041456472264044079 0 -0.056194796428729439 0.0042298090490540596 0 -0.056212419683461884 0.0041224985092982057 0 -0.056194796428729439 0.0042298090490540596 0 -0.056220209141957862 0.0041410124509775508 0 -0.056271742844648802 0.0044024481129172951 0 -0.056221932055472067 0.0042534138713470346 0 -0.056266115863395742 0.0041103696771184845 0 -0.056221932055472067 0.0042534138713470346 0 -0.056266115863395742 0.0041103696771184845 0 -0.056220209141957862 0.0041410124509775508 0 -0.056194796428729439 0.0042298090490540596 0 -0.056221932055472067 0.0042534138713470346 0 -0.056220209141957862 0.0041410124509775508 0 -0.050347243779292346 -0.0029680947085785922 0 -0.051498971179338708 -0.0024215567200563796 0 -0.051821041082938959 -0.00049408588931376251 0 -0.051695663119577247 -0.0015564161537151581 0 -0.051449647406709667 -0.00175815007797069 0 -0.056266115863395742 0.0041103696771184845 0 -0.05622330281664336 0.0040865098802930488 0 -0.056220209141957862 0.0041410124509775508 0 -0.05622330281664336 0.0040865098802930488 0 -0.056222976171884931 0.004075406504678537 0 -0.056247683424686883 0.0040155162572318099 0 -0.056212419683461884 0.0041224985092982057 0 -0.056220209141957862 0.0041410124509775508 0 -0.056222976171884931 0.004075406504678537 0 -0.05622330281664336 0.0040865098802930488 0 -0.056220209141957862 0.0041410124509775508 0 -0.056222976171884931 0.004075406504678537 0 -0.056212419683461884 0.0041224985092982057 0 -0.056222976171884931 0.004075406504678537 0 -0.056221394983123764 0.0040750561686747804 0 -0.051283992126279467 -0.0020172552685795661 0 -0.050637688398153267 -0.0027175483929648037 0 -0.050460057618920279 -0.0030838803692892903 0 -0.050504957186959493 -0.002814747730852888 0 -0.05106262541577411 -0.0027839025651467228 0 -0.051449647406709667 -0.00175815007797069 0 -0.051283992126279467 -0.0020172552685795661 0 -0.051695663119577247 -0.0015564161537151581 0 -0.051283992126279467 -0.0020172552685795661 0 -0.054788733408808299 0.0035824401101696955 0 -0.054538311546507581 0.0031489236454467912 0 -0.055027056479825982 0.0031635513728531088 0 -0.054538311546507581 0.0031489236454467912 0 -0.055027056479825982 0.0031635513728531088 0 -0.054982908857023782 0.0025911028288800346 0 -0.051283992126279467 -0.0020172552685795661 0 -0.050885734043440427 -0.0027983987697864738 0 -0.055232612583568111 0.0035425265513224389 0 -0.055474751640842222 0.0033948635949718827 0 -0.055027056479825982 0.0031635513728531088 0 -0.055474751640842222 0.0033948635949718827 0 -0.055027056479825982 0.0031635513728531088 0 -0.055565832874174215 0.0029140169959398078 0 -0.055027056479825982 0.0031635513728531088 0 -0.055565832874174215 0.0029140169959398078 0 -0.054982908857023782 0.0025911028288800346 0 -0.055565832874174215 0.0029140169959398078 0 -0.054982908857023782 0.0025911028288800346 0 -0.055838673741228466 0.0021139659183798645 0 -0.054982908857023782 0.0025911028288800346 0 -0.055033004349880947 0.0019425530534953293 0 -0.055838673741228466 0.0021139659183798645 0 -0.050520061326459857 -0.0030860115501153331 0 -0.050451699949931421 -0.0034883906848975016 0 -0.050315638954342892 -0.0034289655906935661 0 -0.054538311546507581 0.0031489236454467912 0 -0.054982908857023782 0.0025911028288800346 0 -0.054412251546487572 0.0023785628849222916 0 -0.054982908857023782 0.0025911028288800346 0 -0.054412251546487572 0.0023785628849222916 0 -0.055033004349880947 0.0019425530534953293 0 -0.054412251546487572 0.0023785628849222916 0 -0.054280848384968113 0.0016107215248563412 0 -0.055033004349880947 0.0019425530534953293 0 -0.049940742408406819 -0.0035765689022839542 0 -0.050094124374633342 -0.0035508561205366937 0 -0.050637688398153267 -0.0027175483929648037 0 -0.049940742408406819 -0.0035765689022839542 0 -0.050451699949931421 -0.0034883906848975016 0 -0.050383755371460844 -0.0038891013158891949 0 -0.050307954858884396 -0.0036475600669223698 0 -0.054280848384968113 0.0016107215248563412 0 -0.055033004349880947 0.0019425530534953293 0 -0.055172958381059407 0.0012188659365381087 0 -0.055486177226692211 0.0016474388606740353 0 -0.055033004349880947 0.0019425530534953293 0 -0.055172958381059407 0.0012188659365381087 0 -0.055486177226692211 0.0016474388606740353 0 -0.055033004349880947 0.0019425530534953293 0 -0.055838673741228466 0.0021139659183798645 0 -0.055486177226692211 0.0016474388606740353 0 -0.055838673741228466 0.0021139659183798645 0 -0.055901894156498828 0.0013184943685638733 0 -0.056643880113910618 0.0017246326373147112 0 -0.055838673741228466 0.0021139659183798645 0 -0.055901894156498828 0.0013184943685638733 0 -0.04224014114397525 -0.0029549438537130259 0 -0.042726818933982523 -0.0030393480454352939 0 -0.056622754482196287 0.0018595223093725659 0 -0.056756809514925018 0.0025492460156378727 0 -0.055838673741228466 0.0021139659183798645 0 -0.056151440509503277 0.002770936712139566 0 -0.056756809514925018 0.0025492460156378727 0 -0.055838673741228466 0.0021139659183798645 0 -0.056151440509503277 0.002770936712139566 0 -0.055565832874174215 0.0029140169959398078 0 -0.055838673741228466 0.0021139659183798645 0 -0.057312692795095162 0.0035674706286046658 0 -0.057987997496780914 0.0030223303930151267 0 -0.058053743000578986 0.0036926430964634559 0 -0.057312692795095162 0.0035674706286046658 0 -0.057343829214789629 0.0040049590834146317 0 -0.058053743000578986 0.0036926430964634559 0 -0.057312692795095162 0.0035674706286046658 0 -0.056941731138168292 0.0039427356944949392 0 -0.057343829214789629 0.0040049590834146317 0 -0.057640443258986138 0.002573183592759157 0 -0.057219359257480493 0.0030411254876741836 0 -0.057987997496780914 0.0030223303930151267 0 -0.057312692795095162 0.0035674706286046658 0 -0.057244648620430688 0.0032674154668045612 0 -0.057987997496780914 0.0030223303930151267 0 -0.057219359257480493 0.0030411254876741836 0 -0.057244648620430688 0.0032674154668045612 0 -0.057987997496780914 0.0030223303930151267 0 -0.057219359257480493 0.0030411254876741836 0 -0.057244648620430688 0.0032674154668045612 0 -0.056899857263580628 0.0033433953387076811 0 -0.057312692795095162 0.0035674706286046658 0 -0.057244648620430688 0.0032674154668045612 0 -0.056903505427453746 0.0035037665752774105 0 -0.057244648620430688 0.0032674154668045612 0 -0.056903505427453746 0.0035037665752774105 0 -0.056899857263580628 0.0033433953387076811 0 -0.056903505427453746 0.0035037665752774105 0 -0.056899857263580628 0.0033433953387076811 0 -0.05660344978956821 0.0036712843592072351 0 -0.056899857263580628 0.0033433953387076811 0 -0.056612057064439621 0.0035841750804368813 0 -0.05660344978956821 0.0036712843592072351 0 -0.056903505427453746 0.0035037665752774105 0 -0.05660344978956821 0.0036712843592072351 0 -0.056717652616067558 0.0037068520014571864 0 -0.05660344978956821 0.0036712843592072351 0 -0.056717652616067558 0.0037068520014571864 0 -0.056515434700181034 0.003808749864739142 0 -0.056717652616067558 0.0037068520014571864 0 -0.056950437626419888 0.0037095226292531143 0 -0.056676050143087631 0.0038731764079700951 0 -0.056717652616067558 0.0037068520014571864 0 -0.056676050143087631 0.0038731764079700951 0 -0.056515434700181034 0.003808749864739142 0 -0.056903505427453746 0.0035037665752774105 0 -0.056717652616067558 0.0037068520014571864 0 -0.056950437626419888 0.0037095226292531143 0 -0.057312692795095162 0.0035674706286046658 0 -0.056903505427453746 0.0035037665752774105 0 -0.056950437626419888 0.0037095226292531143 0 -0.056950437626419888 0.0037095226292531143 0 -0.056941731138168292 0.0039427356944949392 0 -0.056676050143087631 0.0038731764079700951 0 -0.057312692795095162 0.0035674706286046658 0 -0.056950437626419888 0.0037095226292531143 0 -0.056941731138168292 0.0039427356944949392 0 -0.056676050143087631 0.0038731764079700951 0 -0.056523687816715934 0.0039878607330640853 0 -0.056632313555576429 0.0040868509794833923 0 -0.056941731138168292 0.0039427356944949392 0 -0.056676050143087631 0.0038731764079700951 0 -0.056632313555576429 0.0040868509794833923 0 -0.056523687816715934 0.0039878607330640853 0 -0.056274018053354913 0.0039784081219414475 0 -0.056632313555576429 0.0040868509794833923 0 -0.051235902037093196 -0.0020982499389187409 0 -0.051558148816058462 -0.0018915168401313746 0 -0.056523687816715934 0.0039878607330640853 0 -0.056385416678095969 0.0039630935095388521 0 -0.056508475452922605 0.0039089742035258957 0 -0.056676050143087631 0.0038731764079700951 0 -0.056523687816715934 0.0039878607330640853 0 -0.056508475452922605 0.0039089742035258957 0 -0.056523687816715934 0.0039878607330640853 0 -0.056385416678095969 0.0039630935095388521 0 -0.056274018053354913 0.0039784081219414475 0 -0.056421961086404314 0.0038960572132480504 0 -0.056515434700181034 0.003808749864739142 0 -0.056374112524710439 0.0038821230683980038 0 -0.056385416678095969 0.0039630935095388521 0 -0.056421961086404314 0.0038960572132480504 0 -0.056508475452922605 0.0039089742035258957 0 -0.056385416678095969 0.0039630935095388521 0 -0.056322157758500815 0.0039599287643017587 0 -0.056274018053354913 0.0039784081219414475 0 -0.056385416678095969 0.0039630935095388521 0 -0.056337842613281987 0.0039339222695752695 0 -0.056322157758500815 0.0039599287643017587 0 -0.056385416678095969 0.0039630935095388521 0 -0.056337842613281987 0.0039339222695752695 0 -0.056421961086404314 0.0038960572132480504 0 -0.056337842613281987 0.0039339222695752695 0 -0.056421961086404314 0.0038960572132480504 0 -0.056374112524710439 0.0038821230683980038 0 -0.056676050143087631 0.0038731764079700951 0 -0.056508475452922605 0.0039089742035258957 0 -0.056515434700181034 0.003808749864739142 0 -0.056421961086404314 0.0038960572132480504 0 -0.056508475452922605 0.0039089742035258957 0 -0.056515434700181034 0.003808749864739142 0 -0.056515434700181034 0.003808749864739142 0 -0.056420698879031408 0.0038164138646094759 0 -0.056374112524710439 0.0038821230683980038 0 -0.05660344978956821 0.0036712843592072351 0 -0.056515434700181034 0.003808749864739142 0 -0.056420698879031408 0.0038164138646094759 0 -0.056612057064439621 0.0035841750804368813 0 -0.05660344978956821 0.0036712843592072351 0 -0.056445010010122781 0.003758190116269643 0 -0.05660344978956821 0.0036712843592072351 0 -0.056420698879031408 0.0038164138646094759 0 -0.056445010010122781 0.003758190116269643 0 -0.056420698879031408 0.0038164138646094759 0 -0.056445010010122781 0.003758190116269643 0 -0.056327582654093572 0.003906879451273158 0 -0.056420698879031408 0.0038164138646094759 0 -0.056327582654093572 0.003906879451273158 0 -0.056322677420681269 0.0039164312707483141 0 -0.056327582654093572 0.003906879451273158 0 -0.056322677420681269 0.0039164312707483141 0 -0.05628283850521109 0.0039671317504344911 0 -0.056420698879031408 0.0038164138646094759 0 -0.056322677420681269 0.0039164312707483141 0 -0.056374112524710439 0.0038821230683980038 0 -0.056322677420681269 0.0039164312707483141 0 -0.056374112524710439 0.0038821230683980038 0 -0.0563165300875446 0.0039329776786273364 0 -0.056337842613281987 0.0039339222695752695 0 -0.056374112524710439 0.0038821230683980038 0 -0.0563165300875446 0.0039329776786273364 0 -0.0563165300875446 0.0039329776786273364 0 -0.056277494371043631 0.0039700505094636832 0 -0.056277174430082989 0.003972443726657498 0 -0.056277494371043631 0.0039700505094636832 0 -0.056247869798805063 0.0040142224886818125 0 -0.056277174430082989 0.003972443726657498 0 -0.056277494371043631 0.0039700505094636832 0 -0.056245291130060021 0.0040275532215673319 0 -0.056247869798805063 0.0040142224886818125 0 -0.056322677420681269 0.0039164312707483141 0 -0.056277494371043631 0.0039700505094636832 0 -0.05628283850521109 0.0039671317504344911 0 -0.056322677420681269 0.0039164312707483141 0 -0.0563165300875446 0.0039329776786273364 0 -0.056277494371043631 0.0039700505094636832 0 -0.056277494371043631 0.0039700505094636832 0 -0.05628283850521109 0.0039671317504344911 0 -0.056245291130060021 0.0040275532215673319 0 -0.056257578302211703 0.0040261832313926776 0 -0.05628283850521109 0.0039671317504344911 0 -0.056245291130060021 0.0040275532215673319 0 -0.056257578302211703 0.0040261832313926776 0 -0.056327582654093572 0.003906879451273158 0 -0.05628283850521109 0.0039671317504344911 0 -0.056190385410061723 0.0042176805109898933 0 -0.056205194003090854 0.0041456472264044079 0 -0.056215867883036938 0.0041116104587797762 0 -0.056257578302211703 0.0040261832313926776 0 -0.056245291130060021 0.0040275532215673319 0 -0.056215867883036938 0.0041116104587797762 0 -0.056245291130060021 0.0040275532215673319 0 -0.056215867883036938 0.0041116104587797762 0 -0.056221394983123764 0.0040750561686747804 0 -0.056205194003090854 0.0041456472264044079 0 -0.056215867883036938 0.0041116104587797762 0 -0.056221394983123764 0.0040750561686747804 0 -0.056221394983123764 0.0040750561686747804 0 -0.056247869798805063 0.0040142224886818125 0 -0.056234347675002475 0.004042725489906725 0 -0.056222976171884931 0.004075406504678537 0 -0.056221394983123764 0.0040750561686747804 0 -0.056234347675002475 0.004042725489906725 0 -0.056245291130060021 0.0040275532215673319 0 -0.056221394983123764 0.0040750561686747804 0 -0.056247869798805063 0.0040142224886818125 0 -0.056247869798805063 0.0040142224886818125 0 -0.056234347675002475 0.004042725489906725 0 -0.056247683424686883 0.0040155162572318099 0 -0.056247869798805063 0.0040142224886818125 0 -0.056247683424686883 0.0040155162572318099 0 -0.056277174430082989 0.003972443726657498 0 -0.056222976171884931 0.004075406504678537 0 -0.056234347675002475 0.004042725489906725 0 -0.056247683424686883 0.0040155162572318099 0 -0.050504957186959493 -0.002814747730852888 0 -0.05106262541577411 -0.0027839025651467228 0 -0.050819185922273497 -0.0022881279284995243 0 -0.051449647406709667 -0.00175815007797069 0 -0.051127411430520388 -0.002168340774087266 0 -0.05622330281664336 0.0040865098802930488 0 -0.056247683424686883 0.0040155162572318099 0 -0.056261887938122909 0.0039914929274919141 0 -0.056247683424686883 0.0040155162572318099 0 -0.056272430256331503 0.00398288506333919 0 -0.056277174430082989 0.003972443726657498 0 -0.056272430256331503 0.00398288506333919 0 -0.056277174430082989 0.003972443726657498 0 -0.056296780465085419 0.0039655438448313275 0 -0.056337842613281987 0.0039339222695752695 0 -0.056277174430082989 0.003972443726657498 0 -0.056296780465085419 0.0039655438448313275 0 -0.056337842613281987 0.0039339222695752695 0 -0.0563165300875446 0.0039329776786273364 0 -0.056277174430082989 0.003972443726657498 0 -0.056272430256331503 0.00398288506333919 0 -0.056296780465085419 0.0039655438448313275 0 -0.056274018053354913 0.0039784081219414475 0 -0.056337842613281987 0.0039339222695752695 0 -0.056296780465085419 0.0039655438448313275 0 -0.056322157758500815 0.0039599287643017587 0 -0.056296780465085419 0.0039655438448313275 0 -0.056322157758500815 0.0039599287643017587 0 -0.056274018053354913 0.0039784081219414475 0 -0.056247683424686883 0.0040155162572318099 0 -0.056261887938122909 0.0039914929274919141 0 -0.056274018053354913 0.0039784081219414475 0 -0.056247683424686883 0.0040155162572318099 0 -0.056272430256331503 0.00398288506333919 0 -0.056274018053354913 0.0039784081219414475 0 -0.051127411430520388 -0.002168340774087266 0 -0.051235902037093196 -0.0020982499389187409 0 -0.055604552827557739 0.0035582500226061168 0 -0.055745413976130122 0.003627829041557222 0 -0.056026562222295906 0.004140925976795543 0 -0.055604552827557739 0.0035582500226061168 0 -0.055820726556208976 0.0047718164768180121 0 -0.056026562222295906 0.004140925976795543 0 -0.05106262541577411 -0.0027839025651467228 0 -0.050819185922273497 -0.0022881279284995243 0 -0.051232245045946936 -0.0018049020793831569 0 -0.051127411430520388 -0.002168340774087266 0 -0.05055066478568479 -0.0035186599331383569 0 -0.050819185922273497 -0.0022881279284995243 0 -0.051232245045946936 -0.0018049020793831569 0 -0.051133239938016113 -0.001761740068009484 0 -0.050885734043440427 -0.0027983987697864738 0 -0.050497953517974585 -0.0035695783377647822 0 -0.050315638954342892 -0.0034289655906935661 0 -0.050307954858884396 -0.0036475600669223698 0 -0.050112493225058605 -0.0037706086749465504 0 -0.050451699949931421 -0.0034883906848975016 0 -0.050315638954342892 -0.0034289655906935661 0 -0.050307954858884396 -0.0036475600669223698 0 -0.050383755371460844 -0.0038891013158891949 0 -0.050307954858884396 -0.0036475600669223698 0 -0.050112493225058605 -0.0037706086749465504 0 -0.049940742408406819 -0.0035765689022839542 0 -0.050497953517974585 -0.0035695783377647822 0 -0.049052985876793249 -0.0055471302423745796 0 -0.049624850300752747 -0.0055701454286021957 0 -0.049710783707770857 -0.0058338734541769615 0 -0.049052985876793249 -0.0055471302423745796 0 -0.049423404086201418 -0.0053794083801259754 0 -0.049624850300752747 -0.0055701454286021957 0 -0.049423404086201418 -0.0053794083801259754 0 -0.049624850300752747 -0.0055701454286021957 0 -0.049898227017561157 -0.0055195048183766119 0 -0.050405856653002679 -0.0039567139190997474 0 -0.050409873086564874 -0.0039542419431617577 0 -0.049423404086201418 -0.0053794083801259754 0 -0.049897245674445173 -0.0055208307676919048 0 -0.04994949714082618 -0.0054330914773381761 0 -0.050409873086564874 -0.0039542419431617577 0 -0.050236206359830483 -0.0041856283231109983 0 -0.049624850300752747 -0.0055701454286021957 0 -0.049898227017561157 -0.0055195048183766119 0 -0.049710783707770857 -0.0058338734541769615 0 -0.050409873086564874 -0.0039542419431617577 0 -0.050497953517974585 -0.0035695783377647822 0 -0.051381028277653971 -0.0019462895839910831 0 -0.051176256536951396 -0.0043135904839072606 0 -0.050219101958490567 -0.0038959648376575844 0 -0.050409873086564874 -0.0039542419431617577 0 -0.05055066478568479 -0.0035186599331383569 0 -0.05055066478568479 -0.0035186599331383569 0 -0.050497953517974585 -0.0035695783377647822 0 -0.055130139377292428 0.0049224844992013126 0 -0.056237847885993626 0.0044520215404222803 0 -0.0561420350328957 0.0050494642558388814 0 -0.05516506337639273 0.0053329656270634284 0 -0.055130139377292428 0.0049224844992013126 0 -0.0561420350328957 0.0050494642558388814 0 -0.050409873086564874 -0.0039542419431617577 0 -0.050720491592490237 -0.0042232191394907109 0 -0.048582931729078925 -0.0039187189148942991 0 -0.049250533491399448 -0.0036785822708100876 0 -0.049686075610533974 -0.0042470935641632712 0 -0.048582931729078925 -0.0039187189148942991 0 -0.048646731429955889 -0.0038116031610941148 0 -0.049250533491399448 -0.0036785822708100876 0 -0.049250533491399448 -0.0036785822708100876 0 -0.049686075610533974 -0.0042470935641632712 0 -0.050013966706137697 -0.0036551988777740745 0 -0.05055066478568479 -0.0035186599331383569 0 -0.050919257392121109 -0.0033465685659914168 0 -0.055745413976130122 0.003627829041557222 0 -0.056026562222295906 0.004140925976795543 0 -0.056632313555576429 0.0040868509794833923 0 -0.055820726556208976 0.0047718164768180121 0 -0.056350961843480769 0.0042441749896347213 0 -0.056625189505638891 0.0044091797570287253 0 -0.055820726556208976 0.0047718164768180121 0 -0.056026562222295906 0.004140925976795543 0 -0.056350961843480769 0.0042441749896347213 0 -0.056350961843480769 0.0042441749896347213 0 -0.056632313555576429 0.0040868509794833923 0 -0.056625189505638891 0.0044091797570287253 0 -0.056026562222295906 0.004140925976795543 0 -0.056350961843480769 0.0042441749896347213 0 -0.056632313555576429 0.0040868509794833923 0 -0.050919257392121109 -0.0033465685659914168 0 -0.051055759959733292 -0.0032960592645594807 0 -0.056237847885993626 0.0044520215404222803 0 -0.057073978108200307 0.0047797254510527302 0 -0.05722347991699387 0.0045981844830019266 0 -0.056941731138168292 0.0039427356944949392 0 -0.056625189505638891 0.0044091797570287253 0 -0.057343829214789629 0.0040049590834146317 0 -0.056237847885993626 0.0044520215404222803 0 -0.05722347991699387 0.0045981844830019266 0 -0.057343829214789629 0.0040049590834146317 0 -0.056941731138168292 0.0039427356944949392 0 -0.056632313555576429 0.0040868509794833923 0 -0.056625189505638891 0.0044091797570287253 0 -0.050720491592490237 -0.0042232191394907109 0 -0.050953553814661032 -0.0045399038209353827 0 -0.049686075610533974 -0.0042470935641632712 0 -0.050013966706137697 -0.0036551988777740745 0 -0.050746650418174076 -0.0045624062295412269 0 -0.061664242029991156 0.0013467975505268104 0 -0.061594216775584201 0.0014482955482755953 0 -0.061557204546766657 0.0013758726949931843 0 -0.056237847885993626 0.0044520215404222803 0 -0.0561420350328957 0.0050494642558388814 0 -0.057073978108200307 0.0047797254510527302 0 -0.050386705073943286 -0.0048478379851284378 0 -0.050953553814661032 -0.0045399038209353827 0 -0.061594216775584201 0.0014482955482755953 0 -0.061526148814275594 0.0014460369950809 0 -0.061512422684966254 0.0015958549314871923 0 -0.061594216775584201 0.0014482955482755953 0 -0.061557204546766657 0.0013758726949931843 0 -0.061526148814275594 0.0014460369950809 0 -0.061557204546766657 0.0013758726949931843 0 -0.061498635728257534 0.0013113098229934974 0 -0.061485634808870704 0.0013705957832960366 0 -0.061557204546766657 0.0013758726949931843 0 -0.061526148814275594 0.0014460369950809 0 -0.061485634808870704 0.0013705957832960366 0 -0.050953553814661032 -0.0045399038209353827 0 -0.052005127726510288 -0.0043677493071096795 0 -0.057061623263119469 0.004818378683067703 0 -0.05722347991699387 0.0045981844830019266 0 -0.058612935768949187 0.0042100972029184645 0 -0.050953553814661032 -0.0045399038209353827 0 -0.050953686163146834 -0.0045327712996688077 0 -0.05722347991699387 0.0045981844830019266 0 -0.057343829214789629 0.0040049590834146317 0 -0.058053743000578986 0.0036926430964634559 0 -0.061517356925843328 0.0011552745645524714 0 -0.061524957790404851 0.0011120022131646038 0 -0.061382324384757339 0.0011376932647254082 0 -0.061524957790404851 0.0011120022131646038 0 -0.06155966358699326 0.0010467018424022317 0 -0.061382324384757339 0.0011376932647254082 0 -0.061517356925843328 0.0011552745645524714 0 -0.061524957790404851 0.0011120022131646038 0 -0.06159383171083585 0.0011217411798147346 0 -0.061517356925843328 0.0011552745645524714 0 -0.06151829283807992 0.0012419460686811767 0 -0.061608460993316086 0.0012193373712057775 0 -0.061517356925843328 0.0011552745645524714 0 -0.061608460993316086 0.0012193373712057775 0 -0.06159383171083585 0.0011217411798147346 0 -0.061517356925843328 0.0011552745645524714 0 -0.06151829283807992 0.0012419460686811767 0 -0.061452993519663664 0.0011996177866076478 0 -0.06151829283807992 0.0012419460686811767 0 -0.061438126951791114 0.0012538735412018004 0 -0.061452993519663664 0.0011996177866076478 0 -0.06151829283807992 0.0012419460686811767 0 -0.061498635728257534 0.0013113098229934974 0 -0.061577473601625195 0.0012934352304190056 0 -0.06151829283807992 0.0012419460686811767 0 -0.061498635728257534 0.0013113098229934974 0 -0.061438126951791114 0.0012538735412018004 0 -0.061557204546766657 0.0013758726949931843 0 -0.061498635728257534 0.0013113098229934974 0 -0.061577473601625195 0.0012934352304190056 0 -0.06151829283807992 0.0012419460686811767 0 -0.061577473601625195 0.0012934352304190056 0 -0.061608460993316086 0.0012193373712057775 0 -0.061664242029991156 0.0013467975505268104 0 -0.061557204546766657 0.0013758726949931843 0 -0.061577473601625195 0.0012934352304190056 0 -0.061664242029991156 0.0013467975505268104 0 -0.061608460993316086 0.0012193373712057775 0 -0.061740285210518872 0.0012140715229503642 0 -0.050092448561679388 -0.0051785497592575641 0 -0.049776555991366357 -0.0052143520831128042 0 -0.061664242029991156 0.0013467975505268104 0 -0.061577473601625195 0.0012934352304190056 0 -0.061608460993316086 0.0012193373712057775 0 -0.061608460993316086 0.0012193373712057775 0 -0.061661217434347826 0.0011412698887132422 0 -0.061689782516196646 0.0011943810356190693 0 -0.061608460993316086 0.0012193373712057775 0 -0.06159383171083585 0.0011217411798147346 0 -0.061661217434347826 0.0011412698887132422 0 -0.06159383171083585 0.0011217411798147346 0 -0.061661217434347826 0.0011412698887132422 0 -0.061640270453443065 0.0010644687632123998 0 -0.049244980023882029 -0.0056605876913615721 0 -0.049007051615790831 -0.0073754992411069796 0 -0.061715817739956526 0.0011564486997163309 0 -0.061689168266203187 0.0011560491763190086 0 -0.06170295507488275 0.0010596113359953416 0 -0.061661217434347826 0.0011412698887132422 0 -0.061689168266203187 0.0011560491763190086 0 -0.06170295507488275 0.0010596113359953416 0 -0.049244980023882029 -0.0056605876913615721 0 -0.049391363995358394 -0.0053567933158239888 0 -0.048159632184962227 -0.0038480329733456341 0 -0.048821321961433538 -0.0046674204723777561 0 -0.048015879277867525 -0.0046387260893068077 0 -0.061715817739956526 0.0011564486997163309 0 -0.061689168266203187 0.0011560491763190086 0 -0.061694431866452008 0.0011791004108225322 0 -0.049244980023882029 -0.0056605876913615721 0 -0.049618712206947815 -0.0053138645935044389 0 -0.049857850046731038 -0.0051153614273393294 0 -0.049776555991366357 -0.0052143520831128042 0 -0.061661217434347826 0.0011412698887132422 0 -0.061689168266203187 0.0011560491763190086 0 -0.061683396134245998 0.0011789815092673507 0 -0.061689168266203187 0.0011560491763190086 0 -0.061694431866452008 0.0011791004108225322 0 -0.061683396134245998 0.0011789815092673507 0 -0.050236206359830483 -0.0041856283231109983 0 -0.049391363995358394 -0.0053567933158239888 0 -0.061664242029991156 0.0013467975505268104 0 -0.061740285210518872 0.0012140715229503642 0 -0.061748482015008835 0.0012280135263747494 0 -0.050236206359830483 -0.0041856283231109983 0 -0.049716179851541663 -0.0051946714544936542 0 -0.048646731429955889 -0.0038116031610941148 0 -0.049250533491399448 -0.0036785822708100876 0 -0.049280866116259814 -0.0027479069900755893 0 -0.049322909502834592 -0.005746884269159213 0 -0.049640493975396355 -0.005215270335484066 0 -0.049431164149367615 -0.0051508224104842154 0 -0.050265315256887426 -0.0074412984165667098 0 -0.048268706866482249 -0.007369999293862165 0 -0.049092386205499015 -0.0059875455620219181 0 -0.049618712206947815 -0.0053138645935044389 0 -0.049776555991366357 -0.0052143520831128042 0 -0.049618712206947815 -0.0053138645935044389 0 -0.049716179851541663 -0.0051946714544936542 0 -0.049776555991366357 -0.0052143520831128042 0 -0.049716179851541663 -0.0051946714544936542 0 -0.050386705073943286 -0.0048478379851284378 0 -0.049716179851541663 -0.0051946714544936542 0 -0.049250533491399448 -0.0036785822708100876 0 -0.050013966706137697 -0.0036551988777740745 0 -0.049280866116259814 -0.0027479069900755893 0 -0.049593151739357855 -0.0051566862000840099 0 -0.049640493975396355 -0.005215270335484066 0 -0.049431164149367615 -0.0051508224104842154 0 -0.049618712206947815 -0.0053138645935044389 0 -0.049391363995358394 -0.0053567933158239888 0 -0.049423404086201418 -0.0053794083801259754 0 -0.049700117170301532 -0.004914665534457463 0 -0.049240330134108425 -0.0044260657490893798 0 -0.04994949714082618 -0.0054330914773381761 0 -0.050126528258196988 -0.0044580276892691598 0 -0.049700117170301532 -0.004914665534457463 0 -0.049052985876793249 -0.0055471302423745796 0 -0.049423404086201418 -0.0053794083801259754 0 -0.049240330134108425 -0.0044260657490893798 0 -0.050126528258196988 -0.0044580276892691598 0 -0.049700117170301532 -0.004914665534457463 0 -0.049240330134108425 -0.0044260657490893798 0 -0.049940742408406819 -0.0035765689022839542 0 -0.04819704399954685 -0.0054569733964558104 0 -0.049423404086201418 -0.0053794083801259754 0 -0.04994949714082618 -0.0054330914773381761 0 -0.049700117170301532 -0.004914665534457463 0 -0.049391363995358394 -0.0053567933158239888 0 -0.04819704399954685 -0.0054569733964558104 0 -0.047685722677779256 -0.004659192697178704 0 -0.048095653331791312 -0.0045584309107634009 0 -0.048010665854918221 -0.0050644497106808913 0 -0.047685722677779256 -0.004659192697178704 0 -0.047706647603488757 -0.0045445282217349047 0 -0.048095653331791312 -0.0045584309107634009 0 -0.049244980023882029 -0.0056605876913615721 0 -0.048062430215135822 -0.006462096083731779 0 -0.04819704399954685 -0.0054569733964558104 0 -0.048062430215135822 -0.006462096083731779 0 -0.048062430215135822 -0.006462096083731779 0 -0.047809313880981572 -0.0063295664726795674 0 -0.025918258426724173 -0.0098663885837291694 0 -0.02577708800149257 -0.010014040371250284 0 -0.025862756698993475 -0.0099962038579672063 0 -0.048062430215135822 -0.006462096083731779 0 -0.047210086231351103 -0.0096176645559870825 0 -0.047828676867978308 -0.0083808968234103526 0 -0.048730009523174835 -0.0076037190806335876 0 -0.048036012155739639 -0.0071278459489182945 0 -0.025843099957734612 -0.009757838576814129 0 -0.025918258426724173 -0.0098663885837291694 0 -0.02577708800149257 -0.010014040371250284 0 -0.048633879606057515 -0.0093679801710355535 0 -0.047210086231351103 -0.0096176645559870825 0 -0.048633879606057515 -0.0093679801710355535 0 -0.048122992496013095 -0.011753412416386794 0 -0.048633879606057515 -0.0093679801710355535 0 -0.049007051615790831 -0.0073754992411069796 0 -0.047828676867978308 -0.0083808968234103526 0 -0.048730009523174835 -0.0076037190806335876 0 -0.048590767295490035 -0.0083756498693941528 0 -0.048451665161681083 -0.0091474441388128009 0 -0.047828676867978308 -0.0083808968234103526 0 -0.048590767295490035 -0.0083756498693941528 0 -0.061680633351373977 0.0009559236899131415 0 -0.06170295507488275 0.0010596113359953416 0 -0.061640270453443065 0.0010644687632123998 0 -0.061661217434347826 0.0011412698887132422 0 -0.06170295507488275 0.0010596113359953416 0 -0.061640270453443065 0.0010644687632123998 0 -0.061680633351373977 0.0009559236899131415 0 -0.061640270453443065 0.0010644687632123998 0 -0.06155966358699326 0.0010467018424022317 0 -0.06159383171083585 0.0011217411798147346 0 -0.061640270453443065 0.0010644687632123998 0 -0.06155966358699326 0.0010467018424022317 0 -0.063354835712894006 -0.00082904289321822171 0 -0.06335506562348342 -0.00094347423061495251 0 -0.063551924501826285 -0.0010216993388417134 0 -0.061316760962486887 0.00047525008256962034 0 -0.061906405380824356 0.00035653531390699285 0 -0.061885736919531129 0.00012665659153262727 0 -0.061316760962486887 0.00047525008256962034 0 -0.061906405380824356 0.00035653531390699285 0 -0.061369661964846049 0.00079134349687296184 0 -0.049915729034573669 -0.011113949600045688 0 -0.048122992496013095 -0.011753412416386794 0 -0.048633879606057515 -0.0093679801710355535 0 -0.050851978980655597 -0.0087817399179423283 0 -0.063354835712894006 -0.00082904289321822171 0 -0.06335506562348342 -0.00094347423061495251 0 -0.063269789273222424 -0.00085689438013549022 0 -0.06335506562348342 -0.00094347423061495251 0 -0.063269789273222424 -0.00085689438013549022 0 -0.063252339717658826 -0.00096091885582879765 0 -0.063354835712894006 -0.00082904289321822171 0 -0.063269789273222424 -0.00085689438013549022 0 -0.063229242406147301 -0.00075042518434787809 0 -0.061906405380824356 0.00035653531390699285 0 -0.061885736919531129 0.00012665659153262727 0 -0.062424754628882827 -1.657257312894445e-05 0 -0.050851978980655597 -0.0087817399179423283 0 -0.052299159102596325 -0.0083202783144360123 0 -0.049915729034573669 -0.011113949600045688 0 -0.050944463866072577 -0.010721633652508349 0 -0.063354835712894006 -0.00082904289321822171 0 -0.063163837441434806 -0.00057699000879962107 0 -0.063229242406147301 -0.00075042518434787809 0 -0.061524957790404851 0.0011120022131646038 0 -0.06159383171083585 0.0011217411798147346 0 -0.06155966358699326 0.0010467018424022317 0 -0.026181465403637697 -0.0096478323920429314 0 -0.026081022707537153 -0.0097259125107493401 0 -0.026160426710906702 -0.0097439669067689756 0 -0.043417683870236534 -0.0036844204336145374 0 -0.045529934200612077 -0.0045621553374814291 0 -0.026181465403637697 -0.0096478323920429314 0 -0.026160426710906702 -0.0097439669067689756 0 -0.026227721260642982 -0.0097122349708963027 0 -0.041558267918902783 -0.0027910822025185573 0 -0.043417683870236534 -0.0036844204336145374 0 -0.026275365915289957 -0.0096410745059885231 0 -0.026181465403637697 -0.0096478323920429314 0 -0.026227721260642982 -0.0097122349708963027 0 -0.056643880113910618 0.0017246326373147112 0 -0.056712781979440664 0.0011512916165343791 0 -0.055901894156498828 0.0013184943685638733 0 -0.057075937141333639 0.00062619826129289206 0 -0.056112542279125134 0.00065213543998512372 0 -0.056712781979440664 0.0011512916165343791 0 -0.056112542279125134 0.00065213543998512372 0 -0.056712781979440664 0.0011512916165343791 0 -0.055901894156498828 0.0013184943685638733 0 -0.056112542279125134 0.00065213543998512372 0 -0.055901894156498828 0.0013184943685638733 0 -0.055119263250455373 0.00066939264852195293 0 -0.055901894156498828 0.0013184943685638733 0 -0.055172958381059407 0.0012188659365381087 0 -0.055119263250455373 0.00066939264852195293 0 -0.055486177226692211 0.0016474388606740353 0 -0.055901894156498828 0.0013184943685638733 0 -0.055172958381059407 0.0012188659365381087 0 -0.055172958381059407 0.0012188659365381087 0 -0.05463905018344007 0.0010196946662682379 0 -0.055119263250455373 0.00066939264852195293 0 -0.054093383369374651 0.00069382568326755204 0 -0.05463905018344007 0.0010196946662682379 0 -0.055119263250455373 0.00066939264852195293 0 -0.054247794151100787 0.0016184279448669336 0 -0.054093383369374651 0.00069382568326755204 0 -0.05463905018344007 0.0010196946662682379 0 -0.054247794151100787 0.0016184279448669336 0 -0.055172958381059407 0.0012188659365381087 0 -0.05463905018344007 0.0010196946662682379 0 -0.04819704399954685 -0.0054569733964558104 0 -0.045529934200612077 -0.0045621553374814291 0 -0.025900806602749678 -0.0096305172273970958 0 -0.026050538126824889 -0.0096391151035976671 0 -0.025974525752889492 -0.0097396333320719144 0 -0.025900806602749678 -0.0096305172273970958 0 -0.02586659610917403 -0.0097775801024782092 0 -0.025974525752889492 -0.0097396333320719144 0 -0.026050538126824889 -0.0096391151035976671 0 -0.026081022707537153 -0.0097259125107493401 0 -0.025974525752889492 -0.0097396333320719144 0 -0.026181465403637697 -0.0096478323920429314 0 -0.026050538126824889 -0.0096391151035976671 0 -0.026081022707537153 -0.0097259125107493401 0 -0.026081022707537153 -0.0097259125107493401 0 -0.026027827277996123 -0.0098135411265250008 0 -0.025974525752889492 -0.0097396333320719144 0 -0.026081022707537153 -0.0097259125107493401 0 -0.026027827277996123 -0.0098135411265250008 0 -0.026102490705020583 -0.0098245750995167788 0 -0.026027827277996123 -0.0098135411265250008 0 -0.025974525752889492 -0.0097396333320719144 0 -0.025918258426724173 -0.0098663885837291694 0 -0.02586659610917403 -0.0097775801024782092 0 -0.025974525752889492 -0.0097396333320719144 0 -0.025918258426724173 -0.0098663885837291694 0 -0.026027827277996123 -0.0098135411265250008 0 -0.025918258426724173 -0.0098663885837291694 0 -0.02602009743390343 -0.0099136194834394033 0 -0.025918258426724173 -0.0098663885837291694 0 -0.02602009743390343 -0.0099136194834394033 0 -0.025938264169831186 -0.0099825201712310813 0 -0.025918258426724173 -0.0098663885837291694 0 -0.025938264169831186 -0.0099825201712310813 0 -0.025862756698993475 -0.0099962038579672063 0 -0.026102490705020583 -0.0098245750995167788 0 -0.02602009743390343 -0.0099136194834394033 0 -0.02613647676880456 -0.0099841935343166436 0 -0.026027827277996123 -0.0098135411265250008 0 -0.026102490705020583 -0.0098245750995167788 0 -0.02602009743390343 -0.0099136194834394033 0 -0.026102490705020583 -0.0098245750995167788 0 -0.026188277160003035 -0.0098264689065446342 0 -0.02613647676880456 -0.0099841935343166436 0 -0.026188277160003035 -0.0098264689065446342 0 -0.026228248397674889 -0.0099615092188919067 0 -0.02613647676880456 -0.0099841935343166436 0 -0.026102490705020583 -0.0098245750995167788 0 -0.026160426710906702 -0.0097439669067689756 0 -0.026188277160003035 -0.0098264689065446342 0 -0.026081022707537153 -0.0097259125107493401 0 -0.026102490705020583 -0.0098245750995167788 0 -0.026160426710906702 -0.0097439669067689756 0 -0.026160426710906702 -0.0097439669067689756 0 -0.026188277160003035 -0.0098264689065446342 0 -0.026227721260642982 -0.0097122349708963027 0 -0.026303923187904359 -0.0098959044241954085 0 -0.026188277160003035 -0.0098264689065446342 0 -0.026227721260642982 -0.0097122349708963027 0 -0.026303923187904359 -0.0098959044241954085 0 -0.026188277160003035 -0.0098264689065446342 0 -0.026228248397674889 -0.0099615092188919067 0 -0.026303923187904359 -0.0098959044241954085 0 -0.026228248397674889 -0.0099615092188919067 0 -0.026284784869546114 -0.010085860956987807 0 -0.026228248397674889 -0.0099615092188919067 0 -0.026284784869546114 -0.010085860956987807 0 -0.026197629077651139 -0.010154137923139264 0 -0.026284784869546114 -0.010085860956987807 0 -0.026197629077651139 -0.010154137923139264 0 -0.02625042629677737 -0.010210399483504939 0 -0.021824275925107568 -0.030043835042554964 0 -0.022092876250338404 -0.030664549777142017 0 -0.026228248397674889 -0.0099615092188919067 0 -0.026197629077651139 -0.010154137923139264 0 -0.02613647676880456 -0.0099841935343166436 0 -0.026197629077651139 -0.010154137923139264 0 -0.02613647676880456 -0.0099841935343166436 0 -0.026015033566750792 -0.010067939085941804 0 -0.02602009743390343 -0.0099136194834394033 0 -0.02613647676880456 -0.0099841935343166436 0 -0.026015033566750792 -0.010067939085941804 0 -0.02602009743390343 -0.0099136194834394033 0 -0.026015033566750792 -0.010067939085941804 0 -0.025938264169831186 -0.0099825201712310813 0 -0.025938264169831186 -0.0099825201712310813 0 -0.025886624572758445 -0.010063250806310655 0 -0.025862756698993475 -0.0099962038579672063 0 -0.026015033566750792 -0.010067939085941804 0 -0.025938264169831186 -0.0099825201712310813 0 -0.025886624572758445 -0.010063250806310655 0 -0.026015033566750792 -0.010067939085941804 0 -0.025886624572758445 -0.010063250806310655 0 -0.025895159346746868 -0.010166740541936121 0 -0.026015033566750792 -0.010067939085941804 0 -0.025895159346746868 -0.010166740541936121 0 -0.026045741543489109 -0.010243421515128649 0 -0.025895159346746868 -0.010166740541936121 0 -0.026045741543489109 -0.010243421515128649 0 -0.02594848976208813 -0.01042706161896125 0 -0.026197629077651139 -0.010154137923139264 0 -0.026045741543489109 -0.010243421515128649 0 -0.026180395830054791 -0.010505632057381005 0 -0.026197629077651139 -0.010154137923139264 0 -0.026015033566750792 -0.010067939085941804 0 -0.026045741543489109 -0.010243421515128649 0 -0.026045741543489109 -0.010243421515128649 0 -0.026180395830054791 -0.010505632057381005 0 -0.02594848976208813 -0.01042706161896125 0 -0.026180395830054791 -0.010505632057381005 0 -0.02594848976208813 -0.01042706161896125 0 -0.02590515492466432 -0.010666314485598714 0 -0.026180395830054791 -0.010505632057381005 0 -0.02590515492466432 -0.010666314485598714 0 -0.026095632929060995 -0.01083725033671834 0 -0.026180395830054791 -0.010505632057381005 0 -0.026356247282501806 -0.010737324238247204 0 -0.026095632929060995 -0.01083725033671834 0 -0.026180395830054791 -0.010505632057381005 0 -0.026448933332316193 -0.010407015370362155 0 -0.026356247282501806 -0.010737324238247204 0 -0.025091081761090477 -0.033829329977819421 0 -0.022932308958014663 -0.032571359397362866 0 -0.026448933332316193 -0.010407015370362155 0 -0.026356247282501806 -0.010737324238247204 0 -0.026649768319687336 -0.010631272035024095 0 -0.017122838901686525 -0.069579267193049327 0 -0.017356266891933626 -0.069677186251862255 0 -0.016917934613279905 -0.069809395564532625 0 -0.022092876250338404 -0.030664549777142017 0 -0.022932308958014663 -0.032571359397362866 0 -0.026197629077651139 -0.010154137923139264 0 -0.026180395830054791 -0.010505632057381005 0 -0.026448933332316193 -0.010407015370362155 0 -0.063299493712943675 -0.0012226809308358692 0 -0.063343738890961301 -0.0010603068011479175 0 -0.063424747205222232 -0.0011542216169795937 0 -0.063299493712943675 -0.0012226809308358692 0 -0.063343738890961301 -0.0010603068011479175 0 -0.063157477728787825 -0.0010984406994677242 0 -0.063252339717658826 -0.00096091885582879765 0 -0.063343738890961301 -0.0010603068011479175 0 -0.063157477728787825 -0.0010984406994677242 0 -0.06335506562348342 -0.00094347423061495251 0 -0.063252339717658826 -0.00096091885582879765 0 -0.063343738890961301 -0.0010603068011479175 0 -0.06335506562348342 -0.00094347423061495251 0 -0.063343738890961301 -0.0010603068011479175 0 -0.063551924501826285 -0.0010216993388417134 0 -0.063343738890961301 -0.0010603068011479175 0 -0.063424747205222232 -0.0011542216169795937 0 -0.063551924501826285 -0.0010216993388417134 0 -0.063424747205222232 -0.0011542216169795937 0 -0.063551924501826285 -0.0010216993388417134 0 -0.063506612199823523 -0.0013176837252928042 0 -0.063299493712943675 -0.0012226809308358692 0 -0.063424747205222232 -0.0011542216169795937 0 -0.063506612199823523 -0.0013176837252928042 0 -0.048122992496013095 -0.011753412416386794 0 -0.047985688344948124 -0.016013172734319094 0 -0.045220964327064482 -0.013421520683295435 0 -0.048571389110776707 -0.016344920219118649 0 -0.044108536897517911 -0.019521939140009364 0 -0.049177590231222063 -0.010930765647290501 0 -0.0440710658742786 -0.011700456107360561 0 -0.044830738072090016 -0.0071501164503076633 0 -0.048486310407990237 -0.014739691163947143 0 -0.049177590231222063 -0.010930765647290501 0 -0.0440710658742786 -0.011700456107360561 0 -0.048122992496013095 -0.011753412416386794 0 -0.045870668899254785 -0.012421974332883404 0 -0.047210086231351103 -0.0096176645559870825 0 -0.045870668899254785 -0.012421974332883404 0 -0.025772221832482099 -0.010013421256491477 0 -0.025808497380129403 -0.010111486951030875 0 -0.025727439497284805 -0.01017668247986632 0 -0.025772221832482099 -0.010013421256491477 0 -0.025800857666483348 -0.010034722227536883 0 -0.025808497380129403 -0.010111486951030875 0 -0.047210086231351103 -0.0096176645559870825 0 -0.047187429473983744 -0.0096073941175654001 0 -0.02577708800149257 -0.010014040371250284 0 -0.025862756698993475 -0.0099962038579672063 0 -0.025800857666483348 -0.010034722227536883 0 -0.025886624572758445 -0.010063250806310655 0 -0.025862756698993475 -0.0099962038579672063 0 -0.025800857666483348 -0.010034722227536883 0 -0.025886624572758445 -0.010063250806310655 0 -0.025895159346746868 -0.010166740541936121 0 -0.025808497380129403 -0.010111486951030875 0 -0.025886624572758445 -0.010063250806310655 0 -0.025800857666483348 -0.010034722227536883 0 -0.025808497380129403 -0.010111486951030875 0 -0.025895159346746868 -0.010166740541936121 0 -0.025808497380129403 -0.010111486951030875 0 -0.025727439497284805 -0.01017668247986632 0 -0.045870668899254785 -0.012421974332883404 0 -0.042627011691395218 -0.019410262265810531 0 -0.025895159346746868 -0.010166740541936121 0 -0.02594848976208813 -0.01042706161896125 0 -0.025727439497284805 -0.01017668247986632 0 -0.044694688688307213 -0.011725926722129406 0 -0.045870668899254785 -0.012421974332883404 0 -0.02594848976208813 -0.01042706161896125 0 -0.02590515492466432 -0.010666314485598714 0 -0.025705369036136017 -0.010501894014904254 0 -0.02594848976208813 -0.01042706161896125 0 -0.025762961382606968 -0.010275371374589485 0 -0.025705369036136017 -0.010501894014904254 0 -0.02590515492466432 -0.010666314485598714 0 -0.025705369036136017 -0.010501894014904254 0 -0.025654927842999917 -0.010784895455205603 0 -0.042627011691395218 -0.019410262265810531 0 -0.039530710229839651 -0.026707553771127591 0 -0.045653337709629115 -0.023999027208264887 0 -0.047672530666655527 -0.021726383751443968 0 -0.046778145816821139 -0.027115864882336423 0 -0.045653337709629115 -0.023999027208264887 0 -0.04299723356391498 -0.025639865705749509 0 -0.046778145816821139 -0.027115864882336423 0 -0.048571389110776707 -0.016344920219118649 0 -0.047672530666655527 -0.021726383751443968 0 -0.044108536897517911 -0.019521939140009364 0 -0.045653337709629115 -0.023999027208264887 0 -0.047672530666655527 -0.021726383751443968 0 -0.044108536897517911 -0.019521939140009364 0 -0.063299493712943675 -0.0012226809308358692 0 -0.063506612199823523 -0.0013176837252928042 0 -0.063345974995662357 -0.0014432420592564884 0 -0.063506612199823523 -0.0013176837252928042 0 -0.063433448354109884 -0.0016357372513388206 0 -0.063345974995662357 -0.0014432420592564884 0 -0.045653337709629115 -0.023999027208264887 0 -0.044108536897517911 -0.019521939140009364 0 -0.04299723356391498 -0.025639865705749509 0 -0.047985688344948124 -0.016013172734319094 0 -0.047473628740118713 -0.021283751861466377 0 -0.063433448354109884 -0.0016357372513388206 0 -0.063265750661051667 -0.0017342415340797033 0 -0.06317539775976308 -0.0015379897093670354 0 -0.063433448354109884 -0.0016357372513388206 0 -0.063345974995662357 -0.0014432420592564884 0 -0.06317539775976308 -0.0015379897093670354 0 -0.063195550283058149 -0.0015382090045046391 0 -0.063187299821846024 -0.0015572122004731464 0 -0.063299493712943675 -0.0012226809308358692 0 -0.063345974995662357 -0.0014432420592564884 0 -0.06317539775976308 -0.0015379897093670354 0 -0.063265750661051667 -0.0017342415340797033 0 -0.063361645023783011 -0.0018718217099176248 0 -0.063200890102944232 -0.0019384480181661127 0 -0.04299723356391498 -0.025639865705749509 0 -0.044575281782373764 -0.028535772205482354 0 -0.043412169867230233 -0.030966593268759886 0 -0.063433448354109884 -0.0016357372513388206 0 -0.063265750661051667 -0.0017342415340797033 0 -0.063361645023783011 -0.0018718217099176248 0 -0.047473628740118713 -0.021283751861466377 0 -0.046544808605244174 -0.027894732433941669 0 -0.04299723356391498 -0.025639865705749509 0 -0.043412169867230233 -0.030966593268759886 0 -0.041910816600935534 -0.031746979732890743 0 -0.044575281782373764 -0.028535772205482354 0 -0.043412169867230233 -0.030966593268759886 0 -0.042565253932838304 -0.033844678737247127 0 -0.044575281782373764 -0.028535772205482354 0 -0.045880948764622308 -0.032545277604897463 0 -0.042497530507947495 -0.033911982691643437 0 -0.042271673293753337 -0.033766874697980988 0 -0.042175128185265302 -0.034004540735846064 0 -0.046520931564687611 -0.027909240960153684 0 -0.046544808605244174 -0.027894732433941669 0 -0.043412169867230233 -0.030966593268759886 0 -0.041923582181844839 -0.031748558785310604 0 -0.042565253932838304 -0.033844678737247127 0 -0.025617591283049565 -0.01107347399062112 0 -0.025654927842999917 -0.010784895455205603 0 -0.025859675494693282 -0.010949600711271231 0 -0.036426085941723349 -0.034900069067133138 0 -0.039530710229839651 -0.026707553771127591 0 -0.044575281782373764 -0.028535772205482354 0 -0.045880948764622308 -0.032545277604897463 0 -0.046778145816821139 -0.027115864882336423 0 -0.04299723356391498 -0.025639865705749509 0 -0.044575281782373764 -0.028535772205482354 0 -0.046778145816821139 -0.027115864882336423 0 -0.02590515492466432 -0.010666314485598714 0 -0.025654927842999917 -0.010784895455205603 0 -0.025859675494693282 -0.010949600711271231 0 -0.036426085941723349 -0.034900069067133138 0 -0.03149131147783496 -0.035071855589202526 0 -0.018876369776695535 -0.069251523479711419 0 -0.018347187378594882 -0.069424806256162278 0 -0.018328070937596176 -0.069118087557751076 0 -0.018876369776695535 -0.069251523479711419 0 -0.018328070937596176 -0.069118087557751076 0 -0.018567209639331873 -0.068908398469226931 0 -0.018328070937596176 -0.069118087557751076 0 -0.018567209639331873 -0.068908398469226931 0 -0.01815829543326412 -0.068839306021815011 0 -0.018567209639331873 -0.068908398469226931 0 -0.018688330492277291 -0.06865198383085229 0 -0.018403270421418212 -0.068595646623517303 0 -0.018567209639331873 -0.068908398469226931 0 -0.01815829543326412 -0.068839306021815011 0 -0.018403270421418212 -0.068595646623517303 0 -0.018567209639331873 -0.068908398469226931 0 -0.018688330492277291 -0.06865198383085229 0 -0.019005023457687283 -0.068749230267899475 0 -0.018876369776695535 -0.069251523479711419 0 -0.018567209639331873 -0.068908398469226931 0 -0.019005023457687283 -0.068749230267899475 0 -0.036426085941723349 -0.034900069067133138 0 -0.033816593746418065 -0.043727163467289061 0 -0.044179591504507065 -0.029127754401630353 0 -0.046063426055560991 -0.028368186584775971 0 -0.042767507412600547 -0.036951904082809461 0 -0.022130403990825023 -0.058884524175131014 0 -0.021684480604358077 -0.061400870782204721 0 -0.020684883581166571 -0.059483960708708122 0 -0.036426085941723349 -0.034900069067133138 0 -0.042175128185265302 -0.034004540735846064 0 -0.041923582181844839 -0.031748558785310604 0 -0.041471594015480166 -0.034287722765967074 0 -0.042565253932838304 -0.033844678737247127 0 -0.046544808605244174 -0.027894732433941669 0 -0.044426671901461892 -0.032898983179009737 0 -0.044426671901461892 -0.032898983179009737 0 -0.042175128185265302 -0.034004540735846064 0 -0.042175128185265302 -0.034004540735846064 0 -0.043200546912614768 -0.036621764321388382 0 -0.021684480604358077 -0.061400870782204721 0 -0.020684883581166571 -0.059483960708708122 0 -0.019899733261510344 -0.061669863999065058 0 -0.044426671901461892 -0.032898983179009737 0 -0.043200546912614768 -0.036621764321388382 0 -0.05973761514984572 -0.038619432487521616 0 -0.059655393911556796 -0.039149145019040973 0 -0.059178075412194567 -0.038852275912588177 0 -0.044426671901461892 -0.032898983179009737 0 -0.047448044646811967 -0.03173428033682462 0 -0.046544808605244174 -0.027894732433941669 0 -0.049894808811981196 -0.026817438855531707 0 -0.04391217404970691 -0.032853592768179604 0 -0.044177123717792859 -0.031419248371805292 0 -0.046804890897532446 -0.031371612328966521 0 -0.044177123717792859 -0.031419248371805292 0 -0.046804890897532446 -0.031371612328966521 0 -0.047002368759408539 -0.030301401756929084 0 -0.017562705259638565 -0.069363263273580805 0 -0.017266888362852249 -0.069332949802479893 0 -0.01744465278924431 -0.069106712267485271 0 -0.017266888362852249 -0.069332949802479893 0 -0.017148493166862736 -0.068984181862321206 0 -0.016923810198404516 -0.069226360387307201 0 -0.017266888362852249 -0.069332949802479893 0 -0.017122838901686525 -0.069579267193049327 0 -0.016923810198404516 -0.069226360387307201 0 -0.017266888362852249 -0.069332949802479893 0 -0.017122838901686525 -0.069579267193049327 0 -0.017356266891933626 -0.069677186251862255 0 -0.025091081761090477 -0.033829329977819421 0 -0.02784876442986969 -0.034680136633237373 0 -0.017562705259638565 -0.069363263273580805 0 -0.017266888362852249 -0.069332949802479893 0 -0.017356266891933626 -0.069677186251862255 0 -0.017562705259638565 -0.069363263273580805 0 -0.017356266891933626 -0.069677186251862255 0 -0.017829292903002013 -0.069559359220351127 0 -0.03149131147783496 -0.035071855589202526 0 -0.02784876442986969 -0.034680136633237373 0 -0.02590515492466432 -0.010666314485598714 0 -0.025859675494693282 -0.010949600711271231 0 -0.026095632929060995 -0.01083725033671834 0 -0.018347187378594882 -0.069424806256162278 0 -0.017829292903002013 -0.069559359220351127 0 -0.017907704712777826 -0.069127001611907601 0 -0.018347187378594882 -0.069424806256162278 0 -0.018328070937596176 -0.069118087557751076 0 -0.017907704712777826 -0.069127001611907601 0 -0.017562705259638565 -0.069363263273580805 0 -0.017829292903002013 -0.069559359220351127 0 -0.017907704712777826 -0.069127001611907601 0 -0.017562705259638565 -0.069363263273580805 0 -0.017907704712777826 -0.069127001611907601 0 -0.01744465278924431 -0.069106712267485271 0 -0.018328070937596176 -0.069118087557751076 0 -0.017907704712777826 -0.069127001611907601 0 -0.01815829543326412 -0.068839306021815011 0 -0.01815829543326412 -0.068839306021815011 0 -0.017778708483639948 -0.068723405669495793 0 -0.018024583983609302 -0.068529626946977701 0 -0.01815829543326412 -0.068839306021815011 0 -0.018024583983609302 -0.068529626946977701 0 -0.018403270421418212 -0.068595646623517303 0 -0.017907704712777826 -0.069127001611907601 0 -0.01815829543326412 -0.068839306021815011 0 -0.017778708483639948 -0.068723405669495793 0 -0.017907704712777826 -0.069127001611907601 0 -0.017778708483639948 -0.068723405669495793 0 -0.017448545459408823 -0.068800348689088298 0 -0.017448545459408823 -0.068800348689088298 0 -0.017157925856016921 -0.06862195347004342 0 -0.01744484265284086 -0.068543068074921151 0 -0.017778708483639948 -0.068723405669495793 0 -0.017448545459408823 -0.068800348689088298 0 -0.01744484265284086 -0.068543068074921151 0 -0.017448545459408823 -0.068800348689088298 0 -0.01744465278924431 -0.069106712267485271 0 -0.017148493166862736 -0.068984181862321206 0 -0.017907704712777826 -0.069127001611907601 0 -0.017448545459408823 -0.068800348689088298 0 -0.01744465278924431 -0.069106712267485271 0 -0.017266888362852249 -0.069332949802479893 0 -0.01744465278924431 -0.069106712267485271 0 -0.017148493166862736 -0.068984181862321206 0 -0.017148493166862736 -0.068984181862321206 0 -0.017157925856016921 -0.06862195347004342 0 -0.016796381881013706 -0.068827091198487844 0 -0.017448545459408823 -0.068800348689088298 0 -0.017148493166862736 -0.068984181862321206 0 -0.017157925856016921 -0.06862195347004342 0 -0.017157925856016921 -0.06862195347004342 0 -0.016850463865961587 -0.068566138649095665 0 -0.016796381881013706 -0.068827091198487844 0 -0.016796381881013706 -0.068827091198487844 0 -0.016553695401447108 -0.068863294394228391 0 -0.01644809835758099 -0.068536099242420309 0 -0.016850463865961587 -0.068566138649095665 0 -0.016796381881013706 -0.068827091198487844 0 -0.01644809835758099 -0.068536099242420309 0 -0.016553695401447108 -0.068863294394228391 0 -0.016627930446087222 -0.069085672491230085 0 -0.016342213862960558 -0.069001957669278163 0 -0.016796381881013706 -0.068827091198487844 0 -0.016553695401447108 -0.068863294394228391 0 -0.016627930446087222 -0.069085672491230085 0 -0.016796381881013706 -0.068827091198487844 0 -0.016627930446087222 -0.069085672491230085 0 -0.016923810198404516 -0.069226360387307201 0 -0.017148493166862736 -0.068984181862321206 0 -0.016796381881013706 -0.068827091198487844 0 -0.016923810198404516 -0.069226360387307201 0 -0.016627930446087222 -0.069085672491230085 0 -0.016923810198404516 -0.069226360387307201 0 -0.016684846578816425 -0.069300939177805651 0 -0.016923810198404516 -0.069226360387307201 0 -0.016684846578816425 -0.069300939177805651 0 -0.016856391741607218 -0.06942707280610215 0 -0.016627930446087222 -0.069085672491230085 0 -0.016465124141017681 -0.069213465403639457 0 -0.016342213862960558 -0.069001957669278163 0 -0.016627930446087222 -0.069085672491230085 0 -0.016684846578816425 -0.069300939177805651 0 -0.016465124141017681 -0.069213465403639457 0 -0.016537888709922836 -0.069401729473093018 0 -0.016439850432757041 -0.069385363090578023 0 -0.016465124141017681 -0.069213465403639457 0 -0.016684846578816425 -0.069300939177805651 0 -0.016537888709922836 -0.069401729473093018 0 -0.016465124141017681 -0.069213465403639457 0 -0.016714441495592414 -0.069460973256675163 0 -0.016537888709922836 -0.069401729473093018 0 -0.016747470659000691 -0.069643482831978867 0 -0.016684846578816425 -0.069300939177805651 0 -0.016714441495592414 -0.069460973256675163 0 -0.016537888709922836 -0.069401729473093018 0 -0.016537888709922836 -0.069401729473093018 0 -0.016492466752698449 -0.06948311172215417 0 -0.016439850432757041 -0.069385363090578023 0 -0.020945139275930752 -0.029435375943228884 0 -0.023199241863595524 -0.030109355824927634 0 -0.021817490005143735 -0.030917823442187319 0 -0.016537888709922836 -0.069401729473093018 0 -0.016492466752698449 -0.06948311172215417 0 -0.016650686521505281 -0.069503413491374275 0 -0.023087819598419004 -0.035715287379640817 0 -0.022855822271502492 -0.035205129819515867 0 -0.022469639591269318 -0.03596511973048272 0 -0.022855822271502492 -0.035205129819515867 0 -0.016714441495592414 -0.069460973256675163 0 -0.016864696145239579 -0.069575443313615301 0 -0.016747470659000691 -0.069643482831978867 0 -0.016864696145239579 -0.069575443313615301 0 -0.016747470659000691 -0.069643482831978867 0 -0.01691888286979662 -0.06969315278267306 0 -0.017122838901686525 -0.069579267193049327 0 -0.016923810198404516 -0.069226360387307201 0 -0.016856391741607218 -0.06942707280610215 0 -0.017122838901686525 -0.069579267193049327 0 -0.016864696145239579 -0.069575443313615301 0 -0.01691888286979662 -0.06969315278267306 0 -0.017122838901686525 -0.069579267193049327 0 -0.016864696145239579 -0.069575443313615301 0 -0.016856391741607218 -0.06942707280610215 0 -0.016684846578816425 -0.069300939177805651 0 -0.016714441495592414 -0.069460973256675163 0 -0.016856391741607218 -0.06942707280610215 0 -0.016714441495592414 -0.069460973256675163 0 -0.016864696145239579 -0.069575443313615301 0 -0.016856391741607218 -0.06942707280610215 0 -0.023177026024159858 -0.035469425323773882 0 -0.022614602958818786 -0.035300163694884625 0 -0.023083470372833585 -0.034736490389760212 0 -0.021136034511540509 -0.034454881629176017 0 -0.021559121748244731 -0.032195282350822238 0 -0.022119639661662031 -0.036563833013792124 0 -0.022122431492618388 -0.033231164722962767 0 -0.021136034511540509 -0.034454881629176017 0 -0.022119639661662031 -0.036563833013792124 0 -0.022469639591269318 -0.03596511973048272 0 -0.022119639661662031 -0.036563833013792124 0 -0.020945139275930752 -0.029435375943228884 0 -0.018692079418972524 -0.028761678415009567 0 -0.019888519407174031 -0.030667140764178147 0 -0.016492466752698449 -0.06948311172215417 0 -0.016439850432757041 -0.069385363090578023 0 -0.016257835513196827 -0.069428231876682775 0 -0.022119639661662031 -0.036563833013792124 0 -0.019681167027687511 -0.045595486828947124 0 -0.016257835513196827 -0.069428231876682775 0 -0.016465124141017681 -0.069213465403639457 0 -0.016342213862960558 -0.069001957669278163 0 -0.016974027135654615 -0.039889926699919032 0 -0.018280530896415393 -0.043119342150157627 0 -0.0158324016595916 -0.044588003835330715 0 -0.016439850432757041 -0.069385363090578023 0 -0.016257835513196827 -0.069428231876682775 0 -0.016465124141017681 -0.069213465403639457 0 -0.019892586777711919 -0.040767953222572997 0 -0.018280530896415393 -0.043119342150157627 0 -0.020442898518031129 -0.044962517257937401 0 -0.019892586777711919 -0.040767953222572997 0 -0.016974027135654615 -0.039889926699919032 0 -0.018280530896415393 -0.043119342150157627 0 -0.018280530896415393 -0.043119342150157627 0 -0.0158324016595916 -0.044588003835330715 0 -0.018671992822261396 -0.046619455777110262 0 -0.018280530896415393 -0.043119342150157627 0 -0.018671992822261396 -0.046619455777110262 0 -0.020442898518031129 -0.044962517257937401 0 -0.018671992822261396 -0.046619455777110262 0 -0.02083747054756557 -0.047268042091193403 0 -0.020442898518031129 -0.044962517257937401 0 -0.019681167027687511 -0.045595486828947124 0 -0.01770315004010628 -0.052864548963531398 0 -0.0158324016595916 -0.044588003835330715 0 -0.018671992822261396 -0.046619455777110262 0 -0.014708844223493903 -0.049267547970704879 0 -0.016553695401447108 -0.068863294394228391 0 -0.016342213862960558 -0.069001957669278163 0 -0.01644809835758099 -0.068536099242420309 0 -0.017815878764915052 -0.052685973337800784 0 -0.01770315004010628 -0.052864548963531398 0 -0.018671992822261396 -0.046619455777110262 0 -0.018115876644089316 -0.049677408584364431 0 -0.014648944318510214 -0.049355429105457232 0 -0.02083747054756557 -0.047268042091193403 0 -0.020892549172139278 -0.049923887448959675 0 -0.018115876644089316 -0.049677408584364431 0 -0.018671992822261396 -0.046619455777110262 0 -0.02083747054756557 -0.047268042091193403 0 -0.018115876644089316 -0.049677408584364431 0 -0.016992358147037548 -0.033910493228239649 0 -0.016488711228990569 -0.035305310511249334 0 -0.02083747054756557 -0.047268042091193403 0 -0.023256793145878852 -0.046818453893638257 0 -0.020892549172139278 -0.049923887448959675 0 -0.02083747054756557 -0.047268042091193403 0 -0.023256793145878852 -0.046818453893638257 0 -0.021802908837457068 -0.04582587967659163 0 -0.022856452439879084 -0.047188158201127949 0 -0.024006923451146515 -0.049874496377690938 0 -0.020673561748675316 -0.050103998502271929 0 -0.022856452439879084 -0.047188158201127949 0 -0.026133406401143811 -0.048034039218544593 0 -0.024006923451146515 -0.049874496377690938 0 -0.016992358147037548 -0.033910493228239649 0 -0.017647903513790104 -0.031809255151912061 0 -0.023256793145878852 -0.046818453893638257 0 -0.024001179373947513 -0.044012647521179872 0 -0.022679742451061826 -0.044248024933556708 0 -0.023256793145878852 -0.046818453893638257 0 -0.024001179373947513 -0.044012647521179872 0 -0.025633588293848566 -0.04368582138456982 0 -0.022856452439879084 -0.047188158201127949 0 -0.026133406401143811 -0.048034039218544593 0 -0.025054045313823783 -0.044268507987373418 0 -0.024001179373947513 -0.044012647521179872 0 -0.022679742451061826 -0.044248024933556708 0 -0.023497235808385929 -0.042915805504777749 0 -0.022679742451061826 -0.044248024933556708 0 -0.020442898518031129 -0.044962517257937401 0 -0.021806799277591032 -0.042833122715635219 0 -0.02083747054756557 -0.047268042091193403 0 -0.020442898518031129 -0.044962517257937401 0 -0.021802908837457068 -0.04582587967659163 0 -0.023256793145878852 -0.046818453893638257 0 -0.022679742451061826 -0.044248024933556708 0 -0.021802908837457068 -0.04582587967659163 0 -0.022679742451061826 -0.044248024933556708 0 -0.020442898518031129 -0.044962517257937401 0 -0.021802908837457068 -0.04582587967659163 0 -0.012955737137931096 -0.0097334926792684937 0 -0.012772098432334849 -0.0098067377921106404 0 -0.012872889803431703 -0.00968164222897459 0 -0.012955737137931096 -0.0097334926792684937 0 -0.012903125929119701 -0.009865181157973503 0 -0.012772098432334849 -0.0098067377921106404 0 -0.012955737137931096 -0.0097334926792684937 0 -0.012978589779715381 -0.0098052011249222734 0 -0.013030950806436464 -0.0097721422677697258 0 -0.012955737137931096 -0.0097334926792684937 0 -0.012978589779715381 -0.0098052011249222734 0 -0.012903125929119701 -0.009865181157973503 0 -0.012978589779715381 -0.0098052011249222734 0 -0.012903125929119701 -0.009865181157973503 0 -0.013025365817656287 -0.0098507555755799822 0 -0.01281834951666576 -0.0096429610916096489 0 -0.01299377016756551 -0.0096061839024036092 0 -0.012766958114828674 -0.0095601062265205095 0 -0.015346947913644413 -0.032710155874814087 0 -0.017647903513790104 -0.031809255151912061 0 -0.012772098432334849 -0.0098067377921106404 0 -0.012728542835938574 -0.0096111914160048884 0 -0.01281834951666576 -0.0096429610916096489 0 -0.012772098432334849 -0.0098067377921106404 0 -0.01281834951666576 -0.0096429610916096489 0 -0.012872889803431703 -0.00968164222897459 0 -0.012728542835938574 -0.0096111914160048884 0 -0.01281834951666576 -0.0096429610916096489 0 -0.012766958114828674 -0.0095601062265205095 0 -0.01281834951666576 -0.0096429610916096489 0 -0.012872889803431703 -0.00968164222897459 0 -0.01299377016756551 -0.0096061839024036092 0 -0.012955737137931096 -0.0097334926792684937 0 -0.012872889803431703 -0.00968164222897459 0 -0.01299377016756551 -0.0096061839024036092 0 -0.01653861341895764 -0.028588229386287481 0 -0.017830027353450725 -0.031333162948574182 0 -0.026131178488967483 -0.015320940235173592 0 -0.027550292288035225 -0.016697178162694861 0 -0.030052804612849576 -0.016517220427513205 0 -0.026333517031006823 -0.017119231255808196 0 -0.027550292288035225 -0.016697178162694861 0 -0.027032289377882192 -0.018609536042040763 0 -0.026333517031006823 -0.017119231255808196 0 -0.027032289377882192 -0.018609536042040763 0 -0.025167732540018924 -0.018213005890531885 0 -0.026131178488967483 -0.015320940235173592 0 -0.026352953642770429 -0.016282282828528862 0 -0.027550292288035225 -0.016697178162694861 0 -0.026333517031006823 -0.017119231255808196 0 -0.026352953642770429 -0.016282282828528862 0 -0.025399955526885117 -0.01599385646486846 0 -0.026333517031006823 -0.017119231255808196 0 -0.026352953642770429 -0.016282282828528862 0 -0.027550292288035225 -0.016697178162694861 0 -0.026131178488967483 -0.015320940235173592 0 -0.026352953642770429 -0.016282282828528862 0 -0.025399955526885117 -0.01599385646486846 0 -0.027550292288035225 -0.016697178162694861 0 -0.029398744574192948 -0.017378980914609113 0 -0.027032289377882192 -0.018609536042040763 0 -0.018003949217175481 -0.031220901021844077 0 -0.017508823511742121 -0.030892061569398173 0 -0.027550292288035225 -0.016697178162694861 0 -0.029398744574192948 -0.017378980914609113 0 -0.030052804612849576 -0.016517220427513205 0 -0.018340358686115756 -0.031752894070210654 0 -0.017534522376666618 -0.032817819155463342 0 -0.016739971361300288 -0.032579732806665263 0 -0.016799239511983605 -0.029955980304730269 0 -0.016995504331334434 -0.02969661840034123 0 -0.016815765366677421 -0.029642839262567038 0 -0.017647903513790104 -0.031809255151912061 0 -0.017830027353450725 -0.031333162948574182 0 -0.017830027353450725 -0.031333162948574182 0 -0.018083848741303914 -0.031587203435369443 0 -0.017597205105019366 -0.03019285669754946 0 -0.017540305223975792 -0.0302229390992498 0 -0.017561101364136637 -0.030146428394141046 0 -0.017540305223975792 -0.0302229390992498 0 -0.017561101364136637 -0.030146428394141046 0 -0.017522046984142583 -0.030217515715370822 0 -0.018003949217175481 -0.031220901021844077 0 -0.018083848741303914 -0.031587203435369443 0 -0.018003949217175481 -0.031220901021844077 0 -0.017830027353450725 -0.031333162948574182 0 -0.017561101364136637 -0.030146428394141046 0 -0.01748291112116028 -0.030082634510311436 0 -0.01759197685628559 -0.030055643139522296 0 -0.017561101364136637 -0.030146428394141046 0 -0.017631432342011123 -0.030107194243701233 0 -0.01759197685628559 -0.030055643139522296 0 -0.017631432342011123 -0.030107194243701233 0 -0.017644478930824471 -0.030055136412603531 0 -0.01759197685628559 -0.030055643139522296 0 -0.017597205105019366 -0.03019285669754946 0 -0.017561101364136637 -0.030146428394141046 0 -0.017631432342011123 -0.030107194243701233 0 -0.017597205105019366 -0.03019285669754946 0 -0.017631432342011123 -0.030107194243701233 0 -0.017703459617571228 -0.030050812322321919 0 -0.018003949217175481 -0.031220901021844077 0 -0.018018407174260891 -0.031174551787787698 0 -0.017552132210097285 -0.030250984632095027 0 -0.017706457163117972 -0.030076486786689352 0 -0.017697413299144774 -0.030175538204618158 0 -0.017552132210097285 -0.030250984632095027 0 -0.017706457163117972 -0.030076486786689352 0 -0.017703459617571228 -0.030050812322321919 0 -0.017631432342011123 -0.030107194243701233 0 -0.017663348168616519 -0.030062018379295119 0 -0.017703459617571228 -0.030050812322321919 0 -0.017631432342011123 -0.030107194243701233 0 -0.017663348168616519 -0.030062018379295119 0 -0.017644478930824471 -0.030055136412603531 0 -0.017706457163117972 -0.030076486786689352 0 -0.017697413299144774 -0.030175538204618158 0 -0.017843075025580031 -0.030101060085356526 0 -0.019857380672737429 -0.040609898537795931 0 -0.020442898518031129 -0.044962517257937401 0 -0.021806799277591032 -0.042833122715635219 0 -0.021136034511540509 -0.034454881629176017 0 -0.021171782161153344 -0.03495524173023995 0 -0.019857380672737429 -0.040609898537795931 0 -0.022545170765812101 -0.041421599687263763 0 -0.021806799277591032 -0.042833122715635219 0 -0.021136034511540509 -0.034454881629176017 0 -0.019773017730938418 -0.03314669268559766 0 -0.022545170765812101 -0.041421599687263763 0 -0.021806799277591032 -0.042833122715635219 0 -0.023497235808385929 -0.042915805504777749 0 -0.022679742451061826 -0.044248024933556708 0 -0.021806799277591032 -0.042833122715635219 0 -0.023497235808385929 -0.042915805504777749 0 -0.022545170765812101 -0.041421599687263763 0 -0.023497235808385929 -0.042915805504777749 0 -0.025215109199456534 -0.042225831745153708 0 -0.020883944755975929 -0.033104941730216282 0 -0.021536783416505046 -0.033301713910314688 0 -0.021288125924205755 -0.032426254326335072 0 -0.023497235808385929 -0.042915805504777749 0 -0.025215109199456534 -0.042225831745153708 0 -0.02531464045867407 -0.042572825392274652 0 -0.024001179373947513 -0.044012647521179872 0 -0.023497235808385929 -0.042915805504777749 0 -0.02531464045867407 -0.042572825392274652 0 -0.024001179373947513 -0.044012647521179872 0 -0.025633588293848566 -0.04368582138456982 0 -0.02531464045867407 -0.042572825392274652 0 -0.016799239511983605 -0.029955980304730269 0 -0.016815765366677421 -0.029642839262567038 0 -0.016723184549198029 -0.029690746363917518 0 -0.017647903513790104 -0.031809255151912061 0 -0.018103728477144813 -0.031668019399806673 0 -0.018280555693364165 -0.031757036690455771 0 -0.018103728477144813 -0.031668019399806673 0 -0.020526754548202499 -0.029568411610158829 0 -0.015341746632410724 -0.028013649255165654 0 -0.016402221416661724 -0.031697420374931652 0 -0.018083848741303914 -0.031587203435369443 0 -0.018280555693364165 -0.031757036690455771 0 -0.018083848741303914 -0.031587203435369443 0 -0.018103728477144813 -0.031668019399806673 0 -0.019773017730938418 -0.03314669268559766 0 -0.018280555693364165 -0.031757036690455771 0 -0.020883944755975929 -0.033104941730216282 0 -0.021288125924205755 -0.032426254326335072 0 -0.020709691868219422 -0.03238871586092474 0 -0.018280555693364165 -0.031757036690455771 0 -0.01903771121112597 -0.030860443157632946 0 -0.017561101364136637 -0.030146428394141046 0 -0.017522046984142583 -0.030217515715370822 0 -0.01748291112116028 -0.030082634510311436 0 -0.020231039662492067 -0.032908084782039403 0 -0.020883944755975929 -0.033104941730216282 0 -0.020709691868219422 -0.03238871586092474 0 -0.020231039662492067 -0.032908084782039403 0 -0.020709691868219422 -0.03238871586092474 0 -0.020106980946980924 -0.031953672291248542 0 -0.020709691868219422 -0.03238871586092474 0 -0.021038269978930255 -0.031550336767386868 0 -0.020106980946980924 -0.031953672291248542 0 -0.01748291112116028 -0.030082634510311436 0 -0.017527001094562268 -0.029996551211553871 0 -0.01759197685628559 -0.030055643139522296 0 -0.021288125924205755 -0.032426254326335072 0 -0.020709691868219422 -0.03238871586092474 0 -0.021038269978930255 -0.031550336767386868 0 -0.01903771121112597 -0.030860443157632946 0 -0.019779003471775296 -0.029926122503740823 0 -0.01748291112116028 -0.030082634510311436 0 -0.017527001094562268 -0.029996551211553871 0 -0.017443046137414906 -0.029945734143046288 0 -0.017527001094562268 -0.029996551211553871 0 -0.017443046137414906 -0.029945734143046288 0 -0.017518476811467776 -0.029929056417682003 0 -0.017443046137414906 -0.029945734143046288 0 -0.017518476811467776 -0.029929056417682003 0 -0.017478205208848178 -0.029841114208859702 0 -0.017443046137414906 -0.029945734143046288 0 -0.017478205208848178 -0.029841114208859702 0 -0.017403332421490739 -0.029806840255770354 0 -0.017518476811467776 -0.029929056417682003 0 -0.017478205208848178 -0.029841114208859702 0 -0.01754488704927306 -0.029854842843159309 0 -0.021038269978930255 -0.031550336767386868 0 -0.020787245087951888 -0.030674852575374466 0 -0.019982108682945691 -0.030999590268910044 0 -0.021038269978930255 -0.031550336767386868 0 -0.020106980946980924 -0.031953672291248542 0 -0.019982108682945691 -0.030999590268910044 0 -0.019779003471775296 -0.029926122503740823 0 -0.020520322789790536 -0.028934422492985678 0 -0.017742953940606279 -0.029952125302225446 0 -0.017720694123356358 -0.029981856270091534 0 -0.017759536853755892 -0.02999121203399813 0 -0.017742953940606279 -0.029952125302225446 0 -0.017720694123356358 -0.029981856270091534 0 -0.017691554499229871 -0.029952030053463231 0 -0.017720694123356358 -0.029981856270091534 0 -0.017721450692648816 -0.030017912844135301 0 -0.017685830745990748 -0.030001237748929883 0 -0.017720694123356358 -0.029981856270091534 0 -0.017685830745990748 -0.030001237748929883 0 -0.017691554499229871 -0.029952030053463231 0 -0.017720694123356358 -0.029981856270091534 0 -0.017721450692648816 -0.030017912844135301 0 -0.017759536853755892 -0.02999121203399813 0 -0.017721450692648816 -0.030017912844135301 0 -0.017757051524974525 -0.030047321630500501 0 -0.017759536853755892 -0.02999121203399813 0 -0.017706457163117972 -0.030076486786689352 0 -0.017703459617571228 -0.030050812322321919 0 -0.017757051524974525 -0.030047321630500501 0 -0.017721450692648816 -0.030017912844135301 0 -0.017703459617571228 -0.030050812322321919 0 -0.017757051524974525 -0.030047321630500501 0 -0.017721450692648816 -0.030017912844135301 0 -0.017703459617571228 -0.030050812322321919 0 -0.017696158244297294 -0.03002625490642296 0 -0.017721450692648816 -0.030017912844135301 0 -0.017696158244297294 -0.03002625490642296 0 -0.017685830745990748 -0.030001237748929883 0 -0.017696158244297294 -0.03002625490642296 0 -0.017674046595688688 -0.030034794061662706 0 -0.017685830745990748 -0.030001237748929883 0 -0.017703459617571228 -0.030050812322321919 0 -0.017696158244297294 -0.03002625490642296 0 -0.017674046595688688 -0.030034794061662706 0 -0.017663348168616519 -0.030062018379295119 0 -0.017703459617571228 -0.030050812322321919 0 -0.017674046595688688 -0.030034794061662706 0 -0.017674046595688688 -0.030034794061662706 0 -0.017644478930824471 -0.030055136412603531 0 -0.017644570096843563 -0.030018111904451049 0 -0.017663348168616519 -0.030062018379295119 0 -0.017674046595688688 -0.030034794061662706 0 -0.017644478930824471 -0.030055136412603531 0 -0.017674046595688688 -0.030034794061662706 0 -0.017644570096843563 -0.030018111904451049 0 -0.017685830745990748 -0.030001237748929883 0 -0.017644570096843563 -0.030018111904451049 0 -0.017654577143569317 -0.029978184804010682 0 -0.017685830745990748 -0.030001237748929883 0 -0.017654577143569317 -0.029978184804010682 0 -0.017685830745990748 -0.030001237748929883 0 -0.017691554499229871 -0.029952030053463231 0 -0.017654577143569317 -0.029978184804010682 0 -0.017691554499229871 -0.029952030053463231 0 -0.017648870760875211 -0.029941796117914924 0 -0.017654577143569317 -0.029978184804010682 0 -0.017598068373654421 -0.02996923730582516 0 -0.017648870760875211 -0.029941796117914924 0 -0.017644570096843563 -0.030018111904451049 0 -0.017654577143569317 -0.029978184804010682 0 -0.017598068373654421 -0.02996923730582516 0 -0.017644478930824471 -0.030055136412603531 0 -0.017644570096843563 -0.030018111904451049 0 -0.01759197685628559 -0.030055643139522296 0 -0.017644570096843563 -0.030018111904451049 0 -0.017598068373654421 -0.02996923730582516 0 -0.01759197685628559 -0.030055643139522296 0 -0.017527001094562268 -0.029996551211553871 0 -0.017598068373654421 -0.02996923730582516 0 -0.01759197685628559 -0.030055643139522296 0 -0.017527001094562268 -0.029996551211553871 0 -0.017518476811467776 -0.029929056417682003 0 -0.017598068373654421 -0.02996923730582516 0 -0.017518476811467776 -0.029929056417682003 0 -0.017577795299051981 -0.029907226660866554 0 -0.01754488704927306 -0.029854842843159309 0 -0.017518476811467776 -0.029929056417682003 0 -0.017598068373654421 -0.02996923730582516 0 -0.017577795299051981 -0.029907226660866554 0 -0.017577795299051981 -0.029907226660866554 0 -0.01754488704927306 -0.029854842843159309 0 -0.017607306679242509 -0.029841305810722103 0 -0.017607306679242509 -0.029841305810722103 0 -0.017628846426391075 -0.029904165978395115 0 -0.017675779118636683 -0.029852245261349674 0 -0.017577795299051981 -0.029907226660866554 0 -0.017607306679242509 -0.029841305810722103 0 -0.017628846426391075 -0.029904165978395115 0 -0.017598068373654421 -0.02996923730582516 0 -0.017577795299051981 -0.029907226660866554 0 -0.017628846426391075 -0.029904165978395115 0 -0.017598068373654421 -0.02996923730582516 0 -0.017628846426391075 -0.029904165978395115 0 -0.017648870760875211 -0.029941796117914924 0 -0.017691554499229871 -0.029952030053463231 0 -0.017648870760875211 -0.029941796117914924 0 -0.017681160935091318 -0.029902948137180637 0 -0.017628846426391075 -0.029904165978395115 0 -0.017648870760875211 -0.029941796117914924 0 -0.017681160935091318 -0.029902948137180637 0 -0.017628846426391075 -0.029904165978395115 0 -0.017681160935091318 -0.029902948137180637 0 -0.017675779118636683 -0.029852245261349674 0 -0.017681160935091318 -0.029902948137180637 0 -0.017730228293795211 -0.029855029791707947 0 -0.017737421986020449 -0.029905024482691209 0 -0.017681160935091318 -0.029902948137180637 0 -0.017675779118636683 -0.029852245261349674 0 -0.017730228293795211 -0.029855029791707947 0 -0.017691554499229871 -0.029952030053463231 0 -0.017681160935091318 -0.029902948137180637 0 -0.017737421986020449 -0.029905024482691209 0 -0.017742953940606279 -0.029952125302225446 0 -0.017691554499229871 -0.029952030053463231 0 -0.017737421986020449 -0.029905024482691209 0 -0.017733070333178492 -0.029737582103279765 0 -0.017717404294574884 -0.029813351586851597 0 -0.017667388209958019 -0.029788001872030255 0 -0.017675779118636683 -0.029852245261349674 0 -0.017730228293795211 -0.029855029791707947 0 -0.017717404294574884 -0.029813351586851597 0 -0.017733070333178492 -0.029737582103279765 0 -0.017717404294574884 -0.029813351586851597 0 -0.017780593164160294 -0.029834129088965523 0 -0.017730228293795211 -0.029855029791707947 0 -0.017717404294574884 -0.029813351586851597 0 -0.017780593164160294 -0.029834129088965523 0 -0.017607306679242509 -0.029841305810722103 0 -0.017675779118636683 -0.029852245261349674 0 -0.017667388209958019 -0.029788001872030255 0 -0.017675779118636683 -0.029852245261349674 0 -0.017717404294574884 -0.029813351586851597 0 -0.017667388209958019 -0.029788001872030255 0 -0.017667388209958019 -0.029788001872030255 0 -0.017603391176744396 -0.02976712220693515 0 -0.017658338604279671 -0.029725778104790705 0 -0.017733070333178492 -0.029737582103279765 0 -0.017667388209958019 -0.029788001872030255 0 -0.017658338604279671 -0.029725778104790705 0 -0.017603391176744396 -0.02976712220693515 0 -0.017614891707689921 -0.029721556624454068 0 -0.017658338604279671 -0.029725778104790705 0 -0.017603391176744396 -0.02976712220693515 0 -0.017573274186480917 -0.029726850764553347 0 -0.017614891707689921 -0.029721556624454068 0 -0.017607306679242509 -0.029841305810722103 0 -0.017603391176744396 -0.02976712220693515 0 -0.017563815800714592 -0.029806949083853732 0 -0.017607306679242509 -0.029841305810722103 0 -0.017667388209958019 -0.029788001872030255 0 -0.017603391176744396 -0.02976712220693515 0 -0.01754488704927306 -0.029854842843159309 0 -0.017607306679242509 -0.029841305810722103 0 -0.017563815800714592 -0.029806949083853732 0 -0.01754488704927306 -0.029854842843159309 0 -0.017563815800714592 -0.029806949083853732 0 -0.017528971212990085 -0.029805050632192982 0 -0.017563815800714592 -0.029806949083853732 0 -0.017547092052716803 -0.029760854316107355 0 -0.017528971212990085 -0.029805050632192982 0 -0.017603391176744396 -0.02976712220693515 0 -0.017547092052716803 -0.029760854316107355 0 -0.017573274186480917 -0.029726850764553347 0 -0.017547092052716803 -0.029760854316107355 0 -0.017573274186480917 -0.029726850764553347 0 -0.01749903999637651 -0.029718303316547453 0 -0.017603391176744396 -0.02976712220693515 0 -0.017563815800714592 -0.029806949083853732 0 -0.017547092052716803 -0.029760854316107355 0 -0.015946104221219861 -0.028888379951964929 0 -0.015994293205132272 -0.028883323491799087 0 -0.017573274186480917 -0.029726850764553347 0 -0.017624565900035711 -0.029667068229523533 0 -0.01749903999637651 -0.029718303316547453 0 -0.017689775178674427 -0.029588520459096289 0 -0.017547762269128395 -0.029662292690288063 0 -0.017603565501284446 -0.029662700550593779 0 -0.017547762269128395 -0.029662292690288063 0 -0.017603565501284446 -0.029662700550593779 0 -0.01749903999637651 -0.029718303316547453 0 -0.017624565900035711 -0.029667068229523533 0 -0.017614891707689921 -0.029721556624454068 0 -0.017658338604279671 -0.029725778104790705 0 -0.017573274186480917 -0.029726850764553347 0 -0.017624565900035711 -0.029667068229523533 0 -0.017614891707689921 -0.029721556624454068 0 -0.017733070333178492 -0.029737582103279765 0 -0.017692726287211403 -0.029685042133718774 0 -0.017752187290618112 -0.029611420766787803 0 -0.017624565900035711 -0.029667068229523533 0 -0.017692726287211403 -0.029685042133718774 0 -0.017752187290618112 -0.029611420766787803 0 -0.015946104221219861 -0.028888379951964929 0 -0.01579083190947177 -0.028907889195160748 0 -0.017624565900035711 -0.029667068229523533 0 -0.017692726287211403 -0.029685042133718774 0 -0.017658338604279671 -0.029725778104790705 0 -0.017733070333178492 -0.029737582103279765 0 -0.017692726287211403 -0.029685042133718774 0 -0.017658338604279671 -0.029725778104790705 0 -0.020520322789790536 -0.028934422492985678 0 -0.021970523650526472 -0.02982611792208114 0 -0.027187834009348728 -0.012440624777722686 0 -0.027841580391007079 -0.012532903781731749 0 -0.026624361256053442 -0.013025813174130386 0 -0.027542185494232662 -0.01188165726012301 0 -0.027187834009348728 -0.012440624777722686 0 -0.026962361358107617 -0.011259926845759331 0 -0.027640501979389505 -0.011839141556620537 0 -0.027542185494232662 -0.01188165726012301 0 -0.027841580391007079 -0.012532903781731749 0 -0.020037991688475323 -0.028055715556190339 0 -0.020520322789790536 -0.028934422492985678 0 -0.017405525313081038 -0.029735225399158956 0 -0.017422794922723174 -0.029792090034943767 0 -0.017455653556497867 -0.029752084404051578 0 -0.020037991688475323 -0.028055715556190339 0 -0.020040830802756752 -0.028053642803034649 0 -0.027542185494232662 -0.01188165726012301 0 -0.027187834009348728 -0.012440624777722686 0 -0.027841580391007079 -0.012532903781731749 0 -0.017405525313081038 -0.029735225399158956 0 -0.017455653556497867 -0.029752084404051578 0 -0.01749903999637651 -0.029718303316547453 0 -0.020520322789790536 -0.028934422492985678 0 -0.020441593804727053 -0.028963477918844339 0 -0.017478205208848178 -0.029841114208859702 0 -0.017403332421490739 -0.029806840255770354 0 -0.017509585256111234 -0.029762036325677914 0 -0.017478205208848178 -0.029841114208859702 0 -0.017528971212990085 -0.029805050632192982 0 -0.017509585256111234 -0.029762036325677914 0 -0.017478205208848178 -0.029841114208859702 0 -0.01754488704927306 -0.029854842843159309 0 -0.017528971212990085 -0.029805050632192982 0 -0.017509585256111234 -0.029762036325677914 0 -0.017455653556497867 -0.029752084404051578 0 -0.01749903999637651 -0.029718303316547453 0 -0.017547092052716803 -0.029760854316107355 0 -0.017528971212990085 -0.029805050632192982 0 -0.017509585256111234 -0.029762036325677914 0 -0.017547092052716803 -0.029760854316107355 0 -0.017509585256111234 -0.029762036325677914 0 -0.01749903999637651 -0.029718303316547453 0 -0.017422794922723174 -0.029792090034943767 0 -0.017509585256111234 -0.029762036325677914 0 -0.017455653556497867 -0.029752084404051578 0 -0.01871764174322503 -0.028087342434803955 0 -0.020037991688475323 -0.028055715556190339 0 -0.017547762269128395 -0.029662292690288063 0 -0.017405525313081038 -0.029735225399158956 0 -0.01749903999637651 -0.029718303316547453 0 -0.02720847270599731 -0.010513098106138112 0 -0.027666273446041282 -0.010735546925749431 0 -0.026929482506173913 -0.011039973376741306 0 -0.026759171374669381 -0.010352216621519346 0 -0.02720847270599731 -0.010513098106138112 0 -0.026929482506173913 -0.011039973376741306 0 -0.019892963368073138 -0.025895067038919459 0 -0.020037991688475323 -0.028055715556190339 0 -0.027156548953072568 -0.010451806211853525 0 -0.027635295974132515 -0.011835464928081263 0 -0.026962361358107617 -0.011259926845759331 0 -0.027635295974132515 -0.011835464928081263 0 -0.027542185494232662 -0.01188165726012301 0 -0.026962361358107617 -0.011259926845759331 0 -0.026962361358107617 -0.011259926845759331 0 -0.026471243189203124 -0.011159840351021683 0 -0.026641114814034632 -0.012626130845679968 0 -0.02683908661798028 -0.010776811540672417 0 -0.026962361358107617 -0.011259926845759331 0 -0.026471243189203124 -0.011159840351021683 0 -0.027156548953072568 -0.010451806211853525 0 -0.02683908661798028 -0.010776811540672417 0 -0.026962361358107617 -0.011259926845759331 0 -0.026577135043764296 -0.010013064244860571 0 -0.026563638291294173 -0.010092421673987356 0 -0.02652341477158783 -0.010025484627738434 0 -0.027187834009348728 -0.012440624777722686 0 -0.026962361358107617 -0.011259926845759331 0 -0.026583552172801304 -0.012708325820712452 0 -0.022050292960743081 -0.026648875242061318 0 -0.022111015482035607 -0.02918175570017123 0 -0.026577135043764296 -0.010013064244860571 0 -0.026563638291294173 -0.010092421673987356 0 -0.026608793751954851 -0.010167454051984609 0 -0.022326016037399889 -0.028320536540860582 0 -0.022111015482035607 -0.02918175570017123 0 -0.026563638291294173 -0.010092421673987356 0 -0.026561259317719174 -0.010145468545265825 0 -0.026608793751954851 -0.010167454051984609 0 -0.026561259317719174 -0.010145468545265825 0 -0.026599173058051456 -0.01020171065919837 0 -0.02651971614101413 -0.01017537134767613 0 -0.026561259317719174 -0.010145468545265825 0 -0.026608793751954851 -0.010167454051984609 0 -0.026599173058051456 -0.01020171065919837 0 -0.027187834009348728 -0.012440624777722686 0 -0.026583552172801304 -0.012708325820712452 0 -0.026624361256053442 -0.013025813174130386 0 -0.026500222286723239 -0.010102107414538221 0 -0.026448109949862499 -0.010153989928024099 0 -0.02651971614101413 -0.01017537134767613 0 -0.026561259317719174 -0.010145468545265825 0 -0.026500222286723239 -0.010102107414538221 0 -0.02651971614101413 -0.01017537134767613 0 -0.026563638291294173 -0.010092421673987356 0 -0.026561259317719174 -0.010145468545265825 0 -0.026500222286723239 -0.010102107414538221 0 -0.026500222286723239 -0.010102107414538221 0 -0.02652341477158783 -0.010025484627738434 0 -0.026463319970148749 -0.010027402703165362 0 -0.026563638291294173 -0.010092421673987356 0 -0.026500222286723239 -0.010102107414538221 0 -0.02652341477158783 -0.010025484627738434 0 -0.026487089973081072 -0.0099609743871737419 0 -0.026528513040782346 -0.0099657447208991879 0 -0.02652341477158783 -0.010025484627738434 0 -0.026528513040782346 -0.0099657447208991879 0 -0.026577135043764296 -0.010013064244860571 0 -0.02652341477158783 -0.010025484627738434 0 -0.026487089973081072 -0.0099609743871737419 0 -0.02652341477158783 -0.010025484627738434 0 -0.026463319970148749 -0.010027402703165362 0 -0.026500222286723239 -0.010102107414538221 0 -0.026395234530323781 -0.01005291965932641 0 -0.026463319970148749 -0.010027402703165362 0 -0.02643128704374326 -0.0099299525724253542 0 -0.026395234530323781 -0.01005291965932641 0 -0.026463319970148749 -0.010027402703165362 0 -0.02643128704374326 -0.0099299525724253542 0 -0.026487089973081072 -0.0099609743871737419 0 -0.026463319970148749 -0.010027402703165362 0 -0.026303923187904359 -0.0098959044241954085 0 -0.026284784869546114 -0.010085860956987807 0 -0.026395234530323781 -0.01005291965932641 0 -0.026284784869546114 -0.010085860956987807 0 -0.026395234530323781 -0.01005291965932641 0 -0.026363891163559926 -0.010182805539214619 0 -0.026284784869546114 -0.010085860956987807 0 -0.02625042629677737 -0.010210399483504939 0 -0.026363891163559926 -0.010182805539214619 0 -0.026395234530323781 -0.01005291965932641 0 -0.026448109949862499 -0.010153989928024099 0 -0.026363891163559926 -0.010182805539214619 0 -0.026500222286723239 -0.010102107414538221 0 -0.026395234530323781 -0.01005291965932641 0 -0.026448109949862499 -0.010153989928024099 0 -0.026448109949862499 -0.010153989928024099 0 -0.026462499062770511 -0.010255327376304945 0 -0.026363891163559926 -0.010182805539214619 0 -0.026462499062770511 -0.010255327376304945 0 -0.026363891163559926 -0.010182805539214619 0 -0.026332700115124761 -0.010311095404995444 0 -0.02625042629677737 -0.010210399483504939 0 -0.026363891163559926 -0.010182805539214619 0 -0.026332700115124761 -0.010311095404995444 0 -0.023199241863595524 -0.030109355824927634 0 -0.024587894064468211 -0.031565287550575041 0 -0.021817490005143735 -0.030917823442187319 0 -0.016755836499096032 -0.069634319114669954 0 -0.016917934613279905 -0.069809395564532625 0 -0.01691888286979662 -0.06969315278267306 0 -0.022855822271502492 -0.035205129819515867 0 -0.022868872959289636 -0.035290920236486112 0 -0.022855822271502492 -0.035205129819515867 0 -0.022932308958014663 -0.032571359397362866 0 -0.017122838901686525 -0.069579267193049327 0 -0.016917934613279905 -0.069809395564532625 0 -0.01691888286979662 -0.06969315278267306 0 -0.022766697079300135 -0.030990852843476503 0 -0.022932308958014663 -0.032571359397362866 0 -0.02094418112415981 -0.033028362259218229 0 -0.024587894064468211 -0.031565287550575041 0 -0.021817490005143735 -0.030917823442187319 0 -0.02094418112415981 -0.033028362259218229 0 -0.021817490005143735 -0.030917823442187319 0 -0.019888519407174031 -0.030667140764178147 0 -0.020945139275930752 -0.029435375943228884 0 -0.021817490005143735 -0.030917823442187319 0 -0.019888519407174031 -0.030667140764178147 0 -0.018692079418972524 -0.028761678415009567 0 -0.019888519407174031 -0.030667140764178147 0 -0.017997571535119723 -0.031625016205404761 0 -0.02094418112415981 -0.033028362259218229 0 -0.019888519407174031 -0.030667140764178147 0 -0.017997571535119723 -0.031625016205404761 0 -0.022614602958818786 -0.035300163694884625 0 -0.022768325209895527 -0.034664808472418339 0 -0.023083470372833585 -0.034736490389760212 0 -0.022768325209895527 -0.034664808472418339 0 -0.023083470372833585 -0.034736490389760212 0 -0.022922339872839006 -0.034025884583718899 0 -0.021559121748244731 -0.032195282350822238 0 -0.021970523650526472 -0.02982611792208114 0 -0.023083470372833585 -0.034736490389760212 0 -0.022988835134065719 -0.033998854007335953 0 -0.022922339872839006 -0.034025884583718899 0 -0.022122431492618388 -0.033231164722962767 0 -0.022161819971513206 -0.029882275568489484 0 -0.022711244121906862 -0.032429561277720634 0 -0.022460903524642487 -0.030528477445469368 0 -0.023249133918140936 -0.030211714577042973 0 -0.022111015482035607 -0.02918175570017123 0 -0.021970523650526472 -0.02982611792208114 0 -0.022111015482035607 -0.02918175570017123 0 -0.022161819971513206 -0.029882275568489484 0 -0.021970523650526472 -0.02982611792208114 0 -0.022161819971513206 -0.029882275568489484 0 -0.02094418112415981 -0.033028362259218229 0 -0.017997571535119723 -0.031625016205404761 0 -0.017304124773553944 -0.034487218058475842 0 -0.026448109949862499 -0.010153989928024099 0 -0.026462499062770511 -0.010255327376304945 0 -0.02651971614101413 -0.01017537134767613 0 -0.022766697079300135 -0.030990852843476503 0 -0.022161819971513206 -0.029882275568489484 0 -0.026462499062770511 -0.010255327376304945 0 -0.026599173058051456 -0.01020171065919837 0 -0.02651971614101413 -0.01017537134767613 0 -0.058053609455134339 -0.01074777704688735 0 -0.056354713982340807 -0.011249609955103905 0 -0.056235769055653438 -0.010142077540941897 0 -0.055774989913786356 -0.010856623174315062 0 -0.055410885927831083 -0.012643044268869768 0 -0.058053609455134339 -0.01074777704688735 0 -0.056354713982340807 -0.011249609955103905 0 -0.056529316735609486 -0.012606878232224323 0 -0.054999994590912607 -0.011420804341096245 0 -0.056354713982340807 -0.011249609955103905 0 -0.056235769055653438 -0.010142077540941897 0 -0.054999994590912607 -0.011420804341096245 0 -0.056354713982340807 -0.011249609955103905 0 -0.056529316735609486 -0.012606878232224323 0 -0.055410885927831083 -0.012643044268869768 0 -0.054998992430041159 -0.014457730296079259 0 -0.054999994590912607 -0.011420804341096245 0 -0.056529316735609486 -0.012606878232224323 0 -0.054999998096676724 -0.014468471003249741 0 -0.057112942188526361 -0.011582695317155433 0 -0.056035105056549211 -0.013018621481444219 0 -0.057750889599860564 -0.013091672316718327 0 -0.056035105056549211 -0.013018621481444219 0 -0.057750889599860564 -0.013091672316718327 0 -0.057573855032793095 -0.015094666417168286 0 -0.057750889599860564 -0.013091672316718327 0 -0.059184414545134886 -0.013620167486480195 0 -0.058767544344275252 -0.011836307788101696 0 -0.059184414545134886 -0.013620167486480195 0 -0.059640336639567255 -0.012014854850390066 0 -0.058767544344275252 -0.011836307788101696 0 -0.059640336639567255 -0.012014854850390066 0 -0.058767544344275252 -0.011836307788101696 0 -0.060040544991543057 -0.010721232882538902 0 -0.057112942188526361 -0.011582695317155433 0 -0.057750889599860564 -0.013091672316718327 0 -0.058767544344275252 -0.011836307788101696 0 -0.056050369180176585 -0.0091172838828164921 0 -0.055531785036394811 -0.0083886442432753953 0 -0.055774989913786356 -0.010856623174315062 0 -0.056050369180176585 -0.0091172838828164921 0 -0.057112942188526361 -0.011582695317155433 0 -0.058767544344275252 -0.011836307788101696 0 -0.058158772716133469 -0.010288615410634236 0 -0.058053609455134339 -0.01074777704688735 0 -0.059574011687329252 -0.0088987740334547736 0 -0.057820964947073783 -0.0084482980240603751 0 -0.056050369180176585 -0.0091172838828164921 0 -0.056853552752523122 -0.0092048137347331901 0 -0.058767544344275252 -0.011836307788101696 0 -0.058158772716133469 -0.010288615410634236 0 -0.060040544991543057 -0.010721232882538902 0 -0.047992079536745176 -0.0038188363594043595 0 -0.05085780501801157 -0.002952539193858573 0 -0.052230008662226941 -0.0049827828570578603 0 -0.047992079536745176 -0.0038188363594043595 0 -0.05085780501801157 -0.002952539193858573 0 -0.050596646330318316 -0.00075581710039718643 0 -0.056050369180176585 -0.0091172838828164921 0 -0.056003564958481161 -0.0089420333271761181 0 -0.04859794840695348 -0.0031385177982167938 0 -0.049086714995824489 -0.0015321224959211079 0 -0.050596646330318316 -0.00075581710039718643 0 -0.04859794840695348 -0.0031385177982167938 0 -0.047468046132765576 -0.0011125984602519783 0 -0.046640566492481869 -0.0026237745526191455 0 -0.047468046132765576 -0.0011125984602519783 0 -0.049086714995824489 -0.0015321224959211079 0 -0.050296584384041394 -8.0267454031943331e-07 0 -0.04859794840695348 -0.0031385177982167938 0 -0.047468046132765576 -0.0011125984602519783 0 -0.049086714995824489 -0.0015321224959211079 0 -0.055531785036394811 -0.0083886442432753953 0 -0.055216168305521562 -0.0077396212685115155 0 -0.058529915371556628 -0.0070323090443764639 0 -0.056055863134727803 -0.0079654536487196205 0 -0.056033336083304651 -0.0063781400068035222 0 -0.055824124860810558 -0.0056378343509055542 0 -0.055216168305521562 -0.0077396212685115155 0 -0.047468046132765576 -0.0011125984602519783 0 -0.046640566492481869 -0.0026237745526191455 0 -0.044706929631491768 -0.0021324813341538741 0 -0.057820964947073783 -0.0084482980240603751 0 -0.056699192587452665 -0.0090317043559024323 0 -0.056063969817667175 -0.007993719893904034 0 -0.058053609455134339 -0.01074777704688735 0 -0.057820964947073783 -0.0084482980240603751 0 -0.056699192587452665 -0.0090317043559024323 0 -0.058053609455134339 -0.01074777704688735 0 -0.056235769055653438 -0.010142077540941897 0 -0.056699192587452665 -0.0090317043559024323 0 -0.054999994590912607 -0.011420804341096245 0 -0.056235769055653438 -0.010142077540941897 0 -0.054999998777799063 -0.008373172694223472 0 -0.056235769055653438 -0.010142077540941897 0 -0.056699192587452665 -0.0090317043559024323 0 -0.054999998777799063 -0.008373172694223472 0 -0.055216168305521562 -0.0077396212685115155 0 -0.055002228388077307 -0.0077142081013684806 0 -0.054999999623170343 -0.0083731495838180337 0 -0.056066810136778604 -0.0079875163379356604 0 -0.054999999661971326 -0.0077142259587836314 0 -0.055000429637917014 -0.0083624483738682191 0 -0.055216168305521562 -0.0077396212685115155 0 -0.056699192587452665 -0.0090317043559024323 0 -0.054999998777799063 -0.008373172694223472 0 -0.056063969817667175 -0.007993719893904034 0 -0.056055863134727803 -0.0079654536487196205 0 -0.05499998975947458 -0.0077141283571632033 0 -0.056033336083304651 -0.0063781400068035222 0 -0.056033336083304651 -0.0063781400068035222 0 -0.057215687825669645 -0.0050935160919085599 0 -0.054999992787495101 -0.0049346994902989931 0 -0.05499998975947458 -0.0077141283571632033 0 -0.056033336083304651 -0.0063781400068035222 0 -0.054999992787495101 -0.0049346994902989931 0 -0.058529915371556628 -0.0070323090443764639 0 -0.056033336083304651 -0.0063781400068035222 0 -0.057215687825669645 -0.0050935160919085599 0 -0.055616317204285712 -0.0049760559906025245 0 -0.056096143046727651 -0.0050082924786053291 0 -0.057220409651673819 -0.0050538205346842714 0 -0.056745121441023935 -0.0032796229784026192 0 -0.058534289091398774 -0.0038491107100443456 0 -0.054999998047437625 -0.0049345774196188179 0 -0.054999987267667187 -0.0020988055496453687 0 -0.056745121441023935 -0.0032796229784026192 0 -0.055616317204285712 -0.0049760559906025245 0 -0.055003094166840905 -0.00493484916089629 0 -0.057220409651673819 -0.0050538205346842714 0 -0.054999998047437625 -0.0049345774196188179 0 -0.056745121441023935 -0.0032796229784026192 0 -0.054999987267667187 -0.0020988055496453687 0 -0.056745121441023935 -0.0032796229784026192 0 -0.056743279172000324 -0.0013484857009963315 0 -0.056745121441023935 -0.0032796229784026192 0 -0.058050576624452295 -0.0025401591660626386 0 -0.056743279172000324 -0.0013484857009963315 0 -0.056745121441023935 -0.0032796229784026192 0 -0.058050576624452295 -0.0025401591660626386 0 -0.058534289091398774 -0.0038491107100443456 0 -0.058050576624452295 -0.0025401591660626386 0 -0.056743279172000324 -0.0013484857009963315 0 -0.058235509991083879 -0.0014567787363293865 0 -0.056802635962723821 0.0004211521797333636 0 -0.056743279172000324 -0.0013484857009963315 0 -0.057502646762228105 -0.00056635343923093278 0 -0.056743279172000324 -0.0013484857009963315 0 -0.058235509991083879 -0.0014567787363293865 0 -0.057502646762228105 -0.00056635343923093278 0 -0.058235509991083879 -0.0014567787363293865 0 -0.05832520834428824 -0.00059373262924272707 0 -0.057502646762228105 -0.00056635343923093278 0 -0.057738617678603957 0.00010486074041077179 0 -0.05832520834428824 -0.00059373262924272707 0 -0.057502646762228105 -0.00056635343923093278 0 -0.056802635962723821 0.0004211521797333636 0 -0.057738617678603957 0.00010486074041077179 0 -0.057502646762228105 -0.00056635343923093278 0 -0.054999987505063401 0.00073704876099902673 0 -0.054999987267667187 -0.0020988055496453687 0 -0.056743279172000324 -0.0013484857009963315 0 -0.054999987505063401 0.00073704876099902673 0 -0.056802635962723821 0.0004211521797333636 0 -0.056743279172000324 -0.0013484857009963315 0 -0.060290125817471917 -0.001083531636333243 0 -0.060956201980623889 -0.0015705732119512992 0 -0.060824720259056012 -0.00059371602138013312 0 -0.060290125817471917 -0.001083531636333243 0 -0.060956201980623889 -0.0015705732119512992 0 -0.060261772225886585 -0.001815635769419273 0 -0.061693945429824489 -0.0012004954761885163 0 -0.060956201980623889 -0.0015705732119512992 0 -0.060824720259056012 -0.00059371602138013312 0 -0.061693945429824489 -0.0012004954761885163 0 -0.060956201980623889 -0.0015705732119512992 0 -0.06178218373883522 -0.0022552641380635028 0 -0.057337565655923371 0.0042556915931539398 0 -0.0572890082458632 0.0042952155877784377 0 -0.061693945429824489 -0.0012004954761885163 0 -0.060826211180589465 -0.00060267326280725195 0 -0.062307276074009293 -0.0007795034566087524 0 -0.060290125817471917 -0.001083531636333243 0 -0.060826518326229019 -0.00058783905073919208 0 -0.060314018660461231 -0.00023444221954790917 0 -0.0572890082458632 0.0042952155877784377 0 -0.05715725730238512 0.0043337436109370537 0 -0.057289611695224424 0.0042863121760380977 0 -0.0572890082458632 0.0042952155877784377 0 -0.060335490864616689 -0.00020665118788048845 0 -0.0591616178906312 -0.0009236251873344847 0 -0.059423017287080548 -0.0013720883276361203 0 -0.05715725730238512 0.0043337436109370537 0 -0.057147204032544058 0.0042816217525047089 0 -0.058637407482105115 0.0010083287967610384 0 -0.05832520834428824 -0.00059373262924272707 0 -0.059200552817190943 -0.00089663216007368702 0 -0.060290125817471917 -0.001083531636333243 0 -0.060314018660461231 -0.00023444221954790917 0 -0.059423017287080548 -0.0013720883276361203 0 -0.058584863666235547 0.0010037279473703274 0 -0.060335490864616689 -0.00020665118788048845 0 -0.0591616178906312 -0.0009236251873344847 0 -0.0591616178906312 -0.0009236251873344847 0 -0.059423017287080548 -0.0013720883276361203 0 -0.059738100297558036 -0.0028077329463311921 0 -0.058235509991083879 -0.0014567787363293865 0 -0.059200552817190943 -0.00089663216007368702 0 -0.059738100297558036 -0.0028077329463311921 0 -0.058235509991083879 -0.0014567787363293865 0 -0.05832520834428824 -0.00059373262924272707 0 -0.059200552817190943 -0.00089663216007368702 0 -0.060290125817471917 -0.001083531636333243 0 -0.059423017287080548 -0.0013720883276361203 0 -0.060261772225886585 -0.001815635769419273 0 -0.059423017287080548 -0.0013720883276361203 0 -0.059738100297558036 -0.0028077329463311921 0 -0.060261772225886585 -0.001815635769419273 0 -0.056731465117322022 0.003674203367034736 0 -0.056798713209734293 0.0034785060614367261 0 -0.058050576624452295 -0.0025401591660626386 0 -0.058235509991083879 -0.0014567787363293865 0 -0.059738100297558036 -0.0028077329463311921 0 -0.058050576624452295 -0.0025401591660626386 0 -0.059738100297558036 -0.0028077329463311921 0 -0.058534289091398774 -0.0038491107100443456 0 -0.059738100297558036 -0.0028077329463311921 0 -0.06074756205418743 -0.0032304082014152115 0 -0.060884170218958165 -0.0023454984892279217 0 -0.059738100297558036 -0.0028077329463311921 0 -0.060261772225886585 -0.001815635769419273 0 -0.060884170218958165 -0.0023454984892279217 0 -0.060956201980623889 -0.0015705732119512992 0 -0.060261772225886585 -0.001815635769419273 0 -0.060884170218958165 -0.0023454984892279217 0 -0.060956201980623889 -0.0015705732119512992 0 -0.060884170218958165 -0.0023454984892279217 0 -0.06178218373883522 -0.0022552641380635028 0 -0.06074756205418743 -0.0032304082014152115 0 -0.060884170218958165 -0.0023454984892279217 0 -0.061700785348288455 -0.0033169770301117005 0 -0.060884170218958165 -0.0023454984892279217 0 -0.061700785348288455 -0.0033169770301117005 0 -0.06178218373883522 -0.0022552641380635028 0 -0.060569881849600285 -0.004217767619833542 0 -0.059409788076673062 -0.0051837512524759077 0 -0.061583932063138322 -0.0053401791687477385 0 -0.06074756205418743 -0.0032304082014152115 0 -0.060569881849600285 -0.004217767619833542 0 -0.061493215975052321 -0.0043922054597528857 0 -0.06074756205418743 -0.0032304082014152115 0 -0.061700785348288455 -0.0033169770301117005 0 -0.061493215975052321 -0.0043922054597528857 0 -0.059738100297558036 -0.0028077329463311921 0 -0.06074756205418743 -0.0032304082014152115 0 -0.060569881849600285 -0.004217767619833542 0 -0.060569881849600285 -0.004217767619833542 0 -0.061493215975052321 -0.0043922054597528857 0 -0.061583932063138322 -0.0053401791687477385 0 -0.057220409651673819 -0.0050538205346842714 0 -0.058534289091398774 -0.0038491107100443456 0 -0.059409788076673062 -0.0051837512524759077 0 -0.059738100297558036 -0.0028077329463311921 0 -0.060569881849600285 -0.004217767619833542 0 -0.058534289091398774 -0.0038491107100443456 0 -0.060569881849600285 -0.004217767619833542 0 -0.058534289091398774 -0.0038491107100443456 0 -0.059409788076673062 -0.0051837512524759077 0 -0.055824124860810558 -0.0056378343509055542 0 -0.056697250132455544 -0.0035177408194259378 0 -0.058529915371556628 -0.0070323090443764639 0 -0.057215687825669645 -0.0050935160919085599 0 -0.059406658180147377 -0.0052293531564293191 0 -0.058529915371556628 -0.0070323090443764639 0 -0.059406658180147377 -0.0052293531564293191 0 -0.060975488098301528 -0.0060997161011939454 0 -0.059406658180147377 -0.0052293531564293191 0 -0.061583932063138322 -0.0053401791687477385 0 -0.060975488098301528 -0.0060997161011939454 0 -0.056096143046727651 -0.0050082924786053291 0 -0.056292574620028318 -0.005021493571704061 0 -0.049086714995824489 -0.0015321224959211079 0 -0.050296584384041394 -8.0267454031943331e-07 0 -0.050596646330318316 -0.00075581710039718643 0 -0.050296584384041394 -8.0267454031943331e-07 0 -0.050596646330318316 -0.00075581710039718643 0 -0.05232240833161933 -0.00042349286564328012 0 -0.056697250132455544 -0.0035177408194259378 0 -0.057665014751726133 -0.0013887755037762773 0 -0.061583932063138322 -0.0053401791687477385 0 -0.060975488098301528 -0.0060997161011939454 0 -0.063416426749401331 -0.0051775635076938284 0 -0.050296584384041394 -8.0267454031943331e-07 0 -0.05232240833161933 -0.00042349286564328012 0 -0.053764296032207413 0.0013034545679777997 0 -0.05232240833161933 -0.00042349286564328012 0 -0.054357709353270146 -0.00039118850620622732 0 -0.053764296032207413 0.0013034545679777997 0 -0.054357709353270146 -0.00039118850620622732 0 -0.057240097698391924 0.0025519025646752913 0 -0.056025478877065972 -0.0010340207195529407 0 -0.054357709353270146 -0.00039118850620622732 0 -0.053764296032207413 0.0013034545679777997 0 -0.057240097698391924 0.0025519025646752913 0 -0.063905033835882308 -0.0038253598514465924 0 -0.065156678974969004 -0.0031438041878438022 0 -0.065839321010604746 -0.0042878110015844876 0 -0.057665014751726133 -0.0013887755037762773 0 -0.058547155914671953 0.00073584612822766337 0 -0.063416426749401331 -0.0051775635076938284 0 -0.063905033835882308 -0.0038253598514465924 0 -0.065839321010604746 -0.0042878110015844876 0 -0.061583932063138322 -0.0053401791687477385 0 -0.063416426749401331 -0.0051775635076938284 0 -0.062445024139262978 -0.0043205176262609245 0 -0.061493215975052321 -0.0043922054597528857 0 -0.061583932063138322 -0.0053401791687477385 0 -0.062445024139262978 -0.0043205176262609245 0 -0.063416426749401331 -0.0051775635076938284 0 -0.063905033835882308 -0.0038253598514465924 0 -0.062445024139262978 -0.0043205176262609245 0 -0.063905033835882308 -0.0038253598514465924 0 -0.062445024139262978 -0.0043205176262609245 0 -0.062711876444400211 -0.0031482274418451832 0 -0.061700785348288455 -0.0033169770301117005 0 -0.062445024139262978 -0.0043205176262609245 0 -0.062711876444400211 -0.0031482274418451832 0 -0.061700785348288455 -0.0033169770301117005 0 -0.061493215975052321 -0.0043922054597528857 0 -0.062445024139262978 -0.0043205176262609245 0 -0.061700785348288455 -0.0033169770301117005 0 -0.06178218373883522 -0.0022552641380635028 0 -0.062711876444400211 -0.0031482274418451832 0 -0.061693945429824489 -0.0012004954761885163 0 -0.06178218373883522 -0.0022552641380635028 0 -0.062743539578469482 -0.0019497454889262395 0 -0.06178218373883522 -0.0022552641380635028 0 -0.062743539578469482 -0.0019497454889262395 0 -0.062711876444400211 -0.0031482274418451832 0 -0.062743539578469482 -0.0019497454889262395 0 -0.062711876444400211 -0.0031482274418451832 0 -0.063851791441956102 -0.0028718890127406127 0 -0.063905033835882308 -0.0038253598514465924 0 -0.062711876444400211 -0.0031482274418451832 0 -0.063851791441956102 -0.0028718890127406127 0 -0.063851791441956102 -0.0028718890127406127 0 -0.065198485189881666 -0.0011999859389595488 0 -0.065156678974969004 -0.0031438041878438022 0 -0.063851791441956102 -0.0028718890127406127 0 -0.063775417592706038 -0.0017023068621951939 0 -0.065198485189881666 -0.0011999859389595488 0 -0.063905033835882308 -0.0038253598514465924 0 -0.063851791441956102 -0.0028718890127406127 0 -0.065156678974969004 -0.0031438041878438022 0 -0.062743539578469482 -0.0019497454889262395 0 -0.063851791441956102 -0.0028718890127406127 0 -0.063775417592706038 -0.0017023068621951939 0 -0.063999999536688904 0.00024830156027560806 0 -0.06330777673283354 -0.00078760176614973455 0 -0.065198485189881666 -0.0011999859389595488 0 -0.058648673753364772 0.0056856055501766211 0 -0.05978723950955183 0.0059173559643452833 0 -0.058982615811763166 0.0068872669503080028 0 -0.063775417592706038 -0.0017023068621951939 0 -0.06330777673283354 -0.00078760176614973455 0 -0.065198485189881666 -0.0011999859389595488 0 -0.058238607742470479 0.0048866131518261607 0 -0.058610479324059217 0.0034899292367545579 0 -0.058238607742470479 0.0048866131518261607 0 -0.058248441232243028 0.004855736203591178 0 -0.06280560784991665 0.00019194695923445206 0 -0.064000299998585281 0.00025034162925593242 0 -0.06330777673283354 -0.00078760176614973455 0 -0.06280560784991665 0.00019194695923445206 0 -0.06330777673283354 -0.00078760176614973455 0 -0.062307276074009293 -0.0007795034566087524 0 -0.06280560784991665 0.00019194695923445206 0 -0.060826211180589465 -0.00060267326280725195 0 -0.062307276074009293 -0.0007795034566087524 0 -0.061693945429824489 -0.0012004954761885163 0 -0.062743539578469482 -0.0019497454889262395 0 -0.062307276074009293 -0.0007795034566087524 0 -0.062743539578469482 -0.0019497454889262395 0 -0.06330777673283354 -0.00078760176614973455 0 -0.062307276074009293 -0.0007795034566087524 0 -0.062743539578469482 -0.0019497454889262395 0 -0.063775417592706038 -0.0017023068621951939 0 -0.06330777673283354 -0.00078760176614973455 0 -0.064232443842324197 0.0021792061112684081 0 -0.064173174072742561 0.0027772754856014705 0 -0.064634000675211786 0.0033603613279485347 0 -0.059423189533958524 0.005415446454758696 0 -0.058845519817251946 0.0022026816848676159 0 -0.064173174072742561 0.0027772754856014705 0 -0.063899506041075832 0.0031802378702551061 0 -0.063801786903834104 0.0028174959250653431 0 -0.063728666338631126 0.0023211349154534096 0 -0.064173174072742561 0.0027772754856014705 0 -0.063801786903834104 0.0028174959250653431 0 -0.063728666338631126 0.0023211349154534096 0 -0.064225188247147041 0.002195062996238143 0 -0.064173174072742561 0.0027772754856014705 0 -0.059423189533958524 0.005415446454758696 0 -0.059452677097832175 0.0053511546214383195 0 -0.057497376015843066 0.0058445474845615786 0 -0.058982615811763166 0.0068872669503080028 0 -0.058177296090473112 0.0078562797559697042 0 -0.065198485189881666 -0.0011999859389595488 0 -0.065156678974969004 -0.0031438041878438022 0 -0.066392551544736153 -0.0026461169099302024 0 -0.058610479324059217 0.0034899292367545579 0 -0.058845519817251946 0.0022026816848676159 0 -0.065156678974969004 -0.0031438041878438022 0 -0.066392551544736153 -0.0026461169099302024 0 -0.065839321010604746 -0.0042878110015844876 0 -0.058845519817251946 0.0022026816848676159 0 -0.059300407960532479 0.0012894407282335865 0 -0.064634000675211786 0.0033603613279485347 0 -0.063899506041075832 0.0031802378702551061 0 -0.064272939707007815 0.0037980483994363512 0 -0.064173174072742561 0.0027772754856014705 0 -0.064634000675211786 0.0033603613279485347 0 -0.063899506041075832 0.0031802378702551061 0 -0.059300407960532479 0.0012894407282335865 0 -0.059532601413517808 0.00084794971601299702 0 -0.058368100355070854 -0.00079976445802703699 0 -0.059558344342332557 -0.00037036452988566966 0 -0.058745557198088778 0.0011052278686479961 0 -0.058845519817251946 0.0022026816848676159 0 -0.058547155914671953 0.00073584612822766337 0 -0.059300407960532479 0.0012894407282335865 0 -0.058547155914671953 0.00073584612822766337 0 -0.059720328816665343 -0.0031834768822377037 0 -0.055546767993837329 0.0018516106232861476 0 -0.062235165647762575 0.0042636535584578807 0 -0.058547155914671953 0.00073584612822766337 0 -0.058431144803229106 0.00035651399406123657 0 -0.059558344342332557 -0.00037036452988566966 0 -0.058745557198088778 0.0011052278686479961 0 -0.060242215979980224 0.0016582630306978328 0 -0.058972927019342092 0.00059788848385380487 0 -0.058431144803229106 0.00035651399406123657 0 -0.060159252468589559 0.00024306650002481645 0 -0.062188256440554458 -0.00049189745871212442 0 -0.062469742872255728 0.00046319390031099365 0 -0.058972927019342092 0.00059788848385380487 0 -0.059532601413517808 0.00084794971601299702 0 -0.058368100355070854 -0.00079976445802703699 0 -0.058745557198088778 0.0011052278686479961 0 -0.057248354724309183 0.00055195248105488189 0 -0.060159252468589559 0.00024306650002481645 0 -0.061882443012096493 -0.0014386067976947504 0 -0.062188256440554458 -0.00049189745871212442 0 -0.060159252468589559 0.00024306650002481645 0 -0.061882443012096493 -0.0014386067976947504 0 -0.059565685725567599 -0.0014860493347037677 0 -0.061882443012096493 -0.0014386067976947504 0 -0.059522160458524896 -0.0033272298783684267 0 -0.059565685725567599 -0.0014860493347037677 0 -0.061882443012096493 -0.0014386067976947504 0 -0.062248082610765441 -0.004869892518488541 0 -0.059522160458524896 -0.0033272298783684267 0 -0.062248082610765441 -0.004869892518488541 0 -0.059522160458524896 -0.0033272298783684267 0 -0.056720364241250695 -0.0064795942731700655 0 -0.059522160458524896 -0.0033272298783684267 0 -0.056926823058368353 -0.0038356877505913963 0 -0.056720364241250695 -0.0064795942731700655 0 -0.056926823058368353 -0.0038356877505913963 0 -0.057979603397323706 -0.0024732028653928402 0 -0.055910103160702614 -0.0028091233618377088 0 -0.059522160458524896 -0.0033272298783684267 0 -0.056926823058368353 -0.0038356877505913963 0 -0.057979603397323706 -0.0024732028653928402 0 -0.060159252468589559 0.00024306650002481645 0 -0.059565685725567599 -0.0014860493347037677 0 -0.056837988361173111 -0.00056605896152055494 0 -0.057979603397323706 -0.0024732028653928402 0 -0.056837988361173111 -0.00056605896152055494 0 -0.055910103160702614 -0.0028091233618377088 0 -0.059522160458524896 -0.0033272298783684267 0 -0.057979603397323706 -0.0024732028653928402 0 -0.059565685725567599 -0.0014860493347037677 0 -0.057979603397323706 -0.0024732028653928402 0 -0.059565685725567599 -0.0014860493347037677 0 -0.056837988361173111 -0.00056605896152055494 0 -0.054357709353270146 -0.00039118850620622732 0 -0.056025478877065972 -0.0010340207195529407 0 -0.052625527977751649 -0.0023000457862834313 0 -0.056616198511099919 -0.00071655890363706042 0 -0.055910103160702614 -0.0028091233618377088 0 -0.052625527977751649 -0.0023000457862834313 0 -0.058431144803229106 0.00035651399406123657 0 -0.058174302789689554 0.00025454575771992495 0 -0.058431144803229106 0.00035651399406123657 0 -0.058409534123725411 0.00030895811568942236 0 -0.055910103160702614 -0.0028091233618377088 0 -0.052625527977751649 -0.0023000457862834313 0 -0.054657851491054371 -0.0040860631116543525 0 -0.050596646330318316 -0.00075581710039718643 0 -0.05232240833161933 -0.00042349286564328012 0 -0.052625527977751649 -0.0023000457862834313 0 -0.05085780501801157 -0.002952539193858573 0 -0.050596646330318316 -0.00075581710039718643 0 -0.052625527977751649 -0.0023000457862834313 0 -0.05232240833161933 -0.00042349286564328012 0 -0.054357709353270146 -0.00039118850620622732 0 -0.052625527977751649 -0.0023000457862834313 0 -0.05085780501801157 -0.002952539193858573 0 -0.052625527977751649 -0.0023000457862834313 0 -0.052230008662226941 -0.0049827828570578603 0 -0.052625527977751649 -0.0023000457862834313 0 -0.052230008662226941 -0.0049827828570578603 0 -0.054657851491054371 -0.0040860631116543525 0 -0.052230008662226941 -0.0049827828570578603 0 -0.054657851491054371 -0.0040860631116543525 0 -0.056720364241250695 -0.0064795942731700655 0 -0.056853552752523122 -0.0092048137347331901 0 -0.057745029817548359 -0.0093592878719516333 0 -0.056926823058368353 -0.0038356877505913963 0 -0.055910103160702614 -0.0028091233618377088 0 -0.054657851491054371 -0.0040860631116543525 0 -0.056926823058368353 -0.0038356877505913963 0 -0.054657851491054371 -0.0040860631116543525 0 -0.056720364241250695 -0.0064795942731700655 0 -0.060040544991543057 -0.010721232882538902 0 -0.060504549243413829 -0.01208912373293378 0 -0.061605287429051775 -0.010747882874141718 0 -0.060504549243413829 -0.01208912373293378 0 -0.06143707306155758 -0.011894374934681106 0 -0.061605287429051775 -0.010747882874141718 0 -0.059640336639567255 -0.012014854850390066 0 -0.060040544991543057 -0.010721232882538902 0 -0.060504549243413829 -0.01208912373293378 0 -0.059184414545134886 -0.013620167486480195 0 -0.060504549243413829 -0.01208912373293378 0 -0.060867514512553234 -0.014432741136606607 0 -0.059184414545134886 -0.013620167486480195 0 -0.059640336639567255 -0.012014854850390066 0 -0.060504549243413829 -0.01208912373293378 0 -0.06143707306155758 -0.011894374934681106 0 -0.062216746048156447 -0.012927949391868979 0 -0.060867514512553234 -0.014432741136606607 0 -0.060504549243413829 -0.01208912373293378 0 -0.06143707306155758 -0.011894374934681106 0 -0.060867514512553234 -0.014432741136606607 0 -0.06143707306155758 -0.011894374934681106 0 -0.062216746048156447 -0.012927949391868979 0 -0.062203580630051845 -0.010926142222687427 0 -0.062203580630051845 -0.010926142222687427 0 -0.064426749046182993 -0.011330369458677592 0 -0.064013263450246036 -0.012970230826486531 0 -0.062216746048156447 -0.012927949391868979 0 -0.062203580630051845 -0.010926142222687427 0 -0.064013263450246036 -0.012970230826486531 0 -0.062866425701458131 -0.0089427094046962627 0 -0.062203580630051845 -0.010926142222687427 0 -0.064426749046182993 -0.011330369458677592 0 -0.062248082610765441 -0.004869892518488541 0 -0.062866425701458131 -0.0089427094046962627 0 -0.056720364241250695 -0.0064795942731700655 0 -0.06143707306155758 -0.011894374934681106 0 -0.062203580630051845 -0.010926142222687427 0 -0.061605287429051775 -0.010747882874141718 0 -0.058188212950633728 -0.0094446119615803105 0 -0.057745029817548359 -0.0093592878719516333 0 -0.062866425701458131 -0.0089427094046962627 0 -0.062203580630051845 -0.010926142222687427 0 -0.061605287429051775 -0.010747882874141718 0 -0.062757747068497335 -0.00093143544634488747 0 -0.062747874751807778 -0.0009276472155763495 0 -0.063133940961007468 -0.0011143470911770699 0 -0.062404862459487932 -0.00070007392515634558 0 -0.062730096369374655 -0.0012106521459410587 0 -0.06314043011009246 -0.00077734309384685932 0 -0.063133940961007468 -0.0011143470911770699 0 -0.062875728742451981 -0.00084308472267393601 0 -0.063133940961007468 -0.0011143470911770699 0 -0.062875728742451981 -0.00084308472267393601 0 -0.062748408489469332 -0.00091382161281935916 0 -0.062248082610765441 -0.004869892518488541 0 -0.062866425701458131 -0.0089427094046962627 0 -0.066537075508664542 -0.010055204563234712 0 -0.062866425701458131 -0.0089427094046962627 0 -0.066537075508664542 -0.010055204563234712 0 -0.064426749046182993 -0.011330369458677592 0 -0.06314043011009246 -0.00077734309384685932 0 -0.063133940961007468 -0.0011143470911770699 0 -0.063852574869040293 -0.0025837985325030581 0 -0.059315651232922012 -0.01153686741806682 0 -0.059352178600170231 -0.011165883379812931 0 -0.064426749046182993 -0.011330369458677592 0 -0.067042351593034871 -0.013980432810567552 0 -0.064013263450246036 -0.012970230826486531 0 -0.066537075508664542 -0.010055204563234712 0 -0.064426749046182993 -0.011330369458677592 0 -0.067042351593034871 -0.013980432810567552 0 -0.06314043011009246 -0.00077734309384685932 0 -0.062875728742451981 -0.00084308472267393601 0 -0.062729094229435761 -0.00093470251815038798 0 -0.059315651232922012 -0.01153686741806682 0 -0.059175510242605187 -0.012540534910542868 0 -0.062875728742451981 -0.00084308472267393601 0 -0.062748408489469332 -0.00091382161281935916 0 -0.062765539350440172 -0.00096706305060169134 0 -0.062404862459487932 -0.00070007392515634558 0 -0.062362728806345843 -0.00068162907298293318 0 -0.062449625245279854 -0.00085771850091414191 0 -0.062748408489469332 -0.00091382161281935916 0 -0.06284141719501439 -0.00096317593542750285 0 -0.062765539350440172 -0.00096706305060169134 0 -0.062747874751807778 -0.0009276472155763495 0 -0.06274764118882159 -0.00092844200807049092 0 -0.062404862459487932 -0.00070007392515634558 0 -0.062362728806345843 -0.00068162907298293318 0 -0.06235867820260494 -0.0007126900112865949 0 -0.062404862459487932 -0.00070007392515634558 0 -0.06235867820260494 -0.0007126900112865949 0 -0.062730096369374655 -0.0012106521459410587 0 -0.06235867820260494 -0.0007126900112865949 0 -0.062611149249133483 -0.00071283034789310388 0 -0.062730096369374655 -0.0012106521459410587 0 -0.062362728806345843 -0.00068162907298293318 0 -0.06235867820260494 -0.0007126900112865949 0 -0.062270325639468119 -0.00040527114239382255 0 -0.06235867820260494 -0.0007126900112865949 0 -0.062172759935872658 -0.00019662470487124683 0 -0.062270325639468119 -0.00040527114239382255 0 -0.062172759935872658 -0.00019662470487124683 0 -0.062611149249133483 -0.00071283034789310388 0 -0.062162711864574408 5.3075149658593511e-05 0 -0.06235867820260494 -0.0007126900112865949 0 -0.062172759935872658 -0.00019662470487124683 0 -0.062611149249133483 -0.00071283034789310388 0 -0.062611149249133483 -0.00071283034789310388 0 -0.06311712556166231 -0.00136192586982439 0 -0.062730096369374655 -0.0012106521459410587 0 -0.062611149249133483 -0.00071283034789310388 0 -0.06311712556166231 -0.00136192586982439 0 -0.062851290399344395 -0.00060741060211790346 0 -0.06311712556166231 -0.00136192586982439 0 -0.063021363684191242 -0.0011052194382070717 0 -0.062851290399344395 -0.00060741060211790346 0 -0.063133940961007468 -0.0011143470911770699 0 -0.062730096369374655 -0.0012106521459410587 0 -0.063852574869040293 -0.0025837985325030581 0 -0.06311712556166231 -0.00136192586982439 0 -0.062730096369374655 -0.0012106521459410587 0 -0.063852574869040293 -0.0025837985325030581 0 -0.062248082610765441 -0.004869892518488541 0 -0.066537075508664542 -0.010055204563234712 0 -0.063852574869040293 -0.0025837985325030581 0 -0.061882443012096493 -0.0014386067976947504 0 -0.062248082610765441 -0.004869892518488541 0 -0.063852574869040293 -0.0025837985325030581 0 -0.061882443012096493 -0.0014386067976947504 0 -0.063852574869040293 -0.0025837985325030581 0 -0.063021363684191242 -0.0011052194382070717 0 -0.06311712556166231 -0.00136192586982439 0 -0.063852574869040293 -0.0025837985325030581 0 -0.063021363684191242 -0.0011052194382070717 0 -0.061882443012096493 -0.0014386067976947504 0 -0.063021363684191242 -0.0011052194382070717 0 -0.062188256440554458 -0.00049189745871212442 0 -0.062826575337431342 -0.00037507982067743633 0 -0.062864816245225857 -0.00042217951430794189 0 -0.06253214497984759 -0.00030503572182207455 0 -0.063021363684191242 -0.0011052194382070717 0 -0.062188256440554458 -0.00049189745871212442 0 -0.062826575337431342 -0.00037507982067743633 0 -0.062188256440554458 -0.00049189745871212442 0 -0.062826575337431342 -0.00037507982067743633 0 -0.062469742872255728 0.00046319390031099365 0 -0.063021363684191242 -0.0011052194382070717 0 -0.062826575337431342 -0.00037507982067743633 0 -0.062851290399344395 -0.00060741060211790346 0 -0.059541281902858255 0.00084123191841319913 0 -0.059532601413517808 0.00084794971601299702 0 -0.062826575337431342 -0.00037507982067743633 0 -0.062851290399344395 -0.00060741060211790346 0 -0.06253214497984759 -0.00030503572182207455 0 -0.062851290399344395 -0.00060741060211790346 0 -0.06253214497984759 -0.00030503572182207455 0 -0.062501428128037523 -0.00032352072517892293 0 -0.062611149249133483 -0.00071283034789310388 0 -0.062851290399344395 -0.00060741060211790346 0 -0.062501428128037523 -0.00032352072517892293 0 -0.060389612032353372 0.0017809753981011475 0 -0.06050198377580155 0.001822875839550771 0 -0.060453800869180833 0.0018435480617089259 0 -0.059532601413517808 0.00084794971601299702 0 -0.060162315291290895 0.0010548003494111244 0 -0.06050198377580155 0.001822875839550771 0 -0.060453800869180833 0.0018435480617089259 0 -0.060519965077804896 0.0018762431491002006 0 -0.060331672798804074 0.00185095539122856 0 -0.06040623687104095 0.001842263325716907 0 -0.060451105874256061 0.001894525657110195 0 -0.060331672798804074 0.00185095539122856 0 -0.060389612032353372 0.0017809753981011475 0 -0.06040623687104095 0.001842263325716907 0 -0.060389612032353372 0.0017809753981011475 0 -0.060453800869180833 0.0018435480617089259 0 -0.06040623687104095 0.001842263325716907 0 -0.060453800869180833 0.0018435480617089259 0 -0.06040623687104095 0.001842263325716907 0 -0.060451105874256061 0.001894525657110195 0 -0.059300407960532479 0.0012894407282335865 0 -0.059914607631680078 0.0015735659159595153 0 -0.063899506041075832 0.0031802378702551061 0 -0.064272939707007815 0.0037980483994363512 0 -0.063146439689398745 0.0034131731361638821 0 -0.063899506041075832 0.0031802378702551061 0 -0.06340666865571587 0.0029987164034156848 0 -0.063146439689398745 0.0034131731361638821 0 -0.06340666865571587 0.0029987164034156848 0 -0.063146439689398745 0.0034131731361638821 0 -0.063117906407820473 0.0030346512056445103 0 -0.059914607631680078 0.0015735659159595153 0 -0.060204700503510448 0.0017240663758700135 0 -0.060451105874256061 0.001894525657110195 0 -0.060576586195475617 0.0019392349790686081 0 -0.060519965077804896 0.0018762431491002006 0 -0.060453800869180833 0.0018435480617089259 0 -0.060451105874256061 0.001894525657110195 0 -0.060519965077804896 0.0018762431491002006 0 -0.063146439689398745 0.0034131731361638821 0 -0.062763067428500977 0.0029068745455301634 0 -0.061940789121885588 0.0030737822500161703 0 -0.063146439689398745 0.0034131731361638821 0 -0.063117906407820473 0.0030346512056445103 0 -0.062763067428500977 0.0029068745455301634 0 -0.063144116074791298 0.0028284682119460876 0 -0.062763067428500977 0.0029068745455301634 0 -0.062991509950487773 0.0025376765507728314 0 -0.063117906407820473 0.0030346512056445103 0 -0.063144116074791298 0.0028284682119460876 0 -0.062763067428500977 0.0029068745455301634 0 -0.062580699302930365 0.0022607898786053651 0 -0.062763067428500977 0.0029068745455301634 0 -0.062315047189264797 0.0026676500676320429 0 -0.062580699302930365 0.0022607898786053651 0 -0.062763067428500977 0.0029068745455301634 0 -0.062991509950487773 0.0025376765507728314 0 -0.063144116074791298 0.0028284682119460876 0 -0.062991509950487773 0.0025376765507728314 0 -0.06342907189731524 0.0026394479215731668 0 -0.062945680339683605 0.0020902795025573191 0 -0.062991509950487773 0.0025376765507728314 0 -0.06342907189731524 0.0026394479215731668 0 -0.063503765005810092 0.0025711612000110049 0 -0.06340666865571587 0.0029987164034156848 0 -0.06342907189731524 0.0026394479215731668 0 -0.063728666338631126 0.0023211349154534096 0 -0.06340666865571587 0.0029987164034156848 0 -0.063801786903834104 0.0028174959250653431 0 -0.059825478839596408 0.0059249832232751761 0 -0.059898523895435971 0.0058055507945802181 0 -0.063899506041075832 0.0031802378702551061 0 -0.06340666865571587 0.0029987164034156848 0 -0.063801786903834104 0.0028174959250653431 0 -0.06340666865571587 0.0029987164034156848 0 -0.063144116074791298 0.0028284682119460876 0 -0.06342907189731524 0.0026394479215731668 0 -0.06340666865571587 0.0029987164034156848 0 -0.063117906407820473 0.0030346512056445103 0 -0.063144116074791298 0.0028284682119460876 0 -0.061440112343023268 0.0023395820060036401 0 -0.061940789121885588 0.0030737822500161703 0 -0.060608836837433122 0.0026263932570404179 0 -0.060204700503510448 0.0017240663758700135 0 -0.060313027406422942 0.0017927016145300363 0 -0.060576586195475617 0.0019392349790686081 0 -0.060644162522482836 0.0019283566194655498 0 -0.06065521665912503 0.001961563902833851 0 -0.062763067428500977 0.0029068745455301634 0 -0.061940789121885588 0.0030737822500161703 0 -0.062315047189264797 0.0026676500676320429 0 -0.062021803006117926 0.0022483367471837386 0 -0.061440112343023268 0.0023395820060036401 0 -0.061940789121885588 0.0030737822500161703 0 -0.062021803006117926 0.0022483367471837386 0 -0.061940789121885588 0.0030737822500161703 0 -0.062315047189264797 0.0026676500676320429 0 -0.062021803006117926 0.0022483367471837386 0 -0.062580699302930365 0.0022607898786053651 0 -0.062315047189264797 0.0026676500676320429 0 -0.060576586195475617 0.0019392349790686081 0 -0.060519965077804896 0.0018762431491002006 0 -0.060605963777722649 0.0018621687187451328 0 -0.060576586195475617 0.0019392349790686081 0 -0.060644162522482836 0.0019283566194655498 0 -0.060605963777722649 0.0018621687187451328 0 -0.061780114846736449 0.00053720078682668393 0 -0.062162711864574408 5.3075149658593511e-05 0 -0.061755765757572662 0.00075401220219889064 0 -0.060162315291290895 0.0010548003494111244 0 -0.060546130351638368 0.001196392416607733 0 -0.06050198377580155 0.001822875839550771 0 -0.060519965077804896 0.0018762431491002006 0 -0.060605963777722649 0.0018621687187451328 0 -0.06253214497984759 -0.00030503572182207455 0 -0.061780114846736449 0.00053720078682668393 0 -0.062162711864574408 5.3075149658593511e-05 0 -0.06253214497984759 -0.00030503572182207455 0 -0.062162711864574408 5.3075149658593511e-05 0 -0.062501428128037523 -0.00032352072517892293 0 -0.062611149249133483 -0.00071283034789310388 0 -0.062162711864574408 5.3075149658593511e-05 0 -0.062501428128037523 -0.00032352072517892293 0 -0.062172759935872658 -0.00019662470487124683 0 -0.062162711864574408 5.3075149658593511e-05 0 -0.061755765757572662 0.00075401220219889064 0 -0.061755765757572662 0.00075401220219889064 0 -0.061191648365565204 0.0012433312006849117 0 -0.061177026062420946 0.0014137562933705546 0 -0.061755765757572662 0.00075401220219889064 0 -0.061191648365565204 0.0012433312006849117 0 -0.06104964621651722 0.0014323302286020291 0 -0.053358992148251648 -0.0079123673901204273 0 -0.05310641021072289 -0.008020057007635183 0 -0.060745473866239609 0.0022106326041046245 0 -0.061206883152998659 0.0013072670260169418 0 -0.060754160374006681 0.0019239691891674991 0 -0.061755765757572662 0.00075401220219889064 0 -0.06104964621651722 0.0014323302286020291 0 -0.061206883152998659 0.0013072670260169418 0 -0.06104964621651722 0.0014323302286020291 0 -0.060745473866239609 0.0022106326041046245 0 -0.061206883152998659 0.0013072670260169418 0 -0.061780114846736449 0.00053720078682668393 0 -0.061755765757572662 0.00075401220219889064 0 -0.061206883152998659 0.0013072670260169418 0 -0.060546130351638368 0.001196392416607733 0 -0.060673785047037236 0.0012497477447588562 0 -0.060644162522482836 0.0019283566194655498 0 -0.060605963777722649 0.0018621687187451328 0 -0.060754160374006681 0.0019239691891674991 0 -0.060644162522482836 0.0019283566194655498 0 -0.060754160374006681 0.0019239691891674991 0 -0.06065521665912503 0.001961563902833851 0 -0.061780114846736449 0.00053720078682668393 0 -0.061206883152998659 0.0013072670260169418 0 -0.060754160374006681 0.0019239691891674991 0 -0.060754160374006681 0.0019239691891674991 0 -0.060184984118402798 0.0021395705430530265 0 -0.059840693730047662 0.0023907556941243939 0 -0.060745473866239609 0.0022106326041046245 0 -0.060754160374006681 0.0019239691891674991 0 -0.059840693730047662 0.0023907556941243939 0 -0.059397571448777789 0.002144734790974556 0 -0.060184984118402798 0.0021395705430530265 0 -0.059840693730047662 0.0023907556941243939 0 -0.059397571448777789 0.002144734790974556 0 -0.060184984118402798 0.0021395705430530265 0 -0.06065521665912503 0.001961563902833851 0 -0.060754160374006681 0.0019239691891674991 0 -0.060184984118402798 0.0021395705430530265 0 -0.06065521665912503 0.001961563902833851 0 -0.060325533460599108 0.0018089641343251796 0 -0.060313027406422942 0.0017927016145300363 0 -0.057987997496780914 0.0030223303930151267 0 -0.058798080404010286 0.0026010659807065959 0 -0.059042441491748539 0.0029266176872303484 0 -0.057640443258986138 0.002573183592759157 0 -0.057987997496780914 0.0030223303930151267 0 -0.058798080404010286 0.0026010659807065959 0 -0.058798080404010286 0.0026010659807065959 0 -0.059840693730047662 0.0023907556941243939 0 -0.059042441491748539 0.0029266176872303484 0 -0.059397571448777789 0.002144734790974556 0 -0.058798080404010286 0.0026010659807065959 0 -0.059840693730047662 0.0023907556941243939 0 -0.060745473866239609 0.0022106326041046245 0 -0.059840693730047662 0.0023907556941243939 0 -0.059042441491748539 0.0029266176872303484 0 -0.057987997496780914 0.0030223303930151267 0 -0.059042441491748539 0.0029266176872303484 0 -0.058053743000578986 0.0036926430964634559 0 -0.059042441491748539 0.0029266176872303484 0 -0.058053743000578986 0.0036926430964634559 0 -0.058612935768949187 0.0042100972029184645 0 -0.05722347991699387 0.0045981844830019266 0 -0.058053743000578986 0.0036926430964634559 0 -0.058612935768949187 0.0042100972029184645 0 -0.060745473866239609 0.0022106326041046245 0 -0.059042441491748539 0.0029266176872303484 0 -0.058612935768949187 0.0042100972029184645 0 -0.05233543864294958 -0.0043089529215833587 0 -0.052005127726510288 -0.0043677493071096795 0 -0.06104964621651722 0.0014323302286020291 0 -0.060745473866239609 0.0022106326041046245 0 -0.061512422684966254 0.0015958549314871923 0 -0.06104964621651722 0.0014323302286020291 0 -0.061512422684966254 0.0015958549314871923 0 -0.061275881849638475 0.0013621148841940092 0 -0.061191648365565204 0.0012433312006849117 0 -0.06104964621651722 0.0014323302286020291 0 -0.061275881849638475 0.0013621148841940092 0 -0.061275881849638475 0.0013621148841940092 0 -0.061426443442329788 0.0013979144561074859 0 -0.061318799744770509 0.0013401563611400726 0 -0.061275881849638475 0.0013621148841940092 0 -0.061318799744770509 0.0013401563611400726 0 -0.061228730092967587 0.0013327489618493976 0 -0.061191648365565204 0.0012433312006849117 0 -0.061275881849638475 0.0013621148841940092 0 -0.061228730092967587 0.0013327489618493976 0 -0.061191648365565204 0.0012433312006849117 0 -0.061228730092967587 0.0013327489618493976 0 -0.061197779316821507 0.0013369142688483117 0 -0.061526148814275594 0.0014460369950809 0 -0.061512422684966254 0.0015958549314871923 0 -0.061426443442329788 0.0013979144561074859 0 -0.061512422684966254 0.0015958549314871923 0 -0.061275881849638475 0.0013621148841940092 0 -0.061426443442329788 0.0013979144561074859 0 -0.061426443442329788 0.0013979144561074859 0 -0.061409511449165705 0.0013221755960131937 0 -0.061318799744770509 0.0013401563611400726 0 -0.061526148814275594 0.0014460369950809 0 -0.061426443442329788 0.0013979144561074859 0 -0.061485634808870704 0.0013705957832960366 0 -0.061426443442329788 0.0013979144561074859 0 -0.061485634808870704 0.0013705957832960366 0 -0.061409511449165705 0.0013221755960131937 0 -0.061498635728257534 0.0013113098229934974 0 -0.061409511449165705 0.0013221755960131937 0 -0.061438126951791114 0.0012538735412018004 0 -0.061498635728257534 0.0013113098229934974 0 -0.061485634808870704 0.0013705957832960366 0 -0.061409511449165705 0.0013221755960131937 0 -0.061409511449165705 0.0013221755960131937 0 -0.061325409775714948 0.0013055265156123961 0 -0.061318799744770509 0.0013401563611400726 0 -0.061409511449165705 0.0013221755960131937 0 -0.061375568560171061 0.0012661317253645193 0 -0.061325409775714948 0.0013055265156123961 0 -0.061375568560171061 0.0012661317253645193 0 -0.061318378032090323 0.0012777188833562672 0 -0.061325409775714948 0.0013055265156123961 0 -0.061375568560171061 0.0012661317253645193 0 -0.06139862104914319 0.0012020494167014994 0 -0.06136319480675656 0.0012250253595858028 0 -0.061375568560171061 0.0012661317253645193 0 -0.06136319480675656 0.0012250253595858028 0 -0.061318378032090323 0.0012777188833562672 0 -0.061409511449165705 0.0013221755960131937 0 -0.061375568560171061 0.0012661317253645193 0 -0.061438126951791114 0.0012538735412018004 0 -0.061375568560171061 0.0012661317253645193 0 -0.061438126951791114 0.0012538735412018004 0 -0.06139862104914319 0.0012020494167014994 0 -0.061517356925843328 0.0011552745645524714 0 -0.061452993519663664 0.0011996177866076478 0 -0.061382324384757339 0.0011376932647254082 0 -0.061452993519663664 0.0011996177866076478 0 -0.06139862104914319 0.0012020494167014994 0 -0.061382324384757339 0.0011376932647254082 0 -0.061885736919531129 0.00012665659153262727 0 -0.06243977940508838 -0.00012880604404692881 0 -0.062424754628882827 -1.657257312894445e-05 0 -0.061438126951791114 0.0012538735412018004 0 -0.061452993519663664 0.0011996177866076478 0 -0.06139862104914319 0.0012020494167014994 0 -0.06136319480675656 0.0012250253595858028 0 -0.061382324384757339 0.0011376932647254082 0 -0.061318378032090323 0.0012777188833562672 0 -0.06139862104914319 0.0012020494167014994 0 -0.06136319480675656 0.0012250253595858028 0 -0.061382324384757339 0.0011376932647254082 0 -0.063163837441434806 -0.00057699000879962107 0 -0.062956835244013298 -0.0004654551801154675 0 -0.062868987922950231 -0.00013924188443934071 0 -0.050944463866072577 -0.010721633652508349 0 -0.051279688934744071 -0.010588326586526579 0 -0.06243977940508838 -0.00012880604404692881 0 -0.062424754628882827 -1.657257312894445e-05 0 -0.062868987922950231 -0.00013924188443934071 0 -0.062956835244013298 -0.0004654551801154675 0 -0.062849384897854202 -0.00050231297049401174 0 -0.062945499408531599 -0.00060236565008054983 0 -0.062956835244013298 -0.0004654551801154675 0 -0.062849384897854202 -0.00050231297049401174 0 -0.062823845750909532 -0.00036097949060642277 0 -0.063163837441434806 -0.00057699000879962107 0 -0.062956835244013298 -0.0004654551801154675 0 -0.063057097153359221 -0.00061944205851588669 0 -0.062956835244013298 -0.0004654551801154675 0 -0.062868987922950231 -0.00013924188443934071 0 -0.062823845750909532 -0.00036097949060642277 0 -0.061382324384757339 0.0011376932647254082 0 -0.061247378479490383 0.0013357541783511969 0 -0.061177026062420946 0.0014137562933705546 0 -0.06243977940508838 -0.00012880604404692881 0 -0.062868987922950231 -0.00013924188443934071 0 -0.062919089337643438 -0.00011841474518457053 0 -0.052299159102596325 -0.0083202783144360123 0 -0.05310641021072289 -0.008020057007635183 0 -0.061382324384757339 0.0011376932647254082 0 -0.061247378479490383 0.0013357541783511969 0 -0.061318378032090323 0.0012777188833562672 0 -0.061247378479490383 0.0013357541783511969 0 -0.061318378032090323 0.0012777188833562672 0 -0.061271523004631144 0.0013293352380209628 0 -0.061318378032090323 0.0012777188833562672 0 -0.061325409775714948 0.0013055265156123961 0 -0.061271523004631144 0.0013293352380209628 0 -0.061271523004631144 0.0013293352380209628 0 -0.061318799744770509 0.0013401563611400726 0 -0.061228730092967587 0.0013327489618493976 0 -0.061325409775714948 0.0013055265156123961 0 -0.061271523004631144 0.0013293352380209628 0 -0.061318799744770509 0.0013401563611400726 0 -0.061247378479490383 0.0013357541783511969 0 -0.061216182702882808 0.0013513698244982588 0 -0.061177026062420946 0.0014137562933705546 0 -0.061216182702882808 0.0013513698244982588 0 -0.061197779316821507 0.0013369142688483117 0 -0.061177026062420946 0.0014137562933705546 0 -0.061247378479490383 0.0013357541783511969 0 -0.061271523004631144 0.0013293352380209628 0 -0.061216182702882808 0.0013513698244982588 0 -0.061216182702882808 0.0013513698244982588 0 -0.061228730092967587 0.0013327489618493976 0 -0.061197779316821507 0.0013369142688483117 0 -0.061271523004631144 0.0013293352380209628 0 -0.061216182702882808 0.0013513698244982588 0 -0.061228730092967587 0.0013327489618493976 0 -0.061191648365565204 0.0012433312006849117 0 -0.061197779316821507 0.0013369142688483117 0 -0.061177026062420946 0.0014137562933705546 0 -0.061755765757572662 0.00075401220219889064 0 -0.062919089337643438 -0.00011841474518457053 0 -0.062534690601786749 -0.00027006038224993486 0 -0.062919089337643438 -0.00011841474518457053 0 -0.062534690601786749 -0.00027006038224993486 0 -0.062740479848549607 -0.00025490854578025165 0 -0.062868987922950231 -0.00013924188443934071 0 -0.062919089337643438 -0.00011841474518457053 0 -0.062740479848549607 -0.00025490854578025165 0 -0.061755765757572662 0.00075401220219889064 0 -0.062534690601786749 -0.00027006038224993486 0 -0.062270325639468119 -0.00040527114239382255 0 -0.062172759935872658 -0.00019662470487124683 0 -0.061755765757572662 0.00075401220219889064 0 -0.062270325639468119 -0.00040527114239382255 0 -0.062534690601786749 -0.00027006038224993486 0 -0.062270325639468119 -0.00040527114239382255 0 -0.062494517602451984 -0.00058555345707856558 0 -0.062362728806345843 -0.00068162907298293318 0 -0.062270325639468119 -0.00040527114239382255 0 -0.062494517602451984 -0.00058555345707856558 0 -0.062534690601786749 -0.00027006038224993486 0 -0.062698450489858601 -0.00044690713805999098 0 -0.062494517602451984 -0.00058555345707856558 0 -0.062868987922950231 -0.00013924188443934071 0 -0.062740479848549607 -0.00025490854578025165 0 -0.062823845750909532 -0.00036097949060642277 0 -0.062740479848549607 -0.00025490854578025165 0 -0.062823845750909532 -0.00036097949060642277 0 -0.062698450489858601 -0.00044690713805999098 0 -0.062534690601786749 -0.00027006038224993486 0 -0.062740479848549607 -0.00025490854578025165 0 -0.062698450489858601 -0.00044690713805999098 0 -0.062849384897854202 -0.00050231297049401174 0 -0.062823845750909532 -0.00036097949060642277 0 -0.062698450489858601 -0.00044690713805999098 0 -0.062849384897854202 -0.00050231297049401174 0 -0.062698450489858601 -0.00044690713805999098 0 -0.062748469129019255 -0.00066568438590012256 0 -0.062698450489858601 -0.00044690713805999098 0 -0.062748469129019255 -0.00066568438590012256 0 -0.062494517602451984 -0.00058555345707856558 0 -0.062362728806345843 -0.00068162907298293318 0 -0.062494517602451984 -0.00058555345707856558 0 -0.062449625245279854 -0.00085771850091414191 0 -0.062748469129019255 -0.00066568438590012256 0 -0.062494517602451984 -0.00058555345707856558 0 -0.062449625245279854 -0.00085771850091414191 0 -0.062449625245279854 -0.00085771850091414191 0 -0.06292836555741238 -0.00083708709911760825 0 -0.062922761098904725 -0.001025129534735193 0 -0.062748469129019255 -0.00066568438590012256 0 -0.062449625245279854 -0.00085771850091414191 0 -0.06292836555741238 -0.00083708709911760825 0 -0.06274764118882159 -0.00092844200807049092 0 -0.062752236499408295 -0.0009306527065908863 0 -0.06292836555741238 -0.00083708709911760825 0 -0.063129860937609736 -0.00086595831371210968 0 -0.063057047309553707 -0.00072222265438230085 0 -0.06292836555741238 -0.00083708709911760825 0 -0.063129860937609736 -0.00086595831371210968 0 -0.062922761098904725 -0.001025129534735193 0 -0.063269789273222424 -0.00085689438013549022 0 -0.063252339717658826 -0.00096091885582879765 0 -0.063129860937609736 -0.00086595831371210968 0 -0.063269789273222424 -0.00085689438013549022 0 -0.063129860937609736 -0.00086595831371210968 0 -0.063229242406147301 -0.00075042518434787809 0 -0.063129860937609736 -0.00086595831371210968 0 -0.063141771898060348 -0.00070017796382520711 0 -0.063057047309553707 -0.00072222265438230085 0 -0.063141771898060348 -0.00070017796382520711 0 -0.063057097153359221 -0.00061944205851588669 0 -0.063057047309553707 -0.00072222265438230085 0 -0.063129860937609736 -0.00086595831371210968 0 -0.063141771898060348 -0.00070017796382520711 0 -0.063229242406147301 -0.00075042518434787809 0 -0.063163837441434806 -0.00057699000879962107 0 -0.063141771898060348 -0.00070017796382520711 0 -0.063229242406147301 -0.00075042518434787809 0 -0.063163837441434806 -0.00057699000879962107 0 -0.063141771898060348 -0.00070017796382520711 0 -0.063057097153359221 -0.00061944205851588669 0 -0.062956835244013298 -0.0004654551801154675 0 -0.063057097153359221 -0.00061944205851588669 0 -0.062945499408531599 -0.00060236565008054983 0 -0.063057097153359221 -0.00061944205851588669 0 -0.062945499408531599 -0.00060236565008054983 0 -0.063057047309553707 -0.00072222265438230085 0 -0.06292836555741238 -0.00083708709911760825 0 -0.062945499408531599 -0.00060236565008054983 0 -0.063057047309553707 -0.00072222265438230085 0 -0.062748469129019255 -0.00066568438590012256 0 -0.06292836555741238 -0.00083708709911760825 0 -0.062945499408531599 -0.00060236565008054983 0 -0.062849384897854202 -0.00050231297049401174 0 -0.062748469129019255 -0.00066568438590012256 0 -0.062945499408531599 -0.00060236565008054983 0 -0.063157477728787825 -0.0010984406994677242 0 -0.062922761098904725 -0.001025129534735193 0 -0.063022753005060814 -0.0012401532199059102 0 -0.063299493712943675 -0.0012226809308358692 0 -0.063157477728787825 -0.0010984406994677242 0 -0.063173994946857229 -0.0012364504663518554 0 -0.063157477728787825 -0.0010984406994677242 0 -0.063022753005060814 -0.0012401532199059102 0 -0.063173994946857229 -0.0012364504663518554 0 -0.063252339717658826 -0.00096091885582879765 0 -0.063129860937609736 -0.00086595831371210968 0 -0.063157477728787825 -0.0010984406994677242 0 -0.063129860937609736 -0.00086595831371210968 0 -0.063157477728787825 -0.0010984406994677242 0 -0.062922761098904725 -0.001025129534735193 0 -0.06284141719501439 -0.00096317593542750285 0 -0.062922761098904725 -0.001025129534735193 0 -0.062890952858918034 -0.0011123787215140211 0 -0.06284141719501439 -0.00096317593542750285 0 -0.062890952858918034 -0.0011123787215140211 0 -0.062799462787641008 -0.0011287717358798317 0 -0.062890952858918034 -0.0011123787215140211 0 -0.06288279282583617 -0.0012726278342425205 0 -0.062799462787641008 -0.0011287717358798317 0 -0.062922761098904725 -0.001025129534735193 0 -0.062890952858918034 -0.0011123787215140211 0 -0.063022753005060814 -0.0012401532199059102 0 -0.062890952858918034 -0.0011123787215140211 0 -0.06288279282583617 -0.0012726278342425205 0 -0.063022753005060814 -0.0012401532199059102 0 -0.06288279282583617 -0.0012726278342425205 0 -0.06302716854746146 -0.0014246916427937668 0 -0.063022753005060814 -0.0012401532199059102 0 -0.06288279282583617 -0.0012726278342425205 0 -0.062846664471274058 -0.0014479924798936506 0 -0.06272110767842555 -0.0013271481092647936 0 -0.06288279282583617 -0.0012726278342425205 0 -0.062846664471274058 -0.0014479924798936506 0 -0.06302716854746146 -0.0014246916427937668 0 -0.06302716854746146 -0.0014246916427937668 0 -0.063022753005060814 -0.0012401532199059102 0 -0.063230254205069614 -0.001383308368068607 0 -0.06302716854746146 -0.0014246916427937668 0 -0.063230254205069614 -0.001383308368068607 0 -0.063177294588612279 -0.0016028826625606918 0 -0.063299493712943675 -0.0012226809308358692 0 -0.063173994946857229 -0.0012364504663518554 0 -0.063230254205069614 -0.001383308368068607 0 -0.063022753005060814 -0.0012401532199059102 0 -0.063173994946857229 -0.0012364504663518554 0 -0.063230254205069614 -0.001383308368068607 0 -0.063265750661051667 -0.0017342415340797033 0 -0.06317539775976308 -0.0015379897093670354 0 -0.063117149152509155 -0.0017733951391565026 0 -0.063187299821846024 -0.0015572122004731464 0 -0.063172491099069486 -0.0015919987414647592 0 -0.06302716854746146 -0.0014246916427937668 0 -0.063177294588612279 -0.0016028826625606918 0 -0.062976209849408452 -0.0016656742743277819 0 -0.063177294588612279 -0.0016028826625606918 0 -0.063080007388594234 -0.0019273115657627133 0 -0.062976209849408452 -0.0016656742743277819 0 -0.063172491099069486 -0.0015919987414647592 0 -0.063164464682601451 -0.0016109374873708091 0 -0.063265750661051667 -0.0017342415340797033 0 -0.063117149152509155 -0.0017733951391565026 0 -0.063200890102944232 -0.0019384480181661127 0 -0.063117149152509155 -0.0017733951391565026 0 -0.063200890102944232 -0.0019384480181661127 0 -0.063080007388594234 -0.0019273115657627133 0 -0.046804890897532446 -0.031371612328966521 0 -0.047002368759408539 -0.030301401756929084 0 -0.049673161502335625 -0.029903901551146386 0 -0.063200890102944232 -0.0019384480181661127 0 -0.063080007388594234 -0.0019273115657627133 0 -0.063090915660621374 -0.0020425497478667211 0 -0.049894808811981196 -0.026817438855531707 0 -0.052216604821951951 -0.026528215893940794 0 -0.063080007388594234 -0.0019273115657627133 0 -0.063090915660621374 -0.0020425497478667211 0 -0.062961697708635272 -0.0019775569078467783 0 -0.047002368759408539 -0.030301401756929084 0 -0.049803198748391897 -0.029199314743536185 0 -0.049673161502335625 -0.029903901551146386 0 -0.047448044646811967 -0.03173428033682462 0 -0.049951104451057923 -0.030625934436612035 0 -0.059178075412194567 -0.038852275912588177 0 -0.05860231410610043 -0.039084782727116685 0 -0.059101277513565233 -0.039194474908558999 0 -0.059655393911556796 -0.039149145019040973 0 -0.059178075412194567 -0.038852275912588177 0 -0.059101277513565233 -0.039194474908558999 0 -0.062760275014508371 -0.002341293289365103 0 -0.062837190182359851 -0.0018626431842663201 0 -0.062421026292324558 -0.0019670759605778503 0 -0.063090915660621374 -0.0020425497478667211 0 -0.062760275014508371 -0.002341293289365103 0 -0.062961697708635272 -0.0019775569078467783 0 -0.049951104451057923 -0.030625934436612035 0 -0.052108123387297041 -0.029501247551236613 0 -0.049803198748391897 -0.029199314743536185 0 -0.049673161502335625 -0.029903901551146386 0 -0.052503936673277803 -0.028461110274847646 0 -0.049803198748391897 -0.029199314743536185 0 -0.052503936673277803 -0.028461110274847646 0 -0.052568224099034361 -0.028113143280434173 0 -0.062760275014508371 -0.002341293289365103 0 -0.062961697708635272 -0.0019775569078467783 0 -0.062837190182359851 -0.0018626431842663201 0 -0.052216604821951951 -0.026528215893940794 0 -0.053613716771861886 -0.027003370673940083 0 -0.063080007388594234 -0.0019273115657627133 0 -0.062961697708635272 -0.0019775569078467783 0 -0.062966026524892998 -0.0018441620866035636 0 -0.062961697708635272 -0.0019775569078467783 0 -0.062966026524892998 -0.0018441620866035636 0 -0.062837190182359851 -0.0018626431842663201 0 -0.062837190182359851 -0.0018626431842663201 0 -0.062771669584609502 -0.001697588618358717 0 -0.062722491601661837 -0.0018661915656580106 0 -0.058541524506800224 -0.021607457324474381 0 -0.058232132268472653 -0.021874370909883759 0 -0.062837190182359851 -0.0018626431842663201 0 -0.062771669584609502 -0.001697588618358717 0 -0.062976209849408452 -0.0016656742743277819 0 -0.062966026524892998 -0.0018441620866035636 0 -0.062837190182359851 -0.0018626431842663201 0 -0.062976209849408452 -0.0016656742743277819 0 -0.063080007388594234 -0.0019273115657627133 0 -0.062966026524892998 -0.0018441620866035636 0 -0.062976209849408452 -0.0016656742743277819 0 -0.062846664471274058 -0.0014479924798936506 0 -0.06302716854746146 -0.0014246916427937668 0 -0.062976209849408452 -0.0016656742743277819 0 -0.062846664471274058 -0.0014479924798936506 0 -0.062771669584609502 -0.001697588618358717 0 -0.062976209849408452 -0.0016656742743277819 0 -0.062846664471274058 -0.0014479924798936506 0 -0.062771669584609502 -0.001697588618358717 0 -0.062676862888748172 -0.0015593409313096945 0 -0.062676862888748172 -0.0015593409313096945 0 -0.06253805764783342 -0.0016792417973413166 0 -0.06254416194798175 -0.0014199781180199795 0 -0.062676862888748172 -0.0015593409313096945 0 -0.06253805764783342 -0.0016792417973413166 0 -0.062657741198963002 -0.0017450432745632202 0 -0.062771669584609502 -0.001697588618358717 0 -0.062676862888748172 -0.0015593409313096945 0 -0.062657741198963002 -0.0017450432745632202 0 -0.062771669584609502 -0.001697588618358717 0 -0.062657741198963002 -0.0017450432745632202 0 -0.062722491601661837 -0.0018661915656580106 0 -0.058232132268472653 -0.021874370909883759 0 -0.057291991258907722 -0.02268207394166382 0 -0.062657741198963002 -0.0017450432745632202 0 -0.062722491601661837 -0.0018661915656580106 0 -0.062568739966119905 -0.0019121919685236737 0 -0.06253805764783342 -0.0016792417973413166 0 -0.062657741198963002 -0.0017450432745632202 0 -0.062568739966119905 -0.0019121919685236737 0 -0.057976614231803197 -0.019052615012459476 0 -0.057291991258907722 -0.02268207394166382 0 -0.068383256303739218 -0.02208717656136077 0 -0.068811627446585644 -0.024511183079811937 0 -0.067356755635807661 -0.023593590124539141 0 -0.062001927843905395 -0.0020755256797805794 0 -0.062317169699063236 -0.0023448071967515876 0 -0.062121289378153699 -0.0027219110333634774 0 -0.062760275014508371 -0.002341293289365103 0 -0.062421026292324558 -0.0019670759605778503 0 -0.062317169699063236 -0.0023448071967515876 0 -0.062421026292324558 -0.0019670759605778503 0 -0.062001927843905395 -0.0020755256797805794 0 -0.062317169699063236 -0.0023448071967515876 0 -0.055585122026865157 -0.039651703448377117 0 -0.0553827043607657 -0.039711378780192541 0 -0.055482530718128337 -0.03980564995118855 0 -0.068811627446585644 -0.024511183079811937 0 -0.06630197944812706 -0.025116839568642746 0 -0.067356755635807661 -0.023593590124539141 0 -0.057291991258907722 -0.02268207394166382 0 -0.057294217712752865 -0.024558975919478098 0 -0.06630197944812706 -0.025116839568642746 0 -0.067356755635807661 -0.023593590124539141 0 -0.065968643577467151 -0.02272356481081075 0 -0.06630197944812706 -0.025116839568642746 0 -0.065968643577467151 -0.02272356481081075 0 -0.064469175971828149 -0.023707653947985553 0 -0.068383256303739218 -0.02208717656136077 0 -0.067356755635807661 -0.023593590124539141 0 -0.065968643577467151 -0.02272356481081075 0 -0.068383256303739218 -0.02208717656136077 0 -0.065968643577467151 -0.02272356481081075 0 -0.065793295837388979 -0.020388026766267119 0 -0.068383256303739218 -0.02208717656136077 0 -0.065793295837388979 -0.020388026766267119 0 -0.067986960914016389 -0.019581838930588576 0 -0.057976614231803197 -0.019052615012459476 0 -0.058517662944598363 -0.016258044875549986 0 -0.065968643577467151 -0.02272356481081075 0 -0.065793295837388979 -0.020388026766267119 0 -0.063783119702393726 -0.02130812044753087 0 -0.067535255758188847 -0.016908923832514879 0 -0.067986960914016389 -0.019581838930588576 0 -0.064609512083714155 -0.018319654631710067 0 -0.065793295837388979 -0.020388026766267119 0 -0.067986960914016389 -0.019581838930588576 0 -0.064609512083714155 -0.018319654631710067 0 -0.067535255758188847 -0.016908923832514879 0 -0.064838118982535636 -0.015684836711236164 0 -0.064609512083714155 -0.018319654631710067 0 -0.058914724241322054 -0.014116711039927718 0 -0.058517662944598363 -0.016258044875549986 0 -0.062601058677971819 -0.0011601754579597459 0 -0.06272110767842555 -0.0013271481092647936 0 -0.062799462787641008 -0.0011287717358798317 0 -0.062676862888748172 -0.0015593409313096945 0 -0.06254416194798175 -0.0014199781180199795 0 -0.06272110767842555 -0.0013271481092647936 0 -0.062601058677971819 -0.0011601754579597459 0 -0.06254416194798175 -0.0014199781180199795 0 -0.06272110767842555 -0.0013271481092647936 0 -0.062846664471274058 -0.0014479924798936506 0 -0.062676862888748172 -0.0015593409313096945 0 -0.06272110767842555 -0.0013271481092647936 0 -0.06288279282583617 -0.0012726278342425205 0 -0.06272110767842555 -0.0013271481092647936 0 -0.062799462787641008 -0.0011287717358798317 0 -0.062601058677971819 -0.0011601754579597459 0 -0.062799462787641008 -0.0011287717358798317 0 -0.062765539350440172 -0.00096706305060169134 0 -0.06284141719501439 -0.00096317593542750285 0 -0.062799462787641008 -0.0011287717358798317 0 -0.062765539350440172 -0.00096706305060169134 0 -0.062875728742451981 -0.00084308472267393601 0 -0.062765539350440172 -0.00096706305060169134 0 -0.062729094229435761 -0.00093470251815038798 0 -0.067042351593034871 -0.013980432810567552 0 -0.064838118982535636 -0.015684836711236164 0 -0.064013263450246036 -0.012970230826486531 0 -0.067535255758188847 -0.016908923832514879 0 -0.067042351593034871 -0.013980432810567552 0 -0.064838118982535636 -0.015684836711236164 0 -0.058914724241322054 -0.014116711039927718 0 -0.059175510242605187 -0.012540534910542868 0 -0.062601058677971819 -0.0011601754579597459 0 -0.062765539350440172 -0.00096706305060169134 0 -0.062729094229435761 -0.00093470251815038798 0 -0.062079010184774963 -0.016215051386142199 0 -0.064838118982535636 -0.015684836711236164 0 -0.063479716629015581 -0.014242713793840475 0 -0.064838118982535636 -0.015684836711236164 0 -0.064013263450246036 -0.012970230826486531 0 -0.063479716629015581 -0.014242713793840475 0 -0.062216746048156447 -0.012927949391868979 0 -0.064013263450246036 -0.012970230826486531 0 -0.063479716629015581 -0.014242713793840475 0 -0.062216746048156447 -0.012927949391868979 0 -0.062079010184774963 -0.016215051386142199 0 -0.063479716629015581 -0.014242713793840475 0 -0.062079010184774963 -0.016215051386142199 0 -0.060867514512553234 -0.014432741136606607 0 -0.060675089833240332 -0.017950174095236013 0 -0.060867514512553234 -0.014432741136606607 0 -0.060675089833240332 -0.017950174095236013 0 -0.059163430503260409 -0.016415684185900392 0 -0.062216746048156447 -0.012927949391868979 0 -0.062079010184774963 -0.016215051386142199 0 -0.060867514512553234 -0.014432741136606607 0 -0.059184414545134886 -0.013620167486480195 0 -0.060867514512553234 -0.014432741136606607 0 -0.059163430503260409 -0.016415684185900392 0 -0.059537517012864589 -0.019748313630879592 0 -0.059302722231176747 -0.019960401332772715 0 -0.062079010184774963 -0.016215051386142199 0 -0.060210136734512171 -0.01862507800663819 0 -0.06231449685128089 -0.019211175771982874 0 -0.060210136734512171 -0.01862507800663819 0 -0.061013164527282414 -0.021291652053789224 0 -0.058611991287327879 -0.020683538782121931 0 -0.060210136734512171 -0.01862507800663819 0 -0.06231449685128089 -0.019211175771982874 0 -0.061013164527282414 -0.021291652053789224 0 -0.06231449685128089 -0.019211175771982874 0 -0.064609512083714155 -0.018319654631710067 0 -0.063783119702393726 -0.02130812044753087 0 -0.062079010184774963 -0.016215051386142199 0 -0.06231449685128089 -0.019211175771982874 0 -0.064609512083714155 -0.018319654631710067 0 -0.062079010184774963 -0.016215051386142199 0 -0.064838118982535636 -0.015684836711236164 0 -0.064609512083714155 -0.018319654631710067 0 -0.06231449685128089 -0.019211175771982874 0 -0.063783119702393726 -0.02130812044753087 0 -0.061013164527282414 -0.021291652053789224 0 -0.065793295837388979 -0.020388026766267119 0 -0.064609512083714155 -0.018319654631710067 0 -0.063783119702393726 -0.02130812044753087 0 -0.063783119702393726 -0.02130812044753087 0 -0.062510679975592398 -0.02368596661144903 0 -0.061013164527282414 -0.021291652053789224 0 -0.063783119702393726 -0.02130812044753087 0 -0.064469175971828149 -0.023707653947985553 0 -0.062510679975592398 -0.02368596661144903 0 -0.065968643577467151 -0.02272356481081075 0 -0.063783119702393726 -0.02130812044753087 0 -0.064469175971828149 -0.023707653947985553 0 -0.064469175971828149 -0.023707653947985553 0 -0.062510679975592398 -0.02368596661144903 0 -0.063846920150476563 -0.025643682612877781 0 -0.062510679975592398 -0.02368596661144903 0 -0.063846920150476563 -0.025643682612877781 0 -0.061564445920564675 -0.026111933797970076 0 -0.057294217712752865 -0.024558975919478098 0 -0.056985611660136576 -0.026187241944988147 0 -0.06630197944812706 -0.025116839568642746 0 -0.064469175971828149 -0.023707653947985553 0 -0.063846920150476563 -0.025643682612877781 0 -0.062510679975592398 -0.02368596661144903 0 -0.060692125007820612 -0.024787494062757078 0 -0.061564445920564675 -0.026111933797970076 0 -0.062510679975592398 -0.02368596661144903 0 -0.060692125007820612 -0.024787494062757078 0 -0.060719110319846642 -0.023151220334191171 0 -0.060692125007820612 -0.024787494062757078 0 -0.060719110319846642 -0.023151220334191171 0 -0.059326784344240234 -0.02431596835082812 0 -0.060719110319846642 -0.023151220334191171 0 -0.061013164527282414 -0.021291652053789224 0 -0.059132772384069103 -0.022666901981680518 0 -0.062510679975592398 -0.02368596661144903 0 -0.060719110319846642 -0.023151220334191171 0 -0.061013164527282414 -0.021291652053789224 0 -0.061013164527282414 -0.021291652053789224 0 -0.058611991287327879 -0.020683538782121931 0 -0.059132772384069103 -0.022666901981680518 0 -0.058802505142181306 -0.020414178740043545 0 -0.058306243486958856 -0.020863963918390228 0 -0.058611991287327879 -0.020683538782121931 0 -0.059132772384069103 -0.022666901981680518 0 -0.05713738896502997 -0.022567316128355677 0 -0.059132772384069103 -0.022666901981680518 0 -0.058101678685460213 -0.023712701427095039 0 -0.05713738896502997 -0.022567316128355677 0 -0.059132772384069103 -0.022666901981680518 0 -0.059326784344240234 -0.02431596835082812 0 -0.058101678685460213 -0.023712701427095039 0 -0.060719110319846642 -0.023151220334191171 0 -0.059132772384069103 -0.022666901981680518 0 -0.059326784344240234 -0.02431596835082812 0 -0.059326784344240234 -0.02431596835082812 0 -0.058101678685460213 -0.023712701427095039 0 -0.057849052355538624 -0.025227616842448921 0 -0.055202366370106726 -0.029076687043477056 0 -0.055143456837512483 -0.029314566484538264 0 -0.059326784344240234 -0.02431596835082812 0 -0.057849052355538624 -0.025227616842448921 0 -0.059529974184797302 -0.02650345182688095 0 -0.060692125007820612 -0.024787494062757078 0 -0.059326784344240234 -0.02431596835082812 0 -0.059529974184797302 -0.02650345182688095 0 -0.05499971385227629 -0.027275428156298832 0 -0.056124394276411207 -0.026004408603624272 0 -0.055185377979332435 -0.024783561118116904 0 -0.05499971385227629 -0.027275428156298832 0 -0.056124394276411207 -0.026004408603624272 0 -0.056621210950151539 -0.027969023254523166 0 -0.058437470510787605 -0.026778013676295464 0 -0.057231462513322152 -0.025800526325483738 0 -0.056621210950151539 -0.027969023254523166 0 -0.056124394276411207 -0.026004408603624272 0 -0.057231462513322152 -0.025800526325483738 0 -0.056621210950151539 -0.027969023254523166 0 -0.058101678685460213 -0.023712701427095039 0 -0.057231462513322152 -0.025800526325483738 0 -0.056786361919119309 -0.02450480141043614 0 -0.056786361919119309 -0.02450480141043614 0 -0.055185377979332435 -0.024783561118116904 0 -0.05713738896502997 -0.022567316128355677 0 -0.056124394276411207 -0.026004408603624272 0 -0.057231462513322152 -0.025800526325483738 0 -0.056786361919119309 -0.02450480141043614 0 -0.058101678685460213 -0.023712701427095039 0 -0.058437470510787605 -0.026778013676295464 0 -0.057231462513322152 -0.025800526325483738 0 -0.056124394276411207 -0.026004408603624272 0 -0.056786361919119309 -0.02450480141043614 0 -0.055185377979332435 -0.024783561118116904 0 -0.05499971385227629 -0.027275428156298832 0 -0.054999802497371415 -0.024073432501196826 0 -0.055185377979332435 -0.024783561118116904 0 -0.054999802497371415 -0.024073432501196826 0 -0.055185377979332435 -0.024783561118116904 0 -0.057359496429442935 -0.022421857996019791 0 -0.054999802497371415 -0.024073432501196826 0 -0.057359496429442935 -0.022421857996019791 0 -0.054999683382209549 -0.020871627573281513 0 -0.058071123583289447 -0.021075095619123446 0 -0.058306243486958856 -0.020863963918390228 0 -0.058101678685460213 -0.023712701427095039 0 -0.056786361919119309 -0.02450480141043614 0 -0.05713738896502997 -0.022567316128355677 0 -0.059173090903127654 -0.020053919719784676 0 -0.057359496429442935 -0.022421857996019791 0 -0.056782110406626528 -0.019916025582191323 0 -0.057359496429442935 -0.022421857996019791 0 -0.054999683382209549 -0.020871627573281513 0 -0.056782110406626528 -0.019916025582191323 0 -0.054999683382209549 -0.020871627573281513 0 -0.054999713392431954 -0.01766971296495376 0 -0.056782110406626528 -0.019916025582191323 0 -0.054999713392431954 -0.01766971296495376 0 -0.057293521296158473 -0.017616238466453962 0 -0.056782110406626528 -0.019916025582191323 0 -0.060675089833240332 -0.017950174095236013 0 -0.059173090903127654 -0.020053919719784676 0 -0.059163430503260409 -0.016415684185900392 0 -0.059173090903127654 -0.020053919719784676 0 -0.057293521296158473 -0.017616238466453962 0 -0.056782110406626528 -0.019916025582191323 0 -0.059173090903127654 -0.020053919719784676 0 -0.057293521296158473 -0.017616238466453962 0 -0.059163430503260409 -0.016415684185900392 0 -0.059302722231176747 -0.019960401332772715 0 -0.058802505142181306 -0.020414178740043545 0 -0.057293521296158473 -0.017616238466453962 0 -0.059163430503260409 -0.016415684185900392 0 -0.057573855032793095 -0.015094666417168286 0 -0.057750889599860564 -0.013091672316718327 0 -0.059184414545134886 -0.013620167486480195 0 -0.057573855032793095 -0.015094666417168286 0 -0.059184414545134886 -0.013620167486480195 0 -0.059163430503260409 -0.016415684185900392 0 -0.057573855032793095 -0.015094666417168286 0 -0.056035105056549211 -0.013018621481444219 0 -0.057573855032793095 -0.015094666417168286 0 -0.056083197376830776 -0.015730662399267185 0 -0.056035105056549211 -0.013018621481444219 0 -0.054999506281630132 -0.014469267040440123 0 -0.056083197376830776 -0.015730662399267185 0 -0.054999713392431954 -0.01766971296495376 0 -0.054999506281630132 -0.014469267040440123 0 -0.056083197376830776 -0.015730662399267185 0 -0.054999713392431954 -0.01766971296495376 0 -0.057293521296158473 -0.017616238466453962 0 -0.056083197376830776 -0.015730662399267185 0 -0.057293521296158473 -0.017616238466453962 0 -0.057573855032793095 -0.015094666417168286 0 -0.056083197376830776 -0.015730662399267185 0 -0.055118223649982027 -0.040814266486381812 0 -0.05520249446578844 -0.039049441233671538 0 -0.055566031494715618 -0.039014979807903687 0 -0.055118223649982027 -0.040814266486381812 0 -0.05520249446578844 -0.039049441233671538 0 -0.054998682934187297 -0.039424425372359066 0 -0.05520249446578844 -0.039049441233671538 0 -0.054998682934187297 -0.039424425372359066 0 -0.05499922006085662 -0.036443694350268681 0 -0.055118223649982027 -0.040814266486381812 0 -0.054998682934187297 -0.039424425372359066 0 -0.055019481295586918 -0.042726757956287477 0 -0.054998682934187297 -0.039424425372359066 0 -0.055019481295586918 -0.042726757956287477 0 -0.054998556340856923 -0.04240591521602128 0 -0.055118223649982027 -0.040814266486381812 0 -0.05457706836770148 -0.043280401075250677 0 -0.055019481295586918 -0.042726757956287477 0 -0.055118223649982027 -0.040814266486381812 0 -0.054817811700885108 -0.04134590111226117 0 -0.05457706836770148 -0.043280401075250677 0 -0.054108772440226265 -0.043226171902974501 0 -0.054817811700885108 -0.04134590111226117 0 -0.05457706836770148 -0.043280401075250677 0 -0.054434414285387069 -0.041754151133337955 0 -0.054817811700885108 -0.04134590111226117 0 -0.054931691931200448 -0.040223806381330482 0 -0.054108772440226265 -0.043226171902974501 0 -0.054434414285387069 -0.041754151133337955 0 -0.054817811700885108 -0.04134590111226117 0 -0.055118223649982027 -0.040814266486381812 0 -0.054817811700885108 -0.04134590111226117 0 -0.055566031494715618 -0.039014979807903687 0 -0.054931691931200448 -0.040223806381330482 0 -0.055367215003332956 -0.039000344190878063 0 -0.055566031494715618 -0.039014979807903687 0 -0.054817811700885108 -0.04134590111226117 0 -0.054931691931200448 -0.040223806381330482 0 -0.055566031494715618 -0.039014979807903687 0 -0.054434414285387069 -0.041754151133337955 0 -0.054931691931200448 -0.040223806381330482 0 -0.054367621606506433 -0.041402287962096516 0 -0.054931691931200448 -0.040223806381330482 0 -0.054725119174961735 -0.040088379926236165 0 -0.054367621606506433 -0.041402287962096516 0 -0.054931691931200448 -0.040223806381330482 0 -0.054725119174961735 -0.040088379926236165 0 -0.055367215003332956 -0.039000344190878063 0 -0.054725119174961735 -0.040088379926236165 0 -0.055367215003332956 -0.039000344190878063 0 -0.054916177401967657 -0.039459519583640836 0 -0.054725119174961735 -0.040088379926236165 0 -0.054916177401967657 -0.039459519583640836 0 -0.054723543062337884 -0.040025866945664464 0 -0.055367215003332956 -0.039000344190878063 0 -0.056307733624836528 -0.037364604995150451 0 -0.055566031494715618 -0.039014979807903687 0 -0.055367215003332956 -0.039000344190878063 0 -0.056307733624836528 -0.037364604995150451 0 -0.054916177401967657 -0.039459519583640836 0 -0.056307733624836528 -0.037364604995150451 0 -0.055566031494715618 -0.039014979807903687 0 -0.05499922006085662 -0.036443694350268681 0 -0.05520249446578844 -0.039049441233671538 0 -0.055566031494715618 -0.039014979807903687 0 -0.05499922006085662 -0.036443694350268681 0 -0.056307733624836528 -0.037364604995150451 0 -0.05499922006085662 -0.036443694350268681 0 -0.054998959077178368 -0.033461441198939137 0 -0.056307733624836528 -0.037364604995150451 0 -0.054998959077178368 -0.033461441198939137 0 -0.05589291295670059 -0.032344741107523785 0 -0.056307733624836528 -0.037364604995150451 0 -0.058010012858078566 -0.032743823399943701 0 -0.05589291295670059 -0.032344741107523785 0 -0.054999830258672479 -0.030875714216877355 0 -0.05499471542814191 -0.030637741294531229 0 -0.058010012858078566 -0.032743823399943701 0 -0.05589291295670059 -0.032344741107523785 0 -0.056365705344416824 -0.030248436663910132 0 -0.054998959077178368 -0.033461441198939137 0 -0.05589291295670059 -0.032344741107523785 0 -0.05499958264765626 -0.030477862166711583 0 -0.054999963791429698 -0.030477254846404258 0 -0.056588716069027524 -0.029953759369697051 0 -0.056621210950151539 -0.027969023254523166 0 -0.05589291295670059 -0.032344741107523785 0 -0.05499958264765626 -0.030477862166711583 0 -0.056365705344416824 -0.030248436663910132 0 -0.054999731077852151 -0.030474094088668066 0 -0.055019609952286483 -0.030188809847258951 0 -0.05499471542814191 -0.030637741294531229 0 -0.054972384245792032 -0.029916877701569804 0 -0.056588716069027524 -0.029953759369697051 0 -0.056621210950151539 -0.027969023254523166 0 -0.058268421175937259 -0.029492737454297303 0 -0.058010012858078566 -0.032743823399943701 0 -0.056365705344416824 -0.030248436663910132 0 -0.058362205241443386 -0.02975209993409449 0 -0.055019609952286483 -0.030188809847258951 0 -0.054972384245792032 -0.029916877701569804 0 -0.058437470510787605 -0.026778013676295464 0 -0.056621210950151539 -0.027969023254523166 0 -0.058268421175937259 -0.029492737454297303 0 -0.05499971385227629 -0.027275428156298832 0 -0.054999963791429698 -0.030477254846404258 0 -0.056621210950151539 -0.027969023254523166 0 -0.055143456837512483 -0.029314566484538264 0 -0.054972384245792032 -0.029916877701569804 0 -0.057849052355538624 -0.025227616842448921 0 -0.059529974184797302 -0.02650345182688095 0 -0.05766816328997431 -0.026955233765392845 0 -0.055921034624001102 -0.039727927521865089 0 -0.055630735369664307 -0.040380698413895674 0 -0.055069291267291418 -0.040059449628519761 0 -0.055792337144259713 -0.028832419931754234 0 -0.054972384245792032 -0.029916877701569804 0 -0.054951223290995978 -0.040269589834854604 0 -0.055630735369664307 -0.040380698413895674 0 -0.055069291267291418 -0.040059449628519761 0 -0.054951223290995978 -0.040269589834854604 0 -0.055069291267291418 -0.040059449628519761 0 -0.054814732178428374 -0.040089958058299853 0 -0.055069291267291418 -0.040059449628519761 0 -0.054916177401967657 -0.039459519583640836 0 -0.054755462733333739 -0.040001634465895247 0 -0.055921034624001102 -0.039727927521865089 0 -0.055069291267291418 -0.040059449628519761 0 -0.054916177401967657 -0.039459519583640836 0 -0.056307733624836528 -0.037364604995150451 0 -0.055921034624001102 -0.039727927521865089 0 -0.054916177401967657 -0.039459519583640836 0 -0.054916177401967657 -0.039459519583640836 0 -0.054723543062337884 -0.040025866945664464 0 -0.054755462733333739 -0.040001634465895247 0 -0.054723543062337884 -0.040025866945664464 0 -0.054714282245373794 -0.040221551887260495 0 -0.054606679137853741 -0.040510896574057341 0 -0.054723543062337884 -0.040025866945664464 0 -0.054714282245373794 -0.040221551887260495 0 -0.054755462733333739 -0.040001634465895247 0 -0.054748964071396358 -0.040523427191985879 0 -0.054714282245373794 -0.040221551887260495 0 -0.054880734211826397 -0.040340588472260547 0 -0.054748964071396358 -0.040523427191985879 0 -0.054714282245373794 -0.040221551887260495 0 -0.054606679137853741 -0.040510896574057341 0 -0.054714282245373794 -0.040221551887260495 0 -0.054803097717532293 -0.040119687721890999 0 -0.054880734211826397 -0.040340588472260547 0 -0.054803097717532293 -0.040119687721890999 0 -0.054814732178428374 -0.040089958058299853 0 -0.054926553432592867 -0.040067496305992718 0 -0.054803097717532293 -0.040119687721890999 0 -0.054945812886920326 -0.040161261560309247 0 -0.054880734211826397 -0.040340588472260547 0 -0.054803097717532293 -0.040119687721890999 0 -0.054926553432592867 -0.040067496305992718 0 -0.054945812886920326 -0.040161261560309247 0 -0.054803097717532293 -0.040119687721890999 0 -0.054755462733333739 -0.040001634465895247 0 -0.054814732178428374 -0.040089958058299853 0 -0.054714282245373794 -0.040221551887260495 0 -0.054803097717532293 -0.040119687721890999 0 -0.054755462733333739 -0.040001634465895247 0 -0.055069291267291418 -0.040059449628519761 0 -0.054755462733333739 -0.040001634465895247 0 -0.054814732178428374 -0.040089958058299853 0 -0.054814732178428374 -0.040089958058299853 0 -0.054926553432592867 -0.040067496305992718 0 -0.054958208920927065 -0.039985699673373523 0 -0.054814732178428374 -0.040089958058299853 0 -0.0548637516189244 -0.039965464493159693 0 -0.054958208920927065 -0.039985699673373523 0 -0.055792337144259713 -0.028832419931754234 0 -0.056467313674504242 -0.027600343355344208 0 -0.060692125007820612 -0.024787494062757078 0 -0.059529974184797302 -0.02650345182688095 0 -0.061564445920564675 -0.026111933797970076 0 -0.054951223290995978 -0.040269589834854604 0 -0.054814732178428374 -0.040089958058299853 0 -0.0548637516189244 -0.039965464493159693 0 -0.055153066894530832 -0.039779908239678051 0 -0.055108766981583353 -0.03998444261815904 0 -0.055259451273759759 -0.039937175161120726 0 -0.055153066894530832 -0.039779908239678051 0 -0.055259451273759759 -0.039937175161120726 0 -0.055368271168122082 -0.039871280862937473 0 -0.056985611660136576 -0.026187241944988147 0 -0.056467313674504242 -0.027600343355344208 0 -0.055153066894530832 -0.039779908239678051 0 -0.055108766981583353 -0.03998444261815904 0 -0.054958208920927065 -0.039985699673373523 0 -0.055153066894530832 -0.039779908239678051 0 -0.0548637516189244 -0.039965464493159693 0 -0.054958208920927065 -0.039985699673373523 0 -0.054926553432592867 -0.040067496305992718 0 -0.055108766981583353 -0.03998444261815904 0 -0.054958208920927065 -0.039985699673373523 0 -0.054926553432592867 -0.040067496305992718 0 -0.055108766981583353 -0.03998444261815904 0 -0.05507988633017933 -0.040079198752018382 0 -0.055108766981583353 -0.03998444261815904 0 -0.055218835830121583 -0.040017797037695285 0 -0.05507988633017933 -0.040079198752018382 0 -0.055218835830121583 -0.040017797037695285 0 -0.055312124412853936 -0.039998675691872078 0 -0.055288402876696396 -0.040052656166544166 0 -0.055108766981583353 -0.03998444261815904 0 -0.055218835830121583 -0.040017797037695285 0 -0.055259451273759759 -0.039937175161120726 0 -0.055259451273759759 -0.039937175161120726 0 -0.055312124412853936 -0.039998675691872078 0 -0.055342198849576266 -0.039945491156277352 0 -0.055218835830121583 -0.040017797037695285 0 -0.055259451273759759 -0.039937175161120726 0 -0.055312124412853936 -0.039998675691872078 0 -0.055218835830121583 -0.040017797037695285 0 -0.055183477945124487 -0.040106709193159125 0 -0.055288402876696396 -0.040052656166544166 0 -0.055183477945124487 -0.040106709193159125 0 -0.055288402876696396 -0.040052656166544166 0 -0.055310005111495433 -0.04024005015598596 0 -0.055288402876696396 -0.040052656166544166 0 -0.055310005111495433 -0.04024005015598596 0 -0.05545813178701333 -0.040207467949264761 0 -0.055183477945124487 -0.040106709193159125 0 -0.055310005111495433 -0.04024005015598596 0 -0.055095901723982689 -0.040259646677523561 0 -0.055310005111495433 -0.04024005015598596 0 -0.055095901723982689 -0.040259646677523561 0 -0.055405270491494539 -0.040475785173450005 0 -0.055710486527752248 -0.040323171261452018 0 -0.05545813178701333 -0.040207467949264761 0 -0.055872292398892055 -0.040182494270266884 0 -0.055526700709992501 -0.040347775773596543 0 -0.055710486527752248 -0.040323171261452018 0 -0.05545813178701333 -0.040207467949264761 0 -0.055310005111495433 -0.04024005015598596 0 -0.055526700709992501 -0.040347775773596543 0 -0.05545813178701333 -0.040207467949264761 0 -0.054926553432592867 -0.040067496305992718 0 -0.05507988633017933 -0.040079198752018382 0 -0.054945812886920326 -0.040161261560309247 0 -0.055218835830121583 -0.040017797037695285 0 -0.055183477945124487 -0.040106709193159125 0 -0.05507988633017933 -0.040079198752018382 0 -0.055183477945124487 -0.040106709193159125 0 -0.05507988633017933 -0.040079198752018382 0 -0.055095901723982689 -0.040259646677523561 0 -0.05507988633017933 -0.040079198752018382 0 -0.055095901723982689 -0.040259646677523561 0 -0.054945812886920326 -0.040161261560309247 0 -0.055095901723982689 -0.040259646677523561 0 -0.054945812886920326 -0.040161261560309247 0 -0.054880734211826397 -0.040340588472260547 0 -0.055095901723982689 -0.040259646677523561 0 -0.055094283612562862 -0.040481169606043782 0 -0.055405270491494539 -0.040475785173450005 0 -0.055095901723982689 -0.040259646677523561 0 -0.054880734211826397 -0.040340588472260547 0 -0.055094283612562862 -0.040481169606043782 0 -0.055094283612562862 -0.040481169606043782 0 -0.054951779615790619 -0.040655915366492226 0 -0.055224899145179376 -0.040705024211631996 0 -0.054748964071396358 -0.040523427191985879 0 -0.054880734211826397 -0.040340588472260547 0 -0.054951779615790619 -0.040655915366492226 0 -0.054880734211826397 -0.040340588472260547 0 -0.055094283612562862 -0.040481169606043782 0 -0.054951779615790619 -0.040655915366492226 0 -0.055526700709992501 -0.040347775773596543 0 -0.055405270491494539 -0.040475785173450005 0 -0.055777239155885887 -0.04049982866706401 0 -0.055405270491494539 -0.040475785173450005 0 -0.055691666913834877 -0.040797559131599444 0 -0.055777239155885887 -0.04049982866706401 0 -0.055526700709992501 -0.040347775773596543 0 -0.055710486527752248 -0.040323171261452018 0 -0.055777239155885887 -0.04049982866706401 0 -0.055310005111495433 -0.04024005015598596 0 -0.055526700709992501 -0.040347775773596543 0 -0.055405270491494539 -0.040475785173450005 0 -0.055094283612562862 -0.040481169606043782 0 -0.055405270491494539 -0.040475785173450005 0 -0.055224899145179376 -0.040705024211631996 0 -0.055405270491494539 -0.040475785173450005 0 -0.055224899145179376 -0.040705024211631996 0 -0.055691666913834877 -0.040797559131599444 0 -0.055691666913834877 -0.040797559131599444 0 -0.055380217997184379 -0.041022834991269533 0 -0.05571313782586261 -0.041248904513786454 0 -0.055224899145179376 -0.040705024211631996 0 -0.055380217997184379 -0.041022834991269533 0 -0.055090385748520758 -0.040958267429777727 0 -0.055224899145179376 -0.040705024211631996 0 -0.055691666913834877 -0.040797559131599444 0 -0.055380217997184379 -0.041022834991269533 0 -0.055380217997184379 -0.041022834991269533 0 -0.05571313782586261 -0.041248904513786454 0 -0.055177345121829535 -0.041443422570205654 0 -0.055380217997184379 -0.041022834991269533 0 -0.055177345121829535 -0.041443422570205654 0 -0.055090385748520758 -0.040958267429777727 0 -0.05571313782586261 -0.041248904513786454 0 -0.055648844419615019 -0.041815573623996946 0 -0.055177345121829535 -0.041443422570205654 0 -0.055648844419615019 -0.041815573623996946 0 -0.055177345121829535 -0.041443422570205654 0 -0.054965523466500014 -0.042532563480900613 0 -0.055177345121829535 -0.041443422570205654 0 -0.0546396712595787 -0.041825284571168429 0 -0.054965523466500014 -0.042532563480900613 0 -0.055177345121829535 -0.041443422570205654 0 -0.0546396712595787 -0.041825284571168429 0 -0.054755583208002973 -0.041010517524916877 0 -0.055177345121829535 -0.041443422570205654 0 -0.054755583208002973 -0.041010517524916877 0 -0.055090385748520758 -0.040958267429777727 0 -0.054951779615790619 -0.040655915366492226 0 -0.055224899145179376 -0.040705024211631996 0 -0.055090385748520758 -0.040958267429777727 0 -0.054748964071396358 -0.040523427191985879 0 -0.054951779615790619 -0.040655915366492226 0 -0.054755583208002973 -0.041010517524916877 0 -0.054951779615790619 -0.040655915366492226 0 -0.054755583208002973 -0.041010517524916877 0 -0.055090385748520758 -0.040958267429777727 0 -0.054748964071396358 -0.040523427191985879 0 -0.054755583208002973 -0.041010517524916877 0 -0.054606679137853741 -0.040510896574057341 0 -0.054755583208002973 -0.041010517524916877 0 -0.054606679137853741 -0.040510896574057341 0 -0.054463029458384875 -0.041354204213929151 0 -0.054725119174961735 -0.040088379926236165 0 -0.054606679137853741 -0.040510896574057341 0 -0.054367621606506433 -0.041402287962096516 0 -0.054725119174961735 -0.040088379926236165 0 -0.054723543062337884 -0.040025866945664464 0 -0.054606679137853741 -0.040510896574057341 0 -0.054606679137853741 -0.040510896574057341 0 -0.054367621606506433 -0.041402287962096516 0 -0.054463029458384875 -0.041354204213929151 0 -0.054367621606506433 -0.041402287962096516 0 -0.054463029458384875 -0.041354204213929151 0 -0.053978136665496113 -0.042796526104110236 0 -0.0546396712595787 -0.041825284571168429 0 -0.054463029458384875 -0.041354204213929151 0 -0.053978136665496113 -0.042796526104110236 0 -0.0546396712595787 -0.041825284571168429 0 -0.054755583208002973 -0.041010517524916877 0 -0.054463029458384875 -0.041354204213929151 0 -0.054367621606506433 -0.041402287962096516 0 -0.053978136665496113 -0.042796526104110236 0 -0.053847546925606171 -0.043012980724755789 0 -0.054108772440226265 -0.043226171902974501 0 -0.054434414285387069 -0.041754151133337955 0 -0.053847546925606171 -0.043012980724755789 0 -0.054434414285387069 -0.041754151133337955 0 -0.054367621606506433 -0.041402287962096516 0 -0.053847546925606171 -0.043012980724755789 0 -0.054108772440226265 -0.043226171902974501 0 -0.053847546925606171 -0.043012980724755789 0 -0.053073247283928565 -0.045013745481851983 0 -0.053847546925606171 -0.043012980724755789 0 -0.053397153446973405 -0.044093333411770429 0 -0.053073247283928565 -0.045013745481851983 0 -0.053978136665496113 -0.042796526104110236 0 -0.053397153446973405 -0.044093333411770429 0 -0.053680586661761058 -0.044213006128795189 0 -0.053397153446973405 -0.044093333411770429 0 -0.052827193075610096 -0.045471568091700533 0 -0.053073247283928565 -0.045013745481851983 0 -0.053978136665496113 -0.042796526104110236 0 -0.053847546925606171 -0.043012980724755789 0 -0.053397153446973405 -0.044093333411770429 0 -0.053397153446973405 -0.044093333411770429 0 -0.053680586661761058 -0.044213006128795189 0 -0.052827193075610096 -0.045471568091700533 0 -0.053680586661761058 -0.044213006128795189 0 -0.054965523466500014 -0.042532563480900613 0 -0.056114226783297479 -0.044215377584528752 0 -0.053680586661761058 -0.044213006128795189 0 -0.056114226783297479 -0.044215377584528752 0 -0.052383630861651827 -0.047012362294764735 0 -0.054965523466500014 -0.042532563480900613 0 -0.056184853074923026 -0.042528292385284924 0 -0.056114226783297479 -0.044215377584528752 0 -0.055648844419615019 -0.041815573623996946 0 -0.054965523466500014 -0.042532563480900613 0 -0.056184853074923026 -0.042528292385284924 0 -0.053978136665496113 -0.042796526104110236 0 -0.053680586661761058 -0.044213006128795189 0 -0.054965523466500014 -0.042532563480900613 0 -0.0546396712595787 -0.041825284571168429 0 -0.053978136665496113 -0.042796526104110236 0 -0.054965523466500014 -0.042532563480900613 0 -0.057071511854185207 -0.042678485537285572 0 -0.056184853074923026 -0.042528292385284924 0 -0.05661925601277578 -0.042067505708264084 0 -0.057071511854185207 -0.042678485537285572 0 -0.056184853074923026 -0.042528292385284924 0 -0.056114226783297479 -0.044215377584528752 0 -0.05102744154778445 -0.044289871479183722 0 -0.051303418374417577 -0.044303864427795686 0 -0.053925873844791784 -0.046010931565236307 0 -0.052740803233022444 -0.046845695443257215 0 -0.053460149333935433 -0.047305168464343052 0 -0.053925873844791784 -0.046010931565236307 0 -0.054317844286289989 -0.047024186582771715 0 -0.053460149333935433 -0.047305168464343052 0 -0.054317844286289989 -0.047024186582771715 0 -0.055045394810875448 -0.046413160699043471 0 -0.055074995540703449 -0.047589423463823027 0 -0.053925873844791784 -0.046010931565236307 0 -0.054317844286289989 -0.047024186582771715 0 -0.055045394810875448 -0.046413160699043471 0 -0.048814899085997891 -0.045783601537375158 0 -0.047140181190992538 -0.047217725898750305 0 -0.056869377573335836 -0.042717376603491904 0 -0.057568054982458719 -0.042762083476794624 0 -0.056880903240047131 -0.043628302824635132 0 -0.048814899085997891 -0.045783601537375158 0 -0.050264066759324981 -0.044487907672090293 0 -0.056869377573335836 -0.042717376603491904 0 -0.056857102250144294 -0.041797136302244527 0 -0.057496085517336114 -0.042109300220461832 0 -0.053925873844791784 -0.046010931565236307 0 -0.055045394810875448 -0.046413160699043471 0 -0.055010722849245942 -0.04523516713422028 0 -0.05102744154778445 -0.044289871479183722 0 -0.050264066759324981 -0.044487907672090293 0 -0.057071511854185207 -0.042678485537285572 0 -0.05731685677366527 -0.041742566441009772 0 -0.057671685126782758 -0.041784887546888423 0 -0.057071511854185207 -0.042678485537285572 0 -0.05731685677366527 -0.041742566441009772 0 -0.056973332457220839 -0.041667128157487167 0 -0.05731685677366527 -0.041742566441009772 0 -0.057671685126782758 -0.041784887546888423 0 -0.057577346350105585 -0.041372206636006409 0 -0.05731685677366527 -0.041742566441009772 0 -0.057264146497123268 -0.041300545468272096 0 -0.056973332457220839 -0.041667128157487167 0 -0.050264066759324981 -0.044487907672090293 0 -0.050992831072823208 -0.044030936779756571 0 -0.057580445296029237 -0.04156879984319721 0 -0.057577346350105585 -0.041372206636006409 0 -0.057887611322493343 -0.041253275657408016 0 -0.056857102250144294 -0.041797136302244527 0 -0.057481301215449226 -0.041366951942761312 0 -0.057496085517336114 -0.042109300220461832 0 -0.050264066759324981 -0.044487907672090293 0 -0.050281942045660701 -0.044461407474619206 0 -0.057577346350105585 -0.041372206636006409 0 -0.057694353170219335 -0.041114523678929475 0 -0.057887611322493343 -0.041253275657408016 0 -0.057577346350105585 -0.041372206636006409 0 -0.057463629703980196 -0.041073131157486252 0 -0.057694353170219335 -0.041114523678929475 0 -0.057463629703980196 -0.041073131157486252 0 -0.057694353170219335 -0.041114523678929475 0 -0.057625162360774272 -0.040869351070903212 0 -0.057264146497123268 -0.041300545468272096 0 -0.056899222258046639 -0.041171892177298185 0 -0.056973332457220839 -0.041667128157487167 0 -0.05731685677366527 -0.041742566441009772 0 -0.057577346350105585 -0.041372206636006409 0 -0.057264146497123268 -0.041300545468272096 0 -0.057577346350105585 -0.041372206636006409 0 -0.057463629703980196 -0.041073131157486252 0 -0.057264146497123268 -0.041300545468272096 0 -0.057463629703980196 -0.041073131157486252 0 -0.057264146497123268 -0.041300545468272096 0 -0.05716954623618304 -0.040935721258941973 0 -0.057264146497123268 -0.041300545468272096 0 -0.056899222258046639 -0.041171892177298185 0 -0.05716954623618304 -0.040935721258941973 0 -0.056899222258046639 -0.041171892177298185 0 -0.056872536136772879 -0.040869589582055277 0 -0.05716954623618304 -0.040935721258941973 0 -0.056899222258046639 -0.041171892177298185 0 -0.056872536136772879 -0.040869589582055277 0 -0.056551760111257031 -0.040908491116477166 0 -0.056565105099351774 -0.041381182369909661 0 -0.056148641978218096 -0.041063183109546722 0 -0.056551760111257031 -0.040908491116477166 0 -0.056899222258046639 -0.041171892177298185 0 -0.056565105099351774 -0.041381182369909661 0 -0.056551760111257031 -0.040908491116477166 0 -0.056899222258046639 -0.041171892177298185 0 -0.056565105099351774 -0.041381182369909661 0 -0.056973332457220839 -0.041667128157487167 0 -0.057071511854185207 -0.042678485537285572 0 -0.056973332457220839 -0.041667128157487167 0 -0.05661925601277578 -0.042067505708264084 0 -0.056565105099351774 -0.041381182369909661 0 -0.056973332457220839 -0.041667128157487167 0 -0.05661925601277578 -0.042067505708264084 0 -0.055648844419615019 -0.041815573623996946 0 -0.056184853074923026 -0.042528292385284924 0 -0.056170133266936345 -0.041544549707656427 0 -0.056184853074923026 -0.042528292385284924 0 -0.05661925601277578 -0.042067505708264084 0 -0.056170133266936345 -0.041544549707656427 0 -0.056565105099351774 -0.041381182369909661 0 -0.05661925601277578 -0.042067505708264084 0 -0.056170133266936345 -0.041544549707656427 0 -0.05571313782586261 -0.041248904513786454 0 -0.055648844419615019 -0.041815573623996946 0 -0.056170133266936345 -0.041544549707656427 0 -0.05571313782586261 -0.041248904513786454 0 -0.056170133266936345 -0.041544549707656427 0 -0.056148641978218096 -0.041063183109546722 0 -0.056565105099351774 -0.041381182369909661 0 -0.056170133266936345 -0.041544549707656427 0 -0.056148641978218096 -0.041063183109546722 0 -0.055691666913834877 -0.040797559131599444 0 -0.05571313782586261 -0.041248904513786454 0 -0.056148641978218096 -0.041063183109546722 0 -0.055691666913834877 -0.040797559131599444 0 -0.056148682096304914 -0.040709697432761031 0 -0.055777239155885887 -0.04049982866706401 0 -0.055691666913834877 -0.040797559131599444 0 -0.056148641978218096 -0.041063183109546722 0 -0.056148682096304914 -0.040709697432761031 0 -0.056148641978218096 -0.041063183109546722 0 -0.056148682096304914 -0.040709697432761031 0 -0.056551760111257031 -0.040908491116477166 0 -0.056148682096304914 -0.040709697432761031 0 -0.056305043744898101 -0.040497063363552445 0 -0.056084780147197304 -0.040486360346630342 0 -0.056148682096304914 -0.040709697432761031 0 -0.056305043744898101 -0.040497063363552445 0 -0.056433896105531046 -0.040664217266374779 0 -0.056305043744898101 -0.040497063363552445 0 -0.056084780147197304 -0.040486360346630342 0 -0.056187246976556859 -0.040335732444162942 0 -0.056084780147197304 -0.040486360346630342 0 -0.055777239155885887 -0.04049982866706401 0 -0.055971897258031353 -0.040338760255063826 0 -0.056148682096304914 -0.040709697432761031 0 -0.056084780147197304 -0.040486360346630342 0 -0.055777239155885887 -0.04049982866706401 0 -0.055710486527752248 -0.040323171261452018 0 -0.055777239155885887 -0.04049982866706401 0 -0.055971897258031353 -0.040338760255063826 0 -0.056872536136772879 -0.040869589582055277 0 -0.056551760111257031 -0.040908491116477166 0 -0.056723056239025363 -0.04063406525925832 0 -0.056872536136772879 -0.040869589582055277 0 -0.056723056239025363 -0.04063406525925832 0 -0.056979619969072103 -0.040644890943508538 0 -0.056551760111257031 -0.040908491116477166 0 -0.056433896105531046 -0.040664217266374779 0 -0.056723056239025363 -0.04063406525925832 0 -0.056148682096304914 -0.040709697432761031 0 -0.056551760111257031 -0.040908491116477166 0 -0.056433896105531046 -0.040664217266374779 0 -0.056433896105531046 -0.040664217266374779 0 -0.056540665638370742 -0.040453101900784348 0 -0.056723056239025363 -0.04063406525925832 0 -0.056305043744898101 -0.040497063363552445 0 -0.056433896105531046 -0.040664217266374779 0 -0.056540665638370742 -0.040453101900784348 0 -0.056540665638370742 -0.040453101900784348 0 -0.056723056239025363 -0.04063406525925832 0 -0.056821963716285402 -0.040388593358581942 0 -0.056723056239025363 -0.04063406525925832 0 -0.056821963716285402 -0.040388593358581942 0 -0.056979619969072103 -0.040644890943508538 0 -0.056821963716285402 -0.040388593358581942 0 -0.056634425091922534 -0.040254652068413319 0 -0.056846270322726065 -0.040137586547811029 0 -0.056540665638370742 -0.040453101900784348 0 -0.056821963716285402 -0.040388593358581942 0 -0.056634425091922534 -0.040254652068413319 0 -0.056634425091922534 -0.040254652068413319 0 -0.056396763964862817 -0.040281792941943631 0 -0.056515419550740867 -0.040151694392556211 0 -0.056540665638370742 -0.040453101900784348 0 -0.056634425091922534 -0.040254652068413319 0 -0.056396763964862817 -0.040281792941943631 0 -0.056305043744898101 -0.040497063363552445 0 -0.056540665638370742 -0.040453101900784348 0 -0.056396763964862817 -0.040281792941943631 0 -0.056396763964862817 -0.040281792941943631 0 -0.056380833560472035 -0.040105332830329507 0 -0.056288280805097166 -0.040224225571970529 0 -0.056396763964862817 -0.040281792941943631 0 -0.056380833560472035 -0.040105332830329507 0 -0.056515419550740867 -0.040151694392556211 0 -0.056380833560472035 -0.040105332830329507 0 -0.056190037253122167 -0.040171305507250073 0 -0.056497147894197415 -0.039820992689715957 0 -0.056380833560472035 -0.040105332830329507 0 -0.056556883999407399 -0.040011472924460112 0 -0.056497147894197415 -0.039820992689715957 0 -0.056380833560472035 -0.040105332830329507 0 -0.056556883999407399 -0.040011472924460112 0 -0.056515419550740867 -0.040151694392556211 0 -0.056556883999407399 -0.040011472924460112 0 -0.056709723859811711 -0.039990588475633609 0 -0.056617913489589451 -0.039924095771666814 0 -0.056556883999407399 -0.040011472924460112 0 -0.056515419550740867 -0.040151694392556211 0 -0.056638005327986775 -0.040097932331440961 0 -0.056634425091922534 -0.040254652068413319 0 -0.056515419550740867 -0.040151694392556211 0 -0.056638005327986775 -0.040097932331440961 0 -0.056634425091922534 -0.040254652068413319 0 -0.056638005327986775 -0.040097932331440961 0 -0.056846270322726065 -0.040137586547811029 0 -0.056638005327986775 -0.040097932331440961 0 -0.056709723859811711 -0.039990588475633609 0 -0.056846270322726065 -0.040137586547811029 0 -0.056556883999407399 -0.040011472924460112 0 -0.056638005327986775 -0.040097932331440961 0 -0.056709723859811711 -0.039990588475633609 0 -0.056846270322726065 -0.040137586547811029 0 -0.056816172613059157 -0.039925499888694774 0 -0.056953037572678326 -0.039975980901385044 0 -0.056709723859811711 -0.039990588475633609 0 -0.056846270322726065 -0.040137586547811029 0 -0.056816172613059157 -0.039925499888694774 0 -0.05545813178701333 -0.040207467949264761 0 -0.055872292398892055 -0.040182494270266884 0 -0.056497147894197415 -0.039820992689715957 0 -0.055288402876696396 -0.040052656166544166 0 -0.05545813178701333 -0.040207467949264761 0 -0.056346367498686364 -0.039535984441923612 0 -0.05545813178701333 -0.040207467949264761 0 -0.056346367498686364 -0.039535984441923612 0 -0.056426263563332073 -0.039652085704753953 0 -0.054046687114738319 -0.029659515804401536 0 -0.054205393482159227 -0.029343690861615965 0 -0.055872292398892055 -0.040182494270266884 0 -0.055971897258031353 -0.040338760255063826 0 -0.056190037253122167 -0.040171305507250073 0 -0.055710486527752248 -0.040323171261452018 0 -0.055872292398892055 -0.040182494270266884 0 -0.055971897258031353 -0.040338760255063826 0 -0.056084780147197304 -0.040486360346630342 0 -0.055971897258031353 -0.040338760255063826 0 -0.056187246976556859 -0.040335732444162942 0 -0.055971897258031353 -0.040338760255063826 0 -0.056187246976556859 -0.040335732444162942 0 -0.056190037253122167 -0.040171305507250073 0 -0.056305043744898101 -0.040497063363552445 0 -0.056396763964862817 -0.040281792941943631 0 -0.056187246976556859 -0.040335732444162942 0 -0.056380833560472035 -0.040105332830329507 0 -0.056288280805097166 -0.040224225571970529 0 -0.056190037253122167 -0.040171305507250073 0 -0.056187246976556859 -0.040335732444162942 0 -0.056288280805097166 -0.040224225571970529 0 -0.056190037253122167 -0.040171305507250073 0 -0.056396763964862817 -0.040281792941943631 0 -0.056187246976556859 -0.040335732444162942 0 -0.056288280805097166 -0.040224225571970529 0 -0.055872292398892055 -0.040182494270266884 0 -0.056190037253122167 -0.040171305507250073 0 -0.056497147894197415 -0.039820992689715957 0 -0.054152054614367666 -0.029555975756799892 0 -0.054284292646489866 -0.029264166785697581 0 -0.055312124412853936 -0.039998675691872078 0 -0.055288402876696396 -0.040052656166544166 0 -0.0554069157431425 -0.03997588652436445 0 -0.055312124412853936 -0.039998675691872078 0 -0.055361925009067545 -0.039964137549169262 0 -0.0554069157431425 -0.03997588652436445 0 -0.055312124412853936 -0.039998675691872078 0 -0.055342198849576266 -0.039945491156277352 0 -0.055361925009067545 -0.039964137549169262 0 -0.055259451273759759 -0.039937175161120726 0 -0.055342198849576266 -0.039945491156277352 0 -0.055368271168122082 -0.039871280862937473 0 -0.055342198849576266 -0.039945491156277352 0 -0.055389887545059933 -0.039932172956817065 0 -0.055368271168122082 -0.039871280862937473 0 -0.055389887545059933 -0.039932172956817065 0 -0.055361925009067545 -0.039964137549169262 0 -0.0554069157431425 -0.03997588652436445 0 -0.055342198849576266 -0.039945491156277352 0 -0.055389887545059933 -0.039932172956817065 0 -0.055361925009067545 -0.039964137549169262 0 -0.054284292646489866 -0.029264166785697581 0 -0.054612053986139476 -0.028421199381180141 0 -0.056346367498686364 -0.039535984441923612 0 -0.056426263563332073 -0.039652085704753953 0 -0.057451190604390266 -0.039061424917089735 0 -0.0554069157431425 -0.03997588652436445 0 -0.055453553087586142 -0.039893224280130229 0 -0.055630080256505315 -0.039890245049555191 0 -0.056497147894197415 -0.039820992689715957 0 -0.056617913489589451 -0.039924095771666814 0 -0.056701453245729082 -0.039898114233206085 0 -0.056556883999407399 -0.040011472924460112 0 -0.056497147894197415 -0.039820992689715957 0 -0.056617913489589451 -0.039924095771666814 0 -0.056497147894197415 -0.039820992689715957 0 -0.056701453245729082 -0.039898114233206085 0 -0.056866241153884986 -0.039831398436771727 0 -0.056816172613059157 -0.039925499888694774 0 -0.056701453245729082 -0.039898114233206085 0 -0.056866241153884986 -0.039831398436771727 0 -0.056816172613059157 -0.039925499888694774 0 -0.056866241153884986 -0.039831398436771727 0 -0.056953037572678326 -0.039975980901385044 0 -0.056709723859811711 -0.039990588475633609 0 -0.056816172613059157 -0.039925499888694774 0 -0.056701453245729082 -0.039898114233206085 0 -0.056709723859811711 -0.039990588475633609 0 -0.056617913489589451 -0.039924095771666814 0 -0.056701453245729082 -0.039898114233206085 0 -0.055389887545059933 -0.039932172956817065 0 -0.0554069157431425 -0.03997588652436445 0 -0.055453553087586142 -0.039893224280130229 0 -0.055453553087586142 -0.039893224280130229 0 -0.055482530718128337 -0.03980564995118855 0 -0.055630080256505315 -0.039890245049555191 0 -0.055453553087586142 -0.039893224280130229 0 -0.055482530718128337 -0.03980564995118855 0 -0.055368271168122082 -0.039871280862937473 0 -0.0553827043607657 -0.039711378780192541 0 -0.055482530718128337 -0.03980564995118855 0 -0.055368271168122082 -0.039871280862937473 0 -0.0553827043607657 -0.039711378780192541 0 -0.055153066894530832 -0.039779908239678051 0 -0.055368271168122082 -0.039871280862937473 0 -0.055389887545059933 -0.039932172956817065 0 -0.055453553087586142 -0.039893224280130229 0 -0.055368271168122082 -0.039871280862937473 0 -0.057456653084924057 -0.039537326455539042 0 -0.057583180370451681 -0.039742836341045369 0 -0.058022995487826926 -0.039320582353448673 0 -0.062317169699063236 -0.0023448071967515876 0 -0.062272492811224912 -0.0026406148281280122 0 -0.062121289378153699 -0.0027219110333634774 0 -0.062760275014508371 -0.002341293289365103 0 -0.062317169699063236 -0.0023448071967515876 0 -0.062272492811224912 -0.0026406148281280122 0 -0.057456653084924057 -0.039537326455539042 0 -0.057294675982666216 -0.039622335495179448 0 -0.057412259842116113 -0.03967325044798755 0 -0.054056656914929668 -0.028296860555778312 0 -0.054612053986139476 -0.028421199381180141 0 -0.057291991258907722 -0.02268207394166382 0 -0.054612053986139476 -0.028421199381180141 0 -0.055585122026865157 -0.039651703448377117 0 -0.055482530718128337 -0.03980564995118855 0 -0.055630080256505315 -0.039890245049555191 0 -0.056497147894197415 -0.039820992689715957 0 -0.056866241153884986 -0.039831398436771727 0 -0.057287793573437093 -0.039561477159464245 0 -0.054612053986139476 -0.028421199381180141 0 -0.054626244041223113 -0.028489976246068298 0 -0.057294675982666216 -0.039622335495179448 0 -0.057323396909856043 -0.039787827288652849 0 -0.057412259842116113 -0.03967325044798755 0 -0.054205393482159227 -0.029343690861615965 0 -0.054612053986139476 -0.028421199381180141 0 -0.057287793573437093 -0.039561477159464245 0 -0.057323396909856043 -0.039787827288652849 0 -0.057158696694984801 -0.039906896622492041 0 -0.056866241153884986 -0.039831398436771727 0 -0.057287793573437093 -0.039561477159464245 0 -0.057158696694984801 -0.039906896622492041 0 -0.056866241153884986 -0.039831398436771727 0 -0.056953037572678326 -0.039975980901385044 0 -0.057158696694984801 -0.039906896622492041 0 -0.057323396909856043 -0.039787827288652849 0 -0.057158696694984801 -0.039906896622492041 0 -0.057431471129766223 -0.039981557276852694 0 -0.057158696694984801 -0.039906896622492041 0 -0.057431471129766223 -0.039981557276852694 0 -0.057292764058725611 -0.040136159793825246 0 -0.057323396909856043 -0.039787827288652849 0 -0.057431471129766223 -0.039981557276852694 0 -0.057583180370451681 -0.039742836341045369 0 -0.057323396909856043 -0.039787827288652849 0 -0.057412259842116113 -0.03967325044798755 0 -0.057583180370451681 -0.039742836341045369 0 -0.057456653084924057 -0.039537326455539042 0 -0.057412259842116113 -0.03967325044798755 0 -0.057583180370451681 -0.039742836341045369 0 -0.057431471129766223 -0.039981557276852694 0 -0.057583180370451681 -0.039742836341045369 0 -0.057669036777478734 -0.04006203295949521 0 -0.057583180370451681 -0.039742836341045369 0 -0.057669036777478734 -0.04006203295949521 0 -0.057848377409289151 -0.039810822941579144 0 -0.057669036777478734 -0.04006203295949521 0 -0.057528929728627741 -0.040275747360370422 0 -0.057778742422119396 -0.04040060869994809 0 -0.057431471129766223 -0.039981557276852694 0 -0.057528929728627741 -0.040275747360370422 0 -0.057292764058725611 -0.040136159793825246 0 -0.057431471129766223 -0.039981557276852694 0 -0.057669036777478734 -0.04006203295949521 0 -0.057528929728627741 -0.040275747360370422 0 -0.057528929728627741 -0.040275747360370422 0 -0.057272624416743488 -0.040354267145713725 0 -0.057422113297475583 -0.040545265963732889 0 -0.057528929728627741 -0.040275747360370422 0 -0.057292764058725611 -0.040136159793825246 0 -0.057272624416743488 -0.040354267145713725 0 -0.057528929728627741 -0.040275747360370422 0 -0.057635179270641532 -0.040616456492646918 0 -0.057422113297475583 -0.040545265963732889 0 -0.057528929728627741 -0.040275747360370422 0 -0.057635179270641532 -0.040616456492646918 0 -0.057778742422119396 -0.04040060869994809 0 -0.056846270322726065 -0.040137586547811029 0 -0.056953037572678326 -0.039975980901385044 0 -0.057096689800003042 -0.040125362991526754 0 -0.056846270322726065 -0.040137586547811029 0 -0.057096689800003042 -0.040125362991526754 0 -0.057058528389044162 -0.040387167221545964 0 -0.056953037572678326 -0.039975980901385044 0 -0.057158696694984801 -0.039906896622492041 0 -0.057096689800003042 -0.040125362991526754 0 -0.057096689800003042 -0.040125362991526754 0 -0.057292764058725611 -0.040136159793825246 0 -0.057272624416743488 -0.040354267145713725 0 -0.057158696694984801 -0.039906896622492041 0 -0.057096689800003042 -0.040125362991526754 0 -0.057292764058725611 -0.040136159793825246 0 -0.057272624416743488 -0.040354267145713725 0 -0.057058528389044162 -0.040387167221545964 0 -0.057218974353914584 -0.04066531540561788 0 -0.057096689800003042 -0.040125362991526754 0 -0.057272624416743488 -0.040354267145713725 0 -0.057058528389044162 -0.040387167221545964 0 -0.056821963716285402 -0.040388593358581942 0 -0.056846270322726065 -0.040137586547811029 0 -0.057058528389044162 -0.040387167221545964 0 -0.056821963716285402 -0.040388593358581942 0 -0.057058528389044162 -0.040387167221545964 0 -0.056979619969072103 -0.040644890943508538 0 -0.057058528389044162 -0.040387167221545964 0 -0.056979619969072103 -0.040644890943508538 0 -0.057218974353914584 -0.04066531540561788 0 -0.057272624416743488 -0.040354267145713725 0 -0.057218974353914584 -0.04066531540561788 0 -0.057422113297475583 -0.040545265963732889 0 -0.057218974353914584 -0.04066531540561788 0 -0.057422113297475583 -0.040545265963732889 0 -0.05743283453663009 -0.040782081748181612 0 -0.057218974353914584 -0.04066531540561788 0 -0.05716954623618304 -0.040935721258941973 0 -0.05743283453663009 -0.040782081748181612 0 -0.057463629703980196 -0.041073131157486252 0 -0.05716954623618304 -0.040935721258941973 0 -0.05743283453663009 -0.040782081748181612 0 -0.056979619969072103 -0.040644890943508538 0 -0.057218974353914584 -0.04066531540561788 0 -0.05716954623618304 -0.040935721258941973 0 -0.056872536136772879 -0.040869589582055277 0 -0.056979619969072103 -0.040644890943508538 0 -0.05716954623618304 -0.040935721258941973 0 -0.057635179270641532 -0.040616456492646918 0 -0.057869887905291476 -0.040826090754027301 0 -0.057778742422119396 -0.04040060869994809 0 -0.057635179270641532 -0.040616456492646918 0 -0.057422113297475583 -0.040545265963732889 0 -0.05743283453663009 -0.040782081748181612 0 -0.057635179270641532 -0.040616456492646918 0 -0.05743283453663009 -0.040782081748181612 0 -0.057625162360774272 -0.040869351070903212 0 -0.057463629703980196 -0.041073131157486252 0 -0.05743283453663009 -0.040782081748181612 0 -0.057625162360774272 -0.040869351070903212 0 -0.057635179270641532 -0.040616456492646918 0 -0.057625162360774272 -0.040869351070903212 0 -0.057869887905291476 -0.040826090754027301 0 -0.057694353170219335 -0.041114523678929475 0 -0.057625162360774272 -0.040869351070903212 0 -0.057869887905291476 -0.040826090754027301 0 -0.057869887905291476 -0.040826090754027301 0 -0.058082957265286936 -0.040528895347362211 0 -0.058180503824125082 -0.040958459745018695 0 -0.057869887905291476 -0.040826090754027301 0 -0.058082957265286936 -0.040528895347362211 0 -0.057778742422119396 -0.04040060869994809 0 -0.058180503824125082 -0.040958459745018695 0 -0.058508729029688789 -0.040574740482209305 0 -0.058518490248569033 -0.041218705334338315 0 -0.058082957265286936 -0.040528895347362211 0 -0.058180503824125082 -0.040958459745018695 0 -0.058508729029688789 -0.040574740482209305 0 -0.058082957265286936 -0.040528895347362211 0 -0.058508729029688789 -0.040574740482209305 0 -0.058248874053028428 -0.040199778966141457 0 -0.058508729029688789 -0.040574740482209305 0 -0.058248874053028428 -0.040199778966141457 0 -0.058585087066863578 -0.039941644715763447 0 -0.058082957265286936 -0.040528895347362211 0 -0.057778742422119396 -0.04040060869994809 0 -0.057942048808425343 -0.040161729677162007 0 -0.058082957265286936 -0.040528895347362211 0 -0.058248874053028428 -0.040199778966141457 0 -0.057942048808425343 -0.040161729677162007 0 -0.057669036777478734 -0.04006203295949521 0 -0.057778742422119396 -0.04040060869994809 0 -0.057942048808425343 -0.040161729677162007 0 -0.057669036777478734 -0.04006203295949521 0 -0.057942048808425343 -0.040161729677162007 0 -0.057848377409289151 -0.039810822941579144 0 -0.057942048808425343 -0.040161729677162007 0 -0.057848377409289151 -0.039810822941579144 0 -0.058188202388266254 -0.03979864969735878 0 -0.058248874053028428 -0.040199778966141457 0 -0.057942048808425343 -0.040161729677162007 0 -0.058188202388266254 -0.03979864969735878 0 -0.058188202388266254 -0.03979864969735878 0 -0.058534653693867907 -0.039508364420977035 0 -0.058585087066863578 -0.039941644715763447 0 -0.058248874053028428 -0.040199778966141457 0 -0.058188202388266254 -0.03979864969735878 0 -0.058585087066863578 -0.039941644715763447 0 -0.05860231410610043 -0.039084782727116685 0 -0.058022995487826926 -0.039320582353448673 0 -0.058534653693867907 -0.039508364420977035 0 -0.058188202388266254 -0.03979864969735878 0 -0.058022995487826926 -0.039320582353448673 0 -0.058534653693867907 -0.039508364420977035 0 -0.053613716771861886 -0.027003370673940083 0 -0.054056656914929668 -0.028296860555778312 0 -0.054056656914929668 -0.028296860555778312 0 -0.052108123387297041 -0.029501247551236613 0 -0.052503936673277803 -0.028461110274847646 0 -0.055304890747735654 -0.02703816932973847 0 -0.052568224099034361 -0.028113143280434173 0 -0.057848377409289151 -0.039810822941579144 0 -0.058188202388266254 -0.03979864969735878 0 -0.058022995487826926 -0.039320582353448673 0 -0.057583180370451681 -0.039742836341045369 0 -0.057848377409289151 -0.039810822941579144 0 -0.058022995487826926 -0.039320582353448673 0 -0.058960662213301818 -0.039518461154969653 0 -0.059262120336836512 -0.039483920298125856 0 -0.059149123485461322 -0.039722813697190024 0 -0.058960662213301818 -0.039518461154969653 0 -0.058796538874365541 -0.039749098674244955 0 -0.059149123485461322 -0.039722813697190024 0 -0.059101277513565233 -0.039194474908558999 0 -0.058960662213301818 -0.039518461154969653 0 -0.059262120336836512 -0.039483920298125856 0 -0.058960662213301818 -0.039518461154969653 0 -0.058534653693867907 -0.039508364420977035 0 -0.058796538874365541 -0.039749098674244955 0 -0.05860231410610043 -0.039084782727116685 0 -0.058960662213301818 -0.039518461154969653 0 -0.058534653693867907 -0.039508364420977035 0 -0.05860231410610043 -0.039084782727116685 0 -0.059101277513565233 -0.039194474908558999 0 -0.058960662213301818 -0.039518461154969653 0 -0.058534653693867907 -0.039508364420977035 0 -0.058796538874365541 -0.039749098674244955 0 -0.058585087066863578 -0.039941644715763447 0 -0.058796538874365541 -0.039749098674244955 0 -0.058585087066863578 -0.039941644715763447 0 -0.058991189497329163 -0.039954334043157715 0 -0.058585087066863578 -0.039941644715763447 0 -0.058991189497329163 -0.039954334043157715 0 -0.058881218778622652 -0.040303117668719343 0 -0.058991189497329163 -0.039954334043157715 0 -0.059176473443671475 -0.039925020010959607 0 -0.059131590175271087 -0.040124154414235697 0 -0.058991189497329163 -0.039954334043157715 0 -0.059149123485461322 -0.039722813697190024 0 -0.059176473443671475 -0.039925020010959607 0 -0.058796538874365541 -0.039749098674244955 0 -0.058991189497329163 -0.039954334043157715 0 -0.059149123485461322 -0.039722813697190024 0 -0.059149123485461322 -0.039722813697190024 0 -0.059176473443671475 -0.039925020010959607 0 -0.05941685835151983 -0.039851290070905335 0 -0.059262120336836512 -0.039483920298125856 0 -0.059149123485461322 -0.039722813697190024 0 -0.05941685835151983 -0.039851290070905335 0 -0.059176473443671475 -0.039925020010959607 0 -0.059131590175271087 -0.040124154414235697 0 -0.05941685835151983 -0.039851290070905335 0 -0.059131590175271087 -0.040124154414235697 0 -0.059185848243530861 -0.040593177911813189 0 -0.05941685835151983 -0.039851290070905335 0 -0.059131590175271087 -0.040124154414235697 0 -0.058881218778622652 -0.040303117668719343 0 -0.059185848243530861 -0.040593177911813189 0 -0.045685783091395586 -0.036730997612514894 0 -0.044792208729702208 -0.036630043370174316 0 -0.05914176358551098 -0.040845187662078619 0 -0.059246207825368165 -0.040408263138450876 0 -0.059331226342056537 -0.040879519600363824 0 -0.058991189497329163 -0.039954334043157715 0 -0.059131590175271087 -0.040124154414235697 0 -0.058881218778622652 -0.040303117668719343 0 -0.058881218778622652 -0.040303117668719343 0 -0.05884083988424875 -0.040587906249698776 0 -0.059185848243530861 -0.040593177911813189 0 -0.058508729029688789 -0.040574740482209305 0 -0.058585087066863578 -0.039941644715763447 0 -0.058881218778622652 -0.040303117668719343 0 -0.058508729029688789 -0.040574740482209305 0 -0.058881218778622652 -0.040303117668719343 0 -0.05884083988424875 -0.040587906249698776 0 -0.058793408260660721 -0.040887738148752906 0 -0.059185848243530861 -0.040593177911813189 0 -0.058893384905939698 -0.041469727430268666 0 -0.058508729029688789 -0.040574740482209305 0 -0.058793408260660721 -0.040887738148752906 0 -0.058518490248569033 -0.041218705334338315 0 -0.058508729029688789 -0.040574740482209305 0 -0.05884083988424875 -0.040587906249698776 0 -0.058793408260660721 -0.040887738148752906 0 -0.05884083988424875 -0.040587906249698776 0 -0.058793408260660721 -0.040887738148752906 0 -0.059185848243530861 -0.040593177911813189 0 -0.05914176358551098 -0.040845187662078619 0 -0.059184983784485758 -0.041183412714345939 0 -0.059331226342056537 -0.040879519600363824 0 -0.045685783091395586 -0.036730997612514894 0 -0.04596854014234085 -0.036793450053212808 0 -0.05914176358551098 -0.040845187662078619 0 -0.059184983784485758 -0.041183412714345939 0 -0.058893384905939698 -0.041469727430268666 0 -0.059184983784485758 -0.041183412714345939 0 -0.059355941966338407 -0.041566738910237461 0 -0.059331226342056537 -0.040879519600363824 0 -0.059184983784485758 -0.041183412714345939 0 -0.059355941966338407 -0.041566738910237461 0 -0.058893384905939698 -0.041469727430268666 0 -0.038927121848398839 -0.048588769602901441 0 -0.037803123880673223 -0.050449195259344791 0 -0.059355941966338407 -0.041566738910237461 0 -0.058714662199152258 -0.041879121309550557 0 -0.059270482975331835 -0.042544698413504826 0 -0.059355941966338407 -0.041566738910237461 0 -0.058714662199152258 -0.041879121309550557 0 -0.058893384905939698 -0.041469727430268666 0 -0.058714662199152258 -0.041879121309550557 0 -0.058893384905939698 -0.041469727430268666 0 -0.058518490248569033 -0.041218705334338315 0 -0.058793408260660721 -0.040887738148752906 0 -0.058893384905939698 -0.041469727430268666 0 -0.058518490248569033 -0.041218705334338315 0 -0.058180503824125082 -0.040958459745018695 0 -0.058518490248569033 -0.041218705334338315 0 -0.058070941604971407 -0.041642971140198576 0 -0.057694353170219335 -0.041114523678929475 0 -0.057869887905291476 -0.040826090754027301 0 -0.057887611322493343 -0.041253275657408016 0 -0.051237515115021261 -0.043877174707351189 0 -0.050992831072823208 -0.044030936779756571 0 -0.058180503824125082 -0.040958459745018695 0 -0.057481301215449226 -0.041366951942761312 0 -0.058070941604971407 -0.041642971140198576 0 -0.057869887905291476 -0.040826090754027301 0 -0.058180503824125082 -0.040958459745018695 0 -0.057887611322493343 -0.041253275657408016 0 -0.057481301215449226 -0.041366951942761312 0 -0.058070941604971407 -0.041642971140198576 0 -0.057496085517336114 -0.042109300220461832 0 -0.058714662199152258 -0.041879121309550557 0 -0.058518490248569033 -0.041218705334338315 0 -0.058070941604971407 -0.041642971140198576 0 -0.058070941604971407 -0.041642971140198576 0 -0.058140774009256671 -0.042311583281011006 0 -0.057496085517336114 -0.042109300220461832 0 -0.058714662199152258 -0.041879121309550557 0 -0.058070941604971407 -0.041642971140198576 0 -0.058140774009256671 -0.042311583281011006 0 -0.058140774009256671 -0.042311583281011006 0 -0.057496085517336114 -0.042109300220461832 0 -0.057568054982458719 -0.042762083476794624 0 -0.056869377573335836 -0.042717376603491904 0 -0.057496085517336114 -0.042109300220461832 0 -0.057568054982458719 -0.042762083476794624 0 -0.057568054982458719 -0.042762083476794624 0 -0.058502738518890728 -0.043028803437137761 0 -0.057773546698986662 -0.043446695665595086 0 -0.058140774009256671 -0.042311583281011006 0 -0.057568054982458719 -0.042762083476794624 0 -0.058502738518890728 -0.043028803437137761 0 -0.058502738518890728 -0.043028803437137761 0 -0.059270482975331835 -0.042544698413504826 0 -0.058666711931586492 -0.042452527650124021 0 -0.058502738518890728 -0.043028803437137761 0 -0.059270482975331835 -0.042544698413504826 0 -0.059114067897503002 -0.043596473987768704 0 -0.02046420257110218 -0.065832071452776753 0 -0.020648355903286935 -0.065078113525057643 0 -0.020067255361608121 -0.065392028329168558 0 -0.037803123880673223 -0.050449195259344791 0 -0.036667724535760782 -0.051770701333879544 0 -0.058714662199152258 -0.041879121309550557 0 -0.058140774009256671 -0.042311583281011006 0 -0.058666711931586492 -0.042452527650124021 0 -0.058714662199152258 -0.041879121309550557 0 -0.059270482975331835 -0.042544698413504826 0 -0.058666711931586492 -0.042452527650124021 0 -0.058140774009256671 -0.042311583281011006 0 -0.058502738518890728 -0.043028803437137761 0 -0.058666711931586492 -0.042452527650124021 0 -0.036652261365945946 -0.051759963889772248 0 -0.036779312866206275 -0.051043425215204462 0 -0.036103537968949016 -0.051409309901844134 0 -0.036652261365945946 -0.051759963889772248 0 -0.036103537968949016 -0.051409309901844134 0 -0.035970775353548548 -0.052058602077934911 0 -0.020646774894906361 -0.064689571864544521 0 -0.020575322666837648 -0.065120295011016238 0 -0.02014206258818994 -0.064818377425157739 0 -0.034902255052568713 -0.053460790953757414 0 -0.036667724535760782 -0.051770701333879544 0 -0.036667724535760782 -0.051770701333879544 0 -0.035528702343012579 -0.052458425277570137 0 -0.058502738518890728 -0.043028803437137761 0 -0.059114067897503002 -0.043596473987768704 0 -0.058388396795404147 -0.044013985277588125 0 -0.036667724535760782 -0.051770701333879544 0 -0.039655909594250506 -0.051024995250106911 0 -0.058502738518890728 -0.043028803437137761 0 -0.057773546698986662 -0.043446695665595086 0 -0.058388396795404147 -0.044013985277588125 0 -0.057773546698986662 -0.043446695665595086 0 -0.057283337979326464 -0.043941106913736573 0 -0.056718282165879888 -0.043647242315019048 0 -0.0478029129398993 -0.047057642323463059 0 -0.047140181190992538 -0.047217725898750305 0 -0.057568054982458719 -0.042762083476794624 0 -0.057773546698986662 -0.043446695665595086 0 -0.056880903240047131 -0.043628302824635132 0 -0.057773546698986662 -0.043446695665595086 0 -0.057283337979326464 -0.043941106913736573 0 -0.057607985757687018 -0.044468720837069785 0 -0.057283337979326464 -0.043941106913736573 0 -0.057607985757687018 -0.044468720837069785 0 -0.057120762145779484 -0.044551281959214852 0 -0.039655909594250506 -0.051024995250106911 0 -0.0418864357524407 -0.050665783295860682 0 -0.057773546698986662 -0.043446695665595086 0 -0.058388396795404147 -0.044013985277588125 0 -0.057607985757687018 -0.044468720837069785 0 -0.036103537968949016 -0.051409309901844134 0 -0.035970775353548548 -0.052058602077934911 0 -0.035429777522390613 -0.051773316140780852 0 -0.035970775353548548 -0.052058602077934911 0 -0.035429777522390613 -0.051773316140780852 0 -0.035419676197231 -0.052265974402135103 0 -0.0418864357524407 -0.050665783295860682 0 -0.043638339698077171 -0.050564547191362004 0 -0.035429777522390613 -0.051773316140780852 0 -0.035419676197231 -0.052265974402135103 0 -0.034958406022021063 -0.052104511753789419 0 -0.035419676197231 -0.052265974402135103 0 -0.035147523024306682 -0.052781172330034626 0 -0.035692649417480793 -0.052672860796942951 0 -0.035419676197231 -0.052265974402135103 0 -0.035147523024306682 -0.052781172330034626 0 -0.034958406022021063 -0.052104511753789419 0 -0.035692649417480793 -0.052672860796942951 0 -0.036531987907408331 -0.05248309836667938 0 -0.036133779163424168 -0.052866337431477776 0 -0.035970775353548548 -0.052058602077934911 0 -0.035692649417480793 -0.052672860796942951 0 -0.036524319895509319 -0.052476549375085849 0 -0.033519535235838872 -0.054589196099352102 0 -0.033349325768477718 -0.054650451956553769 0 -0.035970775353548548 -0.052058602077934911 0 -0.035419676197231 -0.052265974402135103 0 -0.035692649417480793 -0.052672860796942951 0 -0.034902255052568713 -0.053460790953757414 0 -0.033349325768477718 -0.054650451956553769 0 -0.036652261365945946 -0.051759963889772248 0 -0.035970775353548548 -0.052058602077934911 0 -0.036524319895509319 -0.052476549375085849 0 -0.020646774894906361 -0.064689571864544521 0 -0.020731576563662306 -0.064268653405995996 0 -0.020194889242312247 -0.064409519998484308 0 -0.020646774894906361 -0.064689571864544521 0 -0.02014206258818994 -0.064818377425157739 0 -0.020194889242312247 -0.064409519998484308 0 -0.029346930489478538 -0.063108126861884009 0 -0.027920117654153569 -0.061471540574439709 0 -0.026303969713971708 -0.063803006973619056 0 -0.033349325768477718 -0.054650451956553769 0 -0.03045223019252866 -0.055867295705856725 0 -0.027920117654153569 -0.061471540574439709 0 -0.028207640738207994 -0.060083911419846182 0 -0.026870534280136003 -0.059644804706685296 0 -0.027920117654153569 -0.061471540574439709 0 -0.028207640738207994 -0.060083911419846182 0 -0.029821009961515665 -0.060454462952406911 0 -0.029346930489478538 -0.063108126861884009 0 -0.027920117654153569 -0.061471540574439709 0 -0.029821009961515665 -0.060454462952406911 0 -0.036531987907408331 -0.05248309836667938 0 -0.036390500605779273 -0.053275272696441708 0 -0.036133779163424168 -0.052866337431477776 0 -0.033349325768477718 -0.054650451956553769 0 -0.033162359480964743 -0.054571908800652789 0 -0.029821009961515665 -0.060454462952406911 0 -0.028571809510473507 -0.058737111947114902 0 -0.030297832354831057 -0.05783372044382136 0 -0.033162359480964743 -0.054571908800652789 0 -0.033010822135771459 -0.054244511943653671 0 -0.036390500605779273 -0.053275272696441708 0 -0.036247035953946453 -0.054074375880318208 0 -0.03590408531900656 -0.053711986374650439 0 -0.028207640738207994 -0.060083911419846182 0 -0.029821009961515665 -0.060454462952406911 0 -0.028571809510473507 -0.058737111947114902 0 -0.032578209245312621 -0.054516933112099743 0 -0.033010822135771459 -0.054244511943653671 0 -0.032578209245312621 -0.054516933112099743 0 -0.032415906216359223 -0.054617102005242384 0 -0.028207640738207994 -0.060083911419846182 0 -0.028571809510473507 -0.058737111947114902 0 -0.026870534280136003 -0.059644804706685296 0 -0.028570841754032284 -0.058789628561576358 0 -0.027512327750710507 -0.058488646175740448 0 -0.028394385506313853 -0.057855535809125391 0 -0.028570841754032284 -0.058789628561576358 0 -0.027512327750710507 -0.058488646175740448 0 -0.026870534280136003 -0.059644804706685296 0 -0.02873110942188101 -0.05793280541994715 0 -0.028179345255357292 -0.056609132100093933 0 -0.026639548641956095 -0.05792445171859386 0 -0.027512327750710507 -0.058488646175740448 0 -0.028394385506313853 -0.057855535809125391 0 -0.026639548641956095 -0.05792445171859386 0 -0.032594564083212381 -0.054309222844299204 0 -0.032447459699085586 -0.054338852883215528 0 -0.02873110942188101 -0.05793280541994715 0 -0.029402183095392356 -0.057184670851972298 0 -0.028179345255357292 -0.056609132100093933 0 -0.02873110942188101 -0.05793280541994715 0 -0.030626988024237713 -0.057844003548789387 0 -0.029402183095392356 -0.057184670851972298 0 -0.028394385506313853 -0.057855535809125391 0 -0.030204140635557757 -0.057935598788852224 0 -0.030232358328382353 -0.057780879675396052 0 -0.028570841754032284 -0.058789628561576358 0 -0.028394385506313853 -0.057855535809125391 0 -0.030204140635557757 -0.057935598788852224 0 -0.030656228532011866 -0.057808719888386526 0 -0.030942838513411283 -0.057798051341870126 0 -0.031158976645529093 -0.055000119037882475 0 -0.032594564083212381 -0.054309222844299204 0 -0.032975717985370488 -0.054221991835234913 0 -0.033010822135771459 -0.054244511943653671 0 -0.032975717985370488 -0.054221991835234913 0 -0.032975717985370488 -0.054221991835234913 0 -0.033230531398774479 -0.054161801776840227 0 -0.034452564792819135 -0.05330433992342732 0 -0.034076314378395221 -0.055373895380722765 0 -0.030209290708202028 -0.055520342508211036 0 -0.033010822135771459 -0.054244511943653671 0 -0.033230531398774479 -0.054161801776840227 0 -0.030626988024237713 -0.057844003548789387 0 -0.029402183095392356 -0.057184670851972298 0 -0.029627580731437342 -0.056178573615974246 0 -0.032975717985370488 -0.054221991835234913 0 -0.031171910108657757 -0.054998489867161826 0 -0.030626988024237713 -0.057844003548789387 0 -0.029627580731437342 -0.056178573615974246 0 -0.03115914284133944 -0.054999992110587731 0 -0.029627580731437342 -0.056178573615974246 0 -0.028108193157116355 -0.054999887791871017 0 -0.03115914284133944 -0.054999992110587731 0 -0.028108193157116355 -0.054999887791871017 0 -0.028179345255357292 -0.056609132100093933 0 -0.026623415350198174 -0.056138606484415064 0 -0.029627580731437342 -0.056178573615974246 0 -0.028108193157116355 -0.054999887791871017 0 -0.028179345255357292 -0.056609132100093933 0 -0.029402183095392356 -0.057184670851972298 0 -0.029627580731437342 -0.056178573615974246 0 -0.028179345255357292 -0.056609132100093933 0 -0.034457952306004749 -0.053831869861788118 0 -0.034415966500241174 -0.053880453929636973 0 -0.033440099541665803 -0.056420967115063031 0 -0.035118966863737555 -0.055534261131589879 0 -0.03492753630726831 -0.05614176442001919 0 -0.033581196487169646 -0.055686386510899133 0 -0.032592355159432554 -0.0570552997150389 0 -0.035118966863737555 -0.055534261131589879 0 -0.033581196487169646 -0.055686386510899133 0 -0.032170666793752724 -0.055313838153930976 0 -0.034446388910078729 -0.054999402806310431 0 -0.033581196487169646 -0.055686386510899133 0 -0.032170666793752724 -0.055313838153930976 0 -0.032592355159432554 -0.0570552997150389 0 -0.033581196487169646 -0.055686386510899133 0 -0.035118966863737555 -0.055534261131589879 0 -0.034446388910078729 -0.054999402806310431 0 -0.032170666793752724 -0.055313838153930976 0 -0.031158976645529093 -0.055000119037882475 0 -0.034446388910078729 -0.054999402806310431 0 -0.030942838513411283 -0.057798051341870126 0 -0.032170666793752724 -0.055313838153930976 0 -0.031158976645529093 -0.055000119037882475 0 -0.030942838513411283 -0.057798051341870126 0 -0.032170666793752724 -0.055313838153930976 0 -0.032630382406899396 -0.056917664991046765 0 -0.034452741740661243 -0.053869236591282885 0 -0.034457952306004749 -0.053831869861788118 0 -0.033230531398774479 -0.054161801776840227 0 -0.034817402556141235 -0.053709798671935517 0 -0.036145704885407873 -0.054127549656510898 0 -0.035532961893740604 -0.054150415954704052 0 -0.03590408531900656 -0.053711986374650439 0 -0.036140395465903204 -0.052696533470401034 0 -0.033664970443697581 -0.053990023304321288 0 -0.033323963369219972 -0.052802822036256192 0 -0.033230531398774479 -0.054161801776840227 0 -0.034457952306004749 -0.053831869861788118 0 -0.036247035953946453 -0.054074375880318208 0 -0.036145704885407873 -0.054127549656510898 0 -0.03590408531900656 -0.053711986374650439 0 -0.033440099541665803 -0.056420967115063031 0 -0.034144979152373335 -0.056598981279805435 0 -0.03492753630726831 -0.05614176442001919 0 -0.0335853727281933 -0.057079459170470206 0 -0.034613188150648518 -0.056767542604758491 0 -0.035689939646280658 -0.057070471823077513 0 -0.035712584557734649 -0.054564721617862834 0 -0.035216936226630378 -0.054220724779256164 0 -0.034745657437159232 -0.054599743285994144 0 -0.034817402556141235 -0.053709798671935517 0 -0.038562678261669078 -0.052826261038259006 0 -0.0335853727281933 -0.057079459170470206 0 -0.034144979152373335 -0.056598981279805435 0 -0.034613188150648518 -0.056767542604758491 0 -0.033440099541665803 -0.056420967115063031 0 -0.0335853727281933 -0.057079459170470206 0 -0.034144979152373335 -0.056598981279805435 0 -0.034457952306004749 -0.053831869861788118 0 -0.034817402556141235 -0.053709798671935517 0 -0.034144979152373335 -0.056598981279805435 0 -0.034613188150648518 -0.056767542604758491 0 -0.03492753630726831 -0.05614176442001919 0 -0.035712584557734649 -0.054564721617862834 0 -0.035216936226630378 -0.054220724779256164 0 -0.035467302768389677 -0.053720521286697805 0 -0.034817402556141235 -0.053709798671935517 0 -0.034824144585335629 -0.053628809672131503 0 -0.035216936226630378 -0.054220724779256164 0 -0.035467302768389677 -0.053720521286697805 0 -0.035036600839878751 -0.053965871435513318 0 -0.035532961893740604 -0.054150415954704052 0 -0.035338701168084144 -0.053464397768502744 0 -0.03590408531900656 -0.053711986374650439 0 -0.035338701168084144 -0.053464397768502744 0 -0.03590408531900656 -0.053711986374650439 0 -0.03576887255466147 -0.053162467106504699 0 -0.036390500605779273 -0.053275272696441708 0 -0.03590408531900656 -0.053711986374650439 0 -0.03576887255466147 -0.053162467106504699 0 -0.036390500605779273 -0.053275272696441708 0 -0.03576887255466147 -0.053162467106504699 0 -0.036133779163424168 -0.052866337431477776 0 -0.035692649417480793 -0.052672860796942951 0 -0.03576887255466147 -0.053162467106504699 0 -0.036133779163424168 -0.052866337431477776 0 -0.035147523024306682 -0.052781172330034626 0 -0.035338701168084144 -0.053464397768502744 0 -0.03576887255466147 -0.053162467106504699 0 -0.035147523024306682 -0.052781172330034626 0 -0.035692649417480793 -0.052672860796942951 0 -0.03576887255466147 -0.053162467106504699 0 -0.035218827442468272 -0.052893785576942035 0 -0.035467302768389677 -0.053720521286697805 0 -0.034715723677904028 -0.053323234064579665 0 -0.034816234231129221 -0.053539759829486722 0 -0.034824144585335629 -0.053628809672131503 0 -0.045029121786267848 -0.051613427379680214 0 -0.045038243779942456 -0.051370154490382278 0 -0.045415078582282137 -0.051018065690644911 0 -0.045029121786267848 -0.051613427379680214 0 -0.045415078582282137 -0.051018065690644911 0 -0.045448639125006775 -0.051241461824070675 0 -0.04587848833429526 -0.051497278193249202 0 -0.045029121786267848 -0.051613427379680214 0 -0.045448639125006775 -0.051241461824070675 0 -0.04587848833429526 -0.051497278193249202 0 -0.045029121786267848 -0.051613427379680214 0 -0.044492703464033154 -0.053002426080473564 0 -0.045029121786267848 -0.051613427379680214 0 -0.043981984406137979 -0.052533079940197354 0 -0.045038243779942456 -0.051370154490382278 0 -0.045029121786267848 -0.051613427379680214 0 -0.044492703464033154 -0.053002426080473564 0 -0.043981984406137979 -0.052533079940197354 0 -0.044492703464033154 -0.053002426080473564 0 -0.041400693791854112 -0.055560487152701163 0 -0.043981984406137979 -0.052533079940197354 0 -0.035467302768389677 -0.053720521286697805 0 -0.034715723677904028 -0.053323234064579665 0 -0.035036600839878751 -0.053965871435513318 0 -0.041128351081134794 -0.051815278695285689 0 -0.038562678261669078 -0.052826261038259006 0 -0.04587848833429526 -0.051497278193249202 0 -0.044492703464033154 -0.053002426080473564 0 -0.046057527303625168 -0.055414417948734418 0 -0.034715723677904028 -0.053323234064579665 0 -0.035036600839878751 -0.053965871435513318 0 -0.034745657437159232 -0.054599743285994144 0 -0.035216936226630378 -0.054220724779256164 0 -0.035036600839878751 -0.053965871435513318 0 -0.034745657437159232 -0.054599743285994144 0 -0.034613188150648518 -0.056767542604758491 0 -0.035237943779539267 -0.056615294447552832 0 -0.035689939646280658 -0.057070471823077513 0 -0.035237943779539267 -0.056615294447552832 0 -0.035755083770704937 -0.056441312370789969 0 -0.035689939646280658 -0.057070471823077513 0 -0.035237943779539267 -0.056615294447552832 0 -0.035755083770704937 -0.056441312370789969 0 -0.03492753630726831 -0.05614176442001919 0 -0.034613188150648518 -0.056767542604758491 0 -0.035237943779539267 -0.056615294447552832 0 -0.03492753630726831 -0.05614176442001919 0 -0.035755083770704937 -0.056441312370789969 0 -0.037629087419753904 -0.055934338018509056 0 -0.036054019952512943 -0.055793122474145175 0 -0.035755083770704937 -0.056441312370789969 0 -0.035665733065423019 -0.057940930627265061 0 -0.037629087419753904 -0.055934338018509056 0 -0.038560196813891112 -0.052842417545892265 0 -0.038562678261669078 -0.052826261038259006 0 -0.038562678261669078 -0.052826261038259006 0 -0.03856601084214184 -0.052862443958925115 0 -0.035665733065423019 -0.057940930627265061 0 -0.041400693791854112 -0.055560487152701163 0 -0.037629087419753904 -0.055934338018509056 0 -0.044492703464033154 -0.053002426080473564 0 -0.046057527303625168 -0.055414417948734418 0 -0.041400693791854112 -0.055560487152701163 0 -0.041400693791854112 -0.055560487152701163 0 -0.037629087419753904 -0.055934338018509056 0 -0.037063461640428237 -0.055237291891448478 0 -0.041400693791854112 -0.055560487152701163 0 -0.03773734570528247 -0.054998637340334153 0 -0.037063461640428237 -0.055237291891448478 0 -0.03773734570528247 -0.054998637340334153 0 -0.037063461640428237 -0.055237291891448478 0 -0.034446388910078729 -0.054999402806310431 0 -0.037063461640428237 -0.055237291891448478 0 -0.035118966863737555 -0.055534261131589879 0 -0.034446388910078729 -0.054999402806310431 0 -0.035755083770704937 -0.056441312370789969 0 -0.03492753630726831 -0.05614176442001919 0 -0.036054019952512943 -0.055793122474145175 0 -0.035118966863737555 -0.055534261131589879 0 -0.03492753630726831 -0.05614176442001919 0 -0.036054019952512943 -0.055793122474145175 0 -0.037629087419753904 -0.055934338018509056 0 -0.037063461640428237 -0.055237291891448478 0 -0.036054019952512943 -0.055793122474145175 0 -0.037063461640428237 -0.055237291891448478 0 -0.035118966863737555 -0.055534261131589879 0 -0.036054019952512943 -0.055793122474145175 0 -0.041022770433487024 -0.05499732345348346 0 -0.040782629563167611 -0.05503098703897609 0 -0.042958325645420715 -0.054207685673960976 0 -0.041400693791854112 -0.055560487152701163 0 -0.03773734570528247 -0.054998637340334153 0 -0.040782629563167611 -0.05503098703897609 0 -0.03773734570528247 -0.054998637340334153 0 -0.041022770433487024 -0.05499732345348346 0 -0.040782629563167611 -0.05503098703897609 0 -0.041400693791854112 -0.055560487152701163 0 -0.042913057676996116 -0.053964246195125853 0 -0.043356453323846349 -0.053376220651878775 0 -0.041400693791854112 -0.055560487152701163 0 -0.040782629563167611 -0.05503098703897609 0 -0.042913057676996116 -0.053964246195125853 0 -0.040782629563167611 -0.05503098703897609 0 -0.042913057676996116 -0.053964246195125853 0 -0.042958325645420715 -0.054207685673960976 0 -0.042913057676996116 -0.053964246195125853 0 -0.044711234613592242 -0.052125508641270003 0 -0.044170088183406404 -0.053241181844358512 0 -0.042913057676996116 -0.053964246195125853 0 -0.043356453323846349 -0.053376220651878775 0 -0.044711234613592242 -0.052125508641270003 0 -0.041400693791854112 -0.055560487152701163 0 -0.043356453323846349 -0.053376220651878775 0 -0.043981984406137979 -0.052533079940197354 0 -0.043356453323846349 -0.053376220651878775 0 -0.043981984406137979 -0.052533079940197354 0 -0.044711234613592242 -0.052125508641270003 0 -0.045038243779942456 -0.051370154490382278 0 -0.044711234613592242 -0.052125508641270003 0 -0.045735489930063128 -0.050898515861521137 0 -0.043981984406137979 -0.052533079940197354 0 -0.045038243779942456 -0.051370154490382278 0 -0.044711234613592242 -0.052125508641270003 0 -0.044711234613592242 -0.052125508641270003 0 -0.046302866233317003 -0.050791004948718653 0 -0.045735489930063128 -0.050898515861521137 0 -0.046302866233317003 -0.050791004948718653 0 -0.046659779222165833 -0.050307529549799057 0 -0.04791736001188307 -0.049956146784354158 0 -0.046302866233317003 -0.050791004948718653 0 -0.046659779222165833 -0.050307529549799057 0 -0.045735489930063128 -0.050898515861521137 0 -0.046659779222165833 -0.050307529549799057 0 -0.048442903797779845 -0.049867326414050325 0 -0.04791736001188307 -0.049956146784354158 0 -0.046659779222165833 -0.050307529549799057 0 -0.045676759053018087 -0.050743040701936387 0 -0.045792346287075299 -0.050874778394916657 0 -0.046659779222165833 -0.050307529549799057 0 -0.045792346287075299 -0.050874778394916657 0 -0.046377189923267066 -0.050993199652925848 0 -0.046659779222165833 -0.050307529549799057 0 -0.045676759053018087 -0.050743040701936387 0 -0.045735489930063128 -0.050898515861521137 0 -0.045038243779942456 -0.051370154490382278 0 -0.045676759053018087 -0.050743040701936387 0 -0.045735489930063128 -0.050898515861521137 0 -0.045038243779942456 -0.051370154490382278 0 -0.045676759053018087 -0.050743040701936387 0 -0.045415078582282137 -0.051018065690644911 0 -0.045415078582282137 -0.051018065690644911 0 -0.045448639125006775 -0.051241461824070675 0 -0.045522228873807073 -0.050982068854259072 0 -0.045415078582282137 -0.051018065690644911 0 -0.045522228873807073 -0.050982068854259072 0 -0.045556582625629706 -0.050830171018712317 0 -0.045522228873807073 -0.050982068854259072 0 -0.045536838897833838 -0.050832328403305906 0 -0.045556582625629706 -0.050830171018712317 0 -0.045676759053018087 -0.050743040701936387 0 -0.045415078582282137 -0.051018065690644911 0 -0.045556582625629706 -0.050830171018712317 0 -0.041128351081134794 -0.051815278695285689 0 -0.043638339698077171 -0.050564547191362004 0 -0.035218827442468272 -0.052893785576942035 0 -0.034866085262177431 -0.052511703445748868 0 -0.034958406022021063 -0.052104511753789419 0 -0.034715723677904028 -0.053323234064579665 0 -0.034866085262177431 -0.052511703445748868 0 -0.034734223529224402 -0.052143348522041805 0 -0.04587848833429526 -0.051497278193249202 0 -0.045522228873807073 -0.050982068854259072 0 -0.045519369132583545 -0.050767966575963969 0 -0.04587848833429526 -0.051497278193249202 0 -0.045448639125006775 -0.051241461824070675 0 -0.045522228873807073 -0.050982068854259072 0 -0.034816234231129221 -0.053539759829486722 0 -0.034809935607447155 -0.053497656158703076 0 -0.035218827442468272 -0.052893785576942035 0 -0.034715723677904028 -0.053323234064579665 0 -0.034866085262177431 -0.052511703445748868 0 -0.057607985757687018 -0.044468720837069785 0 -0.056785624540643925 -0.044921347151325543 0 -0.057120762145779484 -0.044551281959214852 0 -0.035429777522390613 -0.051773316140780852 0 -0.034958406022021063 -0.052104511753789419 0 -0.034734223529224402 -0.052143348522041805 0 -0.034866085262177431 -0.052511703445748868 0 -0.034958406022021063 -0.052104511753789419 0 -0.034734223529224402 -0.052143348522041805 0 -0.045519369132583545 -0.050767966575963969 0 -0.045536838897833838 -0.050832328403305906 0 -0.045570427069902657 -0.050887993827670043 0 -0.045522228873807073 -0.050982068854259072 0 -0.045519369132583545 -0.050767966575963969 0 -0.045536838897833838 -0.050832328403305906 0 -0.045676759053018087 -0.050743040701936387 0 -0.045556582625629706 -0.050830171018712317 0 -0.045792346287075299 -0.050874778394916657 0 -0.045536838897833838 -0.050832328403305906 0 -0.045556582625629706 -0.050830171018712317 0 -0.045570427069902657 -0.050887993827670043 0 -0.045519369132583545 -0.050767966575963969 0 -0.045570427069902657 -0.050887993827670043 0 -0.045543003004135017 -0.051104057110176571 0 -0.045570427069902657 -0.050887993827670043 0 -0.045792346287075299 -0.050874778394916657 0 -0.045543003004135017 -0.051104057110176571 0 -0.045556582625629706 -0.050830171018712317 0 -0.045570427069902657 -0.050887993827670043 0 -0.045792346287075299 -0.050874778394916657 0 -0.045543003004135017 -0.051104057110176571 0 -0.045336085171012959 -0.051468767945771383 0 -0.04591119622321789 -0.051491147576090038 0 -0.045792346287075299 -0.050874778394916657 0 -0.045543003004135017 -0.051104057110176571 0 -0.04591119622321789 -0.051491147576090038 0 -0.045519369132583545 -0.050767966575963969 0 -0.045543003004135017 -0.051104057110176571 0 -0.045336085171012959 -0.051468767945771383 0 -0.056785624540643925 -0.044921347151325543 0 -0.057120762145779484 -0.044551281959214852 0 -0.056718282165879888 -0.043647242315019048 0 -0.057283337979326464 -0.043941106913736573 0 -0.057120762145779484 -0.044551281959214852 0 -0.056718282165879888 -0.043647242315019048 0 -0.043638339698077171 -0.050564547191362004 0 -0.047140181190992538 -0.047217725898750305 0 -0.047140181190992538 -0.047217725898750305 0 -0.047493304056399663 -0.047311432548335468 0 -0.054317844286289989 -0.047024186582771715 0 -0.055074995540703449 -0.047589423463823027 0 -0.054080228732778526 -0.0477955658334333 0 -0.054317844286289989 -0.047024186582771715 0 -0.053460149333935433 -0.047305168464343052 0 -0.054080228732778526 -0.0477955658334333 0 -0.053460149333935433 -0.047305168464343052 0 -0.053229123480350964 -0.048085667697144167 0 -0.054080228732778526 -0.0477955658334333 0 -0.052740803233022444 -0.046845695443257215 0 -0.053460149333935433 -0.047305168464343052 0 -0.052490615284929862 -0.047350460034643722 0 -0.053460149333935433 -0.047305168464343052 0 -0.053229123480350964 -0.048085667697144167 0 -0.052490615284929862 -0.047350460034643722 0 -0.046659779222165833 -0.050307529549799057 0 -0.047248800061479412 -0.051323060371406257 0 -0.048442903797779845 -0.049867326414050325 0 -0.046659779222165833 -0.050307529549799057 0 -0.047248800061479412 -0.051323060371406257 0 -0.046377189923267066 -0.050993199652925848 0 -0.047248800061479412 -0.051323060371406257 0 -0.046377189923267066 -0.050993199652925848 0 -0.04591119622321789 -0.051491147576090038 0 -0.045792346287075299 -0.050874778394916657 0 -0.046377189923267066 -0.050993199652925848 0 -0.04591119622321789 -0.051491147576090038 0 -0.047627266030500062 -0.047380217514937359 0 -0.047493304056399663 -0.047311432548335468 0 -0.050831319711829574 -0.048979874185726351 0 -0.052031506655940793 -0.046908967103809721 0 -0.051227188708829141 -0.047779478603881161 0 -0.050831319711829574 -0.048979874185726351 0 -0.051227188708829141 -0.047779478603881161 0 -0.049952785138785261 -0.049032012562406788 0 -0.050831319711829574 -0.048979874185726351 0 -0.052383630861651827 -0.047012362294764735 0 -0.052031506655940793 -0.046908967103809721 0 -0.047248800061479412 -0.051323060371406257 0 -0.050831319711829574 -0.048979874185726351 0 -0.048442903797779845 -0.049867326414050325 0 -0.047627266030500062 -0.047380217514937359 0 -0.047647713680289 -0.047405485322203574 0 -0.053229123480350964 -0.048085667697144167 0 -0.050831319711829574 -0.048979874185726351 0 -0.052490615284929862 -0.047350460034643722 0 -0.050831319711829574 -0.048979874185726351 0 -0.049952785138785261 -0.049032012562406788 0 -0.048442903797779845 -0.049867326414050325 0 -0.051303418374417577 -0.044303864427795686 0 -0.05133606057169695 -0.044351040435672964 0 -0.050831319711829574 -0.048979874185726351 0 -0.052490615284929862 -0.047350460034643722 0 -0.052383630861651827 -0.047012362294764735 0 -0.052740803233022444 -0.046845695443257215 0 -0.052490615284929862 -0.047350460034643722 0 -0.052383630861651827 -0.047012362294764735 0 -0.053680586661761058 -0.044213006128795189 0 -0.052383630861651827 -0.047012362294764735 0 -0.052827193075610096 -0.045471568091700533 0 -0.052383630861651827 -0.047012362294764735 0 -0.052827193075610096 -0.045471568091700533 0 -0.052031506655940793 -0.046908967103809721 0 -0.052827193075610096 -0.045471568091700533 0 -0.052031506655940793 -0.046908967103809721 0 -0.053073247283928565 -0.045013745481851983 0 -0.052031506655940793 -0.046908967103809721 0 -0.053073247283928565 -0.045013745481851983 0 -0.052501128818737468 -0.046544722209413823 0 -0.054108772440226265 -0.043226171902974501 0 -0.053073247283928565 -0.045013745481851983 0 -0.053666388931241864 -0.045195872138143134 0 -0.053073247283928565 -0.045013745481851983 0 -0.052501128818737468 -0.046544722209413823 0 -0.053666388931241864 -0.045195872138143134 0 -0.052501128818737468 -0.046544722209413823 0 -0.051227188708829141 -0.047779478603881161 0 -0.051991153127461637 -0.0473722423533815 0 -0.052031506655940793 -0.046908967103809721 0 -0.052501128818737468 -0.046544722209413823 0 -0.051227188708829141 -0.047779478603881161 0 -0.051227188708829141 -0.047779478603881161 0 -0.049929735417073365 -0.048690373707860821 0 -0.051991153127461637 -0.0473722423533815 0 -0.051227188708829141 -0.047779478603881161 0 -0.049929735417073365 -0.048690373707860821 0 -0.049952785138785261 -0.049032012562406788 0 -0.052501128818737468 -0.046544722209413823 0 -0.051991153127461637 -0.0473722423533815 0 -0.053641789851914062 -0.046381773090187324 0 -0.048259508391488778 -0.054316884076498581 0 -0.0482107752975037 -0.054248436191550412 0 -0.051991153127461637 -0.0473722423533815 0 -0.048528592769640493 -0.049729474714713819 0 -0.047338449127658083 -0.050245754625797619 0 -0.049929735417073365 -0.048690373707860821 0 -0.051991153127461637 -0.0473722423533815 0 -0.048528592769640493 -0.049729474714713819 0 -0.049929735417073365 -0.048690373707860821 0 -0.048528592769640493 -0.049729474714713819 0 -0.048557058004413657 -0.049753492376881911 0 -0.048528592769640493 -0.049729474714713819 0 -0.048557058004413657 -0.049753492376881911 0 -0.047293460323943007 -0.050829541815955864 0 -0.048557058004413657 -0.049753492376881911 0 -0.046756791752835848 -0.050882696968410294 0 -0.047293460323943007 -0.050829541815955864 0 -0.049929735417073365 -0.048690373707860821 0 -0.048557058004413657 -0.049753492376881911 0 -0.049952785138785261 -0.049032012562406788 0 -0.048557058004413657 -0.049753492376881911 0 -0.049952785138785261 -0.049032012562406788 0 -0.04791736001188307 -0.049956146784354158 0 -0.049952785138785261 -0.049032012562406788 0 -0.048442903797779845 -0.049867326414050325 0 -0.04791736001188307 -0.049956146784354158 0 -0.046302866233317003 -0.050791004948718653 0 -0.04791736001188307 -0.049956146784354158 0 -0.046756791752835848 -0.050882696968410294 0 -0.048557058004413657 -0.049753492376881911 0 -0.04791736001188307 -0.049956146784354158 0 -0.046756791752835848 -0.050882696968410294 0 -0.044711234613592242 -0.052125508641270003 0 -0.046302866233317003 -0.050791004948718653 0 -0.046756791752835848 -0.050882696968410294 0 -0.044711234613592242 -0.052125508641270003 0 -0.046756791752835848 -0.050882696968410294 0 -0.045687915539410068 -0.052123686139235056 0 -0.046756791752835848 -0.050882696968410294 0 -0.047293460323943007 -0.050829541815955864 0 -0.045687915539410068 -0.052123686139235056 0 -0.047293460323943007 -0.050829541815955864 0 -0.045687915539410068 -0.052123686139235056 0 -0.046690359436050197 -0.051700415867740532 0 -0.045687915539410068 -0.052123686139235056 0 -0.044514068961358982 -0.053299860841915007 0 -0.045529576103196495 -0.052637602551809611 0 -0.045687915539410068 -0.052123686139235056 0 -0.045529576103196495 -0.052637602551809611 0 -0.046690359436050197 -0.051700415867740532 0 -0.044711234613592242 -0.052125508641270003 0 -0.045687915539410068 -0.052123686139235056 0 -0.044170088183406404 -0.053241181844358512 0 -0.045687915539410068 -0.052123686139235056 0 -0.044170088183406404 -0.053241181844358512 0 -0.044514068961358982 -0.053299860841915007 0 -0.042913057676996116 -0.053964246195125853 0 -0.044170088183406404 -0.053241181844358512 0 -0.042958325645420715 -0.054207685673960976 0 -0.044514068961358982 -0.053299860841915007 0 -0.043894225611947828 -0.053784642893687694 0 -0.042958325645420715 -0.054207685673960976 0 -0.044170088183406404 -0.053241181844358512 0 -0.044514068961358982 -0.053299860841915007 0 -0.042958325645420715 -0.054207685673960976 0 -0.044514068961358982 -0.053299860841915007 0 -0.045529576103196495 -0.052637602551809611 0 -0.044899533931653475 -0.053255682166956538 0 -0.044514068961358982 -0.053299860841915007 0 -0.044899533931653475 -0.053255682166956538 0 -0.043894225611947828 -0.053784642893687694 0 -0.043894225611947828 -0.053784642893687694 0 -0.042591484506817059 -0.054877427176969501 0 -0.045036429588579799 -0.052932356345843631 0 -0.044306043180729421 -0.054999428311456926 0 -0.042591484506817059 -0.054877427176969501 0 -0.04503938964475715 -0.055634604365858056 0 -0.047576014221676316 -0.054334207480508684 0 -0.047643659801188044 -0.054331482414182085 0 -0.044899533931653475 -0.053255682166956538 0 -0.043894225611947828 -0.053784642893687694 0 -0.045036429588579799 -0.052932356345843631 0 -0.041022770433487024 -0.05499732345348346 0 -0.044306043180729421 -0.054999428311456926 0 -0.042591484506817059 -0.054877427176969501 0 -0.041022770433487024 -0.05499732345348346 0 -0.042591484506817059 -0.054877427176969501 0 -0.042958325645420715 -0.054207685673960976 0 -0.043894225611947828 -0.053784642893687694 0 -0.042591484506817059 -0.054877427176969501 0 -0.042958325645420715 -0.054207685673960976 0 -0.047573388256837532 -0.056096014784510671 0 -0.047593525500271766 -0.055000314577934355 0 -0.04503938964475715 -0.055634604365858056 0 -0.047848210475680983 -0.054337912230070888 0 -0.047598231064700174 -0.054993454449706554 0 -0.044306043180729421 -0.054999428311456926 0 -0.047593525500271766 -0.055000314577934355 0 -0.04503938964475715 -0.055634604365858056 0 -0.04546306803715898 -0.052896158823454012 0 -0.045036429588579799 -0.052932356345843631 0 -0.045529291144087387 -0.052883847590613549 0 -0.044899533931653475 -0.053255682166956538 0 -0.045036429588579799 -0.052932356345843631 0 -0.045529291144087387 -0.052883847590613549 0 -0.047848210475680983 -0.054337912230070888 0 -0.047643659801188044 -0.054331482414182085 0 -0.045529576103196495 -0.052637602551809611 0 -0.044899533931653475 -0.053255682166956538 0 -0.045529291144087387 -0.052883847590613549 0 -0.04546306803715898 -0.052896158823454012 0 -0.045529291144087387 -0.052883847590613549 0 -0.045668605771047928 -0.052296658248730844 0 -0.056315134765190296 -0.051149409703051936 0 -0.056184481892129705 -0.049459782011071804 0 -0.055560258505233634 -0.050300107179345944 0 -0.047848210475680983 -0.054337912230070888 0 -0.048074055513232641 -0.054183199684363685 0 -0.048074055513232641 -0.054183199684363685 0 -0.0482107752975037 -0.054248436191550412 0 -0.045668605771047928 -0.052296658248730844 0 -0.046690359436050197 -0.051700415867740532 0 -0.047338449127658083 -0.050245754625797619 0 -0.056184481892129705 -0.049459782011071804 0 -0.054869105181859931 -0.047430574566041099 0 -0.05528914215133407 -0.049055331163801764 0 -0.045529291144087387 -0.052883847590613549 0 -0.045668605771047928 -0.052296658248730844 0 -0.046690359436050197 -0.051700415867740532 0 -0.045529576103196495 -0.052637602551809611 0 -0.045529291144087387 -0.052883847590613549 0 -0.046690359436050197 -0.051700415867740532 0 -0.048528592769640493 -0.049729474714713819 0 -0.046690359436050197 -0.051700415867740532 0 -0.047338449127658083 -0.050245754625797619 0 -0.048528592769640493 -0.049729474714713819 0 -0.047293460323943007 -0.050829541815955864 0 -0.046690359436050197 -0.051700415867740532 0 -0.047596458417984232 -0.054999801032022934 0 -0.051101325290788958 -0.055649059033276597 0 -0.055000355317098987 -0.05499548346383229 0 -0.054869105181859931 -0.047430574566041099 0 -0.054980458614227838 -0.048006045332108525 0 -0.05528914215133407 -0.049055331163801764 0 -0.054980458614227838 -0.048006045332108525 0 -0.054956059648308637 -0.049299050310413393 0 -0.055113093625209247 -0.049020720737466238 0 -0.054980458614227838 -0.048006045332108525 0 -0.054956059648308637 -0.049299050310413393 0 -0.05528914215133407 -0.049055331163801764 0 -0.054956059648308637 -0.049299050310413393 0 -0.05528914215133407 -0.049055331163801764 0 -0.05505272248811325 -0.050492376199399204 0 -0.056184481892129705 -0.049459782011071804 0 -0.05528914215133407 -0.049055331163801764 0 -0.055560258505233634 -0.050300107179345944 0 -0.056315134765190296 -0.051149409703051936 0 -0.055560258505233634 -0.050300107179345944 0 -0.054914227639062473 -0.051127990783915313 0 -0.05528914215133407 -0.049055331163801764 0 -0.055560258505233634 -0.050300107179345944 0 -0.05505272248811325 -0.050492376199399204 0 -0.055253303090027489 -0.051382303133650699 0 -0.055113355679494394 -0.05136203282370138 0 -0.05505272248811325 -0.050492376199399204 0 -0.054914227639062473 -0.051127990783915313 0 -0.05465715632265452 -0.052744602254617586 0 -0.054956059648308637 -0.049299050310413393 0 -0.05505272248811325 -0.050492376199399204 0 -0.054915040589216202 -0.049902020150983634 0 -0.055560258505233634 -0.050300107179345944 0 -0.05505272248811325 -0.050492376199399204 0 -0.054914227639062473 -0.051127990783915313 0 -0.047848210475680983 -0.054337912230070888 0 -0.04818439473370343 -0.054303075761642554 0 -0.047661058163546648 -0.055938819332952874 0 -0.047596458417984232 -0.054999801032022934 0 -0.051101325290788958 -0.055649059033276597 0 -0.051101325290788958 -0.055649059033276597 0 -0.055000355317098987 -0.05499548346383229 0 -0.05435273134499579 -0.053733379675574913 0 -0.055000355317098987 -0.05499548346383229 0 -0.05435273134499579 -0.053733379675574913 0 -0.054995974228585265 -0.051357454081711912 0 -0.054914227639062473 -0.051127990783915313 0 -0.05465715632265452 -0.052744602254617586 0 -0.05435273134499579 -0.053733379675574913 0 -0.04818439473370343 -0.054303075761642554 0 -0.048244967526427228 -0.054282028769813792 0 -0.055113355679494394 -0.05136203282370138 0 -0.054999791114810508 -0.051350036435019016 0 -0.05465715632265452 -0.052744602254617586 0 -0.05435273134499579 -0.053733379675574913 0 -0.054995974228585265 -0.051357454081711912 0 -0.054915040589216202 -0.049902020150983634 0 -0.054998935564982004 -0.051345547844180023 0 -0.055113093625209247 -0.049020720737466238 0 -0.054956059648308637 -0.049299050310413393 0 -0.054915040589216202 -0.049902020150983634 0 -0.055113093625209247 -0.049020720737466238 0 -0.054980458614227838 -0.048006045332108525 0 -0.055113093625209247 -0.049020720737466238 0 -0.055117223099894072 -0.046667408553184443 0 -0.054998935564982004 -0.051345547844180023 0 -0.055113093625209247 -0.049020720737466238 0 -0.05499872193355184 -0.048368706808311707 0 -0.055113093625209247 -0.049020720737466238 0 -0.05499872193355184 -0.048368706808311707 0 -0.055117223099894072 -0.046667408553184443 0 -0.05499872193355184 -0.048368706808311707 0 -0.054998731254215359 -0.045386764429384968 0 -0.055117223099894072 -0.046667408553184443 0 -0.054998731254215359 -0.045386764429384968 0 -0.055117223099894072 -0.046667408553184443 0 -0.055050913878215084 -0.044538720700165152 0 -0.055117223099894072 -0.046667408553184443 0 -0.054652339029475687 -0.045244793200481054 0 -0.055050913878215084 -0.044538720700165152 0 -0.054980458614227838 -0.048006045332108525 0 -0.055117223099894072 -0.046667408553184443 0 -0.054557450622319509 -0.04671950958551746 0 -0.054869105181859931 -0.047430574566041099 0 -0.054980458614227838 -0.048006045332108525 0 -0.054557450622319509 -0.04671950958551746 0 -0.051991153127461637 -0.0473722423533815 0 -0.054869105181859931 -0.047430574566041099 0 -0.054557450622319509 -0.04671950958551746 0 -0.051991153127461637 -0.0473722423533815 0 -0.054557450622319509 -0.04671950958551746 0 -0.053641789851914062 -0.046381773090187324 0 -0.055117223099894072 -0.046667408553184443 0 -0.054557450622319509 -0.04671950958551746 0 -0.054652339029475687 -0.045244793200481054 0 -0.054557450622319509 -0.04671950958551746 0 -0.053641789851914062 -0.046381773090187324 0 -0.054652339029475687 -0.045244793200481054 0 -0.053641789851914062 -0.046381773090187324 0 -0.054652339029475687 -0.045244793200481054 0 -0.053666388931241864 -0.045195872138143134 0 -0.052501128818737468 -0.046544722209413823 0 -0.053641789851914062 -0.046381773090187324 0 -0.053666388931241864 -0.045195872138143134 0 -0.054108772440226265 -0.043226171902974501 0 -0.053666388931241864 -0.045195872138143134 0 -0.05457706836770148 -0.043280401075250677 0 -0.054652339029475687 -0.045244793200481054 0 -0.05457706836770148 -0.043280401075250677 0 -0.055019481295586918 -0.042726757956287477 0 -0.054652339029475687 -0.045244793200481054 0 -0.053666388931241864 -0.045195872138143134 0 -0.05457706836770148 -0.043280401075250677 0 -0.055019481295586918 -0.042726757956287477 0 -0.054998556340856923 -0.04240591521602128 0 -0.055050913878215084 -0.044538720700165152 0 -0.054998731254215359 -0.045386764429384968 0 -0.054998556340856923 -0.04240591521602128 0 -0.055050913878215084 -0.044538720700165152 0 -0.054652339029475687 -0.045244793200481054 0 -0.055019481295586918 -0.042726757956287477 0 -0.055050913878215084 -0.044538720700165152 0 -0.007493815183386366 -0.044469063155900559 0 -0.0069529861016173079 -0.046094338532955373 0 -0.009773429807342443 -0.068470900562690618 0 -0.010802114529826642 -0.067799815835214106 0 -0.010077680234661943 -0.067141015876740651 0 -0.018677246706182454 -0.062648096320189028 0 -0.015402581391323403 -0.061020864140259555 0 -0.015109636041202015 -0.065066408830856792 0 -0.018677246706182454 -0.062648096320189028 0 -0.015402581391323403 -0.061020864140259555 0 -0.019689451749841207 -0.058268018034573626 0 -0.015402581391323403 -0.061020864140259555 0 -0.011967106149207039 -0.06175441475382782 0 -0.013119237604624537 -0.064154106506374819 0 -0.015402581391323403 -0.061020864140259555 0 -0.011967106149207039 -0.06175441475382782 0 -0.012787176594898217 -0.057671515852478566 0 -0.016154089106511248 -0.06769816435009568 0 -0.016211332463156911 -0.067684145628840536 0 -0.016225156898746134 -0.067715082777483754 0 -0.016154089106511248 -0.06769816435009568 0 -0.016260167909281122 -0.067759266288731176 0 -0.016225156898746134 -0.067715082777483754 0 -0.016211332463156911 -0.067684145628840536 0 -0.016172567705502728 -0.067616768621764411 0 -0.016233027243294493 -0.067629815696479328 0 -0.011967106149207039 -0.06175441475382782 0 -0.013119237604624537 -0.064154106506374819 0 -0.011526412670264167 -0.065567459343991302 0 -0.015979888453249557 -0.060523640234726124 0 -0.015715420393219805 -0.062022277678501138 0 -0.016154089106511248 -0.06769816435009568 0 -0.016211332463156911 -0.067684145628840536 0 -0.016172567705502728 -0.067616768621764411 0 -0.015402581391323403 -0.061020864140259555 0 -0.013119237604624537 -0.064154106506374819 0 -0.015109636041202015 -0.065066408830856792 0 -0.01205590281182913 -0.066684421833351701 0 -0.011174393037248952 -0.066796226383875584 0 -0.010802114529826642 -0.067799815835214106 0 -0.013119237604624537 -0.064154106506374819 0 -0.01205590281182913 -0.066684421833351701 0 -0.015109636041202015 -0.065066408830856792 0 -0.0067633216706543889 -0.046636038090504782 0 -0.0069529861016173079 -0.046094338532955373 0 -0.011526412670264167 -0.065567459343991302 0 -0.01205590281182913 -0.066684421833351701 0 -0.012205707403764872 -0.066803472357316346 0 -0.015715420393219805 -0.062022277678501138 0 -0.015585384804867573 -0.063055954266689238 0 -0.013119237604624537 -0.064154106506374819 0 -0.011526412670264167 -0.065567459343991302 0 -0.01205590281182913 -0.066684421833351701 0 -0.016172567705502728 -0.067616768621764411 0 -0.016197660180930388 -0.067486455870240158 0 -0.016233027243294493 -0.067629815696479328 0 -0.01205590281182913 -0.066684421833351701 0 -0.011958064079329039 -0.066567946925507701 0 -0.012205707403764872 -0.066803472357316346 0 -0.011958064079329039 -0.066567946925507701 0 -0.012205707403764872 -0.066803472357316346 0 -0.012030462737107039 -0.066174968596532421 0 -0.015585384804867573 -0.063055954266689238 0 -0.015583654041610976 -0.063062214905724306 0 -0.014630005311913968 -0.065842112094657082 0 -0.014983955134234438 -0.065764870758561286 0 -0.014571593287548614 -0.065626547567108104 0 -0.011174393037248952 -0.066796226383875584 0 -0.011514709073954325 -0.066319430740904295 0 -0.01032043678987995 -0.066466743393133437 0 -0.01205590281182913 -0.066684421833351701 0 -0.011958064079329039 -0.066567946925507701 0 -0.011174393037248952 -0.066796226383875584 0 -0.011958064079329039 -0.066567946925507701 0 -0.011174393037248952 -0.066796226383875584 0 -0.011514709073954325 -0.066319430740904295 0 -0.011958064079329039 -0.066567946925507701 0 -0.011514709073954325 -0.066319430740904295 0 -0.012030462737107039 -0.066174968596532421 0 -0.011174393037248952 -0.066796226383875584 0 -0.01032043678987995 -0.066466743393133437 0 -0.010077680234661943 -0.067141015876740651 0 -0.011174393037248952 -0.066796226383875584 0 -0.010802114529826642 -0.067799815835214106 0 -0.010077680234661943 -0.067141015876740651 0 -0.009773429807342443 -0.068470900562690618 0 -0.010077680234661943 -0.067141015876740651 0 -0.0091784320828954356 -0.067259973573375001 0 -0.01032043678987995 -0.066466743393133437 0 -0.010077680234661943 -0.067141015876740651 0 -0.009424826342691801 -0.066173470574830598 0 -0.010077680234661943 -0.067141015876740651 0 -0.0091784320828954356 -0.067259973573375001 0 -0.009424826342691801 -0.066173470574830598 0 -0.0087849195805475479 -0.066602698141719013 0 -0.0091784320828954356 -0.067259973573375001 0 -0.009424826342691801 -0.066173470574830598 0 -0.0087849195805475479 -0.066602698141719013 0 -0.00804727466882783 -0.066950659530436177 0 -0.0091784320828954356 -0.067259973573375001 0 -0.0087849195805475479 -0.066602698141719013 0 -0.00804727466882783 -0.066950659530436177 0 -0.0084608614918594872 -0.065924529952122363 0 -0.00804727466882783 -0.066950659530436177 0 -0.0091784320828954356 -0.067259973573375001 0 -0.0085287021689865704 -0.068167910060468517 0 -0.0077561928508005917 -0.066192513220171612 0 -0.0072512386076712173 -0.067553593459675848 0 -0.0085287021689865704 -0.068167910060468517 0 -0.0057323296917179177 -0.059016520874940921 0 -0.0060116985975763896 -0.059719871236322289 0 -0.0064803584168561133 -0.065599842252082999 0 -0.0062295628036274225 -0.06476533317777021 0 -0.0050689421563549948 -0.06566056996046904 0 -0.0064803584168561133 -0.065599842252082999 0 -0.0064017788466843037 -0.066822361289730917 0 -0.0050689421563549948 -0.06566056996046904 0 -0.0057323296917179177 -0.059016520874940921 0 -0.0049220185517520262 -0.056971466209491783 0 -0.0077561928508005917 -0.066192513220171612 0 -0.0064803584168561133 -0.065599842252082999 0 -0.0064017788466843037 -0.066822361289730917 0 -0.0077561928508005917 -0.066192513220171612 0 -0.0064803584168561133 -0.065599842252082999 0 -0.0069308155914800688 -0.064254358701911263 0 -0.0077561928508005917 -0.066192513220171612 0 -0.0064017788466843037 -0.066822361289730917 0 -0.0072512386076712173 -0.067553593459675848 0 -0.0064017788466843037 -0.066822361289730917 0 -0.0050689421563549948 -0.06566056996046904 0 -0.0054593232071736743 -0.067549808957948473 0 -0.0064028216594863305 -0.068304660658085117 0 -0.0058484348238746001 -0.069356180425567279 0 -0.0054593232071736743 -0.067549808957948473 0 -0.0064017788466843037 -0.066822361289730917 0 -0.0064028216594863305 -0.068304660658085117 0 -0.0054593232071736743 -0.067549808957948473 0 -0.0064028216594863305 -0.068304660658085117 0 -0.0072512386076712173 -0.067553593459675848 0 -0.0075256735357567108 -0.068912278905158761 0 -0.0064017788466843037 -0.066822361289730917 0 -0.0064028216594863305 -0.068304660658085117 0 -0.0072512386076712173 -0.067553593459675848 0 -0.0064028216594863305 -0.068304660658085117 0 -0.0075256735357567108 -0.068912278905158761 0 -0.00661030788052015 -0.06935070444784168 0 -0.0064028216594863305 -0.068304660658085117 0 -0.00661030788052015 -0.06935070444784168 0 -0.0058484348238746001 -0.069356180425567279 0 -0.0075254107299433546 -0.039758759949745821 0 -0.0053761338904924237 -0.043211544230852508 0 -0.0075254107299433546 -0.039758759949745821 0 -0.0061940432754289086 -0.045630126940580794 0 -0.0011810919343690834 -0.036590106780446711 0 -0.0012292119484444951 -0.036751095106217352 0 -0.00087212345115179337 -0.036383736618797652 0 -0.009773429807342443 -0.068470900562690618 0 -0.0091784320828954356 -0.067259973573375001 0 -0.0085287021689865704 -0.068167910060468517 0 -0.0072512386076712173 -0.067553593459675848 0 -0.0075256735357567108 -0.068912278905158761 0 -0.0085287021689865704 -0.068167910060468517 0 -0.0075256735357567108 -0.068912278905158761 0 -0.0085287021689865704 -0.068167910060468517 0 -0.0087213552202723265 -0.0693326632238494 0 -0.007493815183386366 -0.044469063155900559 0 -0.0083811477122576836 -0.041718485537698601 0 -0.009773429807342443 -0.068470900562690618 0 -0.0085287021689865704 -0.068167910060468517 0 -0.0087213552202723265 -0.0693326632238494 0 -0.018677246706182454 -0.062648096320189028 0 -0.022247614138868149 -0.060072535274353446 0 -0.019689451749841207 -0.058268018034573626 0 -0.022247614138868149 -0.060072535274353446 0 -0.023351330561458286 -0.056425853857905543 0 -0.019689451749841207 -0.058268018034573626 0 -0.0083811477122576836 -0.041718485537698601 0 -0.0096867956586829812 -0.037718018907235161 0 -0.022247614138868149 -0.060072535274353446 0 -0.023351330561458286 -0.056425853857905543 0 -0.025786396259729904 -0.057480421473571644 0 -0.0075256735357567108 -0.068912278905158761 0 -0.0087213552202723265 -0.0693326632238494 0 -0.0073921435625488264 -0.070343522540304362 0 -0.023298575370681748 -0.056358052016605084 0 -0.025683078147160161 -0.057380016726079487 0 -0.025513406417050938 -0.054622538015551926 0 -0.023298575370681748 -0.056358052016605084 0 -0.020915392213565094 -0.055352396546054013 0 -0.023516424070555205 -0.052593410016314887 0 -0.010829306789353222 -0.038447613159889572 0 -0.0096867956586829812 -0.037718018907235161 0 -0.010829306789353222 -0.038447613159889572 0 -0.011176865687147288 -0.038676041723579364 0 -0.023351330561458286 -0.056425853857905543 0 -0.020915392213565094 -0.055352396546054013 0 -0.019689451749841207 -0.058268018034573626 0 -0.0093694211781870408 -0.035950967686026881 0 -0.0082352231212976176 -0.037330307350040844 0 -0.0081122934262749472 -0.01379522485274565 0 -0.0082332090762984103 -0.014809953117067419 0 -0.0089505520710048275 -0.013385212494780578 0 -0.0075254107299433546 -0.039758759949745821 0 -0.0082352231212976176 -0.037330307350040844 0 -0.00661030788052015 -0.06935070444784168 0 -0.005974016519468244 -0.069761877809987369 0 -0.0065141234815836351 -0.069985262847049881 0 -0.0082352231212976176 -0.037330307350040844 0 -0.0087920313235031102 -0.037104237143309994 0 -0.00661030788052015 -0.06935070444784168 0 -0.0058484348238746001 -0.069356180425567279 0 -0.005974016519468244 -0.069761877809987369 0 -0.0060259045084299894 -0.043849134920098738 0 -0.0051735933274672926 -0.036660483649160358 0 -0.011206217310695397 -0.039284124615872155 0 -0.0093694211781870408 -0.035950967686026881 0 -0.0087920313235031102 -0.037104237143309994 0 -0.00661030788052015 -0.06935070444784168 0 -0.0065141234815836351 -0.069985262847049881 0 -0.0073921435625488264 -0.070343522540304362 0 -0.0075256735357567108 -0.068912278905158761 0 -0.00661030788052015 -0.06935070444784168 0 -0.0073921435625488264 -0.070343522540304362 0 -0.0087920313235031102 -0.037104237143309994 0 -0.0096867956586829812 -0.037718018907235161 0 -0.0089316778366641328 -0.036778344395998058 0 -0.01217554144493198 -0.038190591727332739 0 -0.0083984282205989639 -0.04093062153426727 0 -0.025683078147160161 -0.057380016726079487 0 -0.025513406417050938 -0.054622538015551926 0 -0.028253980808858294 -0.055508959234959118 0 -0.0096867956586829812 -0.037718018907235161 0 -0.010464052644574135 -0.03528282554899885 0 -0.0080508428074103269 -0.013177932293937222 0 -0.0091048344269277839 -0.013169845861190082 0 -0.010101922480573615 -0.011696479245941947 0 -0.007233420776165283 -0.038274611606390528 0 -0.0089316778366641328 -0.036778344395998058 0 -0.0083984282205989639 -0.04093062153426727 0 -0.008550926832293311 -0.0143364073006366 0 -0.0080508428074103269 -0.013177932293937222 0 -0.0084733642837009834 -0.013904894986731043 0 -0.0093694211781870408 -0.035950967686026881 0 -0.010464052644574135 -0.03528282554899885 0 -0.0085551161246048141 -0.014335695684657033 0 -0.0091048344269277839 -0.013169845861190082 0 -0.0084733642837009834 -0.013904894986731043 0 -0.0080508428074103269 -0.013177932293937222 0 -0.0091048344269277839 -0.013169845861190082 0 -0.0084733642837009834 -0.013904894986731043 0 -0.0093694211781870408 -0.035950967686026881 0 -0.0093639889284045964 -0.035914285404017747 0 -0.012871440645105679 -0.010289049755292747 0 -0.012957632359033317 -0.010085760439308157 0 -0.013082455991234049 -0.010119600929052189 0 -0.010464052644574135 -0.03528282554899885 0 -0.012991060972003258 -0.033916947821381063 0 -0.012871440645105679 -0.010289049755292747 0 -0.012957632359033317 -0.010085760439308157 0 -0.012812803502754242 -0.010033860424262766 0 -0.010464052644574135 -0.03528282554899885 0 -0.0124342393438926 -0.032280237391443568 0 -0.025513406417050938 -0.054622538015551926 0 -0.02719649689304696 -0.051784840305198768 0 -0.023516424070555205 -0.052593410016314887 0 -0.025513406417050938 -0.054622538015551926 0 -0.028253980808858294 -0.055508959234959118 0 -0.02719649689304696 -0.051784840305198768 0 -0.015346947913644413 -0.032710155874814087 0 -0.012991060972003258 -0.033916947821381063 0 -0.012903125929119701 -0.009865181157973503 0 -0.012772098432334849 -0.0098067377921106404 0 -0.012812803502754242 -0.010033860424262766 0 -0.026133406401143811 -0.048034039218544593 0 -0.02719649689304696 -0.051784840305198768 0 -0.024006923451146515 -0.049874496377690938 0 -0.012903125929119701 -0.009865181157973503 0 -0.012812803502754242 -0.010033860424262766 0 -0.012966410051617399 -0.0099693254291265722 0 -0.012957632359033317 -0.010085760439308157 0 -0.012812803502754242 -0.010033860424262766 0 -0.012966410051617399 -0.0099693254291265722 0 -0.012903125929119701 -0.009865181157973503 0 -0.012966410051617399 -0.0099693254291265722 0 -0.013025365817656287 -0.0098507555755799822 0 -0.012957632359033317 -0.010085760439308157 0 -0.012966410051617399 -0.0099693254291265722 0 -0.013040202264963247 -0.010011727567827037 0 -0.020915392213565094 -0.055352396546054013 0 -0.020931293498036057 -0.052773516611018964 0 -0.023516424070555205 -0.052593410016314887 0 -0.020915392213565094 -0.055352396546054013 0 -0.020931293498036057 -0.052773516611018964 0 -0.018505299856552686 -0.053006388329814115 0 -0.023298575370681748 -0.056358052016605084 0 -0.025513406417050938 -0.054622538015551926 0 -0.023516424070555205 -0.052593410016314887 0 -0.023516424070555205 -0.052593410016314887 0 -0.024006923451146515 -0.049874496377690938 0 -0.020673561748675316 -0.050103998502271929 0 -0.02719649689304696 -0.051784840305198768 0 -0.023516424070555205 -0.052593410016314887 0 -0.024006923451146515 -0.049874496377690938 0 -0.020931293498036057 -0.052773516611018964 0 -0.023516424070555205 -0.052593410016314887 0 -0.020673561748675316 -0.050103998502271929 0 -0.020931293498036057 -0.052773516611018964 0 -0.020673561748675316 -0.050103998502271929 0 -0.018505299856552686 -0.053006388329814115 0 -0.016488711228990569 -0.035305310511249334 0 -0.016281734145797942 -0.035819904028292535 0 -0.018115876644089316 -0.049677408584364431 0 -0.016220833479335534 -0.052040870118307131 0 -0.018505299856552686 -0.053006388329814115 0 -0.020892549172139278 -0.049923887448959675 0 -0.018115876644089316 -0.049677408584364431 0 -0.018505299856552686 -0.053006388329814115 0 -0.014648944318510214 -0.049355429105457232 0 -0.016220833479335534 -0.052040870118307131 0 -0.013699099718653795 -0.053543781199031443 0 -0.018115876644089316 -0.049677408584364431 0 -0.014648944318510214 -0.049355429105457232 0 -0.016220833479335534 -0.052040870118307131 0 -0.016220833479335534 -0.052040870118307131 0 -0.01608740836829653 -0.054750827398013048 0 -0.013699099718653795 -0.053543781199031443 0 -0.016220833479335534 -0.052040870118307131 0 -0.018505299856552686 -0.053006388329814115 0 -0.01608740836829653 -0.054750827398013048 0 -0.018505299856552686 -0.053006388329814115 0 -0.018430730647656612 -0.055624655684095844 0 -0.01608740836829653 -0.054750827398013048 0 -0.018430730647656612 -0.055624655684095844 0 -0.016569587223128259 -0.057299699655412359 0 -0.019689451749841207 -0.058268018034573626 0 -0.020915392213565094 -0.055352396546054013 0 -0.018430730647656612 -0.055624655684095844 0 -0.019689451749841207 -0.058268018034573626 0 -0.020915392213565094 -0.055352396546054013 0 -0.018505299856552686 -0.053006388329814115 0 -0.018430730647656612 -0.055624655684095844 0 -0.018430730647656612 -0.055624655684095844 0 -0.01608740836829653 -0.054750827398013048 0 -0.016569587223128259 -0.057299699655412359 0 -0.01608740836829653 -0.054750827398013048 0 -0.016569587223128259 -0.057299699655412359 0 -0.012787176594898217 -0.057671515852478566 0 -0.015402581391323403 -0.061020864140259555 0 -0.016569587223128259 -0.057299699655412359 0 -0.019689451749841207 -0.058268018034573626 0 -0.015402581391323403 -0.061020864140259555 0 -0.016569587223128259 -0.057299699655412359 0 -0.012787176594898217 -0.057671515852478566 0 -0.016287541456503019 -0.067857026781484614 0 -0.01610035249233591 -0.067853592783545982 0 -0.016260167909281122 -0.067759266288731176 0 -0.016154089106511248 -0.06769816435009568 0 -0.01610035249233591 -0.067853592783545982 0 -0.016260167909281122 -0.067759266288731176 0 -0.015979888453249557 -0.060523640234726124 0 -0.016391442521849636 -0.058527669724274416 0 -0.016391442521849636 -0.058527669724274416 0 -0.01695923272776172 -0.056001476339072126 0 -0.01610035249233591 -0.067853592783545982 0 -0.016177941811344129 -0.068146575389377698 0 -0.01599907394271563 -0.068184482561596885 0 -0.01608740836829653 -0.054750827398013048 0 -0.012787176594898217 -0.057671515852478566 0 -0.013699099718653795 -0.053543781199031443 0 -0.016287541456503019 -0.067857026781484614 0 -0.01610035249233591 -0.067853592783545982 0 -0.016294491610165742 -0.06799674206712665 0 -0.01610035249233591 -0.067853592783545982 0 -0.016294491610165742 -0.06799674206712665 0 -0.016177941811344129 -0.068146575389377698 0 -0.016287541456503019 -0.067857026781484614 0 -0.016294491610165742 -0.06799674206712665 0 -0.016411736532497844 -0.067874780220303146 0 -0.016682014287060072 -0.054358636691730605 0 -0.016145991835577588 -0.05519692699123286 0 -0.016294491610165742 -0.06799674206712665 0 -0.016177941811344129 -0.068146575389377698 0 -0.016441505290693624 -0.068247290060247934 0 -0.016177941811344129 -0.068146575389377698 0 -0.016163808287709809 -0.068344160526277981 0 -0.016441505290693624 -0.068247290060247934 0 -0.01676616817593253 -0.068331394679179258 0 -0.017003411908678413 -0.068385639328926745 0 -0.017062135110390991 -0.068131083433657508 0 -0.016177941811344129 -0.068146575389377698 0 -0.01599907394271563 -0.068184482561596885 0 -0.016163808287709809 -0.068344160526277981 0 -0.01770315004010628 -0.052864548963531398 0 -0.016682014287060072 -0.054358636691730605 0 -0.016850463865961587 -0.068566138649095665 0 -0.01644809835758099 -0.068536099242420309 0 -0.01676616817593253 -0.068331394679179258 0 -0.015928761538112568 -0.068484978070988675 0 -0.01599907394271563 -0.068184482561596885 0 -0.016163808287709809 -0.068344160526277981 0 -0.01770315004010628 -0.052864548963531398 0 -0.01695923272776172 -0.056001476339072126 0 -0.017157925856016921 -0.06862195347004342 0 -0.016850463865961587 -0.068566138649095665 0 -0.017003411908678413 -0.068385639328926745 0 -0.016850463865961587 -0.068566138649095665 0 -0.01676616817593253 -0.068331394679179258 0 -0.017003411908678413 -0.068385639328926745 0 -0.017157925856016921 -0.06862195347004342 0 -0.017220433532252524 -0.068351162153879139 0 -0.01744484265284086 -0.068543068074921151 0 -0.017157925856016921 -0.06862195347004342 0 -0.017220433532252524 -0.068351162153879139 0 -0.017003411908678413 -0.068385639328926745 0 -0.016145991835577588 -0.05519692699123286 0 -0.015985929037318377 -0.055462849205492951 0 -0.017062135110390991 -0.068131083433657508 0 -0.017265456188569346 -0.068141018187338087 0 -0.0172238014095451 -0.067901384318170194 0 -0.017220433532252524 -0.068351162153879139 0 -0.017003411908678413 -0.068385639328926745 0 -0.017062135110390991 -0.068131083433657508 0 -0.017220433532252524 -0.068351162153879139 0 -0.017062135110390991 -0.068131083433657508 0 -0.017265456188569346 -0.068141018187338087 0 -0.017265456188569346 -0.068141018187338087 0 -0.017575043584892727 -0.068086066859474575 0 -0.0172238014095451 -0.067901384318170194 0 -0.017220433532252524 -0.068351162153879139 0 -0.017265456188569346 -0.068141018187338087 0 -0.01741405663127632 -0.068311819159433559 0 -0.017265456188569346 -0.068141018187338087 0 -0.01741405663127632 -0.068311819159433559 0 -0.017575043584892727 -0.068086066859474575 0 -0.01741405663127632 -0.068311819159433559 0 -0.01744484265284086 -0.068543068074921151 0 -0.017689192100398939 -0.068451416122629061 0 -0.017220433532252524 -0.068351162153879139 0 -0.01741405663127632 -0.068311819159433559 0 -0.01744484265284086 -0.068543068074921151 0 -0.017778708483639948 -0.068723405669495793 0 -0.01744484265284086 -0.068543068074921151 0 -0.017689192100398939 -0.068451416122629061 0 -0.017778708483639948 -0.068723405669495793 0 -0.017689192100398939 -0.068451416122629061 0 -0.018024583983609302 -0.068529626946977701 0 -0.017689192100398939 -0.068451416122629061 0 -0.018024583983609302 -0.068529626946977701 0 -0.017878770255941177 -0.068259040895507508 0 -0.018024583983609302 -0.068529626946977701 0 -0.018257432417062156 -0.068279739704953532 0 -0.018403270421418212 -0.068595646623517303 0 -0.018024583983609302 -0.068529626946977701 0 -0.018257432417062156 -0.068279739704953532 0 -0.017878770255941177 -0.068259040895507508 0 -0.018257432417062156 -0.068279739704953532 0 -0.0179729032908943 -0.068022431534676561 0 -0.017878770255941177 -0.068259040895507508 0 -0.018257432417062156 -0.068279739704953532 0 -0.0179729032908943 -0.068022431534676561 0 -0.018280815462100863 -0.067954550915355155 0 -0.017689192100398939 -0.068451416122629061 0 -0.017878770255941177 -0.068259040895507508 0 -0.017575043584892727 -0.068086066859474575 0 -0.01741405663127632 -0.068311819159433559 0 -0.017689192100398939 -0.068451416122629061 0 -0.017575043584892727 -0.068086066859474575 0 -0.0179729032908943 -0.068022431534676561 0 -0.017878770255941177 -0.068259040895507508 0 -0.017575043584892727 -0.068086066859474575 0 -0.017575043584892727 -0.068086066859474575 0 -0.017785645066313041 -0.067808405916446102 0 -0.017515009968289197 -0.067621327360612729 0 -0.0179729032908943 -0.068022431534676561 0 -0.017575043584892727 -0.068086066859474575 0 -0.017785645066313041 -0.067808405916446102 0 -0.017785645066313041 -0.067808405916446102 0 -0.017515009968289197 -0.067621327360612729 0 -0.01782355527181665 -0.067540317960756074 0 -0.018280815462100863 -0.067954550915355155 0 -0.018081599915159754 -0.067745319218480246 0 -0.018420905995199528 -0.067638684469163518 0 -0.0179729032908943 -0.068022431534676561 0 -0.018280815462100863 -0.067954550915355155 0 -0.018081599915159754 -0.067745319218480246 0 -0.0179729032908943 -0.068022431534676561 0 -0.017785645066313041 -0.067808405916446102 0 -0.018081599915159754 -0.067745319218480246 0 -0.017785645066313041 -0.067808405916446102 0 -0.018081599915159754 -0.067745319218480246 0 -0.01782355527181665 -0.067540317960756074 0 -0.018081599915159754 -0.067745319218480246 0 -0.018127054919464994 -0.067484023292967085 0 -0.01782355527181665 -0.067540317960756074 0 -0.018081599915159754 -0.067745319218480246 0 -0.018127054919464994 -0.067484023292967085 0 -0.018420905995199528 -0.067638684469163518 0 -0.018127054919464994 -0.067484023292967085 0 -0.018420905995199528 -0.067638684469163518 0 -0.018389888937625776 -0.06728079549564088 0 -0.018127054919464994 -0.067484023292967085 0 -0.017942746886535351 -0.067237936808708501 0 -0.01782355527181665 -0.067540317960756074 0 -0.018127054919464994 -0.067484023292967085 0 -0.017942746886535351 -0.067237936808708501 0 -0.018389888937625776 -0.06728079549564088 0 -0.017515009968289197 -0.067621327360612729 0 -0.017582697723178203 -0.067321776733556118 0 -0.017227021067486734 -0.06747129791294558 0 -0.017515009968289197 -0.067621327360612729 0 -0.01782355527181665 -0.067540317960756074 0 -0.017582697723178203 -0.067321776733556118 0 -0.017942746886535351 -0.067237936808708501 0 -0.01782355527181665 -0.067540317960756074 0 -0.017582697723178203 -0.067321776733556118 0 -0.017582697723178203 -0.067321776733556118 0 -0.017227021067486734 -0.06747129791294558 0 -0.017182148082296893 -0.067165475633124985 0 -0.017227021067486734 -0.06747129791294558 0 -0.016997044826766484 -0.06754521040065227 0 -0.01705956930000432 -0.067308895319893605 0 -0.017227021067486734 -0.06747129791294558 0 -0.01705956930000432 -0.067308895319893605 0 -0.017182148082296893 -0.067165475633124985 0 -0.016997044826766484 -0.06754521040065227 0 -0.01705956930000432 -0.067308895319893605 0 -0.016887413265003468 -0.067160725029329557 0 -0.01705956930000432 -0.067308895319893605 0 -0.016887413265003468 -0.067160725029329557 0 -0.017182148082296893 -0.067165475633124985 0 -0.016483738466306137 -0.06721308363361414 0 -0.016477493952246701 -0.067287448151000337 0 -0.016285958503213682 -0.067792471638029442 0 -0.016411736532497844 -0.067874780220303146 0 -0.016617562756958706 -0.067968073364396295 0 -0.016997044826766484 -0.06754521040065227 0 -0.016887413265003468 -0.067160725029329557 0 -0.016617562756958706 -0.067968073364396295 0 -0.016287541456503019 -0.067857026781484614 0 -0.016260167909281122 -0.067759266288731176 0 -0.016330412932933469 -0.067820061754313862 0 -0.016285958503213682 -0.067792471638029442 0 -0.016260167909281122 -0.067759266288731176 0 -0.016330412932933469 -0.067820061754313862 0 -0.016285958503213682 -0.067792471638029442 0 -0.016330412932933469 -0.067820061754313862 0 -0.016411736532497844 -0.067874780220303146 0 -0.016287541456503019 -0.067857026781484614 0 -0.016330412932933469 -0.067820061754313862 0 -0.016411736532497844 -0.067874780220303146 0 -0.016441505290693624 -0.068247290060247934 0 -0.016617562756958706 -0.067968073364396295 0 -0.0172238014095451 -0.067901384318170194 0 -0.016294491610165742 -0.06799674206712665 0 -0.016411736532497844 -0.067874780220303146 0 -0.016617562756958706 -0.067968073364396295 0 -0.016294491610165742 -0.06799674206712665 0 -0.016441505290693624 -0.068247290060247934 0 -0.016617562756958706 -0.067968073364396295 0 -0.017575043584892727 -0.068086066859474575 0 -0.017515009968289197 -0.067621327360612729 0 -0.0172238014095451 -0.067901384318170194 0 -0.017515009968289197 -0.067621327360612729 0 -0.017227021067486734 -0.06747129791294558 0 -0.0172238014095451 -0.067901384318170194 0 -0.017227021067486734 -0.06747129791294558 0 -0.016997044826766484 -0.06754521040065227 0 -0.0172238014095451 -0.067901384318170194 0 -0.016997044826766484 -0.06754521040065227 0 -0.016617562756958706 -0.067968073364396295 0 -0.0172238014095451 -0.067901384318170194 0 -0.043200546912614768 -0.036621764321388382 0 -0.041510127297532937 -0.042098935093511002 0 -0.059309608753999842 -0.04002548172177757 0 -0.059321047821701556 -0.040423130645825679 0 -0.059246207825368165 -0.040408263138450876 0 -0.043200546912614768 -0.036621764321388382 0 -0.044792208729702208 -0.036630043370174316 0 -0.059655393911556796 -0.039149145019040973 0 -0.059262120336836512 -0.039483920298125856 0 -0.05941685835151983 -0.039851290070905335 0 -0.059655393911556796 -0.039149145019040973 0 -0.059101277513565233 -0.039194474908558999 0 -0.059262120336836512 -0.039483920298125856 0 -0.021684480604358077 -0.061400870782204721 0 -0.019899733261510344 -0.061669863999065058 0 -0.021183901697909301 -0.063774812012976342 0 -0.019899733261510344 -0.061669863999065058 0 -0.019589002842542873 -0.06415907628398744 0 -0.021183901697909301 -0.063774812012976342 0 -0.033816593746418065 -0.043727163467289061 0 -0.032097356048241391 -0.049326223246929569 0 -0.019589002842542873 -0.06415907628398744 0 -0.021183901697909301 -0.063774812012976342 0 -0.020593575547066256 -0.065691006541961749 0 -0.019218669266070614 -0.06823160730536032 0 -0.018770797430251077 -0.068345571532163793 0 -0.018810929133014777 -0.067933343402155053 0 -0.018688330492277291 -0.06865198383085229 0 -0.019005023457687283 -0.068749230267899475 0 -0.018770797430251077 -0.068345571532163793 0 -0.019005023457687283 -0.068749230267899475 0 -0.019218669266070614 -0.06823160730536032 0 -0.018770797430251077 -0.068345571532163793 0 -0.018257432417062156 -0.068279739704953532 0 -0.018770797430251077 -0.068345571532163793 0 -0.018403270421418212 -0.068595646623517303 0 -0.018688330492277291 -0.06865198383085229 0 -0.018770797430251077 -0.068345571532163793 0 -0.018403270421418212 -0.068595646623517303 0 -0.018257432417062156 -0.068279739704953532 0 -0.018770797430251077 -0.068345571532163793 0 -0.018550874450182876 -0.068132452218222395 0 -0.018770797430251077 -0.068345571532163793 0 -0.018550874450182876 -0.068132452218222395 0 -0.018810929133014777 -0.067933343402155053 0 -0.018280815462100863 -0.067954550915355155 0 -0.018550874450182876 -0.068132452218222395 0 -0.018810929133014777 -0.067933343402155053 0 -0.018257432417062156 -0.068279739704953532 0 -0.018280815462100863 -0.067954550915355155 0 -0.018550874450182876 -0.068132452218222395 0 -0.018280815462100863 -0.067954550915355155 0 -0.018420905995199528 -0.067638684469163518 0 -0.018810929133014777 -0.067933343402155053 0 -0.018420905995199528 -0.067638684469163518 0 -0.018818171807171737 -0.067429937643372601 0 -0.018810929133014777 -0.067933343402155053 0 -0.018420905995199528 -0.067638684469163518 0 -0.018389888937625776 -0.06728079549564088 0 -0.018818171807171737 -0.067429937643372601 0 -0.018389888937625776 -0.06728079549564088 0 -0.018818171807171737 -0.067429937643372601 0 -0.018739040790168297 -0.067010782554825288 0 -0.018818171807171737 -0.067429937643372601 0 -0.01952557579060521 -0.067606520706063128 0 -0.019243182591882804 -0.06702856695044189 0 -0.018818171807171737 -0.067429937643372601 0 -0.019243182591882804 -0.06702856695044189 0 -0.018739040790168297 -0.067010782554825288 0 -0.018818171807171737 -0.067429937643372601 0 -0.018810929133014777 -0.067933343402155053 0 -0.01952557579060521 -0.067606520706063128 0 -0.019218669266070614 -0.06823160730536032 0 -0.018810929133014777 -0.067933343402155053 0 -0.01952557579060521 -0.067606520706063128 0 -0.032097356048241391 -0.049326223246929569 0 -0.031120407792234867 -0.052415361033232792 0 -0.01952557579060521 -0.067606520706063128 0 -0.019917948384853768 -0.066651305672181832 0 -0.019243182591882804 -0.06702856695044189 0 -0.031120407792234867 -0.052415361033232792 0 -0.030803755235066687 -0.053396674897321306 0 -0.020593575547066256 -0.065691006541961749 0 -0.019575556931408181 -0.066048368317004183 0 -0.019917948384853768 -0.066651305672181832 0 -0.019589002842542873 -0.06415907628398744 0 -0.020593575547066256 -0.065691006541961749 0 -0.019575556931408181 -0.066048368317004183 0 -0.041510127297532937 -0.042098935093511002 0 -0.040127380909421202 -0.045925202181970971 0 -0.059321047821701556 -0.040423130645825679 0 -0.059246207825368165 -0.040408263138450876 0 -0.059331226342056537 -0.040879519600363824 0 -0.020032174804794498 -0.066504886679199626 0 -0.019917948384853768 -0.066651305672181832 0 -0.019974523483368943 -0.066153642437240992 0 -0.020032174804794498 -0.066504886679199626 0 -0.019575556931408181 -0.066048368317004183 0 -0.019917948384853768 -0.066651305672181832 0 -0.038927121848398839 -0.048588769602901441 0 -0.040127380909421202 -0.045925202181970971 0 -0.019917948384853768 -0.066651305672181832 0 -0.019527107363755715 -0.066398780454003367 0 -0.019243182591882804 -0.06702856695044189 0 -0.019917948384853768 -0.066651305672181832 0 -0.019527107363755715 -0.066398780454003367 0 -0.019974523483368943 -0.066153642437240992 0 -0.019527107363755715 -0.066398780454003367 0 -0.019069317375105876 -0.066658373978676216 0 -0.019066015181086898 -0.066216686467335417 0 -0.019527107363755715 -0.066398780454003367 0 -0.019243182591882804 -0.06702856695044189 0 -0.019069317375105876 -0.066658373978676216 0 -0.019243182591882804 -0.06702856695044189 0 -0.019069317375105876 -0.066658373978676216 0 -0.018739040790168297 -0.067010782554825288 0 -0.019069317375105876 -0.066658373978676216 0 -0.018739040790168297 -0.067010782554825288 0 -0.01863329658669512 -0.066690980439107275 0 -0.018389888937625776 -0.06728079549564088 0 -0.018739040790168297 -0.067010782554825288 0 -0.018234628176804085 -0.066940737404605391 0 -0.018739040790168297 -0.067010782554825288 0 -0.01863329658669512 -0.066690980439107275 0 -0.018234628176804085 -0.066940737404605391 0 -0.01863329658669512 -0.066690980439107275 0 -0.019066015181086898 -0.066216686467335417 0 -0.018333738201155886 -0.066437242952135878 0 -0.01863329658669512 -0.066690980439107275 0 -0.018234628176804085 -0.066940737404605391 0 -0.018333738201155886 -0.066437242952135878 0 -0.019069317375105876 -0.066658373978676216 0 -0.01863329658669512 -0.066690980439107275 0 -0.019066015181086898 -0.066216686467335417 0 -0.018667349507911966 -0.065999519158507783 0 -0.019066015181086898 -0.066216686467335417 0 -0.018333738201155886 -0.066437242952135878 0 -0.018667349507911966 -0.065999519158507783 0 -0.019150509263497838 -0.065565716386180556 0 -0.019066015181086898 -0.066216686467335417 0 -0.019150509263497838 -0.065565716386180556 0 -0.018414204544872904 -0.065570777829988006 0 -0.018255357336553594 -0.064884715239278398 0 -0.018667349507911966 -0.065999519158507783 0 -0.019150509263497838 -0.065565716386180556 0 -0.018414204544872904 -0.065570777829988006 0 -0.019150509263497838 -0.065565716386180556 0 -0.019617356138573929 -0.065904820879469805 0 -0.01964990094784632 -0.065379252502671376 0 -0.019150509263497838 -0.065565716386180556 0 -0.01964990094784632 -0.065379252502671376 0 -0.019487304303979287 -0.065029357768377316 0 -0.019150509263497838 -0.065565716386180556 0 -0.019066015181086898 -0.066216686467335417 0 -0.019617356138573929 -0.065904820879469805 0 -0.019527107363755715 -0.066398780454003367 0 -0.019066015181086898 -0.066216686467335417 0 -0.019617356138573929 -0.065904820879469805 0 -0.019617356138573929 -0.065904820879469805 0 -0.020067255361608121 -0.065392028329168558 0 -0.019974523483368943 -0.066153642437240992 0 -0.019527107363755715 -0.066398780454003367 0 -0.019617356138573929 -0.065904820879469805 0 -0.019974523483368943 -0.066153642437240992 0 -0.019617356138573929 -0.065904820879469805 0 -0.01964990094784632 -0.065379252502671376 0 -0.020067255361608121 -0.065392028329168558 0 -0.020032174804794498 -0.066504886679199626 0 -0.02046420257110218 -0.065832071452776753 0 -0.019974523483368943 -0.066153642437240992 0 -0.02046420257110218 -0.065832071452776753 0 -0.020067255361608121 -0.065392028329168558 0 -0.019974523483368943 -0.066153642437240992 0 -0.017218840711418826 -0.066576067415342166 0 -0.016850780638716388 -0.066554544955309325 0 -0.017161593909741812 -0.066884082504343481 0 -0.017218840711418826 -0.066576067415342166 0 -0.017161593909741812 -0.066884082504343481 0 -0.017506036664067949 -0.066776665156970977 0 -0.017218840711418826 -0.066576067415342166 0 -0.016850780638716388 -0.066554544955309325 0 -0.017094159765045591 -0.066278266088341101 0 -0.015765505395807167 -0.063934439400237825 0 -0.015718767675874053 -0.063714838060762141 0 -0.016211332463156911 -0.067684145628840536 0 -0.016199141582697498 -0.067720102550340958 0 -0.016233027243294493 -0.067629815696479328 0 -0.01598774372905425 -0.067375910074497183 0 -0.016199141582697498 -0.067720102550340958 0 -0.015441273478468414 -0.067189834738557982 0 -0.016483738466306137 -0.06721308363361414 0 -0.016497849903685188 -0.067047962344520276 0 -0.016285958503213682 -0.067792471638029442 0 -0.01598774372905425 -0.067375910074497183 0 -0.016199141582697498 -0.067720102550340958 0 -0.016211332463156911 -0.067684145628840536 0 -0.016225156898746134 -0.067715082777483754 0 -0.016199141582697498 -0.067720102550340958 0 -0.016260167909281122 -0.067759266288731176 0 -0.016225156898746134 -0.067715082777483754 0 -0.016199141582697498 -0.067720102550340958 0 -0.016285958503213682 -0.067792471638029442 0 -0.016260167909281122 -0.067759266288731176 0 -0.016199141582697498 -0.067720102550340958 0 -0.016887413265003468 -0.067160725029329557 0 -0.016850780638716388 -0.066554544955309325 0 -0.017161593909741812 -0.066884082504343481 0 -0.016887413265003468 -0.067160725029329557 0 -0.017161593909741812 -0.066884082504343481 0 -0.017182148082296893 -0.067165475633124985 0 -0.017161593909741812 -0.066884082504343481 0 -0.017182148082296893 -0.067165475633124985 0 -0.017427006057354723 -0.067057910720940819 0 -0.017582697723178203 -0.067321776733556118 0 -0.017182148082296893 -0.067165475633124985 0 -0.017427006057354723 -0.067057910720940819 0 -0.017582697723178203 -0.067321776733556118 0 -0.017427006057354723 -0.067057910720940819 0 -0.017736622513832716 -0.066979205406440895 0 -0.017942746886535351 -0.067237936808708501 0 -0.017582697723178203 -0.067321776733556118 0 -0.017736622513832716 -0.066979205406440895 0 -0.017736622513832716 -0.066979205406440895 0 -0.017888793690906197 -0.066703712678207724 0 -0.017506036664067949 -0.066776665156970977 0 -0.017161593909741812 -0.066884082504343481 0 -0.017427006057354723 -0.067057910720940819 0 -0.017506036664067949 -0.066776665156970977 0 -0.017427006057354723 -0.067057910720940819 0 -0.017736622513832716 -0.066979205406440895 0 -0.017506036664067949 -0.066776665156970977 0 -0.017942746886535351 -0.067237936808708501 0 -0.018389888937625776 -0.06728079549564088 0 -0.018234628176804085 -0.066940737404605391 0 -0.017942746886535351 -0.067237936808708501 0 -0.017736622513832716 -0.066979205406440895 0 -0.018234628176804085 -0.066940737404605391 0 -0.017736622513832716 -0.066979205406440895 0 -0.018234628176804085 -0.066940737404605391 0 -0.017888793690906197 -0.066703712678207724 0 -0.017888793690906197 -0.066703712678207724 0 -0.018333738201155886 -0.066437242952135878 0 -0.017658080430214173 -0.066422917013767749 0 -0.018234628176804085 -0.066940737404605391 0 -0.017888793690906197 -0.066703712678207724 0 -0.018333738201155886 -0.066437242952135878 0 -0.017888793690906197 -0.066703712678207724 0 -0.017506036664067949 -0.066776665156970977 0 -0.017658080430214173 -0.066422917013767749 0 -0.017218840711418826 -0.066576067415342166 0 -0.017506036664067949 -0.066776665156970977 0 -0.017658080430214173 -0.066422917013767749 0 -0.017658080430214173 -0.066422917013767749 0 -0.017504386309003504 -0.066083464243654716 0 -0.017094159765045591 -0.066278266088341101 0 -0.017218840711418826 -0.066576067415342166 0 -0.017658080430214173 -0.066422917013767749 0 -0.017094159765045591 -0.066278266088341101 0 -0.017658080430214173 -0.066422917013767749 0 -0.017504386309003504 -0.066083464243654716 0 -0.018039619487824964 -0.066059155531748195 0 -0.017504386309003504 -0.066083464243654716 0 -0.018039619487824964 -0.066059155531748195 0 -0.017658238785703058 -0.065697138748502443 0 -0.017504386309003504 -0.066083464243654716 0 -0.017058203622240569 -0.065881767267449792 0 -0.017094159765045591 -0.066278266088341101 0 -0.018333738201155886 -0.066437242952135878 0 -0.017658080430214173 -0.066422917013767749 0 -0.018039619487824964 -0.066059155531748195 0 -0.018667349507911966 -0.065999519158507783 0 -0.018333738201155886 -0.066437242952135878 0 -0.018039619487824964 -0.066059155531748195 0 -0.018667349507911966 -0.065999519158507783 0 -0.018039619487824964 -0.066059155531748195 0 -0.018414204544872904 -0.065570777829988006 0 -0.017847111240129224 -0.06526569205557986 0 -0.018414204544872904 -0.065570777829988006 0 -0.017658238785703058 -0.065697138748502443 0 -0.018039619487824964 -0.066059155531748195 0 -0.018414204544872904 -0.065570777829988006 0 -0.017658238785703058 -0.065697138748502443 0 -0.017058203622240569 -0.065881767267449792 0 -0.017658238785703058 -0.065697138748502443 0 -0.016985947945424539 -0.064857852412152528 0 -0.017847111240129224 -0.06526569205557986 0 -0.017658238785703058 -0.065697138748502443 0 -0.016985947945424539 -0.064857852412152528 0 -0.017504386309003504 -0.066083464243654716 0 -0.017058203622240569 -0.065881767267449792 0 -0.017658238785703058 -0.065697138748502443 0 -0.017058203622240569 -0.065881767267449792 0 -0.016318336307373869 -0.065902149695763856 0 -0.016985947945424539 -0.064857852412152528 0 -0.017058203622240569 -0.065881767267449792 0 -0.016318336307373869 -0.065902149695763856 0 -0.017094159765045591 -0.066278266088341101 0 -0.016497849903685188 -0.067047962344520276 0 -0.01650712450809113 -0.066944334650057086 0 -0.016850780638716388 -0.066554544955309325 0 -0.016318336307373869 -0.065902149695763856 0 -0.017094159765045591 -0.066278266088341101 0 -0.015585384804867573 -0.063055954266689238 0 -0.015718767675874053 -0.063714838060762141 0 -0.01598774372905425 -0.067375910074497183 0 -0.015441273478468414 -0.067189834738557982 0 -0.015449332676845026 -0.06637832121980719 0 -0.014630005311913968 -0.065842112094657082 0 -0.015441273478468414 -0.067189834738557982 0 -0.015449332676845026 -0.06637832121980719 0 -0.01598774372905425 -0.067375910074497183 0 -0.016318336307373869 -0.065902149695763856 0 -0.015449332676845026 -0.06637832121980719 0 -0.016318336307373869 -0.065902149695763856 0 -0.015369612968701334 -0.065810497676431184 0 -0.014878113821592581 -0.065198893736762062 0 -0.016318336307373869 -0.065902149695763856 0 -0.015449332676845026 -0.06637832121980719 0 -0.015369612968701334 -0.065810497676431184 0 -0.015449332676845026 -0.06637832121980719 0 -0.015369612968701334 -0.065810497676431184 0 -0.014983955134234438 -0.065764870758561286 0 -0.015369612968701334 -0.065810497676431184 0 -0.014983955134234438 -0.065764870758561286 0 -0.014878113821592581 -0.065198893736762062 0 -0.014630005311913968 -0.065842112094657082 0 -0.015449332676845026 -0.06637832121980719 0 -0.014983955134234438 -0.065764870758561286 0 -0.014983955134234438 -0.065764870758561286 0 -0.014878113821592581 -0.065198893736762062 0 -0.014571593287548614 -0.065626547567108104 0 -0.014878113821592581 -0.065198893736762062 0 -0.014425705677857423 -0.064386824856127456 0 -0.01565142603133416 -0.064644313555718119 0 -0.014425705677857423 -0.064386824856127456 0 -0.01565142603133416 -0.064644313555718119 0 -0.015217840467696702 -0.063622184978954763 0 -0.016089083871948469 -0.063962202665476919 0 -0.01565142603133416 -0.064644313555718119 0 -0.016905014793366528 -0.064376134646749558 0 -0.01565142603133416 -0.064644313555718119 0 -0.016616421234408082 -0.065527537871812355 0 -0.016905014793366528 -0.064376134646749558 0 -0.016089083871948469 -0.063962202665476919 0 -0.016905014793366528 -0.064376134646749558 0 -0.016562580895640038 -0.063189779927816492 0 -0.016089083871948469 -0.063962202665476919 0 -0.01565142603133416 -0.064644313555718119 0 -0.015217840467696702 -0.063622184978954763 0 -0.014878113821592581 -0.065198893736762062 0 -0.01565142603133416 -0.064644313555718119 0 -0.016616421234408082 -0.065527537871812355 0 -0.016318336307373869 -0.065902149695763856 0 -0.014878113821592581 -0.065198893736762062 0 -0.016985947945424539 -0.064857852412152528 0 -0.017375680104387187 -0.065161149648306882 0 -0.017459780305459267 -0.065159755029229618 0 -0.017459780305459267 -0.065159755029229618 0 -0.017599523915246159 -0.065156859334066702 0 -0.017847111240129224 -0.06526569205557986 0 -0.016985947945424539 -0.064857852412152528 0 -0.018255357336553594 -0.064884715239278398 0 -0.016616421234408082 -0.065527537871812355 0 -0.01893765679630224 -0.065450916269854872 0 -0.018175092525872519 -0.064572279144482686 0 -0.017847111240129224 -0.06526569205557986 0 -0.018414204544872904 -0.065570777829988006 0 -0.018255357336553594 -0.064884715239278398 0 -0.01893765679630224 -0.065450916269854872 0 -0.018175092525872519 -0.064572279144482686 0 -0.019339792804218131 -0.06493961698975903 0 -0.018489199618556613 -0.064256829451727573 0 -0.019339792804218131 -0.06493961698975903 0 -0.019725272751562158 -0.064586433264258114 0 -0.016804195662463769 -0.062325306669938241 0 -0.016920917025357855 -0.062445161689005935 0 -0.018175092525872519 -0.064572279144482686 0 -0.01800487893920235 -0.063271820322522043 0 -0.019339792804218131 -0.06493961698975903 0 -0.016616421234408082 -0.065527537871812355 0 -0.018175092525872519 -0.064572279144482686 0 -0.016905014793366528 -0.064376134646749558 0 -0.018175092525872519 -0.064572279144482686 0 -0.016905014793366528 -0.064376134646749558 0 -0.01800487893920235 -0.063271820322522043 0 -0.016905014793366528 -0.064376134646749558 0 -0.01800487893920235 -0.063271820322522043 0 -0.016562580895640038 -0.063189779927816492 0 -0.016804195662463769 -0.062325306669938241 0 -0.016529498926240855 -0.062043832408974604 0 -0.01800487893920235 -0.063271820322522043 0 -0.016493007269419706 -0.061768030260117443 0 -0.016562580895640038 -0.063189779927816492 0 -0.018489199618556613 -0.064256829451727573 0 -0.019387484921216828 -0.063146537910580586 0 -0.019725272751562158 -0.064586433264258114 0 -0.019387484921216828 -0.063146537910580586 0 -0.018184377754654694 -0.062767998398872649 0 -0.019597480829824734 -0.061233859264012341 0 -0.018489199618556613 -0.064256829451727573 0 -0.019387484921216828 -0.063146537910580586 0 -0.018184377754654694 -0.062767998398872649 0 -0.021749455019158644 -0.059854701526785854 0 -0.021900560605831506 -0.059732821950443819 0 -0.018489199618556613 -0.064256829451727573 0 -0.018184377754654694 -0.062767998398872649 0 -0.01683708073106014 -0.062631431774094304 0 -0.018184377754654694 -0.062767998398872649 0 -0.01683708073106014 -0.062631431774094304 0 -0.017625345126336057 -0.061318033592586862 0 -0.016493007269419706 -0.061768030260117443 0 -0.015178384284291628 -0.062364943562137766 0 -0.014878216445534085 -0.060197859460772239 0 -0.016493007269419706 -0.061768030260117443 0 -0.015178384284291628 -0.062364943562137766 0 -0.016562580895640038 -0.063189779927816492 0 -0.013880468209757814 -0.061823994505822592 0 -0.015178384284291628 -0.062364943562137766 0 -0.013974179150856752 -0.063186574055881364 0 -0.013880468209757814 -0.061823994505822592 0 -0.015178384284291628 -0.062364943562137766 0 -0.014878216445534085 -0.060197859460772239 0 -0.014425705677857423 -0.064386824856127456 0 -0.013974179150856752 -0.063186574055881364 0 -0.015217840467696702 -0.063622184978954763 0 -0.015178384284291628 -0.062364943562137766 0 -0.013974179150856752 -0.063186574055881364 0 -0.015217840467696702 -0.063622184978954763 0 -0.016089083871948469 -0.063962202665476919 0 -0.015217840467696702 -0.063622184978954763 0 -0.016562580895640038 -0.063189779927816492 0 -0.015178384284291628 -0.062364943562137766 0 -0.015217840467696702 -0.063622184978954763 0 -0.016562580895640038 -0.063189779927816492 0 -0.020575322666837648 -0.065120295011016238 0 -0.020067255361608121 -0.065392028329168558 0 -0.02014206258818994 -0.064818377425157739 0 -0.020067255361608121 -0.065392028329168558 0 -0.02014206258818994 -0.064818377425157739 0 -0.019761642717024522 -0.06495597201181319 0 -0.01964990094784632 -0.065379252502671376 0 -0.020067255361608121 -0.065392028329168558 0 -0.019761642717024522 -0.06495597201181319 0 -0.02014206258818994 -0.064818377425157739 0 -0.019761642717024522 -0.06495597201181319 0 -0.019721558501039828 -0.064586018364203718 0 -0.019761642717024522 -0.06495597201181319 0 -0.019629126177786057 -0.064761214708921974 0 -0.019487304303979287 -0.065029357768377316 0 -0.019761642717024522 -0.06495597201181319 0 -0.019629126177786057 -0.064761214708921974 0 -0.019721558501039828 -0.064586018364203718 0 -0.01964990094784632 -0.065379252502671376 0 -0.019761642717024522 -0.06495597201181319 0 -0.019487304303979287 -0.065029357768377316 0 -0.019150509263497838 -0.065565716386180556 0 -0.018255357336553594 -0.064884715239278398 0 -0.019487304303979287 -0.065029357768377316 0 -0.017599523915246159 -0.065156859334066702 0 -0.017666512892462322 -0.065154894923340145 0 -0.01893765679630224 -0.065450916269854872 0 -0.019487304303979287 -0.065029357768377316 0 -0.019339792804218131 -0.06493961698975903 0 -0.019629126177786057 -0.064761214708921974 0 -0.019487304303979287 -0.065029357768377316 0 -0.019339792804218131 -0.06493961698975903 0 -0.019629126177786057 -0.064761214708921974 0 -0.019339792804218131 -0.06493961698975903 0 -0.019725272751562158 -0.064586433264258114 0 -0.019387484921216828 -0.063146537910580586 0 -0.019725272751562158 -0.064586433264258114 0 -0.02128091558087241 -0.062510601365879201 0 -0.019387484921216828 -0.063146537910580586 0 -0.02128091558087241 -0.062510601365879201 0 -0.019597480829824734 -0.061233859264012341 0 -0.02128091558087241 -0.062510601365879201 0 -0.023103425507159287 -0.064403465477455887 0 -0.023961626097756372 -0.061743434308313375 0 -0.028133405872641869 -0.056824637032735853 0 -0.028725234899937887 -0.056584775983444482 0 -0.019725272751562158 -0.064586433264258114 0 -0.02128091558087241 -0.062510601365879201 0 -0.023103425507159287 -0.064403465477455887 0 -0.019629126177786057 -0.064761214708921974 0 -0.019725272751562158 -0.064586433264258114 0 -0.019721558501039828 -0.064586018364203718 0 -0.028725234899937887 -0.056584775983444482 0 -0.03045223019252866 -0.055867295705856725 0 -0.023103425507159287 -0.064403465477455887 0 -0.026303969713971708 -0.063803006973619056 0 -0.023961626097756372 -0.061743434308313375 0 -0.026303969713971708 -0.063803006973619056 0 -0.026016810374868402 -0.061259883104871175 0 -0.023961626097756372 -0.061743434308313375 0 -0.027920117654153569 -0.061471540574439709 0 -0.026303969713971708 -0.063803006973619056 0 -0.026016810374868402 -0.061259883104871175 0 -0.02014206258818994 -0.064818377425157739 0 -0.019721558501039828 -0.064586018364203718 0 -0.020194889242312247 -0.064409519998484308 0 -0.027512327750710507 -0.058488646175740448 0 -0.026870534280136003 -0.059644804706685296 0 -0.026639548641956095 -0.05792445171859386 0 -0.026870534280136003 -0.059644804706685296 0 -0.024910549499376503 -0.059620373672956098 0 -0.026639548641956095 -0.05792445171859386 0 -0.026870534280136003 -0.059644804706685296 0 -0.026016810374868402 -0.061259883104871175 0 -0.024910549499376503 -0.059620373672956098 0 -0.027920117654153569 -0.061471540574439709 0 -0.026870534280136003 -0.059644804706685296 0 -0.026016810374868402 -0.061259883104871175 0 -0.023961626097756372 -0.061743434308313375 0 -0.024910549499376503 -0.059620373672956098 0 -0.021731826314690415 -0.059422370521056138 0 -0.026016810374868402 -0.061259883104871175 0 -0.023961626097756372 -0.061743434308313375 0 -0.024910549499376503 -0.059620373672956098 0 -0.024910549499376503 -0.059620373672956098 0 -0.024106981922056361 -0.057690474895782724 0 -0.026639548641956095 -0.05792445171859386 0 -0.024910549499376503 -0.059620373672956098 0 -0.021731826314690415 -0.059422370521056138 0 -0.024106981922056361 -0.057690474895782724 0 -0.022236423658583099 -0.059463330103108065 0 -0.022578898480375777 -0.059190183059659986 0 -0.02128091558087241 -0.062510601365879201 0 -0.023961626097756372 -0.061743434308313375 0 -0.021731826314690415 -0.059422370521056138 0 -0.02128091558087241 -0.062510601365879201 0 -0.021731826314690415 -0.059422370521056138 0 -0.019597480829824734 -0.061233859264012341 0 -0.022236423658583099 -0.059463330103108065 0 -0.021900560605831506 -0.059732821950443819 0 -0.022578645213774614 -0.059484248171114529 0 -0.020449090773071006 -0.061141644145406092 0 -0.020226502634303162 -0.057743510975752858 0 -0.022578645213774614 -0.059484248171114529 0 -0.022453822363552228 -0.057204158522104726 0 -0.020226502634303162 -0.057743510975752858 0 -0.022007096077433213 -0.054999958942031732 0 -0.022453822363552228 -0.057204158522104726 0 -0.020226502634303162 -0.057743510975752858 0 -0.022007096077433213 -0.054999958942031732 0 -0.023923719805244121 -0.056280123591338445 0 -0.022453822363552228 -0.057204158522104726 0 -0.022007096077433213 -0.054999958942031732 0 -0.023923719805244121 -0.056280123591338445 0 -0.025057670140572069 -0.054999997210324073 0 -0.022578645213774614 -0.059484248171114529 0 -0.022453822363552228 -0.057204158522104726 0 -0.024648357566192314 -0.057811388660980199 0 -0.023923719805244121 -0.056280123591338445 0 -0.022453822363552228 -0.057204158522104726 0 -0.024648357566192314 -0.057811388660980199 0 -0.023923719805244121 -0.056280123591338445 0 -0.024648357566192314 -0.057811388660980199 0 -0.026623415350198174 -0.056138606484415064 0 -0.022578898480375777 -0.059190183059659986 0 -0.022738955215724388 -0.059063218788431807 0 -0.023923719805244121 -0.056280123591338445 0 -0.025057670140572069 -0.054999997210324073 0 -0.026623415350198174 -0.056138606484415064 0 -0.028108193157116355 -0.054999887791871017 0 -0.025057670140572069 -0.054999997210324073 0 -0.026623415350198174 -0.056138606484415064 0 -0.028179345255357292 -0.056609132100093933 0 -0.026623415350198174 -0.056138606484415064 0 -0.026639548641956095 -0.05792445171859386 0 -0.024106981922056361 -0.057690474895782724 0 -0.026623415350198174 -0.056138606484415064 0 -0.026639548641956095 -0.05792445171859386 0 -0.014982074212485109 -0.060634554310757628 0 -0.017798812503074031 -0.059319219846978299 0 -0.015880165387333518 -0.057870353832082229 0 -0.014982074212485109 -0.060634554310757628 0 -0.015880165387333518 -0.057870353832082229 0 -0.013129005954437722 -0.058564957495133622 0 -0.016235449631334921 -0.061742262523631117 0 -0.016094050509477199 -0.061597135170787659 0 -0.013880468209757814 -0.061823994505822592 0 -0.014878216445534085 -0.060197859460772239 0 -0.012670096776788327 -0.060568545304384443 0 -0.01683708073106014 -0.062631431774094304 0 -0.014982074212485109 -0.060634554310757628 0 -0.017625345126336057 -0.061318033592586862 0 -0.016529498926240855 -0.062043832408974604 0 -0.016235449631334921 -0.061742262523631117 0 -0.014982074212485109 -0.060634554310757628 0 -0.017625345126336057 -0.061318033592586862 0 -0.017798812503074031 -0.059319219846978299 0 -0.017625345126336057 -0.061318033592586862 0 -0.020449090773071006 -0.061141644145406092 0 -0.017798812503074031 -0.059319219846978299 0 -0.018184377754654694 -0.062767998398872649 0 -0.017625345126336057 -0.061318033592586862 0 -0.020449090773071006 -0.061141644145406092 0 -0.020449090773071006 -0.061141644145406092 0 -0.017798812503074031 -0.059319219846978299 0 -0.020226502634303162 -0.057743510975752858 0 -0.017798812503074031 -0.059319219846978299 0 -0.017887288797149001 -0.056988551032981755 0 -0.015880165387333518 -0.057870353832082229 0 -0.017798812503074031 -0.059319219846978299 0 -0.017887288797149001 -0.056988551032981755 0 -0.020226502634303162 -0.057743510975752858 0 -0.022007096077433213 -0.054999958942031732 0 -0.020226502634303162 -0.057743510975752858 0 -0.018956353193973999 -0.05499997928291557 0 -0.017887288797149001 -0.056988551032981755 0 -0.020226502634303162 -0.057743510975752858 0 -0.018956353193973999 -0.05499997928291557 0 -0.017887288797149001 -0.056988551032981755 0 -0.018956353193973999 -0.05499997928291557 0 -0.015905705957819455 -0.054999964683216343 0 -0.017887288797149001 -0.056988551032981755 0 -0.015905705957819455 -0.054999964683216343 0 -0.015880165387333518 -0.057870353832082229 0 -0.015880165387333518 -0.057870353832082229 0 -0.014067438804547772 -0.056735262880740156 0 -0.013129005954437722 -0.058564957495133622 0 -0.015905705957819455 -0.054999964683216343 0 -0.014067438804547772 -0.056735262880740156 0 -0.012855105824241665 -0.054999974037696624 0 -0.015905705957819455 -0.054999964683216343 0 -0.015880165387333518 -0.057870353832082229 0 -0.014067438804547772 -0.056735262880740156 0 -0.014067438804547772 -0.056735262880740156 0 -0.012855105824241665 -0.054999974037696624 0 -0.010963526340296537 -0.057178192200228191 0 -0.012855105824241665 -0.054999974037696624 0 -0.010963526340296537 -0.057178192200228191 0 -0.0098045458158577386 -0.054999902347830268 0 -0.014067438804547772 -0.056735262880740156 0 -0.010963526340296537 -0.057178192200228191 0 -0.013129005954437722 -0.058564957495133622 0 -0.0083253815501434184 -0.056457762338958786 0 -0.0098045458158577386 -0.054999902347830268 0 -0.0067538590308038526 -0.054999911899025831 0 -0.010963526340296537 -0.057178192200228191 0 -0.0083253815501434184 -0.056457762338958786 0 -0.0098045458158577386 -0.054999902347830268 0 -0.010963526340296537 -0.057178192200228191 0 -0.0083253815501434184 -0.056457762338958786 0 -0.0079895178289938022 -0.058494608668158365 0 -0.0083253815501434184 -0.056457762338958786 0 -0.0079895178289938022 -0.058494608668158365 0 -0.005626445269825647 -0.057105747398311153 0 -0.010963526340296537 -0.057178192200228191 0 -0.0079895178289938022 -0.058494608668158365 0 -0.010779740986686581 -0.059424037695797023 0 -0.0079895178289938022 -0.058494608668158365 0 -0.0079152538397485733 -0.060821479356499321 0 -0.010779740986686581 -0.059424037695797023 0 -0.0079152538397485733 -0.060821479356499321 0 -0.010779740986686581 -0.059424037695797023 0 -0.010876762296009292 -0.061486060735487805 0 -0.013129005954437722 -0.058564957495133622 0 -0.010779740986686581 -0.059424037695797023 0 -0.012670096776788327 -0.060568545304384443 0 -0.010963526340296537 -0.057178192200228191 0 -0.013129005954437722 -0.058564957495133622 0 -0.010779740986686581 -0.059424037695797023 0 -0.010779740986686581 -0.059424037695797023 0 -0.012670096776788327 -0.060568545304384443 0 -0.010876762296009292 -0.061486060735487805 0 -0.014878216445534085 -0.060197859460772239 0 -0.013129005954437722 -0.058564957495133622 0 -0.012670096776788327 -0.060568545304384443 0 -0.013880468209757814 -0.061823994505822592 0 -0.012670096776788327 -0.060568545304384443 0 -0.012392992136223167 -0.062361394597399075 0 -0.013880468209757814 -0.061823994505822592 0 -0.013974179150856752 -0.063186574055881364 0 -0.012392992136223167 -0.062361394597399075 0 -0.013974179150856752 -0.063186574055881364 0 -0.012392992136223167 -0.062361394597399075 0 -0.012681120072715917 -0.063819006268094267 0 -0.014425705677857423 -0.064386824856127456 0 -0.013974179150856752 -0.063186574055881364 0 -0.012681120072715917 -0.063819006268094267 0 -0.012681120072715917 -0.063819006268094267 0 -0.010862240623335701 -0.063099653333270625 0 -0.010857737838618105 -0.064760985745859367 0 -0.012392992136223167 -0.062361394597399075 0 -0.012681120072715917 -0.063819006268094267 0 -0.010862240623335701 -0.063099653333270625 0 -0.012392992136223167 -0.062361394597399075 0 -0.010876762296009292 -0.061486060735487805 0 -0.010862240623335701 -0.063099653333270625 0 -0.012670096776788327 -0.060568545304384443 0 -0.012392992136223167 -0.062361394597399075 0 -0.010876762296009292 -0.061486060735487805 0 -0.010876762296009292 -0.061486060735487805 0 -0.0091835299496212056 -0.062664428831184477 0 -0.010862240623335701 -0.063099653333270625 0 -0.0077997716070213356 -0.063527590209813772 0 -0.0076255485325158311 -0.063650902772374632 0 -0.0079152538397485733 -0.060821479356499321 0 -0.010876762296009292 -0.061486060735487805 0 -0.0082174117537591861 -0.063373417886142314 0 -0.0079152538397485733 -0.060821479356499321 0 -0.0082174117537591861 -0.063373417886142314 0 -0.0057553669761308693 -0.06252878986391576 0 -0.0091835299496212056 -0.062664428831184477 0 -0.0090418086155537522 -0.064631310111486553 0 -0.0068688663261154163 -0.063964332362618989 0 -0.0076255485325158311 -0.063650902772374632 0 -0.0073047757921837616 -0.063876816409529164 0 -0.0091835299496212056 -0.062664428831184477 0 -0.010862240623335701 -0.063099653333270625 0 -0.0090418086155537522 -0.064631310111486553 0 -0.010862240623335701 -0.063099653333270625 0 -0.010857737838618105 -0.064760985745859367 0 -0.0090418086155537522 -0.064631310111486553 0 -0.006305401938783671 -0.058108189245064064 0 -0.0061151700088707154 -0.057976788117229408 0 -0.0090418086155537522 -0.064631310111486553 0 -0.0081375050284895074 -0.066522056245409938 0 -0.0074513207893216462 -0.065377868427730843 0 -0.01032043678987995 -0.066466743393133437 0 -0.0090418086155537522 -0.064631310111486553 0 -0.0081375050284895074 -0.066522056245409938 0 -0.01032043678987995 -0.066466743393133437 0 -0.010857737838618105 -0.064760985745859367 0 -0.011693229629859518 -0.065462342689160152 0 -0.01032043678987995 -0.066466743393133437 0 -0.010857737838618105 -0.064760985745859367 0 -0.0090418086155537522 -0.064631310111486553 0 -0.011514709073954325 -0.066319430740904295 0 -0.01032043678987995 -0.066466743393133437 0 -0.011693229629859518 -0.065462342689160152 0 -0.011514709073954325 -0.066319430740904295 0 -0.011693229629859518 -0.065462342689160152 0 -0.012030462737107039 -0.066174968596532421 0 -0.015585384804867573 -0.063055954266689238 0 -0.015496243972345955 -0.063021762972572559 0 -0.014603055068767946 -0.065872282731847309 0 -0.014571593287548614 -0.065626547567108104 0 -0.013804973466955766 -0.064966460854007535 0 -0.012205707403764872 -0.066803472357316346 0 -0.012030462737107039 -0.066174968596532421 0 -0.012620868062530391 -0.065437281431309585 0 -0.014878113821592581 -0.065198893736762062 0 -0.014571593287548614 -0.065626547567108104 0 -0.013804973466955766 -0.064966460854007535 0 -0.014878113821592581 -0.065198893736762062 0 -0.014425705677857423 -0.064386824856127456 0 -0.013804973466955766 -0.064966460854007535 0 -0.011693229629859518 -0.065462342689160152 0 -0.012030462737107039 -0.066174968596532421 0 -0.012620868062530391 -0.065437281431309585 0 -0.0154607949686849 -0.0629897990886676 0 -0.015496243972345955 -0.063021762972572559 0 -0.014425705677857423 -0.064386824856127456 0 -0.012681120072715917 -0.063819006268094267 0 -0.013804973466955766 -0.064966460854007535 0 -0.012681120072715917 -0.063819006268094267 0 -0.011693229629859518 -0.065462342689160152 0 -0.012620868062530391 -0.065437281431309585 0 -0.012681120072715917 -0.063819006268094267 0 -0.010857737838618105 -0.064760985745859367 0 -0.011693229629859518 -0.065462342689160152 0 -0.0035161234220926038 -0.06519302568376073 0 -0.002745249043977673 -0.066190529290623204 0 -0.0016341255866499395 -0.06399691915463375 0 -0.0035161234220926038 -0.06519302568376073 0 -0.002745249043977673 -0.066190529290623204 0 -0.0038681484813814925 -0.066192610634254065 0 -0.00033950171107258371 -0.065705483322830049 0 -0.00085167283948102618 -0.063877026372458956 0 0.00047274349398161594 -0.064495285716211354 0 -0.0049220185517520262 -0.056971466209491783 0 -0.0047623719536905897 -0.057785583034846787 0 -0.00033950171107258371 -0.065705483322830049 0 -0.0017808437733123417 -0.066030996292536531 0 -0.00085167283948102618 -0.063877026372458956 0 -0.0058193562233407404 -0.063994870109209373 0 -0.0062295628036274225 -0.06476533317777021 0 -0.0050689421563549948 -0.06566056996046904 0 -0.0064803584168561133 -0.065599842252082999 0 -0.0062295628036274225 -0.06476533317777021 0 -0.0069308155914800688 -0.064254358701911263 0 -0.0058193562233407404 -0.063994870109209373 0 -0.0062295628036274225 -0.06476533317777021 0 -0.0069308155914800688 -0.064254358701911263 0 -0.0039751079104872935 -0.055054496124158012 0 -0.0049220185517520262 -0.056971466209491783 0 -0.002745249043977673 -0.066190529290623204 0 -0.0038681484813814925 -0.066192610634254065 0 -0.005466735544020853 -0.066480558297241227 0 -0.0049220185517520262 -0.056971466209491783 0 -0.0056216209657980395 -0.057594457187005101 0 -0.00804727466882783 -0.066950659530436177 0 -0.0075049956397083874 -0.065698527130409135 0 -0.0084608614918594872 -0.065924529952122363 0 -0.0081375050284895074 -0.066522056245409938 0 -0.005466735544020853 -0.066480558297241227 0 -0.0074513207893216462 -0.065377868427730843 0 -0.0061151700088707154 -0.057976788117229408 0 -0.0056216209657980395 -0.057594457187005101 0 -0.0087849195805475479 -0.066602698141719013 0 -0.009424826342691801 -0.066173470574830598 0 -0.0084608614918594872 -0.065924529952122363 0 -0.005466735544020853 -0.066480558297241227 0 -0.0068688663261154163 -0.063964332362618989 0 -0.0074513207893216462 -0.065377868427730843 0 -0.0090418086155537522 -0.064631310111486553 0 -0.0068688663261154163 -0.063964332362618989 0 -0.0074513207893216462 -0.065377868427730843 0 -0.0071295973093140168 -0.064000972426126679 0 -0.0073047757921837616 -0.063876816409529164 0 -0.0035161234220926038 -0.06519302568376073 0 -0.0057752987588474969 -0.064903150550059158 0 -0.0035987580368629121 -0.064326235931029124 0 -0.0035161234220926038 -0.06519302568376073 0 -0.0038681484813814925 -0.066192610634254065 0 -0.0057752987588474969 -0.064903150550059158 0 -0.0038681484813814925 -0.066192610634254065 0 -0.005466735544020853 -0.066480558297241227 0 -0.0068688663261154163 -0.063964332362618989 0 -0.0057752987588474969 -0.064903150550059158 0 -0.0046018186661029225 -0.063540231848923892 0 -0.0035987580368629121 -0.064326235931029124 0 -0.0046018186661029225 -0.063540231848923892 0 -0.0032748227433862164 -0.062362824765673744 0 -0.0035987580368629121 -0.064326235931029124 0 -0.0057752987588474969 -0.064903150550059158 0 -0.0046018186661029225 -0.063540231848923892 0 -0.0057553669761308693 -0.06252878986391576 0 -0.0082174117537591861 -0.063373417886142314 0 -0.0057752987588474969 -0.064903150550059158 0 -0.0057553669761308693 -0.06252878986391576 0 -0.0046018186661029225 -0.063540231848923892 0 -0.0057553669761308693 -0.06252878986391576 0 -0.0032748227433862164 -0.062362824765673744 0 -0.0057553669761308693 -0.06252878986391576 0 -0.0032748227433862164 -0.062362824765673744 0 -0.0049098766115695941 -0.059820949400084623 0 -0.0032748227433862164 -0.062362824765673744 0 -0.0035987580368629121 -0.064326235931029124 0 -0.0016341255866499395 -0.06399691915463375 0 -0.0035161234220926038 -0.06519302568376073 0 -0.0035987580368629121 -0.064326235931029124 0 -0.0016341255866499395 -0.06399691915463375 0 -0.00085167283948102618 -0.063877026372458956 0 0.00089863537432908103 -0.062476738253298511 0 6.9062438229109085e-05 -0.061640005505272807 0 -0.0032748227433862164 -0.062362824765673744 0 -0.0016341255866499395 -0.06399691915463375 0 -0.00033936416117868936 -0.06168169675613 0 -0.0047623719536905897 -0.057785583034846787 0 -0.0045602454101398302 -0.05801909415133634 0 -0.0020187259507176217 -0.060204930636143975 0 0.0010106048316104225 -0.059232855483485961 0 -0.00033936416117868936 -0.06168169675613 0 -0.0032748227433862164 -0.062362824765673744 0 -0.0020187259507176217 -0.060204930636143975 0 -0.00033936416117868936 -0.06168169675613 0 -0.0032748227433862164 -0.062362824765673744 0 -0.0020187259507176217 -0.060204930636143975 0 -0.0049098766115695941 -0.059820949400084623 0 -0.0020187259507176217 -0.060204930636143975 0 -0.0049098766115695941 -0.059820949400084623 0 -0.0020779451183752943 -0.057860810254295875 0 -0.0020187259507176217 -0.060204930636143975 0 -0.0020779451183752943 -0.057860810254295875 0 0.0010106048316104225 -0.059232855483485961 0 -0.0049098766115695941 -0.059820949400084623 0 -0.005626445269825647 -0.057105747398311153 0 -0.0020779451183752943 -0.057860810254295875 0 -0.0079152538397485733 -0.060821479356499321 0 -0.0057553669761308693 -0.06252878986391576 0 -0.0049098766115695941 -0.059820949400084623 0 -0.0079895178289938022 -0.058494608668158365 0 -0.0079152538397485733 -0.060821479356499321 0 -0.0049098766115695941 -0.059820949400084623 0 -0.0079895178289938022 -0.058494608668158365 0 -0.0049098766115695941 -0.059820949400084623 0 -0.005626445269825647 -0.057105747398311153 0 -0.005626445269825647 -0.057105747398311153 0 -0.0037032290838673507 -0.054999924098894697 0 -0.0020779451183752943 -0.057860810254295875 0 -0.0083253815501434184 -0.056457762338958786 0 -0.005626445269825647 -0.057105747398311153 0 -0.0067538590308038526 -0.054999911899025831 0 -0.005626445269825647 -0.057105747398311153 0 -0.0037032290838673507 -0.054999924098894697 0 -0.0067538590308038526 -0.054999911899025831 0 -0.0037032290838673507 -0.054999924098894697 0 -0.0020779451183752943 -0.057860810254295875 0 -0.00065255152136931428 -0.054999922475506564 0 -0.0020779451183752943 -0.057860810254295875 0 -0.00065255152136931428 -0.054999922475506564 0 0.00086397456089156821 -0.056828643637172493 0 -0.00065255152136931428 -0.054999922475506564 0 0.00086397456089156821 -0.056828643637172493 0 0.0023981113430490745 -0.054999948924085815 0 -0.0020779451183752943 -0.057860810254295875 0 0.00086397456089156821 -0.056828643637172493 0 0.0010106048316104225 -0.059232855483485961 0 0.00086397456089156821 -0.056828643637172493 0 0.0033393612573415056 -0.056710644208498556 0 0.0010106048316104225 -0.059232855483485961 0 0.0033393612573415056 -0.056710644208498556 0 0.0042595382393776663 -0.058413326048697131 0 0.0010106048316104225 -0.059232855483485961 0 0.00086397456089156821 -0.056828643637172493 0 0.0033393612573415056 -0.056710644208498556 0 0.0023981113430490745 -0.054999948924085815 0 0.0033393612573415056 -0.056710644208498556 0 0.0050092803604352872 -0.055516625634760716 0 0.0052514750568348183 -0.055554753262309728 0 0.0023981113430490745 -0.054999948924085815 0 0.0050092803604352872 -0.055516625634760716 0 0.0054487196294323945 -0.054999967008405495 0 0.0033393612573415056 -0.056710644208498556 0 0.0023981113430490745 -0.054999948924085815 0 0.0050092803604352872 -0.055516625634760716 0 0.01392287745268745 -0.056623718048896592 0 0.013893478978574814 -0.056603706825741 0 0.014058089924077064 -0.056500855389419236 0 0.0054489020422726778 -0.054999990483419026 0 0.0052851842648926565 -0.055568265893907329 0 0.0085193970414294152 -0.056080525918690075 0 0.0054493217766998954 -0.054995384600058719 0 0.0054950346785651418 -0.054752770947153549 0 0.0050092803604352872 -0.055516625634760716 0 0.0054487196294323945 -0.054999967008405495 0 0.0052641715732168991 -0.055559625597253158 0 0.0054948913036046857 -0.054752857947648885 0 0.0054950346785651418 -0.054752770947153549 0 0.01392287745268745 -0.056623718048896592 0 0.013893478978574814 -0.056603706825741 0 0.014121385003244858 -0.05647821140778108 0 0.0054950346785651418 -0.054752770947153549 0 0.0041676661545433508 -0.054409312288035479 0 0.0033393612573415056 -0.056710644208498556 0 0.0052514750568348183 -0.055554753262309728 0 0.0042595382393776663 -0.058413326048697131 0 0.0041676661545433508 -0.054409312288035479 0 0.0026801333889138728 -0.053800972752152842 0 0.013893478978574814 -0.056603706825741 0 0.014121385003244858 -0.05647821140778108 0 0.01385544632468662 -0.056160866518600402 0 0.014121385003244858 -0.05647821140778108 0 0.01385544632468662 -0.056160866518600402 0 0.014299285560120494 -0.055989901007196377 0 0.01385544632468662 -0.056160866518600402 0 0.014299285560120494 -0.055989901007196377 0 0.014040967400714841 -0.055754400569822629 0 0.0033200863612304955 -0.061206844655750249 0 0.0014633544486815106 -0.061379574888963437 0 0.0010106048316104225 -0.059232855483485961 0 -0.0044613174718905052 -0.05802324933847449 0 -0.0045602454101398302 -0.05801909415133634 0 0.0014633544486815106 -0.061379574888963437 0 0.0010106048316104225 -0.059232855483485961 0 6.9062438229109085e-05 -0.061640005505272807 0 0.0042595382393776663 -0.058413326048697131 0 0.0033200863612304955 -0.061206844655750249 0 0.0010106048316104225 -0.059232855483485961 0 0.014875578295340615 -0.056798716140015623 0 0.0146163363522909 -0.056556605399583959 0 0.015144845146112772 -0.056781661820136303 0 0.014694100278517558 -0.056793268590992131 0 0.014471182837892126 -0.056735026971530572 0 0.014815292967255554 -0.057089180737880357 0 0.0087212595615644029 -0.055353318816493725 0 0.0091749621055688627 -0.055434891010262131 0 0.014875578295340615 -0.056798716140015623 0 0.014815292967255554 -0.057089180737880357 0 0.015083141262025694 -0.056864271042695286 0 0.014875578295340615 -0.056798716140015623 0 0.014694100278517558 -0.056793268590992131 0 0.014815292967255554 -0.057089180737880357 0 0.014875578295340615 -0.056798716140015623 0 0.014694100278517558 -0.056793268590992131 0 0.0146163363522909 -0.056556605399583959 0 0.013735319533529633 -0.056016108537533402 0 0.012937703815514838 -0.055634395312197923 0 0.011766002964438098 -0.056597048220167645 0 0.013735319533529633 -0.056016108537533402 0 0.011766002964438098 -0.056597048220167645 0 0.015144845146112772 -0.056781661820136303 0 0.012937703815514838 -0.055634395312197923 0 0.011566357270110805 -0.054999955255935873 0 0.014625119861557047 -0.054999875708432948 0 0.013735319533529633 -0.056016108537533402 0 0.012937703815514838 -0.055634395312197923 0 0.014625119861557047 -0.054999875708432948 0 0.012937703815514838 -0.055634395312197923 0 0.011766002964438098 -0.056597048220167645 0 0.011566357270110805 -0.054999955255935873 0 0.011766002964438098 -0.056597048220167645 0 0.011566357270110805 -0.054999955255935873 0 0.0085193970414294152 -0.056080525918690075 0 0.0146163363522909 -0.056556605399583959 0 0.014471182837892126 -0.056735026971530572 0 0.014305454942626207 -0.056665224634748254 0 0.014694100278517558 -0.056793268590992131 0 0.0146163363522909 -0.056556605399583959 0 0.014471182837892126 -0.056735026971530572 0 0.014115764649141863 -0.056690525509985899 0 0.014305454942626207 -0.056665224634748254 0 0.014303078050766721 -0.056813865387522644 0 0.014471182837892126 -0.056735026971530572 0 0.014305454942626207 -0.056665224634748254 0 0.014303078050766721 -0.056813865387522644 0 0.014115764649141863 -0.056690525509985899 0 0.014305454942626207 -0.056665224634748254 0 0.014058089924077064 -0.056500855389419236 0 0.0087212595615644029 -0.055353318816493725 0 0.0074728546878166033 -0.055123565251660962 0 0.011566357270110805 -0.054999955255935873 0 0.0085193970414294152 -0.056080525918690075 0 0.0085075613099224109 -0.0550000117891647 0 0.0146163363522909 -0.056556605399583959 0 0.014305454942626207 -0.056665224634748254 0 0.014058089924077064 -0.056500855389419236 0 0.0054489020422726778 -0.054999990483419026 0 0.0085193970414294152 -0.056080525918690075 0 0.0085075613099224109 -0.0550000117891647 0 0.0054950346785651418 -0.054752770947153549 0 0.0074728546878166033 -0.055123565251660962 0 0.013893478978574814 -0.056603706825741 0 0.014115764649141863 -0.056690525509985899 0 0.014058089924077064 -0.056500855389419236 0 0.013893478978574814 -0.056603706825741 0 0.014115764649141863 -0.056690525509985899 0 0.014099340841644756 -0.056964378480498873 0 0.013893478978574814 -0.056603706825741 0 0.01385544632468662 -0.056160866518600402 0 0.0135100845451879 -0.056323676450614556 0 0.013678246814040127 -0.053224956499743986 0 0.01358916387412578 -0.053090250158409409 0 0.01385544632468662 -0.056160866518600402 0 0.013477752847596346 -0.055997611104070165 0 0.013671725478586617 -0.055740012219448139 0 0.01385544632468662 -0.056160866518600402 0 0.013477752847596346 -0.055997611104070165 0 0.0135100845451879 -0.056323676450614556 0 0.01358916387412578 -0.053090250158409409 0 0.013313353289696671 -0.052674347426196609 0 0.013477752847596346 -0.055997611104070165 0 0.0135100845451879 -0.056323676450614556 0 0.013156901595810934 -0.056014643754881362 0 0.014115764649141863 -0.056690525509985899 0 0.014099340841644756 -0.056964378480498873 0 0.014303078050766721 -0.056813865387522644 0 0.014099340841644756 -0.056964378480498873 0 0.014303078050766721 -0.056813865387522644 0 0.014475615854838034 -0.057349248788195202 0 0.015301249077240337 -0.057006947169022527 0 0.015352091436071259 -0.057017667839348869 0 0.014303078050766721 -0.056813865387522644 0 0.014475615854838034 -0.057349248788195202 0 0.015039453655254527 -0.056861249556854475 0 0.014471182837892126 -0.056735026971530572 0 0.014303078050766721 -0.056813865387522644 0 0.014815292967255554 -0.057089180737880357 0 0.014996435631691526 -0.057358342672496218 0 0.015039453655254527 -0.056861249556854475 0 0.015426436331154834 -0.057234849995976042 0 0.014475615854838034 -0.057349248788195202 0 0.014996435631691526 -0.057358342672496218 0 0.015039453655254527 -0.056861249556854475 0 0.012809310114847466 -0.051931506936327781 0 0.011994254372006779 -0.050773867889219858 0 0.01275087978322393 -0.055344215463812949 0 0.012811680675013672 -0.055689126738908079 0 0.012466078463467697 -0.055356712211299293 0 0.01275087978322393 -0.055344215463812949 0 0.012811680675013672 -0.055689126738908079 0 0.012925522755413017 -0.055490304148510125 0 0.01275087978322393 -0.055344215463812949 0 0.012925522755413017 -0.055490304148510125 0 0.012908318316881275 -0.055340021219502523 0 0.014996435631691526 -0.057358342672496218 0 0.014939647377209203 -0.057813342000711476 0 0.015450513400055783 -0.057651764140050382 0 0.013313353289696671 -0.052674347426196609 0 0.012809310114847466 -0.051931506936327781 0 0.014475615854838034 -0.057349248788195202 0 0.014996435631691526 -0.057358342672496218 0 0.014939647377209203 -0.057813342000711476 0 0.013156901595810934 -0.056014643754881362 0 0.012811680675013672 -0.055689126738908079 0 0.013217776924703956 -0.055660879462917326 0 0.012811680675013672 -0.055689126738908079 0 0.012925522755413017 -0.055490304148510125 0 0.013217776924703956 -0.055660879462917326 0 0.012925522755413017 -0.055490304148510125 0 0.013089018291822536 -0.055384017097663607 0 0.013217776924703956 -0.055660879462917326 0 0.012925522755413017 -0.055490304148510125 0 0.012908318316881275 -0.055340021219502523 0 0.013089018291822536 -0.055384017097663607 0 0.013089018291822536 -0.055384017097663607 0 0.013217776924703956 -0.055660879462917326 0 0.013412308015636599 -0.055262723458057786 0 0.013217776924703956 -0.055660879462917326 0 0.013671725478586617 -0.055740012219448139 0 0.013412308015636599 -0.055262723458057786 0 0.013477752847596346 -0.055997611104070165 0 0.013217776924703956 -0.055660879462917326 0 0.013671725478586617 -0.055740012219448139 0 0.013477752847596346 -0.055997611104070165 0 0.013156901595810934 -0.056014643754881362 0 0.013217776924703956 -0.055660879462917326 0 0.013671725478586617 -0.055740012219448139 0 0.013412308015636599 -0.055262723458057786 0 0.013934270837311915 -0.055384569257086236 0 0.0073758945179667312 -0.050576462391675472 0 0.0043628109556672233 -0.051498671093230024 0 0.00068143975553818675 -0.034815858164325642 0 0.0010859269851662492 -0.034348732595797841 0 0.00031977027610486205 -0.034217614386194153 0 0.00068143975553818675 -0.034815858164325642 0 0.001168850793890161 -0.034873223169339586 0 0.0010859269851662492 -0.034348732595797841 0 0.001168850793890161 -0.034873223169339586 0 0.0010859269851662492 -0.034348732595797841 0 0.0015797028626558596 -0.034638191885952074 0 0.0010859269851662492 -0.034348732595797841 0 0.0015797028626558596 -0.034638191885952074 0 0.0018539765532351903 -0.034494637718557139 0 0.013089018291822536 -0.055384017097663607 0 0.013412308015636599 -0.055262723458057786 0 0.012867149246005337 -0.055141117292690105 0 0.0073758945179667312 -0.050576462391675472 0 0.010556388017857254 -0.049935460491877033 0 0.012908318316881275 -0.055340021219502523 0 0.013089018291822536 -0.055384017097663607 0 0.012867149246005337 -0.055141117292690105 0 0.010522252071840129 -0.049885035054718474 0 0.010556388017857254 -0.049935460491877033 0 0.0015797028626558596 -0.034638191885952074 0 0.0019318804909709789 -0.034917955885260227 0 0.0018515361576071959 -0.034490383169771273 0 0.001168850793890161 -0.034873223169339586 0 0.0015797028626558596 -0.034638191885952074 0 0.0015906423389267523 -0.034995861491868521 0 0.0015797028626558596 -0.034638191885952074 0 0.0015906423389267523 -0.034995861491868521 0 0.0019318804909709789 -0.034917955885260227 0 0.0019318804909709789 -0.034917955885260227 0 0.0018515361576071959 -0.034490383169771273 0 0.0023124694015309193 -0.034576702261406141 0 0.0019318804909709789 -0.034917955885260227 0 0.0022753437489091239 -0.035143608001225256 0 0.0023124694015309193 -0.034576702261406141 0 0.011367157819244224 -0.050162978496519781 0 0.011349881854203072 -0.049337829222357708 0 0.010556388017857254 -0.049935460491877033 0 0.011349881854203072 -0.049337829222357708 0 0.012434209437085673 -0.04868168024992265 0 0.012337341493216705 -0.048734474996443032 0 0.012266155948070441 -0.048647640891247394 0 0.01275087978322393 -0.055344215463812949 0 0.012867149246005337 -0.055141117292690105 0 0.01267000173316201 -0.055246717313082387 0 0.010556388017857254 -0.049935460491877033 0 0.011367157819244224 -0.050162978496519781 0 0.01275087978322393 -0.055344215463812949 0 0.012908318316881275 -0.055340021219502523 0 0.012867149246005337 -0.055141117292690105 0 0.011378340952969202 -0.050180154939546785 0 0.011367157819244224 -0.050162978496519781 0 0.01275087978322393 -0.055344215463812949 0 0.012670283202740912 -0.055245773415331635 0 0.012466078463467697 -0.055356712211299293 0 0.0016207285710050526 -0.063033348083854482 0 0.0024631182833152782 -0.063836197673611567 0 0.0020624937135277103 -0.062288190828338849 0 0.0010403648632304574 -0.052674241103188232 0 0.0010817753348752825 -0.052739444127902664 0 0.0016207285710050526 -0.063033348083854482 0 0.0024631182833152782 -0.063836197673611567 0 0.0010645413116542231 -0.063532728043325049 0 -0.00042065869815933451 -0.034092260952363812 0 -9.3571312779066145e-05 -0.034364733066482939 0 -0.00033380919679821842 -0.03434879330819296 0 0.0022350926346542703 -0.06378029073428422 0 0.0013641120175465638 -0.063995751797097572 0 0.0018610464285856035 -0.065019680441588401 0 0.0022350926346542703 -0.06378029073428422 0 0.0013641120175465638 -0.063995751797097572 0 0.0010645413116542231 -0.063532728043325049 0 0.0013641120175465638 -0.063995751797097572 0 0.0010645413116542231 -0.063532728043325049 0 0.00047274349398161594 -0.064495285716211354 0 -0.00085167283948102618 -0.063877026372458956 0 0.0010645413116542231 -0.063532728043325049 0 0.00047274349398161594 -0.064495285716211354 0 -0.00085167283948102618 -0.063877026372458956 0 0.0010645413116542231 -0.063532728043325049 0 0.00089863537432908103 -0.062476738253298511 0 0.0016207285710050526 -0.063033348083854482 0 0.0010645413116542231 -0.063532728043325049 0 0.00089863537432908103 -0.062476738253298511 0 0.0016207285710050526 -0.063033348083854482 0 0.00089863537432908103 -0.062476738253298511 0 0.0020624937135277103 -0.062288190828338849 0 0.0014633544486815106 -0.061379574888963437 0 0.00089863537432908103 -0.062476738253298511 0 6.9062438229109085e-05 -0.061640005505272807 0 0.0014633544486815106 -0.061379574888963437 0 0.00089863537432908103 -0.062476738253298511 0 0.0020624937135277103 -0.062288190828338849 0 0.0033200863612304955 -0.061206844655750249 0 0.0014633544486815106 -0.061379574888963437 0 0.0020624937135277103 -0.062288190828338849 0 0.0033200863612304955 -0.061206844655750249 0 0.0024631182833152782 -0.063836197673611567 0 0.0020624937135277103 -0.062288190828338849 0 0.0026801333889138728 -0.053800972752152842 0 0.0010403648632304574 -0.052674241103188232 0 0.014299285560120494 -0.055989901007196377 0 0.014442897875545892 -0.055492720471507002 0 0.014040967400714841 -0.055754400569822629 0 0.01385544632468662 -0.056160866518600402 0 0.013671725478586617 -0.055740012219448139 0 0.014040967400714841 -0.055754400569822629 0 0.013671725478586617 -0.055740012219448139 0 0.014040967400714841 -0.055754400569822629 0 0.013934270837311915 -0.055384569257086236 0 0.014442897875545892 -0.055492720471507002 0 0.014040967400714841 -0.055754400569822629 0 0.013934270837311915 -0.055384569257086236 0 -0.00042065869815933451 -0.034092260952363812 0 0.00031977027610486205 -0.034217614386194153 0 -9.3571312779066145e-05 -0.034364733066482939 0 0.0010403648632304574 -0.052674241103188232 0 0.0043628109556672233 -0.051498671093230024 0 -9.3571312779066145e-05 -0.034364733066482939 0 -0.00031261161261869809 -0.034471176117921151 0 -0.00033380919679821842 -0.03434879330819296 0 -9.3571312779066145e-05 -0.034364733066482939 0 0.0001388643651212489 -0.034741162055580629 0 -0.00030913541108165113 -0.034693614670983343 0 0.00031977027610486205 -0.034217614386194153 0 -9.3571312779066145e-05 -0.034364733066482939 0 0.0001388643651212489 -0.034741162055580629 0 -9.3571312779066145e-05 -0.034364733066482939 0 -0.00030913541108165113 -0.034693614670983343 0 -0.00031261161261869809 -0.034471176117921151 0 0.00068143975553818675 -0.034815858164325642 0 0.00031977027610486205 -0.034217614386194153 0 0.0001388643651212489 -0.034741162055580629 0 0.00068143975553818675 -0.034815858164325642 0 0.0001388643651212489 -0.034741162055580629 0 0.00030333204099800687 -0.035166937253265793 0 0.0001388643651212489 -0.034741162055580629 0 -0.00014558267952835614 -0.035161214869500301 0 0.00030333204099800687 -0.035166937253265793 0 0.0001388643651212489 -0.034741162055580629 0 -0.00030913541108165113 -0.034693614670983343 0 -0.00014558267952835614 -0.035161214869500301 0 -0.00030913541108165113 -0.034693614670983343 0 -0.00074607825654066117 -0.035184822715327788 0 -0.00014558267952835614 -0.035161214869500301 0 -0.00030913541108165113 -0.034693614670983343 0 -0.00053536765473527731 -0.034482817795181774 0 -0.00074607825654066117 -0.035184822715327788 0 -0.0016983673149456901 -0.052035802445857551 0 -0.0034449141332449536 -0.047191380498459126 0 -0.00030913541108165113 -0.034693614670983343 0 -0.00031261161261869809 -0.034471176117921151 0 -0.00053536765473527731 -0.034482817795181774 0 0.0010403648632304574 -0.052674241103188232 0 -0.0016983673149456901 -0.052035802445857551 0 -0.00042065869815933451 -0.034092260952363812 0 -0.00053536765473527731 -0.034482817795181774 0 -0.00033380919679821842 -0.03434879330819296 0 -0.00031261161261869809 -0.034471176117921151 0 -0.00053536765473527731 -0.034482817795181774 0 -0.00033380919679821842 -0.03434879330819296 0 -0.0039751079104872935 -0.055054496124158012 0 -0.0029891925903759633 -0.052996266559797292 0 -0.00033950171107258371 -0.065705483322830049 0 0.00047274349398161594 -0.064495285716211354 0 0.0011123329649688986 -0.065372470717460968 0 0.0013641120175465638 -0.063995751797097572 0 0.0018610464285856035 -0.065019680441588401 0 0.0011469059648652215 -0.065179644553840385 0 -0.0029970450656631189 -0.053239371946434876 0 -0.0029891925903759633 -0.052996266559797292 0 0.0013641120175465638 -0.063995751797097572 0 0.00047274349398161594 -0.064495285716211354 0 0.0011123329649688986 -0.065372470717460968 0 -0.0016983673149456901 -0.052035802445857551 0 -0.0029891925903759633 -0.052996266559797292 0 -0.0059998571965525849 -0.052000970854482985 0 -0.006130464165342327 -0.048726575079982612 0 -0.0053749718902427216 -0.048551555889961323 0 -0.0029891925903759633 -0.052996266559797292 0 -0.0046805418344655651 -0.049876595792818099 0 -0.0058193562233407404 -0.063994870109209373 0 -0.0047009273220059234 -0.063733861405149084 0 -0.0050689421563549948 -0.06566056996046904 0 -0.0071327366061388845 -0.052262868571988572 0 -0.0059998571965525849 -0.052000970854482985 0 -0.006130464165342327 -0.048726575079982612 0 -0.006130464165342327 -0.048726575079982612 0 -0.0053749718902427216 -0.048551555889961323 0 -0.0051432184311577846 -0.045177133065020456 0 -0.00074607825654066117 -0.035184822715327788 0 -0.00047629249256017696 -0.035621834917697215 0 -0.00014558267952835614 -0.035161214869500301 0 -0.00074607825654066117 -0.035184822715327788 0 -0.00047629249256017696 -0.035621834917697215 0 -0.00095816577621635809 -0.035880562678078216 0 -0.0034449141332449536 -0.047191380498459126 0 -0.0053761338904924237 -0.043211544230852508 0 -0.0046805418344655651 -0.049876595792818099 0 -0.0061940432754289086 -0.045630126940580794 0 -0.0053749718902427216 -0.048551555889961323 0 -0.0051432184311577846 -0.045177133065020456 0 -0.0047652177746051513 -0.045089166756414854 0 -0.00047629249256017696 -0.035621834917697215 0 -0.00095816577621635809 -0.035880562678078216 0 -0.00060716246037640026 -0.03593179008248687 0 -0.0041680814120895054 -0.041613742895472476 0 -0.0051432184311577846 -0.045177133065020456 0 -0.0047652177746051513 -0.045089166756414854 0 -0.00095816577621635809 -0.035880562678078216 0 -0.00076265311369107811 -0.036033086345076702 0 -0.00087212345115179337 -0.036383736618797652 0 -0.00095816577621635809 -0.035880562678078216 0 -0.00076265311369107811 -0.036033086345076702 0 -0.00060716246037640026 -0.03593179008248687 0 -0.00047629249256017696 -0.035621834917697215 0 -0.00060716246037640026 -0.03593179008248687 0 -0.00031112898721890448 -0.035957350178631678 0 -0.00076265311369107811 -0.036033086345076702 0 -0.00053172571437972522 -0.036162913165921989 0 -0.00048582769439104166 -0.036418195127738209 0 -0.00060716246037640026 -0.03593179008248687 0 -0.00031112898721890448 -0.035957350178631678 0 -0.00053172571437972522 -0.036162913165921989 0 -0.00031112898721890448 -0.035957350178631678 0 -0.00032134082453013046 -0.036202898553965995 0 -0.00053172571437972522 -0.036162913165921989 0 -0.00076265311369107811 -0.036033086345076702 0 -0.00060716246037640026 -0.03593179008248687 0 -0.00053172571437972522 -0.036162913165921989 0 -0.00053172571437972522 -0.036162913165921989 0 -0.00043629143286116266 -0.036281485782953496 0 -0.00048582769439104166 -0.036418195127738209 0 -0.0058577186542637088 -0.033573430879193004 0 -0.0059784003663750623 -0.033434466354121818 0 -0.00032134082453013046 -0.036202898553965995 0 -0.00053172571437972522 -0.036162913165921989 0 -0.00043629143286116266 -0.036281485782953496 0 -0.00032134082453013046 -0.036202898553965995 0 -0.00040765636244893572 -0.036382025068427366 0 -0.00021705157329798852 -0.036327864283489726 0 -0.00032134082453013046 -0.036202898553965995 0 -0.00043629143286116266 -0.036281485782953496 0 -0.00040765636244893572 -0.036382025068427366 0 -0.00043629143286116266 -0.036281485782953496 0 -0.00040765636244893572 -0.036382025068427366 0 -0.00048582769439104166 -0.036418195127738209 0 -0.00040765636244893572 -0.036382025068427366 0 -0.00047373992349196615 -0.036410627564542546 0 -0.00016133065284876856 -0.036468931490109609 0 -0.0059738542812042723 -0.033433993698861977 0 -0.0059784003663750623 -0.033434466354121818 0 -0.00076265311369107811 -0.036033086345076702 0 -0.00051047882068889258 -0.03644141991221643 0 -0.00087212345115179337 -0.036383736618797652 0 -0.0012292119484444951 -0.036751095106217352 0 -0.00051047882068889258 -0.03644141991221643 0 -0.00087212345115179337 -0.036383736618797652 0 -0.0011810919343690834 -0.036590106780446711 0 -0.00095816577621635809 -0.035880562678078216 0 -0.00087212345115179337 -0.036383736618797652 0 -0.0082352231212976176 -0.037330307350040844 0 -0.0059784003663750623 -0.033434466354121818 0 0.00032500424461895058 -0.036626073710896351 0 0.00041366858689837708 -0.03593677321800047 0 0.00084233826005732939 -0.036134266476281041 0 -0.0021679110073732897 -0.028831414101242361 0 -0.0020185863257158551 -0.029085960120090983 0 0.00032500424461895058 -0.036626073710896351 0 1.0142339272634252e-05 -0.036191123553395071 0 0.00041366858689837708 -0.03593677321800047 0 0.00022972986051921735 -0.03654057193121038 0 -0.00016133065284876856 -0.036468931490109609 0 1.0142339272634252e-05 -0.036191123553395071 0 -0.00040765636244893572 -0.036382025068427366 0 -0.00016133065284876856 -0.036468931490109609 0 -0.00021705157329798852 -0.036327864283489726 0 -0.00032134082453013046 -0.036202898553965995 0 -0.00021705157329798852 -0.036327864283489726 0 1.0142339272634252e-05 -0.036191123553395071 0 -0.00016133065284876856 -0.036468931490109609 0 -0.00021705157329798852 -0.036327864283489726 0 1.0142339272634252e-05 -0.036191123553395071 0 -0.00031112898721890448 -0.035957350178631678 0 1.0142339272634252e-05 -0.036191123553395071 0 9.7393611830436298e-05 -0.035631907748330957 0 -0.00031112898721890448 -0.035957350178631678 0 -0.00032134082453013046 -0.036202898553965995 0 1.0142339272634252e-05 -0.036191123553395071 0 1.0142339272634252e-05 -0.036191123553395071 0 0.00041366858689837708 -0.03593677321800047 0 9.7393611830436298e-05 -0.035631907748330957 0 0.00041366858689837708 -0.03593677321800047 0 9.7393611830436298e-05 -0.035631907748330957 0 0.00074577069175915894 -0.035474185411558161 0 -0.00047629249256017696 -0.035621834917697215 0 9.7393611830436298e-05 -0.035631907748330957 0 -0.00014558267952835614 -0.035161214869500301 0 -0.00047629249256017696 -0.035621834917697215 0 -0.00031112898721890448 -0.035957350178631678 0 9.7393611830436298e-05 -0.035631907748330957 0 9.7393611830436298e-05 -0.035631907748330957 0 -0.00014558267952835614 -0.035161214869500301 0 0.00030333204099800687 -0.035166937253265793 0 9.7393611830436298e-05 -0.035631907748330957 0 0.00030333204099800687 -0.035166937253265793 0 0.00074577069175915894 -0.035474185411558161 0 0.00068143975553818675 -0.034815858164325642 0 0.001168850793890161 -0.034873223169339586 0 0.00079581305970445506 -0.035486241069732638 0 0.00068143975553818675 -0.034815858164325642 0 0.00030333204099800687 -0.035166937253265793 0 0.00074577069175915894 -0.035474185411558161 0 0.00080483972975374421 -0.035714246342147045 0 0.00081187165415718646 -0.035766176887277637 0 0.001168850793890161 -0.034873223169339586 0 0.0013764143110667139 -0.035285392464530323 0 0.00079581305970445506 -0.035486241069732638 0 0.001168850793890161 -0.034873223169339586 0 0.0015906423389267523 -0.034995861491868521 0 0.0013764143110667139 -0.035285392464530323 0 0.00079581305970445506 -0.035486241069732638 0 0.0014319278265829149 -0.035815988814094132 0 0.00088734456166030234 -0.036149728438982301 0 0.0013764143110667139 -0.035285392464530323 0 0.00079581305970445506 -0.035486241069732638 0 0.0014319278265829149 -0.035815988814094132 0 0.00081187165415718646 -0.035766176887277637 0 0.00082489684821785347 -0.035862188250769346 0 0.0019318804909709789 -0.034917955885260227 0 0.001875848185372691 -0.035379101869238226 0 0.0022753437489091239 -0.035143608001225256 0 0.001875848185372691 -0.035379101869238226 0 0.0023384208333666512 -0.035538429053026073 0 0.0022753437489091239 -0.035143608001225256 0 0.0015906423389267523 -0.034995861491868521 0 0.0019318804909709789 -0.034917955885260227 0 0.001875848185372691 -0.035379101869238226 0 0.0015906423389267523 -0.034995861491868521 0 0.0013764143110667139 -0.035285392464530323 0 0.001875848185372691 -0.035379101869238226 0 0.001875848185372691 -0.035379101869238226 0 0.0014319278265829149 -0.035815988814094132 0 0.0020898636637966934 -0.035932553535606579 0 0.0013764143110667139 -0.035285392464530323 0 0.001875848185372691 -0.035379101869238226 0 0.0014319278265829149 -0.035815988814094132 0 0.001875848185372691 -0.035379101869238226 0 0.0020898636637966934 -0.035932553535606579 0 0.0023384208333666512 -0.035538429053026073 0 0.0020898636637966934 -0.035932553535606579 0 0.0020424391701122061 -0.036315883663006657 0 0.0024566105478245914 -0.036350408785949209 0 0.0020898636637966934 -0.035932553535606579 0 0.0017149561116157808 -0.036220382777716179 0 0.0020424391701122061 -0.036315883663006657 0 0.0014319278265829149 -0.035815988814094132 0 0.0020898636637966934 -0.035932553535606579 0 0.0017149561116157808 -0.036220382777716179 0 0.0014319278265829149 -0.035815988814094132 0 0.0017149561116157808 -0.036220382777716179 0 0.0012882586132317805 -0.036275118670067823 0 0.0017149561116157808 -0.036220382777716179 0 0.0015538114785685112 -0.036516032158255829 0 0.0012882586132317805 -0.036275118670067823 0 0.0015538114785685112 -0.036516032158255829 0 0.0018649027029860852 -0.036542095013370537 0 0.0017437992721106815 -0.036736368796196996 0 0.0017149561116157808 -0.036220382777716179 0 0.0015538114785685112 -0.036516032158255829 0 0.0018649027029860852 -0.036542095013370537 0 0.0017149561116157808 -0.036220382777716179 0 0.0018649027029860852 -0.036542095013370537 0 0.0020424391701122061 -0.036315883663006657 0 0.0018649027029860852 -0.036542095013370537 0 0.0021434263347152754 -0.036602057165027797 0 0.0019973845523026312 -0.036742693499277543 0 0.0018649027029860852 -0.036542095013370537 0 0.0021434263347152754 -0.036602057165027797 0 0.0020424391701122061 -0.036315883663006657 0 0.00041366858689837708 -0.03593677321800047 0 0.00074577069175915894 -0.035474185411558161 0 0.00084233826005732939 -0.036134266476281041 0 0.0014319278265829149 -0.035815988814094132 0 0.00088734456166030234 -0.036149728438982301 0 0.0012882586132317805 -0.036275118670067823 0 0.0012882586132317805 -0.036275118670067823 0 0.00095761491125011917 -0.036824892699842661 0 0.0013089559528585829 -0.036651696377834962 0 0.00088734456166030234 -0.036149728438982301 0 0.0012882586132317805 -0.036275118670067823 0 0.00095761491125011917 -0.036824892699842661 0 0.0015538114785685112 -0.036516032158255829 0 0.0012882586132317805 -0.036275118670067823 0 0.0013089559528585829 -0.036651696377834962 0 0.00032500424461895058 -0.036626073710896351 0 0.00084233826005732939 -0.036134266476281041 0 0.00095761491125011917 -0.036824892699842661 0 0.00082489684821785347 -0.035862188250769346 0 0.00083194450546570395 -0.035914195642481772 0 0.00032500424461895058 -0.036626073710896351 0 0.00095761491125011917 -0.036824892699842661 0 0.00064283703855965791 -0.037068384908345201 0 0.00095761491125011917 -0.036824892699842661 0 0.0013642644266994987 -0.037037950390396056 0 0.00064283703855965791 -0.037068384908345201 0 -0.0019937883720255781 -0.028463186402970884 0 -0.0026453969896389424 -0.028025040586318949 0 0.0013089559528585829 -0.036651696377834962 0 0.0012849934336643183 -0.03683252721938883 0 0.0015065328499597626 -0.03681605504967974 0 0.00095761491125011917 -0.036824892699842661 0 0.0013089559528585829 -0.036651696377834962 0 0.0012849934336643183 -0.03683252721938883 0 0.0012849934336643183 -0.03683252721938883 0 0.0013642644266994987 -0.037037950390396056 0 0.0015065328499597626 -0.03681605504967974 0 0.00095761491125011917 -0.036824892699842661 0 0.0012849934336643183 -0.03683252721938883 0 0.0013642644266994987 -0.037037950390396056 0 -0.00017361355048425034 -0.028548431193583346 0 0.00061040111710331879 -0.02936602670938036 0 -0.0012542755539721665 -0.02973008110097617 0 0.0010476234683723764 -0.036929284117102952 0 0.001067748836770858 -0.037053379600895671 0 3.5955495917718089e-05 -0.037060679701990118 0 -0.00017361355048425034 -0.028548431193583346 0 -0.002047513995256104 -0.028611257762368173 0 -0.0012542755539721665 -0.02973008110097617 0 -8.6292209139128019e-06 -0.02838004109346192 0 -0.0023096090611275902 -0.027800193021746283 0 0.0010476234683723764 -0.036929284117102952 0 -4.9943924308516627e-05 -0.036937533585905527 0 3.5955495917718089e-05 -0.037060679701990118 0 -0.014103959038830303 -0.0066837748077858807 0 -0.013696549888006166 -0.0060796569664183803 0 -0.012915348348499167 -0.0071905244316593543 0 -0.0023096090611275902 -0.027800193021746283 0 -0.0015790266590393431 -0.026426904290175787 0 -0.013879534740389478 -0.0058805276195530885 0 -0.013727569807462394 -0.006096125524130796 0 -0.014755889381690293 -0.0061194196663794361 0 -0.0026453969896389424 -0.028025040586318949 0 -0.0023096090611275902 -0.027800193021746283 0 0.0010476234683723764 -0.036929284117102952 0 0.0020588813783062355 -0.03699575238767492 0 0.0020233197351668267 -0.037102536216659279 0 0.0020588813783062355 -0.03699575238767492 0 0.0020233197351668267 -0.037102536216659279 0 0.00227602087929869 -0.036961241436934418 0 0.0020588813783062355 -0.03699575238767492 0 0.0021768551309733538 -0.036818779163204945 0 0.0019973845523026312 -0.036742693499277543 0 0.0020588813783062355 -0.03699575238767492 0 0.0021768551309733538 -0.036818779163204945 0 0.00227602087929869 -0.036961241436934418 0 0.0021434263347152754 -0.036602057165027797 0 0.0021768551309733538 -0.036818779163204945 0 0.0019973845523026312 -0.036742693499277543 0 0.0020588813783062355 -0.03699575238767492 0 0.0019973845523026312 -0.036742693499277543 0 0.0017437992721106815 -0.036736368796196996 0 0.0018649027029860852 -0.036542095013370537 0 0.0019973845523026312 -0.036742693499277543 0 0.0017437992721106815 -0.036736368796196996 0 0.0020588813783062355 -0.03699575238767492 0 0.0017437992721106815 -0.036736368796196996 0 0.0015065328499597626 -0.03681605504967974 0 0.0013642644266994987 -0.037037950390396056 0 0.0020588813783062355 -0.03699575238767492 0 0.0015065328499597626 -0.03681605504967974 0 -0.0019937883720255781 -0.028463186402970884 0 -0.0017614933875956314 -0.028607134968695762 0 0.0015538114785685112 -0.036516032158255829 0 0.0017437992721106815 -0.036736368796196996 0 0.0015065328499597626 -0.03681605504967974 0 0.0015538114785685112 -0.036516032158255829 0 0.0013089559528585829 -0.036651696377834962 0 0.0015065328499597626 -0.03681605504967974 0 -8.6292209139128019e-06 -0.02838004109346192 0 0.0022414465981827471 -0.028820642915839891 0 -0.00017361355048425034 -0.028548431193583346 0 0.00061040111710331879 -0.02936602670938036 0 0.0017060882578220286 -0.028485156547082967 0 0.0010476234683723764 -0.036929284117102952 0 0.001067748836770858 -0.037053379600895671 0 0.0020233197351668267 -0.037102536216659279 0 0.00061040111710331879 -0.02936602670938036 0 0.0017060882578220286 -0.028485156547082967 0 0.0024823046321504364 -0.02900182454516886 0 0.00043953252536885548 -0.026818256855844647 0 0.0028307913022192948 -0.027490181376950949 0 -0.0080207754098981527 -0.0073110568955105709 0 -0.0047123795252771161 -0.0087790672745128584 0 -0.0051540374923860601 -0.0030582857185304188 0 -0.0092963671728864446 -0.0044634020463065393 0 -0.0080207754098981527 -0.0073110568955105709 0 -0.0051540374923860601 -0.0030582857185304188 0 -0.0092963671728864446 -0.0044634020463065393 0 -0.0080207754098981527 -0.0073110568955105709 0 -0.011794444316113824 -0.0078071867442555416 0 -0.0080207754098981527 -0.0073110568955105709 0 -0.0099705150118156415 -0.0098053855169182545 0 -0.0078294788022579866 -0.010187470062807694 0 -0.0080207754098981527 -0.0073110568955105709 0 -0.0099705150118156415 -0.0098053855169182545 0 -0.011794444316113824 -0.0078071867442555416 0 -0.0080207754098981527 -0.0073110568955105709 0 -0.0047123795252771161 -0.0087790672745128584 0 -0.0078294788022579866 -0.010187470062807694 0 -0.012915348348499167 -0.0071905244316593543 0 -0.014520578776655179 -0.0074862942318999256 0 -0.014167482524628487 -0.0070593754793187111 0 -0.0015790266590393431 -0.026426904290175787 0 -0.002026233050559515 -0.02624722139877381 0 -0.013288218982574349 -0.0081515577524646742 0 -0.012565370366431041 -0.0070092511154150683 0 -0.014520578776655179 -0.0074862942318999256 0 -0.014103959038830303 -0.0066837748077858807 0 -0.012915348348499167 -0.0071905244316593543 0 -0.014167482524628487 -0.0070593754793187111 0 -0.013288218982574349 -0.0081515577524646742 0 -0.012565370366431041 -0.0070092511154150683 0 -0.011794444316113824 -0.0078071867442555416 0 -0.0092963671728864446 -0.0044634020463065393 0 -0.013404124872375314 -0.0055506524324557523 0 -0.011794444316113824 -0.0078071867442555416 0 0.00043953252536885548 -0.026818256855844647 0 -0.0015790266590393431 -0.026426904290175787 0 -0.0015790266590393431 -0.026426904290175787 0 -0.0018669835146253525 -0.025994692771017694 0 -0.0099705150118156415 -0.0098053855169182545 0 -0.012752891888771866 -0.0089747138369122691 0 -0.013190569578369518 -0.010143099511553297 0 -0.0099705150118156415 -0.0098053855169182545 0 -0.011794444316113824 -0.0078071867442555416 0 -0.012752891888771866 -0.0089747138369122691 0 -0.013288218982574349 -0.0081515577524646742 0 -0.011794444316113824 -0.0078071867442555416 0 -0.012752891888771866 -0.0089747138369122691 0 -0.012752891888771866 -0.0089747138369122691 0 -0.013739775326261788 -0.0096158694073137548 0 -0.013190569578369518 -0.010143099511553297 0 -0.013288218982574349 -0.0081515577524646742 0 -0.013739775326261788 -0.0096158694073137548 0 -0.014520578776655179 -0.0074862942318999256 0 -0.013288218982574349 -0.0081515577524646742 0 -0.012752891888771866 -0.0089747138369122691 0 -0.013739775326261788 -0.0096158694073137548 0 -0.013739775326261788 -0.0096158694073137548 0 -0.013464986758599945 -0.0098855749970378024 0 -0.013569715395054187 -0.0097519343091234875 0 -0.013739775326261788 -0.0096158694073137548 0 -0.013356388527963461 -0.010401765105116093 0 -0.013517516917973441 -0.011317395019384176 0 -0.013739775326261788 -0.0096158694073137548 0 -0.013464986758599945 -0.0098855749970378024 0 -0.013356388527963461 -0.010401765105116093 0 -0.0075408010208544325 -0.024478722800903942 0 -0.0070391735868818384 -0.025347118570487964 0 -0.013464986758599945 -0.0098855749970378024 0 -0.013356388527963461 -0.010401765105116093 0 -0.0131330260746539 -0.010074209544095382 0 -0.013356388527963461 -0.010401765105116093 0 -0.01306911096303952 -0.010520906916769188 0 -0.0131330260746539 -0.010074209544095382 0 -0.013356388527963461 -0.010401765105116093 0 -0.013100337604135155 -0.010854754654142131 0 -0.01306911096303952 -0.010520906916769188 0 -0.013739775326261788 -0.0096158694073137548 0 -0.015039619267834498 -0.007503194357814609 0 -0.014520578776655179 -0.0074862942318999256 0 -0.013356388527963461 -0.010401765105116093 0 -0.013517516917973441 -0.011317395019384176 0 -0.013100337604135155 -0.010854754654142131 0 -0.015039619267834498 -0.007503194357814609 0 -0.014520578776655179 -0.0074862942318999256 0 -0.01480842491611184 -0.0068005253713094346 0 -0.014520578776655179 -0.0074862942318999256 0 -0.014167482524628487 -0.0070593754793187111 0 -0.01480842491611184 -0.0068005253713094346 0 -0.012478366650077701 -0.011988032520946202 0 -0.012237065398548023 -0.011363610653719177 0 -0.012811145122661011 -0.011249580774147601 0 -0.012478366650077701 -0.011988032520946202 0 -0.012237065398548023 -0.011363610653719177 0 -0.01159280112817688 -0.01217125068031687 0 -0.013517516917973441 -0.011317395019384176 0 -0.012478366650077701 -0.011988032520946202 0 -0.012811145122661011 -0.011249580774147601 0 -0.013517516917973441 -0.011317395019384176 0 -0.012811145122661011 -0.011249580774147601 0 -0.013100337604135155 -0.010854754654142131 0 -0.012237065398548023 -0.011363610653719177 0 -0.012811145122661011 -0.011249580774147601 0 -0.012667979178945528 -0.010802605956063449 0 -0.012811145122661011 -0.011249580774147601 0 -0.013100337604135155 -0.010854754654142131 0 -0.012667979178945528 -0.010802605956063449 0 -0.012237065398548023 -0.011363610653719177 0 -0.012667979178945528 -0.010802605956063449 0 -0.01160751214630034 -0.010907941016743456 0 -0.0131330260746539 -0.010074209544095382 0 -0.011957678773838716 -0.010394754695172096 0 -0.011964587153634697 -0.011266307254470977 0 -0.0131330260746539 -0.010074209544095382 0 -0.011957678773838716 -0.010394754695172096 0 -0.013406906342416019 -0.0096939093582056723 0 -0.013569124895590288 -0.03053173616933326 0 -0.013944190786964746 -0.029954730836438161 0 -0.012667979178945528 -0.010802605956063449 0 -0.0131330260746539 -0.010074209544095382 0 -0.01160751214630034 -0.010907941016743456 0 -0.012626983752298397 -0.03079556751044259 0 -0.012253556056084865 -0.031373079780547958 0 -0.012667979178945528 -0.010802605956063449 0 -0.01306911096303952 -0.010520906916769188 0 -0.0131330260746539 -0.010074209544095382 0 -0.013100337604135155 -0.010854754654142131 0 -0.012667979178945528 -0.010802605956063449 0 -0.01306911096303952 -0.010520906916769188 0 -0.013250699228427757 -0.0098452542156184583 0 -0.013282880863375505 -0.0099383260909700847 0 -0.013323588560337241 -0.0097767614145604902 0 -0.013569124895590288 -0.03053173616933326 0 -0.0124342393438926 -0.032280237391443568 0 -0.013282880863375505 -0.0099383260909700847 0 -0.013134796917356074 -0.0099559950349607101 0 -0.013082455991234049 -0.010119600929052189 0 -0.013250699228427757 -0.0098452542156184583 0 -0.013200946883299378 -0.0098779937549147469 0 -0.013282880863375505 -0.0099383260909700847 0 -0.013200946883299378 -0.0098779937549147469 0 -0.013282880863375505 -0.0099383260909700847 0 -0.013134796917356074 -0.0099559950349607101 0 -0.013060770838753172 -0.0099311155853310691 0 -0.013122543007816873 -0.0098620333526666226 0 -0.013025365817656287 -0.0098507555755799822 0 -0.012966410051617399 -0.0099693254291265722 0 -0.013060770838753172 -0.0099311155853310691 0 -0.013025365817656287 -0.0098507555755799822 0 -0.013060770838753172 -0.0099311155853310691 0 -0.013122543007816873 -0.0098620333526666226 0 -0.013134796917356074 -0.0099559950349607101 0 -0.013200946883299378 -0.0098779937549147469 0 -0.013122543007816873 -0.0098620333526666226 0 -0.013134796917356074 -0.0099559950349607101 0 -0.013134796917356074 -0.0099559950349607101 0 -0.013040202264963247 -0.010011727567827037 0 -0.013082455991234049 -0.010119600929052189 0 -0.013060770838753172 -0.0099311155853310691 0 -0.013134796917356074 -0.0099559950349607101 0 -0.013040202264963247 -0.010011727567827037 0 -0.012966410051617399 -0.0099693254291265722 0 -0.013060770838753172 -0.0099311155853310691 0 -0.013040202264963247 -0.010011727567827037 0 -0.010101922480573615 -0.011696479245941947 0 -0.011964587153634697 -0.011266307254470977 0 -0.010341698886563626 -0.012764986743441373 0 -0.012957632359033317 -0.010085760439308157 0 -0.013040202264963247 -0.010011727567827037 0 -0.013082455991234049 -0.010119600929052189 0 -0.0091048344269277839 -0.013169845861190082 0 -0.010101922480573615 -0.011696479245941947 0 -0.010341698886563626 -0.012764986743441373 0 -0.012253556056084865 -0.031373079780547958 0 -0.011166145699086666 -0.033086038186155568 0 -0.011957678773838716 -0.010394754695172096 0 -0.010101922480573615 -0.011696479245941947 0 -0.011964587153634697 -0.011266307254470977 0 -0.01160751214630034 -0.010907941016743456 0 -0.01159280112817688 -0.01217125068031687 0 -0.0099023944810445047 -0.012252492921663024 0 -0.012237065398548023 -0.011363610653719177 0 -0.01160751214630034 -0.010907941016743456 0 -0.01159280112817688 -0.01217125068031687 0 -0.01077965634617151 -0.013350195658978417 0 -0.01159280112817688 -0.01217125068031687 0 -0.0124551552887254 -0.013329428768510379 0 -0.01077965634617151 -0.013350195658978417 0 -0.01159280112817688 -0.01217125068031687 0 -0.0099023944810445047 -0.012252492921663024 0 -0.0058246794642767908 -0.02776552033786547 0 -0.0054284134483079107 -0.028110496361954847 0 -0.0081122934262749472 -0.01379522485274565 0 -0.0099023944810445047 -0.012252492921663024 0 -0.0089505520710048275 -0.013385212494780578 0 -0.0085551161246048141 -0.014335695684657033 0 -0.0091048344269277839 -0.013169845861190082 0 -0.010341698886563626 -0.012764986743441373 0 -0.01077965634617151 -0.013350195658978417 0 -0.0099023944810445047 -0.012252492921663024 0 -0.0089505520710048275 -0.013385212494780578 0 -0.0093694211781870408 -0.035950967686026881 0 -0.011166145699086666 -0.033086038186155568 0 -0.0058246794642767908 -0.02776552033786547 0 -0.0059268395277030789 -0.027650203894251362 0 -0.0082332090762984103 -0.014809953117067419 0 -0.010827006333632842 -0.013478999712556283 0 -0.0089505520710048275 -0.013385212494780578 0 -0.0082332090762984103 -0.014809953117067419 0 -0.011105184621959367 -0.016072141067672102 0 -0.010827006333632842 -0.013478999712556283 0 -0.011105184621959367 -0.016072141067672102 0 -0.010827006333632842 -0.013478999712556283 0 -0.012696970616983522 -0.013557120078869091 0 -0.0059784003663750623 -0.033434466354121818 0 -0.0054284134483079107 -0.028110496361954847 0 -0.00047373992349196615 -0.036410627564542546 0 -0.00016133065284876856 -0.036468931490109609 0 -0.00013000101209465723 -0.036909293977279142 0 0.00022972986051921735 -0.03654057193121038 0 -0.00016133065284876856 -0.036468931490109609 0 -0.00013000101209465723 -0.036909293977279142 0 -0.0021679110073732897 -0.028831414101242361 0 -0.0026453969896389424 -0.028025040586318949 0 0.00022972986051921735 -0.03654057193121038 0 0.00046747677530277498 -0.036874998522144715 0 -0.00013000101209465723 -0.036909293977279142 0 -0.013879534740389478 -0.0058805276195530885 0 -0.014755889381690293 -0.0061194196663794361 0 -0.015954679261407343 -0.0059526146079936825 0 -0.015039619267834498 -0.007503194357814609 0 -0.01480842491611184 -0.0068005253713094346 0 -0.015954679261407343 -0.0059526146079936825 0 -0.014755889381690293 -0.0061194196663794361 0 -0.01480842491611184 -0.0068005253713094346 0 -0.015954679261407343 -0.0059526146079936825 0 -0.0026453969896389424 -0.028025040586318949 0 -0.0054284134483079107 -0.028110496361954847 0 -0.0023096090611275902 -0.027800193021746283 0 -0.0025396690948969974 -0.027696449378267887 0 -0.014103959038830303 -0.0066837748077858807 0 -0.013696549888006166 -0.0060796569664183803 0 -0.014755889381690293 -0.0061194196663794361 0 -0.014103959038830303 -0.0066837748077858807 0 -0.014755889381690293 -0.0061194196663794361 0 -0.01480842491611184 -0.0068005253713094346 0 -0.014103959038830303 -0.0066837748077858807 0 -0.014167482524628487 -0.0070593754793187111 0 -0.01480842491611184 -0.0068005253713094346 0 -0.0070391735868818384 -0.025347118570487964 0 -0.0054284134483079107 -0.028110496361954847 0 -0.013517516917973441 -0.011317395019384176 0 -0.012478366650077701 -0.011988032520946202 0 -0.0124551552887254 -0.013329428768510379 0 -0.012478366650077701 -0.011988032520946202 0 -0.01159280112817688 -0.01217125068031687 0 -0.0124551552887254 -0.013329428768510379 0 0.0146598787370943 -0.031896942109753815 0 0.014133822501970983 -0.03052309051455715 0 0.015891681217860981 0.0045322667026477734 0 0.024034277539723297 -0.0038744516397040503 0 0.015173127531666289 -0.0060543476324239143 0 0.0098921850264480395 -0.0024862844619454542 0 0.015891681217860981 0.0045322667026477734 0 0.0057092461628896465 0.0015365098903603663 0 0.0098921850264480395 -0.0024862844619454542 0 0.015891681217860981 0.0045322667026477734 0 0.015173127531666289 -0.0060543476324239143 0 0.0043111428531879339 -0.036880840028771469 0 0.0036406428105528548 -0.03701515146805804 0 0.0038040171824574938 -0.036294417052243053 0 0.0146598787370943 -0.031896942109753815 0 0.0091938590516682777 -0.029990340041714553 0 0.015033322366499463 0.0069332910544041585 0 0.02605532885141559 0.0091189798379008643 0 0.024034277539723297 -0.0038744516397040503 0 0.0146598787370943 -0.031896942109753815 0 0.019971255055466458 -0.032415993185500501 0 0.017712969231885135 -0.060873770810866416 0 0.018403066820300552 -0.060761214043563043 0 0.017948260546960783 -0.060310201863473759 0 0.036907662639119779 0.011216952016274807 0 0.03315782281309889 0.0017508191400310816 0 0.040914678356798358 0.0042100080435799178 0 0.02605532885141559 0.0091189798379008643 0 0.036907662639119779 0.011216952016274807 0 0.03315782281309889 0.0017508191400310816 0 0.019971255055466458 -0.032415993185500501 0 0.024970370050120386 -0.033147223021566474 0 0.03315782281309889 0.0017508191400310816 0 0.034600491579630466 -0.0073539113632036463 0 0.040996903665530889 -0.0041033664856607492 0 0.03315782281309889 0.0017508191400310816 0 0.024034277539723297 -0.0038744516397040503 0 0.034600491579630466 -0.0073539113632036463 0 0.02605532885141559 0.0091189798379008643 0 0.03315782281309889 0.0017508191400310816 0 0.024034277539723297 -0.0038744516397040503 0 0.024034277539723297 -0.0038744516397040503 0 0.028592521975069438 -0.010960190226429163 0 0.034600491579630466 -0.0073539113632036463 0 0.024034277539723297 -0.0038744516397040503 0 0.028592521975069438 -0.010960190226429163 0 0.020891857874181342 -0.012398091375754174 0 0.028592521975069438 -0.010960190226429163 0 0.034600491579630466 -0.0073539113632036463 0 0.034384960605763841 -0.013756465726004263 0 0.034600491579630466 -0.0073539113632036463 0 0.034384960605763841 -0.013756465726004263 0 0.040750742536883114 -0.011390261409300877 0 0.034384960605763841 -0.013756465726004263 0 0.040750742536883114 -0.011390261409300877 0 0.039622810268614209 -0.016079806999621332 0 0.034384960605763841 -0.013756465726004263 0 0.027961571852264382 -0.017853941163982732 0 0.035156728962688927 -0.018709909662192197 0 0.039622810268614209 -0.016079806999621332 0 0.039208762265994956 -0.02060822065125522 0 0.035156728962688927 -0.018709909662192197 0 0.034384960605763841 -0.013756465726004263 0 0.039622810268614209 -0.016079806999621332 0 0.035156728962688927 -0.018709909662192197 0 0.028592521975069438 -0.010960190226429163 0 0.027961571852264382 -0.017853941163982732 0 0.020891857874181342 -0.012398091375754174 0 0.028592521975069438 -0.010960190226429163 0 0.034384960605763841 -0.013756465726004263 0 0.027961571852264382 -0.017853941163982732 0 0.027961571852264382 -0.017853941163982732 0 0.020891857874181342 -0.012398091375754174 0 0.016730579551784478 -0.021319325621732162 0 0.020891857874181342 -0.012398091375754174 0 0.0134960728913579 -0.014077687979242574 0 0.016730579551784478 -0.021319325621732162 0 0.020891857874181342 -0.012398091375754174 0 0.015173127531666289 -0.0060543476324239143 0 0.0134960728913579 -0.014077687979242574 0 0.024034277539723297 -0.0038744516397040503 0 0.020891857874181342 -0.012398091375754174 0 0.015173127531666289 -0.0060543476324239143 0 0.015173127531666289 -0.0060543476324239143 0 0.0134960728913579 -0.014077687979242574 0 0.0082001499719638465 -0.0097418523501139834 0 0.0098921850264480395 -0.0024862844619454542 0 0.015173127531666289 -0.0060543476324239143 0 0.0082001499719638465 -0.0097418523501139834 0 0.0134960728913579 -0.014077687979242574 0 0.0082001499719638465 -0.0097418523501139834 0 0.0063267658774142765 -0.021039938363028313 0 -0.00057965962277630487 -0.013468205556394023 0 0.0082001499719638465 -0.0097418523501139834 0 0.0063267658774142765 -0.021039938363028313 0 -0.0016170892633568701 -0.021922673154609794 0 -0.0011850164040155594 -0.020952905759843685 0 0.0020384793169652871 -0.0081773759748015474 0 0.0011538393815487915 -0.0047230136845144433 0 0.0048734789529210456 -0.003310899148957326 0 0.0020384793169652871 -0.0081773759748015474 0 0.0011538393815487915 -0.0047230136845144433 0 -0.0016760410873396562 -0.0058932349272789106 0 -0.00057965962277630487 -0.013468205556394023 0 0.0082001499719638465 -0.0097418523501139834 0 0.0048734789529210456 -0.003310899148957326 0 0.0098921850264480395 -0.0024862844619454542 0 0.0082001499719638465 -0.0097418523501139834 0 0.0048734789529210456 -0.003310899148957326 0 0.0020384793169652871 -0.0081773759748015474 0 -0.0014323359814032504 -0.0093150095261990869 0 -0.0016760410873396562 -0.0058932349272789106 0 0.0020384793169652871 -0.0081773759748015474 0 -0.0014323359814032504 -0.0093150095261990869 0 -0.00034035937092745687 -0.012364094466055152 0 -0.0047123795252771161 -0.0087790672745128584 0 -0.0014323359814032504 -0.0093150095261990869 0 -0.0016760410873396562 -0.0058932349272789106 0 0.0011538393815487915 -0.0047230136845144433 0 -0.0016760410873396562 -0.0058932349272789106 0 -0.00055408962364671523 -0.0013116596219858389 0 -0.0047123795252771161 -0.0087790672745128584 0 -0.0016760410873396562 -0.0058932349272789106 0 -0.0051540374923860601 -0.0030582857185304188 0 0.0022414465981827471 -0.028820642915839891 0 0.0045509025213952429 -0.029133824678749434 0 0.0017060882578220286 -0.028485156547082967 0 0.0024823046321504364 -0.02900182454516886 0 0.0035926249675498523 -0.02842350702068375 0 0.0035926249675498523 -0.02842350702068375 0 0.0043595222736423651 -0.028636797463430883 0 0.0054921111017767433 -0.028416679819307115 0 0.0024823046321504364 -0.02900182454516886 0 0.0035926249675498523 -0.02842350702068375 0 0.0043595222736423651 -0.028636797463430883 0 0.0028307913022192948 -0.027490181376950949 0 0.0054463481427097764 -0.028518316468282623 0 -0.0016760410873396562 -0.0058932349272789106 0 -0.0051540374923860601 -0.0030582857185304188 0 -0.00055408962364671523 -0.0013116596219858389 0 0.0045509025213952429 -0.029133824678749434 0 0.007067291406025758 -0.029348983023624355 0 0.0027076337292195143 -0.037071197882862651 0 0.0024142976949361626 -0.036759261310356263 0 0.0027580860298198322 -0.036617881816857038 0 0.0027076337292195143 -0.037071197882862651 0 0.0030514238360137692 -0.036811470066616211 0 0.0027580860298198322 -0.036617881816857038 0 0.0030514238360137692 -0.036811470066616211 0 0.0030732610928075697 -0.036531066703189279 0 0.0027580860298198322 -0.036617881816857038 0 0.0020233197351668267 -0.037102536216659279 0 0.0027076337292195143 -0.037071197882862651 0 0.00227602087929869 -0.036961241436934418 0 0.0027076337292195143 -0.037071197882862651 0 0.0024142976949361626 -0.036759261310356263 0 0.00227602087929869 -0.036961241436934418 0 0.0021434263347152754 -0.036602057165027797 0 0.0021768551309733538 -0.036818779163204945 0 0.0024142976949361626 -0.036759261310356263 0 0.0021768551309733538 -0.036818779163204945 0 0.0024142976949361626 -0.036759261310356263 0 0.00227602087929869 -0.036961241436934418 0 0.0048734789529210456 -0.003310899148957326 0 0.0028859023021829957 4.9311421553201047e-05 0 0.0057092461628896465 0.0015365098903603663 0 0.0098921850264480395 -0.0024862844619454542 0 0.0048734789529210456 -0.003310899148957326 0 0.0057092461628896465 0.0015365098903603663 0 0.0011538393815487915 -0.0047230136845144433 0 -0.00055408962364671523 -0.0013116596219858389 0 0.0048734789529210456 -0.003310899148957326 0 -0.00055408962364671523 -0.0013116596219858389 0 0.0048734789529210456 -0.003310899148957326 0 0.0028859023021829957 4.9311421553201047e-05 0 0.0054463481427097764 -0.028518316468282623 0 0.007067291406025758 -0.029348983023624355 0 0.003375786890418547 -0.037067117593722838 0 0.0030514238360137692 -0.036811470066616211 0 0.0033698589456946084 -0.036665053114412122 0 0.0027076337292195143 -0.037071197882862651 0 0.003375786890418547 -0.037067117593722838 0 0.0030514238360137692 -0.036811470066616211 0 0.0030514238360137692 -0.036811470066616211 0 0.0033698589456946084 -0.036665053114412122 0 0.0030732610928075697 -0.036531066703189279 0 0.0033698589456946084 -0.036665053114412122 0 0.0036406428105528548 -0.03701515146805804 0 0.0038040171824574938 -0.036294417052243053 0 0.003375786890418547 -0.037067117593722838 0 0.0033698589456946084 -0.036665053114412122 0 0.0036406428105528548 -0.03701515146805804 0 0.007067291406025758 -0.029348983023624355 0 0.0091938590516682777 -0.029990340041714553 0 0.0033698589456946084 -0.036665053114412122 0 0.0038040171824574938 -0.036294417052243053 0 0.0032838853834111031 -0.036251531184021399 0 0.0033698589456946084 -0.036665053114412122 0 0.0032838853834111031 -0.036251531184021399 0 0.0030732610928075697 -0.036531066703189279 0 0.0032838853834111031 -0.036251531184021399 0 0.0030732610928075697 -0.036531066703189279 0 0.0028674969846549489 -0.036195249991939425 0 0.0032838853834111031 -0.036251531184021399 0 0.0028674969846549489 -0.036195249991939425 0 0.0032990570475709934 -0.035719293424429761 0 0.0038040171824574938 -0.036294417052243053 0 0.0032838853834111031 -0.036251531184021399 0 0.0032990570475709934 -0.035719293424429761 0 0.014102953439959782 -0.037344722240964356 0 0.013180153106102592 -0.041689361206432948 0 0.017143860859496676 -0.060168311416337009 0 0.016620435316971934 -0.059498132076539069 0 0.017499210717819191 -0.059581460745699866 0 0.0024142976949361626 -0.036759261310356263 0 0.0024566105478245914 -0.036350408785949209 0 0.0027580860298198322 -0.036617881816857038 0 0.0021434263347152754 -0.036602057165027797 0 0.0020424391701122061 -0.036315883663006657 0 0.0024566105478245914 -0.036350408785949209 0 0.0021434263347152754 -0.036602057165027797 0 0.0024142976949361626 -0.036759261310356263 0 0.0024566105478245914 -0.036350408785949209 0 0.0024566105478245914 -0.036350408785949209 0 0.0027580860298198322 -0.036617881816857038 0 0.0028674969846549489 -0.036195249991939425 0 0.0030732610928075697 -0.036531066703189279 0 0.0027580860298198322 -0.036617881816857038 0 0.0028674969846549489 -0.036195249991939425 0 0.0024566105478245914 -0.036350408785949209 0 0.0028674969846549489 -0.036195249991939425 0 0.0026981425326069249 -0.035807420254337731 0 0.0028674969846549489 -0.036195249991939425 0 0.0026981425326069249 -0.035807420254337731 0 0.0032990570475709934 -0.035719293424429761 0 0.0020898636637966934 -0.035932553535606579 0 0.0024566105478245914 -0.036350408785949209 0 0.0026981425326069249 -0.035807420254337731 0 0.0020898636637966934 -0.035932553535606579 0 0.0023384208333666512 -0.035538429053026073 0 0.0026981425326069249 -0.035807420254337731 0 0.0023384208333666512 -0.035538429053026073 0 0.0026981425326069249 -0.035807420254337731 0 0.0028022525418091768 -0.03514945981834338 0 0.0026981425326069249 -0.035807420254337731 0 0.0028022525418091768 -0.03514945981834338 0 0.0032990570475709934 -0.035719293424429761 0 0.0023384208333666512 -0.035538429053026073 0 0.0028022525418091768 -0.03514945981834338 0 0.0022753437489091239 -0.035143608001225256 0 0.016620435316971934 -0.059498132076539069 0 0.017020146501240764 -0.058945259103844676 0 0.017499210717819191 -0.059581460745699866 0 0.016620435316971934 -0.059498132076539069 0 0.016548470326836543 -0.058860376178099062 0 0.017020146501240764 -0.058945259103844676 0 0.016089326648529065 -0.058860889154342462 0 0.016620435316971934 -0.059498132076539069 0 0.016548470326836543 -0.058860376178099062 0 0.012180028187493874 -0.04551517574639196 0 0.013180153106102592 -0.041689361206432948 0 0.016548470326836543 -0.058860376178099062 0 0.017020146501240764 -0.058945259103844676 0 0.016704709114191807 -0.058440781566348958 0 0.017020146501240764 -0.058945259103844676 0 0.017572131980101054 -0.058901389426820605 0 0.017499210717819191 -0.059581460745699866 0 0.017020146501240764 -0.058945259103844676 0 0.017572131980101054 -0.058901389426820605 0 0.01727013890135044 -0.05846208252496999 0 0.017572131980101054 -0.058901389426820605 0 0.018091763758274291 -0.059173076388184247 0 0.017966386989145076 -0.058688379460793604 0 0.018091763758274291 -0.059173076388184247 0 0.017499210717819191 -0.059581460745699866 0 0.018162084574491838 -0.059788157811001261 0 0.017572131980101054 -0.058901389426820605 0 0.018091763758274291 -0.059173076388184247 0 0.017499210717819191 -0.059581460745699866 0 0.017143860859496676 -0.060168311416337009 0 0.017499210717819191 -0.059581460745699866 0 0.017948260546960783 -0.060310201863473759 0 0.017499210717819191 -0.059581460745699866 0 0.018162084574491838 -0.059788157811001261 0 0.017948260546960783 -0.060310201863473759 0 0.017712969231885135 -0.060873770810866416 0 0.017143860859496676 -0.060168311416337009 0 0.017948260546960783 -0.060310201863473759 0 0.0146598787370943 -0.031896942109753815 0 0.014102953439959782 -0.037344722240964356 0 0.019109519611872634 -0.060639895660791032 0 0.018686527549159136 -0.060120955189544932 0 0.019313408533108086 -0.060099133493757659 0 0.018403066820300552 -0.060761214043563043 0 0.019109519611872634 -0.060639895660791032 0 0.018686527549159136 -0.060120955189544932 0 0.018403066820300552 -0.060761214043563043 0 0.017948260546960783 -0.060310201863473759 0 0.018686527549159136 -0.060120955189544932 0 0.018162084574491838 -0.059788157811001261 0 0.018686527549159136 -0.060120955189544932 0 0.018563115890955193 -0.059545015964514787 0 0.018162084574491838 -0.059788157811001261 0 0.017948260546960783 -0.060310201863473759 0 0.018686527549159136 -0.060120955189544932 0 0.018686527549159136 -0.060120955189544932 0 0.019184132023637598 -0.059638307124310903 0 0.019313408533108086 -0.060099133493757659 0 0.018686527549159136 -0.060120955189544932 0 0.019184132023637598 -0.059638307124310903 0 0.018563115890955193 -0.059545015964514787 0 0.019184132023637598 -0.059638307124310903 0 0.018611925909627951 -0.05897226738117798 0 0.019863496075248805 -0.058629907045301799 0 0.019184132023637598 -0.059638307124310903 0 0.018563115890955193 -0.059545015964514787 0 0.018611925909627951 -0.05897226738117798 0 0.018091763758274291 -0.059173076388184247 0 0.018162084574491838 -0.059788157811001261 0 0.018563115890955193 -0.059545015964514787 0 0.018091763758274291 -0.059173076388184247 0 0.018563115890955193 -0.059545015964514787 0 0.018611925909627951 -0.05897226738117798 0 0.018091763758274291 -0.059173076388184247 0 0.018327313909216349 -0.058794376288327184 0 0.018611925909627951 -0.05897226738117798 0 0.018091763758274291 -0.059173076388184247 0 0.018327313909216349 -0.058794376288327184 0 0.017966386989145076 -0.058688379460793604 0 0.018327313909216349 -0.058794376288327184 0 0.018611925909627951 -0.05897226738117798 0 0.018606887002701956 -0.058664852825007108 0 0.018611925909627951 -0.05897226738117798 0 0.019000649119890137 -0.058872570564216624 0 0.019294626665945423 -0.059092050581981331 0 0.031483538658051181 -0.045914568719531278 0 0.032164537590793907 -0.045743631098229563 0 0.018611925909627951 -0.05897226738117798 0 0.019000649119890137 -0.058872570564216624 0 0.018606887002701956 -0.058664852825007108 0 0.018606887002701956 -0.058664852825007108 0 0.0186472413975028 -0.058239111482419767 0 0.019226258990454263 -0.058427200284602313 0 0.0186472413975028 -0.058239111482419767 0 0.019226258990454263 -0.058427200284602313 0 0.019028318137052819 -0.057933710362684125 0 0.0186472413975028 -0.058239111482419767 0 0.018529617967594281 -0.057867239583775425 0 0.019028318137052819 -0.057933710362684125 0 0.018239768670016403 -0.058115212437606957 0 0.018055662843034018 -0.057831233260382219 0 0.018529617967594281 -0.057867239583775425 0 0.0186472413975028 -0.058239111482419767 0 0.018239768670016403 -0.058115212437606957 0 0.018529617967594281 -0.057867239583775425 0 0.0186472413975028 -0.058239111482419767 0 0.018239768670016403 -0.058115212437606957 0 0.018282493308595663 -0.058464524365281108 0 0.018239768670016403 -0.058115212437606957 0 0.018282493308595663 -0.058464524365281108 0 0.017917575483269131 -0.05826735861017792 0 0.018606887002701956 -0.058664852825007108 0 0.0186472413975028 -0.058239111482419767 0 0.018282493308595663 -0.058464524365281108 0 0.018327313909216349 -0.058794376288327184 0 0.018606887002701956 -0.058664852825007108 0 0.018282493308595663 -0.058464524365281108 0 0.018327313909216349 -0.058794376288327184 0 0.018282493308595663 -0.058464524365281108 0 0.017966386989145076 -0.058688379460793604 0 0.018282493308595663 -0.058464524365281108 0 0.017966386989145076 -0.058688379460793604 0 0.017917575483269131 -0.05826735861017792 0 0.017572131980101054 -0.058901389426820605 0 0.017966386989145076 -0.058688379460793604 0 0.017658386452640042 -0.05846254911745246 0 0.017966386989145076 -0.058688379460793604 0 0.017658386452640042 -0.05846254911745246 0 0.017917575483269131 -0.05826735861017792 0 0.017572131980101054 -0.058901389426820605 0 0.017658386452640042 -0.05846254911745246 0 0.01727013890135044 -0.05846208252496999 0 0.017658386452640042 -0.05846254911745246 0 0.01727013890135044 -0.05846208252496999 0 0.017566370312318298 -0.058026468260498669 0 0.01727013890135044 -0.05846208252496999 0 0.017566370312318298 -0.058026468260498669 0 0.017196806077827694 -0.0581103020759179 0 0.017566370312318298 -0.058026468260498669 0 0.017303993026981129 -0.057824335309612361 0 0.017196806077827694 -0.0581103020759179 0 0.017566370312318298 -0.058026468260498669 0 0.017917575483269131 -0.05826735861017792 0 0.018055662843034018 -0.057831233260382219 0 0.017658386452640042 -0.05846254911745246 0 0.017566370312318298 -0.058026468260498669 0 0.017917575483269131 -0.05826735861017792 0 0.018239768670016403 -0.058115212437606957 0 0.017917575483269131 -0.05826735861017792 0 0.018055662843034018 -0.057831233260382219 0 0.017566370312318298 -0.058026468260498669 0 0.018055662843034018 -0.057831233260382219 0 0.01757490121084802 -0.057601226676486511 0 0.018055662843034018 -0.057831233260382219 0 0.01757490121084802 -0.057601226676486511 0 0.018122849428000628 -0.057411231535539911 0 0.017566370312318298 -0.058026468260498669 0 0.017303993026981129 -0.057824335309612361 0 0.01757490121084802 -0.057601226676486511 0 0.017303993026981129 -0.057824335309612361 0 0.01757490121084802 -0.057601226676486511 0 0.017059326412788081 -0.057624361276943363 0 0.01757490121084802 -0.057601226676486511 0 0.017267081468350251 -0.0573733235338756 0 0.017059326412788081 -0.057624361276943363 0 0.01757490121084802 -0.057601226676486511 0 0.017267081468350251 -0.0573733235338756 0 0.017635892723356889 -0.057244694629039423 0 0.017635892723356889 -0.057244694629039423 0 0.018122849428000628 -0.057411231535539911 0 0.018122084764399776 -0.057064907804653765 0 0.01757490121084802 -0.057601226676486511 0 0.017635892723356889 -0.057244694629039423 0 0.018122849428000628 -0.057411231535539911 0 0.026487889625964607 -0.056128490339833768 0 0.024361582968503697 -0.056174986937392687 0 0.018122849428000628 -0.057411231535539911 0 0.018774023959174498 -0.057316348439706302 0 0.018122084764399776 -0.057064907804653765 0 0.018122849428000628 -0.057411231535539911 0 0.018774023959174498 -0.057316348439706302 0 0.018467133660007094 -0.057541492489853636 0 0.026997942288903433 -0.062302809814964825 0 0.026907460944452642 -0.060724573085459858 0 0.027410303204427548 -0.061985532785836406 0 0.030094617055561809 -0.056576390255383371 0 0.026467090646076618 -0.054814422355229334 0 0.026605819328521432 -0.059263513215611928 0 0.026487889625964607 -0.056128490339833768 0 0.0268890340642381 -0.056012947716484622 0 0.018823618168533136 -0.057270823753244451 0 0.018764709069995979 -0.057570829059485747 0 0.01892029849603296 -0.057327306702801561 0 0.026487889625964607 -0.056128490339833768 0 0.026644438305774999 -0.056095082432475574 0 0.026487889625964607 -0.056128490339833768 0 0.026337156601292357 -0.056215205827819553 0 0.018823618168533136 -0.057270823753244451 0 0.018764709069995979 -0.057570829059485747 0 0.018467133660007094 -0.057541492489853636 0 0.018764709069995979 -0.057570829059485747 0 0.018529617967594281 -0.057867239583775425 0 0.018467133660007094 -0.057541492489853636 0 0.018764709069995979 -0.057570829059485747 0 0.018529617967594281 -0.057867239583775425 0 0.019028318137052819 -0.057933710362684125 0 0.018764709069995979 -0.057570829059485747 0 0.019028318137052819 -0.057933710362684125 0 0.01892029849603296 -0.057327306702801561 0 0.018055662843034018 -0.057831233260382219 0 0.018529617967594281 -0.057867239583775425 0 0.018467133660007094 -0.057541492489853636 0 0.018055662843034018 -0.057831233260382219 0 0.018122849428000628 -0.057411231535539911 0 0.018467133660007094 -0.057541492489853636 0 0.011349881854203072 -0.049337829222357708 0 0.011997751526389738 -0.049698450339059078 0 0.016070765323555412 -0.058095355269808441 0 0.015799388828154702 -0.058262511349067791 0 0.016270338770173715 -0.058349218662779027 0 0.011367157819244224 -0.050162978496519781 0 0.011994254372006779 -0.050773867889219858 0 0.01561164316054422 -0.058042077473661038 0 0.015839221584082352 -0.058075123113330504 0 0.015799388828154702 -0.058262511349067791 0 0.01561164316054422 -0.058042077473661038 0 0.015839221584082352 -0.058075123113330504 0 0.0158736875846947 -0.057899312527928633 0 0.015839221584082352 -0.058075123113330504 0 0.016070765323555412 -0.058095355269808441 0 0.0158736875846947 -0.057899312527928633 0 0.012058851027512989 -0.050846415887492342 0 0.011994254372006779 -0.050773867889219858 0 0.015839221584082352 -0.058075123113330504 0 0.016070765323555412 -0.058095355269808441 0 0.015799388828154702 -0.058262511349067791 0 0.0028022525418091768 -0.03514945981834338 0 0.0022753437489091239 -0.035143608001225256 0 0.0023124694015309193 -0.034576702261406141 0 0.012180028187493874 -0.04551517574639196 0 0.011349881854203072 -0.049337829222357708 0 0.016089326648529065 -0.058860889154342462 0 0.016548470326836543 -0.058860376178099062 0 0.016113857185165066 -0.058307320277363024 0 0.016089326648529065 -0.058860889154342462 0 0.015519248229073869 -0.058189336313753066 0 0.016113857185165066 -0.058307320277363024 0 0.016070765323555412 -0.058095355269808441 0 0.016270338770173715 -0.058349218662779027 0 0.016480453120408346 -0.058085504186679418 0 0.016270338770173715 -0.058349218662779027 0 0.016480453120408346 -0.058085504186679418 0 0.016704709114191807 -0.058440781566348958 0 0.016480453120408346 -0.058085504186679418 0 0.016704709114191807 -0.058440781566348958 0 0.016871556700479507 -0.057923519176879358 0 0.016548470326836543 -0.058860376178099062 0 0.016113857185165066 -0.058307320277363024 0 0.016704709114191807 -0.058440781566348958 0 0.011997751526389738 -0.049698450339059078 0 0.012216781254189027 -0.049818773826396254 0 0.01727013890135044 -0.05846208252496999 0 0.016704709114191807 -0.058440781566348958 0 0.017196806077827694 -0.0581103020759179 0 0.017020146501240764 -0.058945259103844676 0 0.01727013890135044 -0.05846208252496999 0 0.016704709114191807 -0.058440781566348958 0 0.016704709114191807 -0.058440781566348958 0 0.017196806077827694 -0.0581103020759179 0 0.016871556700479507 -0.057923519176879358 0 0.017303993026981129 -0.057824335309612361 0 0.016871556700479507 -0.057923519176879358 0 0.017059326412788081 -0.057624361276943363 0 0.017303993026981129 -0.057824335309612361 0 0.017196806077827694 -0.0581103020759179 0 0.016871556700479507 -0.057923519176879358 0 0.017059326412788081 -0.057624361276943363 0 0.016988548488103269 -0.057396344086195032 0 0.016481489243320518 -0.057618352596925757 0 0.017267081468350251 -0.0573733235338756 0 0.017059326412788081 -0.057624361276943363 0 0.016988548488103269 -0.057396344086195032 0 0.012437579063391723 -0.051245929782088334 0 0.012312977092929995 -0.051137291932713019 0 0.016988548488103269 -0.057396344086195032 0 0.016190364328496534 -0.057916847876020874 0 0.016267970378676107 -0.057353312628806496 0 0.016871556700479507 -0.057923519176879358 0 0.017059326412788081 -0.057624361276943363 0 0.016481489243320518 -0.057618352596925757 0 0.016480453120408346 -0.058085504186679418 0 0.016871556700479507 -0.057923519176879358 0 0.016481489243320518 -0.057618352596925757 0 0.016070765323555412 -0.058095355269808441 0 0.016480453120408346 -0.058085504186679418 0 0.016481489243320518 -0.057618352596925757 0 0.012312977092929995 -0.051137291932713019 0 0.011994254372006779 -0.050773867889219858 0 0.016070765323555412 -0.058095355269808441 0 0.016481489243320518 -0.057618352596925757 0 0.015884958612953859 -0.05791636817419208 0 0.016190364328496534 -0.057916847876020874 0 0.015450513400055783 -0.057651764140050382 0 0.015842625125846124 -0.057363580839412356 0 0.016190364328496534 -0.057916847876020874 0 0.015842625125846124 -0.057363580839412356 0 0.016267970378676107 -0.057353312628806496 0 0.014939647377209203 -0.057813342000711476 0 0.015450513400055783 -0.057651764140050382 0 0.015446301588187628 -0.058313168354046305 0 0.016190364328496534 -0.057916847876020874 0 0.015450513400055783 -0.057651764140050382 0 0.015446301588187628 -0.058313168354046305 0 0.014815292967255554 -0.057089180737880357 0 0.015294410091885939 -0.056992628034168324 0 0.015083141262025694 -0.056864271042695286 0 0.015352091436071259 -0.057017667839348869 0 0.015444500465433822 -0.057035901073801548 0 0.014815292967255554 -0.057089180737880357 0 0.015294410091885939 -0.056992628034168324 0 0.015574986674122987 -0.057281060702665032 0 0.015039453655254527 -0.056861249556854475 0 0.015426436331154834 -0.057234849995976042 0 0.015901034912520793 -0.056962280748456405 0 0.014996435631691526 -0.057358342672496218 0 0.015450513400055783 -0.057651764140050382 0 0.015426436331154834 -0.057234849995976042 0 0.015450513400055783 -0.057651764140050382 0 0.015426436331154834 -0.057234849995976042 0 0.015842625125846124 -0.057363580839412356 0 0.015426436331154834 -0.057234849995976042 0 0.015842625125846124 -0.057363580839412356 0 0.015901034912520793 -0.056962280748456405 0 0.015842625125846124 -0.057363580839412356 0 0.015901034912520793 -0.056962280748456405 0 0.016267970378676107 -0.057353312628806496 0 0.015294410091885939 -0.056992628034168324 0 0.015574986674122987 -0.057281060702665032 0 0.015682957616447047 -0.056901455573829599 0 0.015574986674122987 -0.057281060702665032 0 0.015682957616447047 -0.056901455573829599 0 0.015991221162502376 -0.056948952919430945 0 0.015991221162502376 -0.056948952919430945 0 0.016758387047575207 -0.057152015525352727 0 0.01675515639117036 -0.056825029265672913 0 0.015682957616447047 -0.056901455573829599 0 0.016273215314852499 -0.056811544699606455 0 0.015991221162502376 -0.056948952919430945 0 0.016273215314852499 -0.056811544699606455 0 0.015991221162502376 -0.056948952919430945 0 0.01646886739526679 -0.057047900405159634 0 0.015574986674122987 -0.057281060702665032 0 0.015991221162502376 -0.056948952919430945 0 0.016758387047575207 -0.057152015525352727 0 0.021584916031046498 -0.056066474442918998 0 0.021742846982977123 -0.056081116123053776 0 0.015901034912520793 -0.056962280748456405 0 0.016267970378676107 -0.057353312628806496 0 0.016758387047575207 -0.057152015525352727 0 0.015444500465433822 -0.057035901073801548 0 0.015497800427245224 -0.057045567663409735 0 0.016758387047575207 -0.057152015525352727 0 0.017014007783572635 -0.057008849877657461 0 0.01675515639117036 -0.056825029265672913 0 0.016988548488103269 -0.057396344086195032 0 0.016267970378676107 -0.057353312628806496 0 0.016758387047575207 -0.057152015525352727 0 0.017267081468350251 -0.0573733235338756 0 0.016988548488103269 -0.057396344086195032 0 0.017025609411729981 -0.05718590264781756 0 0.016988548488103269 -0.057396344086195032 0 0.016758387047575207 -0.057152015525352727 0 0.017025609411729981 -0.05718590264781756 0 0.017025609411729981 -0.05718590264781756 0 0.017014007783572635 -0.057008849877657461 0 0.017204014904833569 -0.057011619669345211 0 0.016758387047575207 -0.057152015525352727 0 0.017025609411729981 -0.05718590264781756 0 0.017014007783572635 -0.057008849877657461 0 0.016273215314852499 -0.056811544699606455 0 0.01646886739526679 -0.057047900405159634 0 0.016972790618312826 -0.057139304427364555 0 0.021742846982977123 -0.056081116123053776 0 0.022211154225259187 -0.056124900695023537 0 0.021299286686598192 -0.055882463522528882 0 0.022211154225259187 -0.056124900695023537 0 0.01635504263069603 -0.057071219404052284 0 0.016711135810998048 -0.057049424330492038 0 0.017222064643119695 -0.057482989759738465 0 0.017014007783572635 -0.057008849877657461 0 0.01675515639117036 -0.056825029265672913 0 0.017303254889574998 -0.056872417908686149 0 0.019782477997002525 -0.058477511035363541 0 0.020198947891906995 -0.057324193338120895 0 0.019313001530340167 -0.056468344139609328 0 0.019782477997002525 -0.058477511035363541 0 0.020198947891906995 -0.057324193338120895 0 0.021325841733151631 -0.057808829182510395 0 0.019313001530340167 -0.056468344139609328 0 0.01768357527872572 -0.054999946243823761 0 0.020742387710669236 -0.054999987564313624 0 0.020198947891906995 -0.057324193338120895 0 0.019313001530340167 -0.056468344139609328 0 0.020742387710669236 -0.054999987564313624 0 0.019313001530340167 -0.056468344139609328 0 0.01768357527872572 -0.054999946243823761 0 0.017915349530527116 -0.056346818385693019 0 0.01768357527872572 -0.054999946243823761 0 0.017915349530527116 -0.056346818385693019 0 0.016831729150453618 -0.056214460467308248 0 0.021299286686598192 -0.055882463522528882 0 0.02098848139980343 -0.05579840530621466 0 0.019782477997002525 -0.058477511035363541 0 0.019313001530340167 -0.056468344139609328 0 0.017577812349604646 -0.057580318539451829 0 0.01635504263069603 -0.057071219404052284 0 0.016711135810998048 -0.057049424330492038 0 0.0160245331392634 -0.056797266845570134 0 0.019313001530340167 -0.056468344139609328 0 0.017915349530527116 -0.056346818385693019 0 0.017577812349604646 -0.057580318539451829 0 0.021762224741787545 -0.055910411326550301 0 0.021234022358612534 -0.055807139087079578 0 0.017915349530527116 -0.056346818385693019 0 0.017577812349604646 -0.057580318539451829 0 0.016831729150453618 -0.056214460467308248 0 0.01635504263069603 -0.057071219404052284 0 0.0160245331392634 -0.056797266845570134 0 0.015525920658457367 -0.056701518549517917 0 0.021234022358612534 -0.055807139087079578 0 0.021035795601712749 -0.055763368513034643 0 0.017577812349604646 -0.057580318539451829 0 0.016831729150453618 -0.056214460467308248 0 0.015377152857047497 -0.056575974281089091 0 0.015682957616447047 -0.056901455573829599 0 0.016273215314852499 -0.056811544699606455 0 0.015525920658457367 -0.056701518549517917 0 0.0160245331392634 -0.056797266845570134 0 0.015525920658457367 -0.056701518549517917 0 0.015377152857047497 -0.056575974281089091 0 0.015294410091885939 -0.056992628034168324 0 0.015682957616447047 -0.056901455573829599 0 0.015336543757445273 -0.056839621624374684 0 0.015682957616447047 -0.056901455573829599 0 0.015525920658457367 -0.056701518549517917 0 0.015336543757445273 -0.056839621624374684 0 0.015525920658457367 -0.056701518549517917 0 0.015364228448260922 -0.056732180685678105 0 0.015336543757445273 -0.056839621624374684 0 0.015525920658457367 -0.056701518549517917 0 0.015377152857047497 -0.056575974281089091 0 0.015364228448260922 -0.056732180685678105 0 0.01768357527872572 -0.054999946243823761 0 0.016831729150453618 -0.056214460467308248 0 0.014625119861557047 -0.054999875708432948 0 0.016831729150453618 -0.056214460467308248 0 0.014625119861557047 -0.054999875708432948 0 0.015377152857047497 -0.056575974281089091 0 0.014607205135972405 -0.056071860050707488 0 0.015144845146112772 -0.056781661820136303 0 0.015377152857047497 -0.056575974281089091 0 0.014625119861557047 -0.054999875708432948 0 0.014607205135972405 -0.056071860050707488 0 0.015377152857047497 -0.056575974281089091 0 0.013735319533529633 -0.056016108537533402 0 0.014625119861557047 -0.054999875708432948 0 0.014607205135972405 -0.056071860050707488 0 0.013735319533529633 -0.056016108537533402 0 0.014607205135972405 -0.056071860050707488 0 0.015144845146112772 -0.056781661820136303 0 0.014875578295340615 -0.056798716140015623 0 0.015144845146112772 -0.056781661820136303 0 0.015083141262025694 -0.056864271042695286 0 0.015144845146112772 -0.056781661820136303 0 0.015377152857047497 -0.056575974281089091 0 0.015364228448260922 -0.056732180685678105 0 0.015144845146112772 -0.056781661820136303 0 0.015364228448260922 -0.056732180685678105 0 0.015336543757445273 -0.056839621624374684 0 0.015144845146112772 -0.056781661820136303 0 0.015336543757445273 -0.056839621624374684 0 0.015083141262025694 -0.056864271042695286 0 0.015294410091885939 -0.056992628034168324 0 0.015336543757445273 -0.056839621624374684 0 0.015083141262025694 -0.056864271042695286 0 0.024911506026658332 -0.059533269041903654 0 0.025816451235321895 -0.059666478723286211 0 0.024395841847433843 -0.060268901728070388 0 0.024241791361182041 -0.059321413027671875 0 0.024911506026658332 -0.059533269041903654 0 0.024395841847433843 -0.060268901728070388 0 0.024241791361182041 -0.059321413027671875 0 0.024911506026658332 -0.059533269041903654 0 0.024861703355772508 -0.058195470857785252 0 0.024241791361182041 -0.059321413027671875 0 0.023463732266478299 -0.058636527971034254 0 0.024861703355772508 -0.058195470857785252 0 0.024911506026658332 -0.059533269041903654 0 0.025816451235321895 -0.059666478723286211 0 0.024861703355772508 -0.058195470857785252 0 0.026522064634658279 -0.058558555635228639 0 0.025816451235321895 -0.059666478723286211 0 0.024861703355772508 -0.058195470857785252 0 0.026522064634658279 -0.058558555635228639 0 0.027345618485938895 -0.059702042663743293 0 0.027302527639859582 -0.057373345165588827 0 0.02703708034029256 -0.055979852502497214 0 0.027166889051103475 -0.055576723283958698 0 0.026522064634658279 -0.058558555635228639 0 0.026627352603554394 -0.059756238458793652 0 0.027345618485938895 -0.059702042663743293 0 0.026522064634658279 -0.058558555635228639 0 0.026627352603554394 -0.059756238458793652 0 0.025816451235321895 -0.059666478723286211 0 0.02703708034029256 -0.055979852502497214 0 0.0268890340642381 -0.056012947716484622 0 0.026997942288903433 -0.062302809814964825 0 0.026907460944452642 -0.060724573085459858 0 0.024478749076099478 -0.061072842126332447 0 0.027345618485938895 -0.059702042663743293 0 0.026907460944452642 -0.060724573085459858 0 0.027410303204427548 -0.061985532785836406 0 0.026627352603554394 -0.059756238458793652 0 0.025816451235321895 -0.059666478723286211 0 0.026907460944452642 -0.060724573085459858 0 0.026627352603554394 -0.059756238458793652 0 0.027345618485938895 -0.059702042663743293 0 0.026907460944452642 -0.060724573085459858 0 0.026907460944452642 -0.060724573085459858 0 0.024478749076099478 -0.061072842126332447 0 0.02444989928431281 -0.060236403784347421 0 0.023132270260852274 -0.056490379796167119 0 0.022928878502406595 -0.056399406939804282 0 0.025816451235321895 -0.059666478723286211 0 0.026907460944452642 -0.060724573085459858 0 0.024395841847433843 -0.060268901728070388 0 0.017635892723356889 -0.057244694629039423 0 0.018122084764399776 -0.057064907804653765 0 0.017426455603245551 -0.056786066204577164 0 0.022928878502406595 -0.056399406939804282 0 0.022490181992839614 -0.05615793639238157 0 0.024478749076099478 -0.061072842126332447 0 0.02444989928431281 -0.060236403784347421 0 0.021984384537849004 -0.059751469624372965 0 0.024361582968503697 -0.056174986937392687 0 0.022490181992839614 -0.05615793639238157 0 0.017635892723356889 -0.057244694629039423 0 0.017279306685693534 -0.057127526467459042 0 0.017426455603245551 -0.056786066204577164 0 0.017267081468350251 -0.0573733235338756 0 0.017025609411729981 -0.05718590264781756 0 0.017279306685693534 -0.057127526467459042 0 0.017267081468350251 -0.0573733235338756 0 0.017635892723356889 -0.057244694629039423 0 0.017279306685693534 -0.057127526467459042 0 0.022460415608544122 -0.056188369470903651 0 0.022490181992839614 -0.05615793639238157 0 0.017014007783572635 -0.057008849877657461 0 0.017204014904833569 -0.057011619669345211 0 0.017303254889574998 -0.056872417908686149 0 0.017279306685693534 -0.057127526467459042 0 0.017204014904833569 -0.057011619669345211 0 0.017380140491520465 -0.056892963312996842 0 0.017025609411729981 -0.05718590264781756 0 0.017279306685693534 -0.057127526467459042 0 0.017204014904833569 -0.057011619669345211 0 0.019782477997002525 -0.058477511035363541 0 0.021972869137057212 -0.059357369576918541 0 0.021325841733151631 -0.057808829182510395 0 0.021762224741787545 -0.055910411326550301 0 0.022538949442449576 -0.056037819208102614 0 0.016711135810998048 -0.057049424330492038 0 0.017222064643119695 -0.057482989759738465 0 0.017413116848805827 -0.057325141230232662 0 0.017204014904833569 -0.057011619669345211 0 0.017303254889574998 -0.056872417908686149 0 0.017380140491520465 -0.056892963312996842 0 0.022490181992839614 -0.05615793639238157 0 0.022538949442449576 -0.056037819208102614 0 0.022211154225259187 -0.056124900695023537 0 0.022490181992839614 -0.05615793639238157 0 0.017222064643119695 -0.057482989759738465 0 0.017338151102959179 -0.057505176805912439 0 0.017413116848805827 -0.057325141230232662 0 0.022099125785745535 -0.059240448982359785 0 0.023463732266478299 -0.058636527971034254 0 0.022962693367980513 -0.057134684900109783 0 0.024395841847433843 -0.060268901728070388 0 0.021862787466828189 -0.059781081013086233 0 0.023490169276360606 -0.059798550385814053 0 0.024241791361182041 -0.059321413027671875 0 0.024395841847433843 -0.060268901728070388 0 0.023490169276360606 -0.059798550385814053 0 0.024241791361182041 -0.059321413027671875 0 0.023490169276360606 -0.059798550385814053 0 0.023463732266478299 -0.058636527971034254 0 0.022538949442449576 -0.056037819208102614 0 0.022565845172758951 -0.056065572486607852 0 0.021862787466828189 -0.059781081013086233 0 0.022090256575827832 -0.059233353110036413 0 0.023490169276360606 -0.059798550385814053 0 0.022099125785745535 -0.059240448982359785 0 0.023490169276360606 -0.059798550385814053 0 0.023463732266478299 -0.058636527971034254 0 0.022538949442449576 -0.056037819208102614 0 0.023144855511762916 -0.055586926591116172 0 0.023463732266478299 -0.058636527971034254 0 0.022962693367980513 -0.057134684900109783 0 0.024861703355772508 -0.058195470857785252 0 0.021972869137057212 -0.059357369576918541 0 0.022882415151655105 -0.057178099176419132 0 0.021325841733151631 -0.057808829182510395 0 0.020198947891906995 -0.057324193338120895 0 0.021325841733151631 -0.057808829182510395 0 0.020742387710669236 -0.054999987564313624 0 0.022882415151655105 -0.057178099176419132 0 0.021325841733151631 -0.057808829182510395 0 0.020742387710669236 -0.054999987564313624 0 0.022882415151655105 -0.057178099176419132 0 0.020742387710669236 -0.054999987564313624 0 0.023801033032123959 -0.05499999490026794 0 0.023144855511762916 -0.055586926591116172 0 0.023796409281134003 -0.055002132355930662 0 0.022962693367980513 -0.057134684900109783 0 0.023801168788432987 -0.05500000003994833 0 0.024684177964326114 -0.056478009319376098 0 0.023801168788432987 -0.05500000003994833 0 0.02554513587881509 -0.054999982484513696 0 0.024684177964326114 -0.056478009319376098 0 0.02554513587881509 -0.054999982484513696 0 0.024684177964326114 -0.056478009319376098 0 0.026200973491563497 -0.056366470100143819 0 0.024684177964326114 -0.056478009319376098 0 0.024861703355772508 -0.058195470857785252 0 0.026200973491563497 -0.056366470100143819 0 0.022962693367980513 -0.057134684900109783 0 0.024684177964326114 -0.056478009319376098 0 0.024861703355772508 -0.058195470857785252 0 0.026522064634658279 -0.058558555635228639 0 0.024861703355772508 -0.058195470857785252 0 0.026200973491563497 -0.056366470100143819 0 0.026522064634658279 -0.058558555635228639 0 0.027302527639859582 -0.057373345165588827 0 0.026200973491563497 -0.056366470100143819 0 0.027302527639859582 -0.057373345165588827 0 0.027289165915249967 -0.055000000566472425 0 0.026200973491563497 -0.056366470100143819 0 0.02554513587881509 -0.054999982484513696 0 0.027289165915249967 -0.055000000566472425 0 0.026200973491563497 -0.056366470100143819 0 0.027166889051103475 -0.055576723283958698 0 0.027288075399056755 -0.055002716982120961 0 0.02728930328002763 -0.054999997614219268 0 0.028748010619167593 -0.056458736898673263 0 0.029527299028654648 -0.054999993687126589 0 0.02741053155778355 -0.057393366921504672 0 0.02728930328002763 -0.054999997614219268 0 0.028748010619167593 -0.056458736898673263 0 0.029527299028654648 -0.054999993687126589 0 0.030327906338293922 -0.056945157926309331 0 0.031765271882409483 -0.054999972557036897 0 0.028748010619167593 -0.056458736898673263 0 0.029527299028654648 -0.054999993687126589 0 0.030327906338293922 -0.056945157926309331 0 0.034059977679522013 -0.0524518428627457 0 0.034048607687671352 -0.052248886922135078 0 0.030327906338293922 -0.056945157926309331 0 0.029149889690851336 -0.058475528739130263 0 0.031317540863625752 -0.05921255568237286 0 0.028748010619167593 -0.056458736898673263 0 0.030327906338293922 -0.056945157926309331 0 0.029149889690851336 -0.058475528739130263 0 0.02741053155778355 -0.057393366921504672 0 0.028748010619167593 -0.056458736898673263 0 0.029149889690851336 -0.058475528739130263 0 0.027506032928784261 -0.059740634883698782 0 0.02741053155778355 -0.057393366921504672 0 0.029149889690851336 -0.058475528739130263 0 0.027506032928784261 -0.059740634883698782 0 0.029149889690851336 -0.058475528739130263 0 0.029441760825068379 -0.060644539443203048 0 0.029149889690851336 -0.058475528739130263 0 0.029441760825068379 -0.060644539443203048 0 0.031317540863625752 -0.05921255568237286 0 0.030205426887442991 -0.054345547313812942 0 0.034048607687671352 -0.052248886922135078 0 0.027506032928784261 -0.059740634883698782 0 0.029441760825068379 -0.060644539443203048 0 0.027580463128937836 -0.062067901228720329 0 0.030205426887442991 -0.054345547313812942 0 0.0268890340642381 -0.056012947716484622 0 0.072043286221970107 -0.04906798028472114 0 0.069864902108476998 -0.050047733933510731 0 0.069337685022294648 -0.048073397528442419 0 0.072043286221970107 -0.04906798028472114 0 0.071201710128459009 -0.051721794759134881 0 0.069864902108476998 -0.050047733933510731 0 0.072043286221970107 -0.04906798028472114 0 0.073255449564442313 -0.051890740805436333 0 0.071201710128459009 -0.051721794759134881 0 0.036981419866152616 -0.051129176207748116 0 0.034048607687671352 -0.052248886922135078 0 0.021137538786069211 -0.057516014253860777 0 0.021286683602057342 -0.057556056178147262 0 0.021239263772447357 -0.057438391189565015 0 0.034048607687671352 -0.052248886922135078 0 0.036015329793080204 -0.053772956484121191 0 0.073255449564442313 -0.051890740805436333 0 0.071201710128459009 -0.051721794759134881 0 0.070692583778930604 -0.053858752586701406 0 0.071201710128459009 -0.051721794759134881 0 0.069220017893283151 -0.051827106427686807 0 0.069864902108476998 -0.050047733933510731 0 0.036015329793080204 -0.053772956484121191 0 0.037923680424714112 -0.053189510220514505 0 0.071201710128459009 -0.051721794759134881 0 0.070692583778930604 -0.053858752586701406 0 0.069220017893283151 -0.051827106427686807 0 0.036015329793080204 -0.053772956484121191 0 0.035972255680554129 -0.053815617758690294 0 0.030327906338293922 -0.056945157926309331 0 0.03137431127509261 -0.059280951771808282 0 0.03362694186554064 -0.057550718698366844 0 0.030327906338293922 -0.056945157926309331 0 0.03362694186554064 -0.057550718698366844 0 0.031765271882409483 -0.054999972557036897 0 0.031764805673026253 -0.055000376676587616 0 0.034790061779508989 -0.054999623398215944 0 0.034640014810824057 -0.057057162932063775 0 0.036015329793080204 -0.053772956484121191 0 0.031791305015642826 -0.054987755774197337 0 0.033518708165865892 -0.057888926451403901 0 0.031764805673026253 -0.055000376676587616 0 0.034640014810824057 -0.057057162932063775 0 0.034790061779508989 -0.054999623398215944 0 0.034640014810824057 -0.057057162932063775 0 0.036369821387778452 -0.057909041268818774 0 0.034790061779508989 -0.054999623398215944 0 0.036369821387778452 -0.057909041268818774 0 0.037811335308806912 -0.055002955866708142 0 0.036369821387778452 -0.057909041268818774 0 0.037727348065759191 -0.059681142718519917 0 0.034709347684567293 -0.060281795356510348 0 0.033186327772996925 -0.058197378135930726 0 0.034763300686129761 -0.058371849961867429 0 0.034709347684567293 -0.060281795356510348 0 0.034640014810824057 -0.057057162932063775 0 0.036369821387778452 -0.057909041268818774 0 0.034763300686129761 -0.058371849961867429 0 0.036369821387778452 -0.057909041268818774 0 0.034763300686129761 -0.058371849961867429 0 0.034709347684567293 -0.060281795356510348 0 0.033186327772996925 -0.058197378135930726 0 0.034640014810824057 -0.057057162932063775 0 0.034763300686129761 -0.058371849961867429 0 0.040848530919817071 -0.05499279624182226 0 0.039302980726893658 -0.057160480401503413 0 0.042060951766579389 -0.060332142407866371 0 0.036369821387778452 -0.057909041268818774 0 0.039302980726893658 -0.057160480401503413 0 0.037811335308806912 -0.055002955866708142 0 0.040848530919817071 -0.05499279624182226 0 0.039302980726893658 -0.057160480401503413 0 0.037811335308806912 -0.055002955866708142 0 0.036369821387778452 -0.057909041268818774 0 0.039302980726893658 -0.057160480401503413 0 0.037727348065759191 -0.059681142718519917 0 0.039302980726893658 -0.057160480401503413 0 0.042060951766579389 -0.060332142407866371 0 0.037727348065759191 -0.059681142718519917 0 0.043363024581326459 -0.052592751993446048 0 0.041382713769660372 -0.052794480349277723 0 0.061698966128569385 -0.055419336316177514 0 0.061596220912328886 -0.051417202006097222 0 0.065864959675441773 -0.053768941405419365 0 0.061596220912328886 -0.051417202006097222 0 0.065864959675441773 -0.053768941405419365 0 0.06489667193434108 -0.050337429620359718 0 0.061596220912328886 -0.051417202006097222 0 0.06489667193434108 -0.050337429620359718 0 0.062857384227946289 -0.047608982392850364 0 0.061596220912328886 -0.051417202006097222 0 0.062857384227946289 -0.047608982392850364 0 0.059791514560363399 -0.048275667143680215 0 0.041382713769660372 -0.052794480349277723 0 0.037923680424714112 -0.053189510220514505 0 0.065864959675441773 -0.053768941405419365 0 0.069710026521533519 -0.052412925757814269 0 0.066973056800398015 -0.051526219196331158 0 0.065864959675441773 -0.053768941405419365 0 0.06489667193434108 -0.050337429620359718 0 0.066973056800398015 -0.051526219196331158 0 0.06489667193434108 -0.050337429620359718 0 0.067520423598243506 -0.049528262713931986 0 0.065471249413573546 -0.047743459085482887 0 0.06489667193434108 -0.050337429620359718 0 0.066973056800398015 -0.051526219196331158 0 0.067520423598243506 -0.049528262713931986 0 0.069710026521533519 -0.052412925757814269 0 0.066973056800398015 -0.051526219196331158 0 0.067520423598243506 -0.049528262713931986 0 0.067520423598243506 -0.049528262713931986 0 0.069864902108476998 -0.050047733933510731 0 0.069337685022294648 -0.048073397528442419 0 0.037923680424714112 -0.053189510220514505 0 0.038700781589349538 -0.053650172576167159 0 0.069220017893283151 -0.051827106427686807 0 0.067520423598243506 -0.049528262713931986 0 0.069864902108476998 -0.050047733933510731 0 0.067520423598243506 -0.049528262713931986 0 0.069337685022294648 -0.048073397528442419 0 0.067669081836430084 -0.046309452419008378 0 0.067520423598243506 -0.049528262713931986 0 0.067669081836430084 -0.046309452419008378 0 0.065471249413573546 -0.047743459085482887 0 0.067669081836430084 -0.046309452419008378 0 0.065471249413573546 -0.047743459085482887 0 0.064659175799910054 -0.04518408808372737 0 0.067669081836430084 -0.046309452419008378 0 0.069489546825946505 -0.043154132673971876 0 0.070813426628495602 -0.046135114225344491 0 0.069337685022294648 -0.048073397528442419 0 0.067669081836430084 -0.046309452419008378 0 0.070813426628495602 -0.046135114225344491 0 0.06489667193434108 -0.050337429620359718 0 0.062857384227946289 -0.047608982392850364 0 0.065471249413573546 -0.047743459085482887 0 0.047166400283430956 -0.04224804821427041 0 0.046799562005202966 -0.042388255240658625 0 0.062857384227946289 -0.047608982392850364 0 0.065471249413573546 -0.047743459085482887 0 0.064659175799910054 -0.04518408808372737 0 0.062857384227946289 -0.047608982392850364 0 0.062845256029657195 -0.045208534928067048 0 0.060572797600982838 -0.045411047101153533 0 0.062857384227946289 -0.047608982392850364 0 0.065033130463140118 -0.044856265295030284 0 0.062845256029657195 -0.045208534928067048 0 0.064642164776420138 -0.042751051647766922 0 0.063148564658710368 -0.041432545888814669 0 0.061941787076748564 -0.043203916487649034 0 0.062845256029657195 -0.045208534928067048 0 0.064642164776420138 -0.042751051647766922 0 0.061941787076748564 -0.043203916487649034 0 0.065033130463140118 -0.044856265295030284 0 0.064642164776420138 -0.042751051647766922 0 0.066749679742289666 -0.04231166183178247 0 0.046799562005202966 -0.042388255240658625 0 0.045540857653003898 -0.043020935446913725 0 0.065033130463140118 -0.044856265295030284 0 0.062845256029657195 -0.045208534928067048 0 0.064642164776420138 -0.042751051647766922 0 0.064642164776420138 -0.042751051647766922 0 0.065465388056705917 -0.040905255694791372 0 0.063148564658710368 -0.041432545888814669 0 0.064642164776420138 -0.042751051647766922 0 0.065465388056705917 -0.040905255694791372 0 0.066749679742289666 -0.04231166183178247 0 0.065465388056705917 -0.040905255694791372 0 0.063148564658710368 -0.041432545888814669 0 0.064051296203953209 -0.040274537162240651 0 0.067669081836430084 -0.046309452419008378 0 0.064659175799910054 -0.04518408808372737 0 0.066417086660015223 -0.042697543640648386 0 0.067669081836430084 -0.046309452419008378 0 0.069489546825946505 -0.043154132673971876 0 0.066417086660015223 -0.042697543640648386 0 0.065465388056705917 -0.040905255694791372 0 0.066749679742289666 -0.04231166183178247 0 0.066777985569483028 -0.040168925481687462 0 0.045540857653003898 -0.043020935446913725 0 0.043103677988616404 -0.044523014316858095 0 0.066749679742289666 -0.04231166183178247 0 0.06835832406581463 -0.039946135476098592 0 0.066777985569483028 -0.040168925481687462 0 0.021569500531507222 -0.058129178942940923 0 0.021493429389156112 -0.058603367400730723 0 0.022000487679308421 -0.058982033295786725 0 0.041404654958823617 -0.047242898141017092 0 0.043103677988616404 -0.044523014316858095 0 0.069489546825946505 -0.043154132673971876 0 0.066417086660015223 -0.042697543640648386 0 0.068155863003974249 -0.040200076756211886 0 0.021493429389156112 -0.058603367400730723 0 0.021259600445656997 -0.058715783156102971 0 0.021191227125680993 -0.058325300425831395 0 0.021493429389156112 -0.058603367400730723 0 0.021259600445656997 -0.058715783156102971 0 0.02148164181215478 -0.058884800579228437 0 0.021259600445656997 -0.058715783156102971 0 0.020864153623705632 -0.058652471080369847 0 0.020811552425762051 -0.05914897804780285 0 0.021259600445656997 -0.058715783156102971 0 0.021191227125680993 -0.058325300425831395 0 0.020864153623705632 -0.058652471080369847 0 0.021191227125680993 -0.058325300425831395 0 0.020684270329548692 -0.058374820172070026 0 0.020864153623705632 -0.058652471080369847 0 0.021569500531507222 -0.058129178942940923 0 0.021493429389156112 -0.058603367400730723 0 0.021191227125680993 -0.058325300425831395 0 0.021569500531507222 -0.058129178942940923 0 0.02141696548439765 -0.057967204955167613 0 0.021359237455750902 -0.057679376095920928 0 0.02141696548439765 -0.057967204955167613 0 0.02086848767786318 -0.058051081997318531 0 0.020594067862280459 -0.057547229753421199 0 0.025236302590072621 -0.055840615607307333 0 0.025367823831173131 -0.055857189180653889 0 0.041404654958823617 -0.047242898141017092 0 0.039391421702339856 -0.049438216615943296 0 0.021569500531507222 -0.058129178942940923 0 0.021191227125680993 -0.058325300425831395 0 0.02141696548439765 -0.057967204955167613 0 0.021191227125680993 -0.058325300425831395 0 0.02086848767786318 -0.058051081997318531 0 0.020684270329548692 -0.058374820172070026 0 0.021191227125680993 -0.058325300425831395 0 0.02141696548439765 -0.057967204955167613 0 0.02086848767786318 -0.058051081997318531 0 0.020324068350857538 -0.057956566712987455 0 0.02086848767786318 -0.058051081997318531 0 0.020594067862280459 -0.057547229753421199 0 0.020324068350857538 -0.057956566712987455 0 0.02086848767786318 -0.058051081997318531 0 0.020684270329548692 -0.058374820172070026 0 0.020324068350857538 -0.057956566712987455 0 0.020684270329548692 -0.058374820172070026 0 0.02021110065269623 -0.058368879433398899 0 0.020684270329548692 -0.058374820172070026 0 0.020362318467280392 -0.058706597830376718 0 0.02021110065269623 -0.058368879433398899 0 0.020864153623705632 -0.058652471080369847 0 0.020362318467280392 -0.058706597830376718 0 0.020811552425762051 -0.05914897804780285 0 0.020684270329548692 -0.058374820172070026 0 0.020864153623705632 -0.058652471080369847 0 0.020362318467280392 -0.058706597830376718 0 0.020362318467280392 -0.058706597830376718 0 0.019851406856914781 -0.058565252599884349 0 0.019615803176172637 -0.058968165986220171 0 0.020362318467280392 -0.058706597830376718 0 0.019851406856914781 -0.058565252599884349 0 0.02021110065269623 -0.058368879433398899 0 0.019851406856914781 -0.058565252599884349 0 0.02021110065269623 -0.058368879433398899 0 0.019745471901514839 -0.058125434454201604 0 0.020050841197592054 -0.058918327368101799 0 0.02013449850777492 -0.058932626544659722 0 0.018606887002701956 -0.058664852825007108 0 0.019226258990454263 -0.058427200284602313 0 0.019615803176172637 -0.058968165986220171 0 0.019851406856914781 -0.058565252599884349 0 0.019226258990454263 -0.058427200284602313 0 0.019745471901514839 -0.058125434454201604 0 0.019851406856914781 -0.058565252599884349 0 0.019226258990454263 -0.058427200284602313 0 0.019615803176172637 -0.058968165986220171 0 0.019226258990454263 -0.058427200284602313 0 0.019028318137052819 -0.057933710362684125 0 0.019745471901514839 -0.058125434454201604 0 0.019028318137052819 -0.057933710362684125 0 0.019745471901514839 -0.058125434454201604 0 0.019807830168654793 -0.057197064854115957 0 0.020324068350857538 -0.057956566712987455 0 0.019745471901514839 -0.058125434454201604 0 0.019807830168654793 -0.057197064854115957 0 0.020324068350857538 -0.057956566712987455 0 0.02021110065269623 -0.058368879433398899 0 0.019745471901514839 -0.058125434454201604 0 0.025808201323401243 -0.055928937070691777 0 0.025367823831173131 -0.055857189180653889 0 0.021140061491885673 -0.057664864223209891 0 0.021200910981734909 -0.057623575491088624 0 0.02122212825296373 -0.057743516147671071 0 0.020324068350857538 -0.057956566712987455 0 0.019807830168654793 -0.057197064854115957 0 0.020594067862280459 -0.057547229753421199 0 0.019028318137052819 -0.057933710362684125 0 0.019807830168654793 -0.057197064854115957 0 0.018986252263831133 -0.056800210471691134 0 0.026515020924809198 -0.056191587368404024 0 0.026644438305774999 -0.056095082432475574 0 0.021137538786069211 -0.057516014253860777 0 0.02111479994730929 -0.057599360000353518 0 0.021050240429605415 -0.057589943793538649 0 0.025808201323401243 -0.055928937070691777 0 0.026644438305774999 -0.056095082432475574 0 0.021140061491885673 -0.057664864223209891 0 0.02105096941452668 -0.057613842320295761 0 0.02111479994730929 -0.057599360000353518 0 0.02105096941452668 -0.057613842320295761 0 0.02111479994730929 -0.057599360000353518 0 0.021050240429605415 -0.057589943793538649 0 0.026644438305774999 -0.056095082432475574 0 0.0268890340642381 -0.056012947716484622 0 0.021140061491885673 -0.057664864223209891 0 0.02111479994730929 -0.057599360000353518 0 0.021200910981734909 -0.057623575491088624 0 0.021137538786069211 -0.057516014253860777 0 0.02111479994730929 -0.057599360000353518 0 0.021200910981734909 -0.057623575491088624 0 0.021286683602057342 -0.057556056178147262 0 0.021200910981734909 -0.057623575491088624 0 0.021359237455750902 -0.057679376095920928 0 0.021137538786069211 -0.057516014253860777 0 0.021286683602057342 -0.057556056178147262 0 0.021200910981734909 -0.057623575491088624 0 0.072043286221970107 -0.04906798028472114 0 0.069337685022294648 -0.048073397528442419 0 0.070813426628495602 -0.046135114225344491 0 0.036981419866152616 -0.051129176207748116 0 0.039391421702339856 -0.049438216615943296 0 0.02141696548439765 -0.057967204955167613 0 0.021359237455750902 -0.057679376095920928 0 0.02122212825296373 -0.057743516147671071 0 0.021200910981734909 -0.057623575491088624 0 0.021359237455750902 -0.057679376095920928 0 0.02122212825296373 -0.057743516147671071 0 0.054998917682475272 -0.048156372269234832 0 0.055285257272433386 -0.051054772149278775 0 0.054781648064480951 -0.053217711790090369 0 0.054991368726472603 -0.048158656395132109 0 0.053930920533496872 -0.048665997532333208 0 0.054998917682475272 -0.048156372269234832 0 0.055408044735419076 -0.049666072859579982 0 0.055285257272433386 -0.051054772149278775 0 0.056737065203283865 -0.047449113923690708 0 0.055901999933958627 -0.048062922149945772 0 0.057076607244803901 -0.048586493568289146 0 0.056737065203283865 -0.047449113923690708 0 0.055901999933958627 -0.048062922149945772 0 0.056356462935160063 -0.046569326146992163 0 0.055408044735419076 -0.049666072859579982 0 0.055518530491332478 -0.050860597000525032 0 0.056034913901133673 -0.050748603238503852 0 0.053930920533496872 -0.048665997532333208 0 0.052868211878822922 -0.049182054902315114 0 0.055518530491332478 -0.050860597000525032 0 0.055285257272433386 -0.051054772149278775 0 0.055560703269229648 -0.051455869453368115 0 0.055408044735419076 -0.049666072859579982 0 0.055518530491332478 -0.050860597000525032 0 0.055285257272433386 -0.051054772149278775 0 0.055285257272433386 -0.051054772149278775 0 0.055560703269229648 -0.051455869453368115 0 0.054832663883639395 -0.052830360388967851 0 0.052873392032036413 -0.049187618286101374 0 0.052868211878822922 -0.049182054902315114 0 0.055518530491332478 -0.050860597000525032 0 0.055560703269229648 -0.051455869453368115 0 0.056034913901133673 -0.050748603238503852 0 0.054998917682475272 -0.048156372269234832 0 0.054781648064480951 -0.053217711790090369 0 0.054994503441920452 -0.054998516765414326 0 0.054781648064480951 -0.053217711790090369 0 0.054994503441920452 -0.054998516765414326 0 0.051740746235093407 -0.054997766062823042 0 0.051740746235093407 -0.054997766062823042 0 0.054832663883639395 -0.052830360388967851 0 0.055518905832924896 -0.053050195546502303 0 0.054781648064480951 -0.053217711790090369 0 0.051740746235093407 -0.054997766062823042 0 0.054832663883639395 -0.052830360388967851 0 0.055560703269229648 -0.051455869453368115 0 0.054832663883639395 -0.052830360388967851 0 0.055518905832924896 -0.053050195546502303 0 0.055285257272433386 -0.051054772149278775 0 0.054781648064480951 -0.053217711790090369 0 0.054832663883639395 -0.052830360388967851 0 0.051923340344202901 -0.050402432464738009 0 0.051931171325598977 -0.050130859755079506 0 0.050942848152899019 -0.057293718510812906 0 0.049021097129016152 -0.057311716437347157 0 0.050162488123039702 -0.059486929086624674 0 0.051728661650130868 -0.054999991827096723 0 0.050942848152899019 -0.057293718510812906 0 0.048810548599450145 -0.054999995172370648 0 0.051929597964934501 -0.050451548827228056 0 0.051923340344202901 -0.050402432464738009 0 0.048810548599450145 -0.054999995172370648 0 0.049021097129016152 -0.057311716437347157 0 0.047081198697778583 -0.056586270081505213 0 0.050942848152899019 -0.057293718510812906 0 0.048810548599450145 -0.054999995172370648 0 0.049021097129016152 -0.057311716437347157 0 0.049021097129016152 -0.057311716437347157 0 0.050162488123039702 -0.059486929086624674 0 0.047836857939208166 -0.058368418680165776 0 0.051931171325598977 -0.050130859755079506 0 0.049746474607147553 -0.051737075033990644 0 0.050307914815393213 -0.05240691603751875 0 0.053375845467688338 -0.050930294724886131 0 0.05317266431302594 -0.053831633801060645 0 0.055560703269229648 -0.051455869453368115 0 0.055518905832924896 -0.053050195546502303 0 0.056542174049544591 -0.051330683773044283 0 0.055560703269229648 -0.051455869453368115 0 0.056542174049544591 -0.051330683773044283 0 0.055749232008539047 -0.050925801691066995 0 0.051931171325598977 -0.050130859755079506 0 0.052868211878822922 -0.049182054902315114 0 0.055927202958218576 -0.042820323472399009 0 0.055794098076026595 -0.042913533186091486 0 0.055908925585452865 -0.042627038508357855 0 0.056737065203283865 -0.047449113923690708 0 0.057076607244803901 -0.048586493568289146 0 0.057632019937464432 -0.046557445760999266 0 0.055927202958218576 -0.042820323472399009 0 0.056038648050628095 -0.042718938763231087 0 0.055908925585452865 -0.042627038508357855 0 0.055951742097778596 -0.042989926853910516 0 0.055927202958218576 -0.042820323472399009 0 0.055794098076026595 -0.042913533186091486 0 0.052868211878822922 -0.049182054902315114 0 0.053366518385612197 -0.048131006637307863 0 0.055951742097778596 -0.042989926853910516 0 0.055927202958218576 -0.042820323472399009 0 0.056038648050628095 -0.042718938763231087 0 0.050307914815393213 -0.05240691603751875 0 0.051428699438523406 -0.04930744201372806 0 0.053375845467688338 -0.050930294724886131 0 0.051428699438523406 -0.04930744201372806 0 0.053375845467688338 -0.050930294724886131 0 0.053667288043444873 -0.048378938960219116 0 0.051931171325598977 -0.050130859755079506 0 0.05228637789990162 -0.049235190274545648 0 0.053375845467688338 -0.050930294724886131 0 0.055178142039937386 -0.048872988156840116 0 0.053667288043444873 -0.048378938960219116 0 0.053375845467688338 -0.050930294724886131 0 0.055332338320981916 -0.051937149992734237 0 0.055178142039937386 -0.048872988156840116 0 0.055332338320981916 -0.051937149992734237 0 0.05739772557924494 -0.048745475141489782 0 0.055178142039937386 -0.048872988156840116 0 0.055332338320981916 -0.051937149992734237 0 0.055577977464773054 -0.053698695622911678 0 0.05317266431302594 -0.053831633801060645 0 0.055332338320981916 -0.051937149992734237 0 0.055577977464773054 -0.053698695622911678 0 0.056439776395457983 -0.053750817076637904 0 0.053375845467688338 -0.050930294724886131 0 0.055332338320981916 -0.051937149992734237 0 0.05317266431302594 -0.053831633801060645 0 0.048810548599450145 -0.054999995172370648 0 0.047081198697778583 -0.056586270081505213 0 0.044229420062759338 -0.054999993206051992 0 0.047836857939208166 -0.058368418680165776 0 0.047081198697778583 -0.056586270081505213 0 0.045504930527032451 -0.057248132810659949 0 0.049021097129016152 -0.057311716437347157 0 0.047836857939208166 -0.058368418680165776 0 0.047081198697778583 -0.056586270081505213 0 0.049746474607147553 -0.051737075033990644 0 0.047331316681677324 -0.053120042675886207 0 0.047081198697778583 -0.056586270081505213 0 0.045504930527032451 -0.057248132810659949 0 0.044229420062759338 -0.054999993206051992 0 0.055577977464773054 -0.053698695622911678 0 0.05317266431302594 -0.053831633801060645 0 0.055739337696658543 -0.055330166999093933 0 0.055577977464773054 -0.053698695622911678 0 0.055739337696658543 -0.055330166999093933 0 0.055648585064152774 -0.055035975188245621 0 0.055739337696658543 -0.055330166999093933 0 0.055648585064152774 -0.055035975188245621 0 0.054332699741694988 -0.056518472133872837 0 0.055577977464773054 -0.053698695622911678 0 0.055648585064152774 -0.055035975188245621 0 0.056439776395457983 -0.053750817076637904 0 0.055648585064152774 -0.055035975188245621 0 0.056100809304696173 -0.055063717523795921 0 0.056439776395457983 -0.053750817076637904 0 0.056100809304696173 -0.055063717523795921 0 0.058088226233411505 -0.054532727821407168 0 0.056439776395457983 -0.053750817076637904 0 0.056100809304696173 -0.055063717523795921 0 0.054332699741694988 -0.056518472133872837 0 0.058088226233411505 -0.054532727821407168 0 0.055648585064152774 -0.055035975188245621 0 0.056100809304696173 -0.055063717523795921 0 0.054332699741694988 -0.056518472133872837 0 0.047331316681677324 -0.053120042675886207 0 0.044431953592219943 -0.054221133100785163 0 0.045504930527032451 -0.057248132810659949 0 0.044229420062759338 -0.054999993206051992 0 0.043171536146579419 -0.05612471470814407 0 0.055739337696658543 -0.055330166999093933 0 0.053183338744902567 -0.055980011679303131 0 0.054332699741694988 -0.056518472133872837 0 0.040838465109026577 -0.054999997256973868 0 0.044229420062759338 -0.054999993206051992 0 0.043171536146579419 -0.05612471470814407 0 0.040848530919817071 -0.05499279624182226 0 0.042060951766579389 -0.060332142407866371 0 0.053183338744902567 -0.055980011679303131 0 0.040859096002666496 -0.054988782784362852 0 0.044431953592219943 -0.054221133100785163 0 0.061698966128569385 -0.055419336316177514 0 0.054332699741694988 -0.056518472133872837 0 0.058088226233411505 -0.054532727821407168 0 0.042060951766579389 -0.060332142407866371 0 0.053183338744902567 -0.055980011679303131 0 0.054332699741694988 -0.056518472133872837 0 0.043363024581326459 -0.052592751993446048 0 0.044046208841194701 -0.052515269865585523 0 0.061596220912328886 -0.051417202006097222 0 0.058088226233411505 -0.054532727821407168 0 0.058007022483821183 -0.051271693437306358 0 0.061698966128569385 -0.055419336316177514 0 0.061596220912328886 -0.051417202006097222 0 0.058088226233411505 -0.054532727821407168 0 0.055332338320981916 -0.051937149992734237 0 0.056439776395457983 -0.053750817076637904 0 0.058007022483821183 -0.051271693437306358 0 0.058088226233411505 -0.054532727821407168 0 0.056439776395457983 -0.053750817076637904 0 0.058007022483821183 -0.051271693437306358 0 0.055332338320981916 -0.051937149992734237 0 0.058007022483821183 -0.051271693437306358 0 0.05739772557924494 -0.048745475141489782 0 0.058007022483821183 -0.051271693437306358 0 0.059791514560363399 -0.048275667143680215 0 0.05739772557924494 -0.048745475141489782 0 0.061596220912328886 -0.051417202006097222 0 0.058007022483821183 -0.051271693437306358 0 0.059791514560363399 -0.048275667143680215 0 0.062857384227946289 -0.047608982392850364 0 0.059791514560363399 -0.048275667143680215 0 0.060572797600982838 -0.045411047101153533 0 0.059791514560363399 -0.048275667143680215 0 0.05739772557924494 -0.048745475141489782 0 0.05801403164083855 -0.046050501832803931 0 0.059791514560363399 -0.048275667143680215 0 0.05801403164083855 -0.046050501832803931 0 0.060572797600982838 -0.045411047101153533 0 0.05801403164083855 -0.046050501832803931 0 0.060572797600982838 -0.045411047101153533 0 0.058633463423737084 -0.044027210859581292 0 0.062845256029657195 -0.045208534928067048 0 0.060572797600982838 -0.045411047101153533 0 0.061941787076748564 -0.043203916487649034 0 0.060572797600982838 -0.045411047101153533 0 0.061941787076748564 -0.043203916487649034 0 0.060088254439281369 -0.042807859917022233 0 0.063148564658710368 -0.041432545888814669 0 0.061941787076748564 -0.043203916487649034 0 0.060539033434353254 -0.041014519009805218 0 0.061941787076748564 -0.043203916487649034 0 0.060539033434353254 -0.041014519009805218 0 0.060088254439281369 -0.042807859917022233 0 0.063148564658710368 -0.041432545888814669 0 0.060539033434353254 -0.041014519009805218 0 0.061614276994439485 -0.039585387096639051 0 0.060539033434353254 -0.041014519009805218 0 0.060088254439281369 -0.042807859917022233 0 0.058729177568027431 -0.040963807875714416 0 0.060539033434353254 -0.041014519009805218 0 0.058729177568027431 -0.040963807875714416 0 0.059794778087433914 -0.039789663658739545 0 0.060088254439281369 -0.042807859917022233 0 0.057848791788196983 -0.04243924743341207 0 0.058729177568027431 -0.040963807875714416 0 0.060572797600982838 -0.045411047101153533 0 0.060088254439281369 -0.042807859917022233 0 0.058633463423737084 -0.044027210859581292 0 0.060088254439281369 -0.042807859917022233 0 0.058633463423737084 -0.044027210859581292 0 0.057848791788196983 -0.04243924743341207 0 0.058633463423737084 -0.044027210859581292 0 0.057848791788196983 -0.04243924743341207 0 0.056362747186910228 -0.044835174835096823 0 0.057848791788196983 -0.04243924743341207 0 0.058729177568027431 -0.040963807875714416 0 0.057707196928623423 -0.040743245075581795 0 0.057848791788196983 -0.04243924743341207 0 0.056811101373363662 -0.041513758942534673 0 0.056079961813265772 -0.042386900756431478 0 0.057848791788196983 -0.04243924743341207 0 0.057707196928623423 -0.040743245075581795 0 0.056811101373363662 -0.041513758942534673 0 0.056811101373363662 -0.041513758942534673 0 0.056079961813265772 -0.042386900756431478 0 0.056609992798447931 -0.041766291246469862 0 0.052606164602775299 -0.048452610730636766 0 0.052519101294421972 -0.048660298089053727 0 0.057848791788196983 -0.04243924743341207 0 0.056079961813265772 -0.042386900756431478 0 0.056362747186910228 -0.044835174835096823 0 0.056362747186910228 -0.044835174835096823 0 0.055091007172286086 -0.046924132252782483 0 0.053133689897487672 -0.045828446808420104 0 0.056079961813265772 -0.042386900756431478 0 0.056362747186910228 -0.044835174835096823 0 0.053133689897487672 -0.045828446808420104 0 0.05801403164083855 -0.046050501832803931 0 0.058633463423737084 -0.044027210859581292 0 0.056362747186910228 -0.044835174835096823 0 0.05801403164083855 -0.046050501832803931 0 0.056362747186910228 -0.044835174835096823 0 0.056472541023373707 -0.047157645194089291 0 0.056362747186910228 -0.044835174835096823 0 0.056472541023373707 -0.047157645194089291 0 0.055091007172286086 -0.046924132252782483 0 0.05739772557924494 -0.048745475141489782 0 0.05801403164083855 -0.046050501832803931 0 0.056472541023373707 -0.047157645194089291 0 0.05739772557924494 -0.048745475141489782 0 0.056472541023373707 -0.047157645194089291 0 0.055178142039937386 -0.048872988156840116 0 0.053667288043444873 -0.048378938960219116 0 0.055091007172286086 -0.046924132252782483 0 0.053133689897487672 -0.045828446808420104 0 0.055178142039937386 -0.048872988156840116 0 0.053667288043444873 -0.048378938960219116 0 0.055091007172286086 -0.046924132252782483 0 0.056472541023373707 -0.047157645194089291 0 0.055178142039937386 -0.048872988156840116 0 0.055091007172286086 -0.046924132252782483 0 0.05228637789990162 -0.049235190274545648 0 0.052519101294421972 -0.048660298089053727 0 0.056038648050628095 -0.042718938763231087 0 0.055908925585452865 -0.042627038508357855 0 0.056099476362586859 -0.042479978246721992 0 0.051428699438523406 -0.04930744201372806 0 0.053667288043444873 -0.048378938960219116 0 0.053133689897487672 -0.045828446808420104 0 0.057632019937464432 -0.046557445760999266 0 0.056923967795209862 -0.045104907272003267 0 0.056356462935160063 -0.046569326146992163 0 0.053366518385612197 -0.048131006637307863 0 0.053647330423932632 -0.047520035882292685 0 0.057632019937464432 -0.046557445760999266 0 0.056923967795209862 -0.045104907272003267 0 0.057688459793082555 -0.043962790833862328 0 0.056923967795209862 -0.045104907272003267 0 0.057688459793082555 -0.043962790833862328 0 0.056573690313836807 -0.043619347588924356 0 0.055908925585452865 -0.042627038508357855 0 0.056028903790013199 -0.042406960803773736 0 0.056099476362586859 -0.042479978246721992 0 0.057688459793082555 -0.043962790833862328 0 0.056609992798447931 -0.041766291246469862 0 0.056771067029124676 -0.042583969668999702 0 0.056079961813265772 -0.042386900756431478 0 0.056028903790013199 -0.042406960803773736 0 0.056099476362586859 -0.042479978246721992 0 0.056079961813265772 -0.042386900756431478 0 0.056028903790013199 -0.042406960803773736 0 0.056609992798447931 -0.041766291246469862 0 0.053647330423932632 -0.047520035882292685 0 0.053736847101920435 -0.047314918775942072 0 0.056609992798447931 -0.041766291246469862 0 0.056365845926814186 -0.04113018253486906 0 0.056771067029124676 -0.042583969668999702 0 0.056811101373363662 -0.041513758942534673 0 0.056609992798447931 -0.041766291246469862 0 0.056988467903219542 -0.040072276261835869 0 0.056365845926814186 -0.04113018253486906 0 0.056110382446513174 -0.042111522219627696 0 0.056771067029124676 -0.042583969668999702 0 0.056365845926814186 -0.04113018253486906 0 0.056110382446513174 -0.042111522219627696 0 0.055756736403054098 -0.040932427310944638 0 0.056110382446513174 -0.042111522219627696 0 0.056771067029124676 -0.042583969668999702 0 0.056573690313836807 -0.043619347588924356 0 0.057688459793082555 -0.043962790833862328 0 0.056771067029124676 -0.042583969668999702 0 0.056573690313836807 -0.043619347588924356 0 0.055716706953997587 -0.043125408119273317 0 0.055514206184331789 -0.044424552757815608 0 0.0562503496910981 -0.044788448393102767 0 0.056110382446513174 -0.042111522219627696 0 0.056573690313836807 -0.043619347588924356 0 0.055716706953997587 -0.043125408119273317 0 0.056573690313836807 -0.043619347588924356 0 0.055716706953997587 -0.043125408119273317 0 0.0562503496910981 -0.044788448393102767 0 0.056110382446513174 -0.042111522219627696 0 0.055716706953997587 -0.043125408119273317 0 0.055280497869969365 -0.041312939888654629 0 0.056110382446513174 -0.042111522219627696 0 0.055280497869969365 -0.041312939888654629 0 0.055756736403054098 -0.040932427310944638 0 0.055716706953997587 -0.043125408119273317 0 0.055280497869969365 -0.041312939888654629 0 0.054999316642032788 -0.043216696285513903 0 0.055280497869969365 -0.041312939888654629 0 0.054999316642032788 -0.043216696285513903 0 0.054998898257310865 -0.040753758496054102 0 0.055716706953997587 -0.043125408119273317 0 0.054999316642032788 -0.043216696285513903 0 0.055514206184331789 -0.044424552757815608 0 0.054999316642032788 -0.043216696285513903 0 0.055514206184331789 -0.044424552757815608 0 0.054999376994571081 -0.045684696067372653 0 0.055514206184331789 -0.044424552757815608 0 0.0562503496910981 -0.044788448393102767 0 0.055616359201559239 -0.046529807976707867 0 0.055514206184331789 -0.044424552757815608 0 0.054999376994571081 -0.045684696067372653 0 0.055616359201559239 -0.046529807976707867 0 0.056923967795209862 -0.045104907272003267 0 0.0562503496910981 -0.044788448393102767 0 0.056356462935160063 -0.046569326146992163 0 0.0562503496910981 -0.044788448393102767 0 0.056356462935160063 -0.046569326146992163 0 0.055616359201559239 -0.046529807976707867 0 0.056923967795209862 -0.045104907272003267 0 0.056573690313836807 -0.043619347588924356 0 0.0562503496910981 -0.044788448393102767 0 0.055901999933958627 -0.048062922149945772 0 0.056356462935160063 -0.046569326146992163 0 0.055616359201559239 -0.046529807976707867 0 0.056737065203283865 -0.047449113923690708 0 0.057632019937464432 -0.046557445760999266 0 0.056356462935160063 -0.046569326146992163 0 0.054999476327437721 -0.048148775039852494 0 0.055901999933958627 -0.048062922149945772 0 0.055616359201559239 -0.046529807976707867 0 0.054999476327437721 -0.048148775039852494 0 0.054999376994571081 -0.045684696067372653 0 0.055616359201559239 -0.046529807976707867 0 0.056593073762191484 -0.035835840568193403 0 0.054999981177219645 -0.034441068594070152 0 0.055000002849913056 -0.037596207736551035 0 0.05403277361964709 -0.034518556649759752 0 0.055480658687453631 -0.035076481124964039 0 0.055280619627313655 -0.033115839746725828 0 0.055544657378099313 -0.039028572771153514 0 0.055861293047330264 -0.038484925905670028 0 0.05403277361964709 -0.034518556649759752 0 0.054085048249861135 -0.036668389998512851 0 0.055480658687453631 -0.035076481124964039 0 0.055501353386694478 -0.037225521530332373 0 0.055544657378099313 -0.039028572771153514 0 0.056593073762191484 -0.035835840568193403 0 0.055000002849913056 -0.037596207736551035 0 0.056659565112854547 -0.038865771425856753 0 0.055000002849913056 -0.037596207736551035 0 0.056659565112854547 -0.038865771425856753 0 0.054999995044604781 -0.040751317101382932 0 0.055544657378099313 -0.039028572771153514 0 0.055000001843777971 -0.040741776075074509 0 0.055538910401192382 -0.039050041847703318 0 0.055544657378099313 -0.039028572771153514 0 0.055280497869969365 -0.041312939888654629 0 0.055336748528784133 -0.040503824835209999 0 0.054998898257310865 -0.040753758496054102 0 0.055280497869969365 -0.041312939888654629 0 0.054084789227930551 -0.039224173699331281 0 0.055185577633476271 -0.03998929147826636 0 0.055280497869969365 -0.041312939888654629 0 0.055185577633476271 -0.03998929147826636 0 0.055756736403054098 -0.040932427310944638 0 0.054084789227930551 -0.039224173699331281 0 0.055352210685094362 -0.038806484091287646 0 0.054919430000658367 -0.036813306608991944 0 0.054084789227930551 -0.039224173699331281 0 0.055185577633476271 -0.03998929147826636 0 0.055352210685094362 -0.038806484091287646 0 0.055352210685094362 -0.038806484091287646 0 0.056485451239664232 -0.038315634458887603 0 0.054919430000658367 -0.036813306608991944 0 0.055352210685094362 -0.038806484091287646 0 0.056032523323854742 -0.039682451424564044 0 0.056485451239664232 -0.038315634458887603 0 0.055185577633476271 -0.03998929147826636 0 0.055352210685094362 -0.038806484091287646 0 0.056032523323854742 -0.039682451424564044 0 0.055185577633476271 -0.03998929147826636 0 0.056032523323854742 -0.039682451424564044 0 0.055756736403054098 -0.040932427310944638 0 0.056365845926814186 -0.04113018253486906 0 0.056032523323854742 -0.039682451424564044 0 0.055756736403054098 -0.040932427310944638 0 0.056609992798447931 -0.041766291246469862 0 0.056365845926814186 -0.04113018253486906 0 0.056988467903219542 -0.040072276261835869 0 0.056365845926814186 -0.04113018253486906 0 0.056032523323854742 -0.039682451424564044 0 0.056988467903219542 -0.040072276261835869 0 0.056988467903219542 -0.040072276261835869 0 0.056485451239664232 -0.038315634458887603 0 0.057643349495051843 -0.037803598467467704 0 0.056032523323854742 -0.039682451424564044 0 0.056988467903219542 -0.040072276261835869 0 0.056485451239664232 -0.038315634458887603 0 0.056485451239664232 -0.038315634458887603 0 0.056894908029926063 -0.036409132212456313 0 0.057643349495051843 -0.037803598467467704 0 0.056485451239664232 -0.038315634458887603 0 0.056894908029926063 -0.036409132212456313 0 0.054919430000658367 -0.036813306608991944 0 0.056894908029926063 -0.036409132212456313 0 0.054919430000658367 -0.036813306608991944 0 0.056690909955610748 -0.033735599668249995 0 0.055861293047330264 -0.038484925905670028 0 0.056008191765035943 -0.038252948386936859 0 0.055480658687453631 -0.035076481124964039 0 0.056690909955610748 -0.033735599668249995 0 0.055280619627313655 -0.033115839746725828 0 0.056894908029926063 -0.036409132212456313 0 0.056690909955610748 -0.033735599668249995 0 0.058298712414640429 -0.035157635754481005 0 0.056690909955610748 -0.033735599668249995 0 0.058298712414640429 -0.035157635754481005 0 0.05899092654791907 -0.033138430676379636 0 0.058298712414640429 -0.035157635754481005 0 0.058735908501977428 -0.036607564701107251 0 0.060060211478748127 -0.034224797901897419 0 0.058298712414640429 -0.035157635754481005 0 0.060060211478748127 -0.034224797901897419 0 0.05899092654791907 -0.033138430676379636 0 0.058735908501977428 -0.036607564701107251 0 0.059892041364273847 -0.036589199320416613 0 0.060060211478748127 -0.034224797901897419 0 0.058298712414640429 -0.035157635754481005 0 0.058735908501977428 -0.036607564701107251 0 0.057643349495051843 -0.037803598467467704 0 0.056894908029926063 -0.036409132212456313 0 0.058298712414640429 -0.035157635754481005 0 0.057643349495051843 -0.037803598467467704 0 0.058735908501977428 -0.036607564701107251 0 0.057643349495051843 -0.037803598467467704 0 0.058615187875701462 -0.038863112282104283 0 0.056988467903219542 -0.040072276261835869 0 0.057643349495051843 -0.037803598467467704 0 0.058615187875701462 -0.038863112282104283 0 0.057707196928623423 -0.040743245075581795 0 0.056988467903219542 -0.040072276261835869 0 0.058615187875701462 -0.038863112282104283 0 0.057707196928623423 -0.040743245075581795 0 0.056811101373363662 -0.041513758942534673 0 0.056988467903219542 -0.040072276261835869 0 0.058729177568027431 -0.040963807875714416 0 0.057707196928623423 -0.040743245075581795 0 0.058615187875701462 -0.038863112282104283 0 0.058729177568027431 -0.040963807875714416 0 0.058615187875701462 -0.038863112282104283 0 0.059794778087433914 -0.039789663658739545 0 0.058735908501977428 -0.036607564701107251 0 0.058615187875701462 -0.038863112282104283 0 0.059892041364273847 -0.036589199320416613 0 0.058615187875701462 -0.038863112282104283 0 0.060882055877603668 -0.037751745697861605 0 0.059892041364273847 -0.036589199320416613 0 0.058615187875701462 -0.038863112282104283 0 0.060882055877603668 -0.037751745697861605 0 0.059794778087433914 -0.039789663658739545 0 0.060539033434353254 -0.041014519009805218 0 0.059794778087433914 -0.039789663658739545 0 0.061614276994439485 -0.039585387096639051 0 0.060882055877603668 -0.037751745697861605 0 0.059794778087433914 -0.039789663658739545 0 0.061614276994439485 -0.039585387096639051 0 0.061614276994439485 -0.039585387096639051 0 0.062445189838770974 -0.038135101698654819 0 0.06319930624004011 -0.039503446225459718 0 0.060882055877603668 -0.037751745697861605 0 0.062445189838770974 -0.038135101698654819 0 0.062864763126993586 -0.036194069683809664 0 0.060882055877603668 -0.037751745697861605 0 0.061614276994439485 -0.039585387096639051 0 0.062445189838770974 -0.038135101698654819 0 0.060882055877603668 -0.037751745697861605 0 0.061407406076309901 -0.035328127549275688 0 0.062864763126993586 -0.036194069683809664 0 0.061407406076309901 -0.035328127549275688 0 0.062864763126993586 -0.036194069683809664 0 0.063031942979144134 -0.034494819866717798 0 0.061407406076309901 -0.035328127549275688 0 0.059892041364273847 -0.036589199320416613 0 0.060060211478748127 -0.034224797901897419 0 0.060882055877603668 -0.037751745697861605 0 0.061407406076309901 -0.035328127549275688 0 0.059892041364273847 -0.036589199320416613 0 0.061407406076309901 -0.035328127549275688 0 0.060060211478748127 -0.034224797901897419 0 0.061915411884369095 -0.032955653378155904 0 0.061407406076309901 -0.035328127549275688 0 0.061915411884369095 -0.032955653378155904 0 0.063031942979144134 -0.034494819866717798 0 0.061915411884369095 -0.032955653378155904 0 0.060679970705848713 -0.032423904984330565 0 0.061679382967008714 -0.030775040586113928 0 0.060060211478748127 -0.034224797901897419 0 0.061915411884369095 -0.032955653378155904 0 0.060679970705848713 -0.032423904984330565 0 0.060679970705848713 -0.032423904984330565 0 0.061679382967008714 -0.030775040586113928 0 0.059791991456166101 -0.031270670375823616 0 0.061915411884369095 -0.032955653378155904 0 0.061679382967008714 -0.030775040586113928 0 0.063163506644641682 -0.031526770520404271 0 0.061679382967008714 -0.030775040586113928 0 0.062059431556579878 -0.028849232309555814 0 0.063202412463210469 -0.029805948470331002 0 0.062059431556579878 -0.028849232309555814 0 0.060303268710080897 -0.029343019590824408 0 0.06069200130504749 -0.027692550799393565 0 0.061679382967008714 -0.030775040586113928 0 0.062059431556579878 -0.028849232309555814 0 0.060303268710080897 -0.029343019590824408 0 0.061679382967008714 -0.030775040586113928 0 0.060303268710080897 -0.029343019590824408 0 0.059791991456166101 -0.031270670375823616 0 0.060303268710080897 -0.029343019590824408 0 0.058578724283445113 -0.029931579899476382 0 0.059791991456166101 -0.031270670375823616 0 0.060303268710080897 -0.029343019590824408 0 0.058884005308192072 -0.027598830276159392 0 0.06069200130504749 -0.027692550799393565 0 0.060303268710080897 -0.029343019590824408 0 0.058578724283445113 -0.029931579899476382 0 0.058884005308192072 -0.027598830276159392 0 0.058578724283445113 -0.029931579899476382 0 0.057355518998087586 -0.029171722781357459 0 0.058884005308192072 -0.027598830276159392 0 0.058578724283445113 -0.029931579899476382 0 0.058123146392822254 -0.031810416717538495 0 0.059791991456166101 -0.031270670375823616 0 0.058123146392822254 -0.031810416717538495 0 0.059791991456166101 -0.031270670375823616 0 0.05899092654791907 -0.033138430676379636 0 0.060060211478748127 -0.034224797901897419 0 0.060679970705848713 -0.032423904984330565 0 0.05899092654791907 -0.033138430676379636 0 0.060679970705848713 -0.032423904984330565 0 0.059791991456166101 -0.031270670375823616 0 0.05899092654791907 -0.033138430676379636 0 0.056690909955610748 -0.033735599668249995 0 0.058123146392822254 -0.031810416717538495 0 0.05899092654791907 -0.033138430676379636 0 0.056690909955610748 -0.033735599668249995 0 0.058123146392822254 -0.031810416717538495 0 0.056531983879424895 -0.030977537965983435 0 0.056690909955610748 -0.033735599668249995 0 0.056531983879424895 -0.030977537965983435 0 0.055280619627313655 -0.033115839746725828 0 0.056531983879424895 -0.030977537965983435 0 0.055985711592681481 -0.029734994108629089 0 0.055176190365447679 -0.030994188226193899 0 0.056531983879424895 -0.030977537965983435 0 0.055176190365447679 -0.030994188226193899 0 0.055280619627313655 -0.033115839746725828 0 0.058578724283445113 -0.029931579899476382 0 0.058123146392822254 -0.031810416717538495 0 0.056531983879424895 -0.030977537965983435 0 0.058578724283445113 -0.029931579899476382 0 0.056531983879424895 -0.030977537965983435 0 0.057355518998087586 -0.029171722781357459 0 0.057355518998087586 -0.029171722781357459 0 0.057418219607844427 -0.027648166941798974 0 0.058884005308192072 -0.027598830276159392 0 0.057418219607844427 -0.027648166941798974 0 0.056335624570636664 -0.028205777353119743 0 0.05608787247477813 -0.027008455884694898 0 0.057355518998087586 -0.029171722781357459 0 0.057418219607844427 -0.027648166941798974 0 0.056335624570636664 -0.028205777353119743 0 0.057355518998087586 -0.029171722781357459 0 0.056335624570636664 -0.028205777353119743 0 0.055985711592681481 -0.029734994108629089 0 0.056531983879424895 -0.030977537965983435 0 0.057355518998087586 -0.029171722781357459 0 0.055985711592681481 -0.029734994108629089 0 0.056335624570636664 -0.028205777353119743 0 0.055985711592681481 -0.029734994108629089 0 0.054401719770689166 -0.029342400326134773 0 0.055985711592681481 -0.029734994108629089 0 0.054401719770689166 -0.029342400326134773 0 0.055176190365447679 -0.030994188226193899 0 0.054401719770689166 -0.029342400326134773 0 0.055575011169601313 -0.026835312535819136 0 0.05608787247477813 -0.027008455884694898 0 0.056335624570636664 -0.028205777353119743 0 0.054401719770689166 -0.029342400326134773 0 0.05608787247477813 -0.027008455884694898 0 0.054999418618392339 -0.02813008896529207 0 0.056385277754404182 -0.029707039403542607 0 0.055575011169601313 -0.026835312535819136 0 0.055454796436326968 -0.034741797657165466 0 0.055450496167519764 -0.034364672221787115 0 0.054999418618392339 -0.02813008896529207 0 0.056385277754404182 -0.029707039403542607 0 0.055000060188981251 -0.031286019235527249 0 0.056385277754404182 -0.029707039403542607 0 0.055000060188981251 -0.031286019235527249 0 0.056526443915038249 -0.032804839923510527 0 0.055454796436326968 -0.034741797657165466 0 0.05547066081329094 -0.035745614389934857 0 0.054401719770689166 -0.029342400326134773 0 0.055176190365447679 -0.030994188226193899 0 0.053974311259657841 -0.032168800312651687 0 0.055176190365447679 -0.030994188226193899 0 0.055280619627313655 -0.033115839746725828 0 0.053974311259657841 -0.032168800312651687 0 0.05403277361964709 -0.034518556649759752 0 0.055280619627313655 -0.033115839746725828 0 0.053974311259657841 -0.032168800312651687 0 0.054999981177219645 -0.034441068594070152 0 0.055000060188981251 -0.031286019235527249 0 0.056526443915038249 -0.032804839923510527 0 0.055501353386694478 -0.037225521530332373 0 0.05547066081329094 -0.035745614389934857 0 0.056593073762191484 -0.035835840568193403 0 0.054999981177219645 -0.034441068594070152 0 0.056526443915038249 -0.032804839923510527 0 0.037750250007630791 -0.035417118235417114 0 0.037279354042665712 -0.035863375295154251 0 0.038291628153280272 -0.035906656824243328 0 0.037750250007630791 -0.035417118235417114 0 0.037279354042665712 -0.035863375295154251 0 0.037008664561650521 -0.035401236807800801 0 0.037279354042665712 -0.035863375295154251 0 0.037008664561650521 -0.035401236807800801 0 0.036273376853089227 -0.03582377264022945 0 0.037251364259455105 -0.034977673540221917 0 0.036571440662984858 -0.035095970969019688 0 0.03686830592090462 -0.034361463292363677 0 0.037008664561650521 -0.035401236807800801 0 0.037251364259455105 -0.034977673540221917 0 0.036571440662984858 -0.035095970969019688 0 0.037251364259455105 -0.034977673540221917 0 0.037683775012251286 -0.034899793481907394 0 0.037391773414528019 -0.034683867080816902 0 0.037750250007630791 -0.035417118235417114 0 0.037008664561650521 -0.035401236807800801 0 0.037251364259455105 -0.034977673540221917 0 0.037750250007630791 -0.035417118235417114 0 0.037251364259455105 -0.034977673540221917 0 0.037683775012251286 -0.034899793481907394 0 0.038179970032260473 -0.034933095432067997 0 0.038267711862868196 -0.034915765475745292 0 0.038291628153280272 -0.035906656824243328 0 0.029567579355823492 -0.034150209819412594 0 0.029561802008049899 -0.034150911398267564 0 0.037750250007630791 -0.035417118235417114 0 0.037683775012251286 -0.034899793481907394 0 0.038179970032260473 -0.034933095432067997 0 0.024970370050120386 -0.033147223021566474 0 0.029561802008049899 -0.034150911398267564 0 0.019109519611872634 -0.060639895660791032 0 0.019788446743524365 -0.060493756898989878 0 0.019313408533108086 -0.060099133493757659 0 0.019184132023637598 -0.059638307124310903 0 0.019313408533108086 -0.060099133493757659 0 0.019760760489755273 -0.059637219951234513 0 0.019788446743524365 -0.060493756898989878 0 0.019313408533108086 -0.060099133493757659 0 0.019760760489755273 -0.059637219951234513 0 0.029561802008049899 -0.034150911398267564 0 0.032504314610180801 -0.036823325447895704 0 0.037750250007630791 -0.035417118235417114 0 0.038179970032260473 -0.034933095432067997 0 0.038291628153280272 -0.035906656824243328 0 0.020621578545179164 -0.059250610129259348 0 0.019863496075248805 -0.058629907045301799 0 0.022118598770381057 -0.058374985849800325 0 0.020625451445711415 -0.060151528200823257 0 0.020621578545179164 -0.059250610129259348 0 0.022118598770381057 -0.058374985849800325 0 0.032504314610180801 -0.036823325447895704 0 0.032485319765956679 -0.036992645434128994 0 0.019184132023637598 -0.059638307124310903 0 0.020621578545179164 -0.059250610129259348 0 0.019863496075248805 -0.058629907045301799 0 0.032026582799957015 -0.037039485559286885 0 0.032504314610180801 -0.036823325447895704 0 0.019184132023637598 -0.059638307124310903 0 0.020631027750342885 -0.059824934883079425 0 0.020621578545179164 -0.059250610129259348 0 0.019000649119890137 -0.058872570564216624 0 0.018606887002701956 -0.058664852825007108 0 0.019549944112140942 -0.058713977015631205 0 0.019000649119890137 -0.058872570564216624 0 0.019294626665945423 -0.059092050581981331 0 0.019549944112140942 -0.058713977015631205 0 0.032164537590793907 -0.045743631098229563 0 0.034205336838633457 -0.045227921567892973 0 0.019294626665945423 -0.059092050581981331 0 0.019549944112140942 -0.058713977015631205 0 0.02023776787422675 -0.059176783396096867 0 0.02013449850777492 -0.058932626544659722 0 0.020296685462835383 -0.058960240237786371 0 0.019549944112140942 -0.058713977015631205 0 0.02023776787422675 -0.059176783396096867 0 0.020756290317126034 -0.058938906068536502 0 0.034205336838633457 -0.045227921567892973 0 0.037682998972746809 -0.044356583459132251 0 0.02023776787422675 -0.059176783396096867 0 0.020756290317126034 -0.058938906068536502 0 0.021227288745851641 -0.059262746163143774 0 0.020362318467280392 -0.058706597830376718 0 0.019615803176172637 -0.058968165986220171 0 0.020811552425762051 -0.05914897804780285 0 0.023832985601953717 -0.060321182258423339 0 0.022118598770381057 -0.058374985849800325 0 0.024814787783937375 -0.058354982809158615 0 0.037088742912748815 -0.037606612372397125 0 0.032504314610180801 -0.036823325447895704 0 0.023832985601953717 -0.060321182258423339 0 0.020625451445711415 -0.060151528200823257 0 0.022118598770381057 -0.058374985849800325 0 0.023832985601953717 -0.060321182258423339 0 0.024814787783937375 -0.058354982809158615 0 0.026178938391015653 -0.059115660549198784 0 0.021259600445656997 -0.058715783156102971 0 0.020811552425762051 -0.05914897804780285 0 0.02148164181215478 -0.058884800579228437 0 0.020811552425762051 -0.05914897804780285 0 0.02148164181215478 -0.058884800579228437 0 0.021871575679141969 -0.059155873344256503 0 0.020296685462835383 -0.058960240237786371 0 0.020389044134317802 -0.058975947452856448 0 0.020756290317126034 -0.058938906068536502 0 0.021227288745851641 -0.059262746163143774 0 0.02196177623922696 -0.059245128442652097 0 0.037682998972746809 -0.044356583459132251 0 0.042804641961407618 -0.043108961559526732 0 0.02148164181215478 -0.058884800579228437 0 0.021871575679141969 -0.059155873344256503 0 0.022000487679308421 -0.058982033295786725 0 0.020811552425762051 -0.05914897804780285 0 0.02196177623922696 -0.059245128442652097 0 0.021871575679141969 -0.059155873344256503 0 0.021227288745851641 -0.059262746163143774 0 0.02196177623922696 -0.059245128442652097 0 0.02220466640193287 -0.05936481787234521 0 0.021493429389156112 -0.058603367400730723 0 0.02148164181215478 -0.058884800579228437 0 0.022000487679308421 -0.058982033295786725 0 0.02196177623922696 -0.059245128442652097 0 0.022017473474973931 -0.058938340215472375 0 0.02220466640193287 -0.05936481787234521 0 0.043103677988616404 -0.044523014316858095 0 0.042804641961407618 -0.043108961559526732 0 0.02196177623922696 -0.059245128442652097 0 0.021871575679141969 -0.059155873344256503 0 0.022017473474973931 -0.058938340215472375 0 0.043044066533949148 -0.044593170417237565 0 0.043103677988616404 -0.044523014316858095 0 0.042804641961407618 -0.043108961559526732 0 0.044269866623606498 -0.041253119302435866 0 0.06835832406581463 -0.039946135476098592 0 0.066777985569483028 -0.040168925481687462 0 0.067791079555254097 -0.038684771564769488 0 0.06630762667506887 -0.039352148633407164 0 0.067791079555254097 -0.038684771564769488 0 0.065625688504312024 -0.038618968265298578 0 0.066777985569483028 -0.040168925481687462 0 0.06630762667506887 -0.039352148633407164 0 0.065789331738668577 -0.039955783944775301 0 0.066777985569483028 -0.040168925481687462 0 0.06630762667506887 -0.039352148633407164 0 0.067791079555254097 -0.038684771564769488 0 0.040973643002886445 -0.043020496202637683 0 0.042951084706354427 -0.043079154323718657 0 0.04188298969993455 -0.045056121466603732 0 0.042951084706354427 -0.043079154323718657 0 0.042303741445831301 -0.045073576470168804 0 0.04188298969993455 -0.045056121466603732 0 0.042804641961407618 -0.043108961559526732 0 0.043394040549875994 -0.039581360507103709 0 0.027593067259921184 -0.05839480261217591 0 0.027589566014696178 -0.059818360540677566 0 0.028545786768202047 -0.060508570010078713 0 0.027593067259921184 -0.05839480261217591 0 0.027589566014696178 -0.059818360540677566 0 0.027104565130318628 -0.05923334028741848 0 0.027589566014696178 -0.059818360540677566 0 0.027323643294296311 -0.060456011277161846 0 0.028545786768202047 -0.060508570010078713 0 0.042769608463105735 -0.038038010882236066 0 0.042811547898169322 -0.037951493801432562 0 0.026178938391015653 -0.059115660549198784 0 0.027104565130318628 -0.05923334028741848 0 0.027312667692858662 -0.060467323494028932 0 0.027589566014696178 -0.059818360540677566 0 0.027104565130318628 -0.05923334028741848 0 0.027312667692858662 -0.060467323494028932 0 0.023832985601953717 -0.060321182258423339 0 0.026178938391015653 -0.059115660549198784 0 0.027312667692858662 -0.060467323494028932 0 0.024814787783937375 -0.058354982809158615 0 0.027593067259921184 -0.05839480261217591 0 0.026178938391015653 -0.059115660549198784 0 0.027593067259921184 -0.05839480261217591 0 0.026178938391015653 -0.059115660549198784 0 0.027104565130318628 -0.05923334028741848 0 0.063148564658710368 -0.041432545888814669 0 0.061614276994439485 -0.039585387096639051 0 0.06319930624004011 -0.039503446225459718 0 0.063148564658710368 -0.041432545888814669 0 0.06319930624004011 -0.039503446225459718 0 0.064051296203953209 -0.040274537162240651 0 0.062445189838770974 -0.038135101698654819 0 0.06319930624004011 -0.039503446225459718 0 0.064083031355193526 -0.038578812833530998 0 0.06319930624004011 -0.039503446225459718 0 0.064051296203953209 -0.040274537162240651 0 0.064547691598080728 -0.039318936668262403 0 0.06319930624004011 -0.039503446225459718 0 0.064547691598080728 -0.039318936668262403 0 0.064083031355193526 -0.038578812833530998 0 0.064547691598080728 -0.039318936668262403 0 0.065616380192465892 -0.038643522468637295 0 0.064083031355193526 -0.038578812833530998 0 0.064547691598080728 -0.039318936668262403 0 0.065419345297507134 -0.039263912691505837 0 0.065616380192465892 -0.038643522468637295 0 0.064547691598080728 -0.039318936668262403 0 0.065055349297955728 -0.039939998119111274 0 0.065419345297507134 -0.039263912691505837 0 0.065465388056705917 -0.040905255694791372 0 0.064051296203953209 -0.040274537162240651 0 0.065055349297955728 -0.039939998119111274 0 0.064051296203953209 -0.040274537162240651 0 0.064547691598080728 -0.039318936668262403 0 0.065055349297955728 -0.039939998119111274 0 0.065465388056705917 -0.040905255694791372 0 0.066777985569483028 -0.040168925481687462 0 0.065789331738668577 -0.039955783944775301 0 0.065465388056705917 -0.040905255694791372 0 0.065055349297955728 -0.039939998119111274 0 0.065789331738668577 -0.039955783944775301 0 0.065055349297955728 -0.039939998119111274 0 0.065789331738668577 -0.039955783944775301 0 0.065419345297507134 -0.039263912691505837 0 0.06630762667506887 -0.039352148633407164 0 0.065789331738668577 -0.039955783944775301 0 0.065419345297507134 -0.039263912691505837 0 0.044292294746103175 -0.041232545836738056 0 0.044269866623606498 -0.041253119302435866 0 0.06630762667506887 -0.039352148633407164 0 0.065419345297507134 -0.039263912691505837 0 0.065625688504312024 -0.038618968265298578 0 0.064779748705220547 -0.037443641114945143 0 0.062864763126993586 -0.036194069683809664 0 0.066431551096013966 -0.03639973352613457 0 0.065726854414016878 -0.03860635210394088 0 0.064779748705220547 -0.037443641114945143 0 0.066431551096013966 -0.03639973352613457 0 0.044269866623606498 -0.041253119302435866 0 0.043855839199948288 -0.039576844521127821 0 0.044269866623606498 -0.041253119302435866 0 0.044621258835046113 -0.041249360164471775 0 0.065726854414016878 -0.03860635210394088 0 0.064779748705220547 -0.037443641114945143 0 0.064083031355193526 -0.038578812833530998 0 0.064779748705220547 -0.037443641114945143 0 0.064083031355193526 -0.038578812833530998 0 0.062864763126993586 -0.036194069683809664 0 0.062445189838770974 -0.038135101698654819 0 0.064083031355193526 -0.038578812833530998 0 0.062864763126993586 -0.036194069683809664 0 0.062864763126993586 -0.036194069683809664 0 0.064134790095469615 -0.035176403049961114 0 0.063031942979144134 -0.034494819866717798 0 0.062864763126993586 -0.036194069683809664 0 0.064134790095469615 -0.035176403049961114 0 0.065225421794148628 -0.035808998024346506 0 0.045428255981220113 -0.039553002071991111 0 0.043855839199948288 -0.039576844521127821 0 0.064134790095469615 -0.035176403049961114 0 0.064648049457092863 -0.034809568619997934 0 0.064229698783875785 -0.034220065953463351 0 0.064134790095469615 -0.035176403049961114 0 0.064909703966595428 -0.035281197335498331 0 0.065225421794148628 -0.035808998024346506 0 0.064134790095469615 -0.035176403049961114 0 0.064909703966595428 -0.035281197335498331 0 0.064648049457092863 -0.034809568619997934 0 0.064909703966595428 -0.035281197335498331 0 0.064648049457092863 -0.034809568619997934 0 0.065014409471290308 -0.034878450953540092 0 0.064648049457092863 -0.034809568619997934 0 0.065014409471290308 -0.034878450953540092 0 0.064893305146793187 -0.034385271331660763 0 0.064893305146793187 -0.034385271331660763 0 0.064899900928010554 -0.033804154082928715 0 0.064229698783875785 -0.034220065953463351 0 0.064648049457092863 -0.034809568619997934 0 0.064893305146793187 -0.034385271331660763 0 0.064229698783875785 -0.034220065953463351 0 0.064893305146793187 -0.034385271331660763 0 0.064899900928010554 -0.033804154082928715 0 0.065105868110769932 -0.034087675285156091 0 0.064899900928010554 -0.033804154082928715 0 0.064436421766181667 -0.033271621131119006 0 0.064229698783875785 -0.034220065953463351 0 0.064899900928010554 -0.033804154082928715 0 0.064436421766181667 -0.033271621131119006 0 0.065100226816089124 -0.033031402104265403 0 0.064436421766181667 -0.033271621131119006 0 0.064229698783875785 -0.034220065953463351 0 0.063577992300190483 -0.033168923369890128 0 0.064134790095469615 -0.035176403049961114 0 0.064229698783875785 -0.034220065953463351 0 0.063031942979144134 -0.034494819866717798 0 0.061915411884369095 -0.032955653378155904 0 0.063577992300190483 -0.033168923369890128 0 0.063031942979144134 -0.034494819866717798 0 0.064229698783875785 -0.034220065953463351 0 0.063577992300190483 -0.033168923369890128 0 0.063031942979144134 -0.034494819866717798 0 0.037088742912748815 -0.037606612372397125 0 0.042811547898169322 -0.037951493801432562 0 0.037008664561650521 -0.035401236807800801 0 0.036273376853089227 -0.03582377264022945 0 0.036571440662984858 -0.035095970969019688 0 0.065002190940192481 -0.015466038036461278 0 0.065168588064296526 -0.017286227544540594 0 0.063959003663834307 -0.017870213044009275 0 0.042811547898169322 -0.037951493801432562 0 0.044070042934029149 -0.033011504758139125 0 0.065002190940192481 -0.015466038036461278 0 0.066197255503275002 -0.015523631503691173 0 0.065922476325435519 -0.015927761934741273 0 0.042811547898169322 -0.037951493801432562 0 0.043394040549875994 -0.039581360507103709 0 0.065002190940192481 -0.015466038036461278 0 0.065647626089681568 -0.016263309976839911 0 0.065168588064296526 -0.017286227544540594 0 0.065002190940192481 -0.015466038036461278 0 0.065922476325435519 -0.015927761934741273 0 0.065647626089681568 -0.016263309976839911 0 0.044042730686212166 -0.042612560613661782 0 0.044449758401225538 -0.042629654178323859 0 0.044210895764539744 -0.042092738126676972 0 0.043855839199948288 -0.039576844521127821 0 0.043394040549875994 -0.039581360507103709 0 0.066197255503275002 -0.015523631503691173 0 0.065922476325435519 -0.015927761934741273 0 0.066445137852205183 -0.016078127377158555 0 0.043394040549875994 -0.039581360507103709 0 0.043778922468689044 -0.039080735342840997 0 0.065922476325435519 -0.015927761934741273 0 0.066445137852205183 -0.016078127377158555 0 0.065950925879507377 -0.016318016452052893 0 0.064909703966595428 -0.035281197335498331 0 0.065225421794148628 -0.035808998024346506 0 0.065378011163225017 -0.035442200971303468 0 0.043855839199948288 -0.039576844521127821 0 0.043778922468689044 -0.039080735342840997 0 0.065014409471290308 -0.034878450953540092 0 0.065378011163225017 -0.035442200971303468 0 0.065341939158864673 -0.034525286408991253 0 0.066445137852205183 -0.016078127377158555 0 0.065950925879507377 -0.016318016452052893 0 0.065788438931814186 -0.017005592358669327 0 0.064909703966595428 -0.035281197335498331 0 0.065014409471290308 -0.034878450953540092 0 0.065378011163225017 -0.035442200971303468 0 0.065647626089681568 -0.016263309976839911 0 0.065788438931814186 -0.017005592358669327 0 0.065168588064296526 -0.017286227544540594 0 0.065950925879507377 -0.016318016452052893 0 0.065647626089681568 -0.016263309976839911 0 0.065788438931814186 -0.017005592358669327 0 0.065922476325435519 -0.015927761934741273 0 0.065950925879507377 -0.016318016452052893 0 0.065647626089681568 -0.016263309976839911 0 0.065341939158864673 -0.034525286408991253 0 0.065286204877271659 -0.033636031760737123 0 0.065910910111639964 -0.032704560177425852 0 0.065788438931814186 -0.017005592358669327 0 0.065168588064296526 -0.017286227544540594 0 0.065539620069444429 -0.019141292300292028 0 0.066445137852205183 -0.016078127377158555 0 0.065788438931814186 -0.017005592358669327 0 0.065539620069444429 -0.019141292300292028 0 0.065378011163225017 -0.035442200971303468 0 0.065341939158864673 -0.034525286408991253 0 0.065910910111639964 -0.032704560177425852 0 0.065168588064296526 -0.017286227544540594 0 0.064916101804747037 -0.018535301441175819 0 0.065539620069444429 -0.019141292300292028 0 0.043778922468689044 -0.039080735342840997 0 0.046530969469970922 -0.03521960287221533 0 0.065341939158864673 -0.034525286408991253 0 0.065105868110769932 -0.034087675285156091 0 0.065286204877271659 -0.033636031760737123 0 0.065014409471290308 -0.034878450953540092 0 0.064893305146793187 -0.034385271331660763 0 0.065341939158864673 -0.034525286408991253 0 0.064893305146793187 -0.034385271331660763 0 0.065341939158864673 -0.034525286408991253 0 0.065105868110769932 -0.034087675285156091 0 0.064899900928010554 -0.033804154082928715 0 0.065105868110769932 -0.034087675285156091 0 0.065286204877271659 -0.033636031760737123 0 0.065286204877271659 -0.033636031760737123 0 0.065100226816089124 -0.033031402104265403 0 0.065910910111639964 -0.032704560177425852 0 0.064899900928010554 -0.033804154082928715 0 0.065286204877271659 -0.033636031760737123 0 0.065100226816089124 -0.033031402104265403 0 0.065168588064296526 -0.017286227544540594 0 0.064916101804747037 -0.018535301441175819 0 0.063959003663834307 -0.017870213044009275 0 0.064916101804747037 -0.018535301441175819 0 0.063959003663834307 -0.017870213044009275 0 0.062830126184714771 -0.020453919893351515 0 0.064916101804747037 -0.018535301441175819 0 0.065539620069444429 -0.019141292300292028 0 0.062833801740361239 -0.020355688329931114 0 0.065539620069444429 -0.019141292300292028 0 0.064675689283481483 -0.022472080883354284 0 0.062833801740361239 -0.020355688329931114 0 0.044070042934029149 -0.033011504758139125 0 0.044898241666907417 -0.028874821266908917 0 0.045730614756118865 -0.028213657482388022 0 0.044898241666907417 -0.028874821266908917 0 0.065100226816089124 -0.033031402104265403 0 0.065116585341391683 -0.032248787056555706 0 0.064400922867349622 -0.032134283099645937 0 0.065100226816089124 -0.033031402104265403 0 0.065910910111639964 -0.032704560177425852 0 0.065116585341391683 -0.032248787056555706 0 0.065910910111639964 -0.032704560177425852 0 0.065116585341391683 -0.032248787056555706 0 0.065124429128707945 -0.031148021598658239 0 0.065116585341391683 -0.032248787056555706 0 0.065124429128707945 -0.031148021598658239 0 0.064400922867349622 -0.032134283099645937 0 0.065910910111639964 -0.032704560177425852 0 0.065124429128707945 -0.031148021598658239 0 0.065723462178558859 -0.029723771292639877 0 0.065124429128707945 -0.031148021598658239 0 0.064176614066646542 -0.030588068944689198 0 0.064747594506591566 -0.029678620733603799 0 0.065124429128707945 -0.031148021598658239 0 0.065723462178558859 -0.029723771292639877 0 0.064747594506591566 -0.029678620733603799 0 0.046530969469970922 -0.03521960287221533 0 0.048005319842207836 -0.033325748988153617 0 0.061915411884369095 -0.032955653378155904 0 0.063577992300190483 -0.033168923369890128 0 0.063163506644641682 -0.031526770520404271 0 0.063577992300190483 -0.033168923369890128 0 0.064400922867349622 -0.032134283099645937 0 0.063163506644641682 -0.031526770520404271 0 0.064436421766181667 -0.033271621131119006 0 0.063577992300190483 -0.033168923369890128 0 0.064400922867349622 -0.032134283099645937 0 0.064436421766181667 -0.033271621131119006 0 0.065100226816089124 -0.033031402104265403 0 0.064400922867349622 -0.032134283099645937 0 0.064400922867349622 -0.032134283099645937 0 0.064176614066646542 -0.030588068944689198 0 0.063163506644641682 -0.031526770520404271 0 0.065124429128707945 -0.031148021598658239 0 0.064400922867349622 -0.032134283099645937 0 0.064176614066646542 -0.030588068944689198 0 0.064176614066646542 -0.030588068944689198 0 0.063163506644641682 -0.031526770520404271 0 0.063202412463210469 -0.029805948470331002 0 0.061679382967008714 -0.030775040586113928 0 0.063163506644641682 -0.031526770520404271 0 0.063202412463210469 -0.029805948470331002 0 0.063202412463210469 -0.029805948470331002 0 0.064233905880148767 -0.02899438531159099 0 0.063543857265452308 -0.02841196643229665 0 0.064176614066646542 -0.030588068944689198 0 0.063202412463210469 -0.029805948470331002 0 0.064233905880148767 -0.02899438531159099 0 0.064176614066646542 -0.030588068944689198 0 0.064233905880148767 -0.02899438531159099 0 0.064747594506591566 -0.029678620733603799 0 0.064233905880148767 -0.02899438531159099 0 0.063543857265452308 -0.02841196643229665 0 0.064586823851302655 -0.028007886076710984 0 0.062059431556579878 -0.028849232309555814 0 0.063202412463210469 -0.029805948470331002 0 0.063543857265452308 -0.02841196643229665 0 0.062059431556579878 -0.028849232309555814 0 0.063543857265452308 -0.02841196643229665 0 0.062492917573181456 -0.027225668876887502 0 0.048005319842207836 -0.033325748988153617 0 0.048449801026130758 -0.032802817634975681 0 0.064675689283481483 -0.022472080883354284 0 0.063828173323343396 -0.026973000207667446 0 0.062046686487143746 -0.024991921720833896 0 0.065723462178558859 -0.029723771292639877 0 0.064594687568162001 -0.02826509923573756 0 0.063828173323343396 -0.026973000207667446 0 0.064233905880148767 -0.02899438531159099 0 0.064594687568162001 -0.02826509923573756 0 0.064747594506591566 -0.029678620733603799 0 0.065723462178558859 -0.029723771292639877 0 0.064594687568162001 -0.02826509923573756 0 0.064747594506591566 -0.029678620733603799 0 0.064233905880148767 -0.02899438531159099 0 0.064594687568162001 -0.02826509923573756 0 0.064586823851302655 -0.028007886076710984 0 0.064594687568162001 -0.02826509923573756 0 0.064586823851302655 -0.028007886076710984 0 0.063828173323343396 -0.026973000207667446 0 0.059982879296622771 -0.025595659827165197 0 0.062046686487143746 -0.024991921720833896 0 0.061541650260552659 -0.027605626178522382 0 0.063828173323343396 -0.026973000207667446 0 0.062046686487143746 -0.024991921720833896 0 0.061541650260552659 -0.027605626178522382 0 0.05988444283753417 -0.020342928376962149 0 0.055061182209997353 -0.023898713188697834 0 0.051580666142306927 -0.019453108555313521 0 0.05988444283753417 -0.020342928376962149 0 0.055061182209997353 -0.023898713188697834 0 0.057240753645318915 -0.02801326438043877 0 0.046864914672717056 -0.026699566611617192 0 0.04700985306461139 -0.026654002127911375 0 0.05988444283753417 -0.020342928376962149 0 0.058696782267188247 -0.012970385382987273 0 0.051580666142306927 -0.019453108555313521 0 0.05988444283753417 -0.020342928376962149 0 0.062687098404713745 -0.013462066342456757 0 0.058696782267188247 -0.012970385382987273 0 0.059982879296622771 -0.025595659827165197 0 0.062046686487143746 -0.024991921720833896 0 0.061539636599299417 -0.023032218316836481 0 0.046864914672717056 -0.026699566611617192 0 0.046250872130243356 -0.027237837425232492 0 0.064675689283481483 -0.022472080883354284 0 0.062046686487143746 -0.024991921720833896 0 0.061539636599299417 -0.023032218316836481 0 0.046250872130243356 -0.027237837425232492 0 0.044898241666907417 -0.028874821266908917 0 0.041699140869303153 -0.028302032340567544 0 0.044898241666907417 -0.028874821266908917 0 0.062687098404713745 -0.013462066342456757 0 0.058696782267188247 -0.012970385382987273 0 0.065517882501363867 -0.0067567077336767763 0 0.064675689283481483 -0.022472080883354284 0 0.061539636599299417 -0.023032218316836481 0 0.062833801740361239 -0.020355688329931114 0 0.037539044918269898 -0.033722848582558182 0 0.037763319074776626 -0.034496109948258032 0 0.03686830592090462 -0.034361463292363677 0 0.037763319074776626 -0.034496109948258032 0 0.037391773414528019 -0.034683867080816902 0 0.03686830592090462 -0.034361463292363677 0 0.037683775012251286 -0.034899793481907394 0 0.037763319074776626 -0.034496109948258032 0 0.037391773414528019 -0.034683867080816902 0 0.037251364259455105 -0.034977673540221917 0 0.037391773414528019 -0.034683867080816902 0 0.03686830592090462 -0.034361463292363677 0 0.036907662639119779 0.011216952016274807 0 0.047591735866009677 0.013265778545958354 0 0.040914678356798358 0.0042100080435799178 0 0.047591735866009677 0.013265778545958354 0 0.040914678356798358 0.0042100080435799178 0 0.047974284810282875 0.00038218736398595615 0 0.029561802008049899 -0.034150911398267564 0 0.033727596600069236 -0.030397417896835682 0 0.03826865515982697 -0.034915472528248392 0 0.037763319074776626 -0.034496109948258032 0 0.038248416424968811 -0.034001847652308272 0 0.037683775012251286 -0.034899793481907394 0 0.038179970032260473 -0.034933095432067997 0 0.037763319074776626 -0.034496109948258032 0 0.038179970032260473 -0.034933095432067997 0 0.03826865515982697 -0.034915472528248392 0 0.037763319074776626 -0.034496109948258032 0 0.037539044918269898 -0.033722848582558182 0 0.037763319074776626 -0.034496109948258032 0 0.038248416424968811 -0.034001847652308272 0 0.03315782281309889 0.0017508191400310816 0 0.040914678356798358 0.0042100080435799178 0 0.040996903665530889 -0.0041033664856607492 0 0.040914678356798358 0.0042100080435799178 0 0.047974284810282875 0.00038218736398595615 0 0.040996903665530889 -0.0041033664856607492 0 0.040996903665530889 -0.0041033664856607492 0 0.048727005082327766 -0.01238428562236272 0 0.040750742536883114 -0.011390261409300877 0 0.047974284810282875 0.00038218736398595615 0 0.040996903665530889 -0.0041033664856607492 0 0.048727005082327766 -0.01238428562236272 0 0.034600491579630466 -0.0073539113632036463 0 0.040996903665530889 -0.0041033664856607492 0 0.040750742536883114 -0.011390261409300877 0 0.033727596600069236 -0.030397417896835682 0 0.03760302705160281 -0.028521035359259372 0 0.037539044918269898 -0.033722848582558182 0 0.038248416424968811 -0.034001847652308272 0 0.038221837878931901 -0.033079873541356622 0 0.041699140869303153 -0.028302032340567544 0 0.03760302705160281 -0.028521035359259372 0 0.0491840613443177 -0.011932238366421691 0 0.046833830356556763 -0.01419696711243882 0 0.05100960459316059 -0.029764986568704667 0 0.03760302705160281 -0.028521035359259372 0 0.037640256956259888 -0.028482241662876488 0 0.040750742536883114 -0.011390261409300877 0 0.043705515095648038 -0.014355731091244895 0 0.039622810268614209 -0.016079806999621332 0 0.048727005082327766 -0.01238428562236272 0 0.046833830356556763 -0.01419696711243882 0 0.043705515095648038 -0.014355731091244895 0 0.048727005082327766 -0.01238428562236272 0 0.040750742536883114 -0.011390261409300877 0 0.043705515095648038 -0.014355731091244895 0 0.046833830356556763 -0.01419696711243882 0 0.043705515095648038 -0.014355731091244895 0 0.043585514284216267 -0.017994241716416486 0 0.043585514284216267 -0.017994241716416486 0 0.039622810268614209 -0.016079806999621332 0 0.039208762265994956 -0.02060822065125522 0 0.043705515095648038 -0.014355731091244895 0 0.043585514284216267 -0.017994241716416486 0 0.039622810268614209 -0.016079806999621332 0 0.043585514284216267 -0.017994241716416486 0 0.042668853161968168 -0.02729442617101082 0 0.05100960459316059 -0.029764986568704667 0 0.043585514284216267 -0.017994241716416486 0 0.039208762265994956 -0.02060822065125522 0 0.041261524731731503 -0.024671940179243533 0 0.037902809872223393 -0.020848851476138814 0 0.037849656674434441 -0.020948137942523044 0 0.039208762265994956 -0.02060822065125522 0 0.041261524731731503 -0.024671940179243533 0 0.034003361858927598 -0.024434159134108974 0 0.03760302705160281 -0.028521035359259372 0 0.037887029946615157 -0.028411015248349741 0 0.055061182209997353 -0.023898713188697834 0 0.05100960459316059 -0.029764986568704667 0 0.057240753645318915 -0.02801326438043877 0 0.046833830356556763 -0.01419696711243882 0 0.043585514284216267 -0.017994241716416486 0 0.05100960459316059 -0.029764986568704667 0 0.055061182209997353 -0.023898713188697834 0 0.051580666142306927 -0.019453108555313521 0 0.05100960459316059 -0.029764986568704667 0 0.05100960459316059 -0.029764986568704667 0 0.056204275154225464 -0.033227431619211538 0 0.057240753645318915 -0.02801326438043877 0 0.05100960459316059 -0.029764986568704667 0 0.041677556043247445 -0.035685640261572477 0 0.056204275154225464 -0.033227431619211538 0 0.07327845372769784 -0.026483751585676417 0 0.07080749459468369 -0.025601074005241874 0 0.070486669423397166 -0.026685093152169416 0 0.037752326868589474 -0.020954790400040502 0 0.044223335757521159 -0.021439289088737042 0 0.042668853161968168 -0.02729442617101082 0 0.05100960459316059 -0.029764986568704667 0 0.041677556043247445 -0.035685640261572477 0 0.041261524731731503 -0.024671940179243533 0 0.039559672606817829 -0.031686587404455041 0 0.034003361858927598 -0.024434159134108974 0 0.037849656674434441 -0.020948137942523044 0 0.037752326868589474 -0.020954790400040502 0 0.07327845372769784 -0.026483751585676417 0 0.072453022470141584 -0.024110398639487232 0 0.073794683684012846 -0.024153643419178476 0 0.037752326868589474 -0.020954790400040502 0 0.0330055107655262 -0.022583938694771169 0 0.07327845372769784 -0.026483751585676417 0 0.07183315766168924 -0.025027512758271295 0 0.072453022470141584 -0.024110398639487232 0 0.07327845372769784 -0.026483751585676417 0 0.07080749459468369 -0.025601074005241874 0 0.07183315766168924 -0.025027512758271295 0 0.07080749459468369 -0.025601074005241874 0 0.071235564376754407 -0.023979021513850726 0 0.069942206218237171 -0.024908696652730739 0 0.07080749459468369 -0.025601074005241874 0 0.07183315766168924 -0.025027512758271295 0 0.071235564376754407 -0.023979021513850726 0 0.07183315766168924 -0.025027512758271295 0 0.071235564376754407 -0.023979021513850726 0 0.072453022470141584 -0.024110398639487232 0 0.071235564376754407 -0.023979021513850726 0 0.072453022470141584 -0.024110398639487232 0 0.07227739259157899 -0.022969331878492552 0 0.072453022470141584 -0.024110398639487232 0 0.07227739259157899 -0.022969331878492552 0 0.073794683684012846 -0.024153643419178476 0 0.07227739259157899 -0.022969331878492552 0 0.073267689839788916 -0.022426834418925443 0 0.073794683684012846 -0.024153643419178476 0 0.067672100627889434 -0.024521534079872943 0 0.069942206218237171 -0.024908696652730739 0 0.068460837790057003 -0.022986107564813538 0 0.069942206218237171 -0.024908696652730739 0 0.0700290824832904 -0.022980502539249166 0 0.068460837790057003 -0.022986107564813538 0 0.071235564376754407 -0.023979021513850726 0 0.069942206218237171 -0.024908696652730739 0 0.0700290824832904 -0.022980502539249166 0 0.07080749459468369 -0.025601074005241874 0 0.069942206218237171 -0.024908696652730739 0 0.070486669423397166 -0.026685093152169416 0 0.069942206218237171 -0.024908696652730739 0 0.068600149056155538 -0.025654152466364356 0 0.070486669423397166 -0.026685093152169416 0 0.067672100627889434 -0.024521534079872943 0 0.069942206218237171 -0.024908696652730739 0 0.068600149056155538 -0.025654152466364356 0 0.047843816647549268 -0.021699816716029687 0 0.044223335757521159 -0.021439289088737042 0 0.068600149056155538 -0.025654152466364356 0 0.067749556096077135 -0.026961561375107111 0 0.070486669423397166 -0.026685093152169416 0 0.063302109077705129 -0.030582741408226963 0 0.056204275154225464 -0.033227431619211538 0 0.057240753645318915 -0.02801326438043877 0 0.059982879296622771 -0.025595659827165197 0 0.057240753645318915 -0.02801326438043877 0 0.061541650260552659 -0.027605626178522382 0 0.063302109077705129 -0.030582741408226963 0 0.057240753645318915 -0.02801326438043877 0 0.061541650260552659 -0.027605626178522382 0 0.063302109077705129 -0.030582741408226963 0 0.061541650260552659 -0.027605626178522382 0 0.064182223579806033 -0.028214568128504008 0 0.064586823851302655 -0.028007886076710984 0 0.063828173323343396 -0.026973000207667446 0 0.064182223579806033 -0.028214568128504008 0 0.063828173323343396 -0.026973000207667446 0 0.061541650260552659 -0.027605626178522382 0 0.064182223579806033 -0.028214568128504008 0 0.064586823851302655 -0.028007886076710984 0 0.064182223579806033 -0.028214568128504008 0 0.064817734013821335 -0.027492160762949816 0 0.063302109077705129 -0.030582741408226963 0 0.064182223579806033 -0.028214568128504008 0 0.064817734013821335 -0.027492160762949816 0 0.067749556096077135 -0.026961561375107111 0 0.064817734013821335 -0.027492160762949816 0 0.06636521912534199 -0.025726564061778173 0 0.047843816647549268 -0.021699816716029687 0 0.048962956822419065 -0.021778480559231428 0 0.063543857265452308 -0.02841196643229665 0 0.063921687546547548 -0.027608567161341583 0 0.062492917573181456 -0.027225668876887502 0 0.064586823851302655 -0.028007886076710984 0 0.064817734013821335 -0.027492160762949816 0 0.063921687546547548 -0.027608567161341583 0 0.063543857265452308 -0.02841196643229665 0 0.064586823851302655 -0.028007886076710984 0 0.063921687546547548 -0.027608567161341583 0 0.064817734013821335 -0.027492160762949816 0 0.063921687546547548 -0.027608567161341583 0 0.063620131470566332 -0.026407852345484203 0 0.064817734013821335 -0.027492160762949816 0 0.063620131470566332 -0.026407852345484203 0 0.064809998559932372 -0.025834021001979603 0 0.063921687546547548 -0.027608567161341583 0 0.063620131470566332 -0.026407852345484203 0 0.062492917573181456 -0.027225668876887502 0 0.06132101848215897 -0.025257741142582064 0 0.061171678984117239 -0.025218905742951221 0 0.063620131470566332 -0.026407852345484203 0 0.062492917573181456 -0.027225668876887502 0 0.062107752486321416 -0.02572187435989538 0 0.063620131470566332 -0.026407852345484203 0 0.062990539068159004 -0.024191828599324373 0 0.061922449577946667 -0.024403427595807464 0 0.063620131470566332 -0.026407852345484203 0 0.061528531732166117 -0.025416006300600941 0 0.061922449577946667 -0.024403427595807464 0 0.063620131470566332 -0.026407852345484203 0 0.064105700621103739 -0.024928833160775845 0 0.064809998559932372 -0.025834021001979603 0 0.063620131470566332 -0.026407852345484203 0 0.064105700621103739 -0.024928833160775845 0 0.062990539068159004 -0.024191828599324373 0 0.064105700621103739 -0.024928833160775845 0 0.064080421279792452 -0.02365745022062607 0 0.06509403001632541 -0.024517266017346769 0 0.064080421279792452 -0.02365745022062607 0 0.062990539068159004 -0.024191828599324373 0 0.063123523476794841 -0.023195057598226439 0 0.064080421279792452 -0.02365745022062607 0 0.063123523476794841 -0.023195057598226439 0 0.063929352613024001 -0.023013451576882619 0 0.064105700621103739 -0.024928833160775845 0 0.064080421279792452 -0.02365745022062607 0 0.062990539068159004 -0.024191828599324373 0 0.062990539068159004 -0.024191828599324373 0 0.062209508338797154 -0.023549586630627513 0 0.063123523476794841 -0.023195057598226439 0 0.062990539068159004 -0.024191828599324373 0 0.062209508338797154 -0.023549586630627513 0 0.061922449577946667 -0.024403427595807464 0 0.067672100627889434 -0.024521534079872943 0 0.068600149056155538 -0.025654152466364356 0 0.06636521912534199 -0.025726564061778173 0 0.068600149056155538 -0.025654152466364356 0 0.067749556096077135 -0.026961561375107111 0 0.06636521912534199 -0.025726564061778173 0 0.064817734013821335 -0.027492160762949816 0 0.06636521912534199 -0.025726564061778173 0 0.064809998559932372 -0.025834021001979603 0 0.06636521912534199 -0.025726564061778173 0 0.064809998559932372 -0.025834021001979603 0 0.06509403001632541 -0.024517266017346769 0 0.064105700621103739 -0.024928833160775845 0 0.064809998559932372 -0.025834021001979603 0 0.06509403001632541 -0.024517266017346769 0 0.064080421279792452 -0.02365745022062607 0 0.06509403001632541 -0.024517266017346769 0 0.065334035292384726 -0.022869999198120813 0 0.06509403001632541 -0.024517266017346769 0 0.066357678763470859 -0.023764599327606752 0 0.065334035292384726 -0.022869999198120813 0 0.06636521912534199 -0.025726564061778173 0 0.06509403001632541 -0.024517266017346769 0 0.066357678763470859 -0.023764599327606752 0 0.067672100627889434 -0.024521534079872943 0 0.06636521912534199 -0.025726564061778173 0 0.066357678763470859 -0.023764599327606752 0 0.067672100627889434 -0.024521534079872943 0 0.066357678763470859 -0.023764599327606752 0 0.068460837790057003 -0.022986107564813538 0 0.066357678763470859 -0.023764599327606752 0 0.066682000009506595 -0.021859518882765976 0 0.065334035292384726 -0.022869999198120813 0 0.066357678763470859 -0.023764599327606752 0 0.066682000009506595 -0.021859518882765976 0 0.068460837790057003 -0.022986107564813538 0 0.066682000009506595 -0.021859518882765976 0 0.065334035292384726 -0.022869999198120813 0 0.063994254894317981 -0.022358535201729056 0 0.066682000009506595 -0.021859518882765976 0 0.064946707622556235 -0.020740243584816343 0 0.063842984697132218 -0.021508586824964926 0 0.06188268047805344 -0.020802974664580004 0 0.061465485180329849 -0.02079472877242099 0 0.064946707622556235 -0.020740243584816343 0 0.066034448577562049 -0.01988683807465998 0 0.06405256599996037 -0.019553539209233067 0 0.066682000009506595 -0.021859518882765976 0 0.064946707622556235 -0.020740243584816343 0 0.066034448577562049 -0.01988683807465998 0 0.066682000009506595 -0.021859518882765976 0 0.066034448577562049 -0.01988683807465998 0 0.068968479106499309 -0.020964540835897855 0 0.062209508338797154 -0.023549586630627513 0 0.063123523476794841 -0.023195057598226439 0 0.061729064001407936 -0.022657163164074574 0 0.063842984697132218 -0.021508586824964926 0 0.063604130639208958 -0.020857482909724119 0 0.061388949443871126 -0.021098442294228272 0 0.061465485180329849 -0.02079472877242099 0 0.060473453121416811 -0.020758758432208146 0 0.063123523476794841 -0.023195057598226439 0 0.063994254894317981 -0.022358535201729056 0 0.061729064001407936 -0.022657163164074574 0 0.063123523476794841 -0.023195057598226439 0 0.063929352613024001 -0.023013451576882619 0 0.063994254894317981 -0.022358535201729056 0 0.063929352613024001 -0.023013451576882619 0 0.064332888931358523 -0.022970299860704476 0 0.063994254894317981 -0.022358535201729056 0 0.064080421279792452 -0.02365745022062607 0 0.065334035292384726 -0.022869999198120813 0 0.064332888931358523 -0.022970299860704476 0 0.065334035292384726 -0.022869999198120813 0 0.064332888931358523 -0.022970299860704476 0 0.063994254894317981 -0.022358535201729056 0 0.064080421279792452 -0.02365745022062607 0 0.063929352613024001 -0.023013451576882619 0 0.064332888931358523 -0.022970299860704476 0 0.064946707622556235 -0.020740243584816343 0 0.063604130639208958 -0.020857482909724119 0 0.06405256599996037 -0.019553539209233067 0 0.063604130639208958 -0.020857482909724119 0 0.062639975391792807 -0.019688986545750218 0 0.06405256599996037 -0.019553539209233067 0 0.064946707622556235 -0.020740243584816343 0 0.063842984697132218 -0.021508586824964926 0 0.063604130639208958 -0.020857482909724119 0 0.063604130639208958 -0.020857482909724119 0 0.062639975391792807 -0.019688986545750218 0 0.061525202978698949 -0.020403220126744431 0 0.063604130639208958 -0.020857482909724119 0 0.061388949443871126 -0.021098442294228272 0 0.06149995983717288 -0.02018609696493472 0 0.060938881471526339 -0.020143707362043819 0 0.06081741012306436 -0.020123659588949631 0 0.062639975391792807 -0.019688986545750218 0 0.06405256599996037 -0.019553539209233067 0 0.062266652118405777 -0.018286756121061939 0 0.062639975391792807 -0.019688986545750218 0 0.062266652118405777 -0.018286756121061939 0 0.0614505951052653 -0.01923033343106547 0 0.06405256599996037 -0.019553539209233067 0 0.062266652118405777 -0.018286756121061939 0 0.06459371066978839 -0.018198408487985259 0 0.039213851655168115 -0.013155840332361198 0 0.039811616858624055 -0.013823492738210135 0 0.039281195610500724 -0.013928936307489599 0 0.048497679422093536 -0.019509455441636042 0 0.046407858735586678 -0.019960543986242807 0 0.040017991744264923 -0.013196950741729253 0 0.039213851655168115 -0.013155840332361198 0 0.039811616858624055 -0.013823492738210135 0 0.040017991744264923 -0.013196950741729253 0 0.040702241219227643 -0.014047247346631491 0 0.039811616858624055 -0.013823492738210135 0 0.066034448577562049 -0.01988683807465998 0 0.067180106407361995 -0.018147457175007882 0 0.068968479106499309 -0.020964540835897855 0 0.066034448577562049 -0.01988683807465998 0 0.06405256599996037 -0.019553539209233067 0 0.06459371066978839 -0.018198408487985259 0 0.066034448577562049 -0.01988683807465998 0 0.06459371066978839 -0.018198408487985259 0 0.067180106407361995 -0.018147457175007882 0 0.046407858735586678 -0.019960543986242807 0 0.043514148026800883 -0.02058285692598109 0 0.039213851655168115 -0.013155840332361198 0 0.038850764005390892 -0.013713115144440968 0 0.038238298231116866 -0.013550355282135981 0 0.039213851655168115 -0.013155840332361198 0 0.038850764005390892 -0.013713115144440968 0 0.039281195610500724 -0.013928936307489599 0 0.037737968965830988 -0.012827010604873483 0 0.038238298231116866 -0.013550355282135981 0 0.037450689195140718 -0.013995261608197652 0 0.039213851655168115 -0.013155840332361198 0 0.037737968965830988 -0.012827010604873483 0 0.038238298231116866 -0.013550355282135981 0 0.037737968965830988 -0.012827010604873483 0 0.035635555770748222 -0.012718694668806492 0 0.037450689195140718 -0.013995261608197652 0 0.043514148026800883 -0.02058285692598109 0 0.039312171224353987 -0.021412585122616821 0 0.067180106407361995 -0.018147457175007882 0 0.069842986524262449 -0.018154220158484859 0 0.068968479106499309 -0.020964540835897855 0 0.069842986524262449 -0.018154220158484859 0 0.071307126028072071 -0.020398020288935594 0 0.068968479106499309 -0.020964540835897855 0 0.039312171224353987 -0.021412585122616821 0 0.033104440166167572 -0.022493890930345362 0 0.035635555770748222 -0.012718694668806492 0 0.033401012632498096 -0.012701854901473755 0 0.034321271513557093 -0.013984126701037818 0 0.072451922067040431 -0.018142829430321569 0 0.072903806854388534 -0.020265257881631259 0 0.074657214645938941 -0.019942515975802065 0 0.072451922067040431 -0.018142829430321569 0 0.071307126028072071 -0.020398020288935594 0 0.072903806854388534 -0.020265257881631259 0 0.069842986524262449 -0.018154220158484859 0 0.072451922067040431 -0.018142829430321569 0 0.071307126028072071 -0.020398020288935594 0 0.071307126028072071 -0.020398020288935594 0 0.072299169552779832 -0.021536085219823618 0 0.071300398904165022 -0.022231776142392242 0 0.071307126028072071 -0.020398020288935594 0 0.072903806854388534 -0.020265257881631259 0 0.072299169552779832 -0.021536085219823618 0 0.072903806854388534 -0.020265257881631259 0 0.072299169552779832 -0.021536085219823618 0 0.073686855606749785 -0.021671587481387498 0 0.072299169552779832 -0.021536085219823618 0 0.073267689839788916 -0.022426834418925443 0 0.073686855606749785 -0.021671587481387498 0 0.072299169552779832 -0.021536085219823618 0 0.07227739259157899 -0.022969331878492552 0 0.073267689839788916 -0.022426834418925443 0 0.071235564376754407 -0.023979021513850726 0 0.071300398904165022 -0.022231776142392242 0 0.0700290824832904 -0.022980502539249166 0 0.071235564376754407 -0.023979021513850726 0 0.07227739259157899 -0.022969331878492552 0 0.071300398904165022 -0.022231776142392242 0 0.072299169552779832 -0.021536085219823618 0 0.07227739259157899 -0.022969331878492552 0 0.071300398904165022 -0.022231776142392242 0 0.071300398904165022 -0.022231776142392242 0 0.0700290824832904 -0.022980502539249166 0 0.068968479106499309 -0.020964540835897855 0 0.0700290824832904 -0.022980502539249166 0 0.068460837790057003 -0.022986107564813538 0 0.068968479106499309 -0.020964540835897855 0 0.066682000009506595 -0.021859518882765976 0 0.068460837790057003 -0.022986107564813538 0 0.068968479106499309 -0.020964540835897855 0 0.071307126028072071 -0.020398020288935594 0 0.071300398904165022 -0.022231776142392242 0 0.068968479106499309 -0.020964540835897855 0 0.056080633214045092 -0.022209020285749462 0 0.056934923575783572 -0.021835633654550924 0 0.054999873612542376 -0.020233032312613416 0 0.056080633214045092 -0.022209020285749462 0 0.054999536204144356 -0.022603950263849516 0 0.054999873612542376 -0.020233032312613416 0 0.056080633214045092 -0.022209020285749462 0 0.056856196982622668 -0.022918615311455715 0 0.056934923575783572 -0.021835633654550924 0 0.056080633214045092 -0.022209020285749462 0 0.056856196982622668 -0.022918615311455715 0 0.056242788339488259 -0.023629634476530013 0 0.056856196982622668 -0.022918615311455715 0 0.056242788339488259 -0.023629634476530013 0 0.057254746652389242 -0.024056437456036806 0 0.056242788339488259 -0.023629634476530013 0 0.056445708549006754 -0.025224128563666778 0 0.057254746652389242 -0.024056437456036806 0 0.056080633214045092 -0.022209020285749462 0 0.056242788339488259 -0.023629634476530013 0 0.054999536204144356 -0.022603950263849516 0 0.056242788339488259 -0.023629634476530013 0 0.054999536204144356 -0.022603950263849516 0 0.054999784586271423 -0.024974849615125624 0 0.056242788339488259 -0.023629634476530013 0 0.054999784586271423 -0.024974849615125624 0 0.056445708549006754 -0.025224128563666778 0 0.054999257896968488 -0.024977813852108944 0 0.055575011169601313 -0.026835312535819136 0 0.056066644452523663 -0.02605327878699646 0 0.055000996732279039 -0.024976069070390242 0 0.055275910910698049 -0.025039559910467673 0 0.054999418618392339 -0.02813008896529207 0 0.054999257896968488 -0.024977813852108944 0 0.055575011169601313 -0.026835312535819136 0 0.055575011169601313 -0.026835312535819136 0 0.05608787247477813 -0.027008455884694898 0 0.056066644452523663 -0.02605327878699646 0 0.055275910910698049 -0.025039559910467673 0 0.055430333368652884 -0.025072448076863974 0 0.056445708549006754 -0.025224128563666778 0 0.057506389270326544 -0.026129779236711635 0 0.057254746652389242 -0.024056437456036806 0 0.05608787247477813 -0.027008455884694898 0 0.056066644452523663 -0.02605327878699646 0 0.057506389270326544 -0.026129779236711635 0 0.057418219607844427 -0.027648166941798974 0 0.05608787247477813 -0.027008455884694898 0 0.057506389270326544 -0.026129779236711635 0 0.057418219607844427 -0.027648166941798974 0 0.057506389270326544 -0.026129779236711635 0 0.058884005308192072 -0.027598830276159392 0 0.057506389270326544 -0.026129779236711635 0 0.058621294513216363 -0.02401941676358945 0 0.059456317726987659 -0.026012771944628369 0 0.057506389270326544 -0.026129779236711635 0 0.057254746652389242 -0.024056437456036806 0 0.058621294513216363 -0.02401941676358945 0 0.057254746652389242 -0.024056437456036806 0 0.057683525636368138 -0.023034760634490507 0 0.058621294513216363 -0.02401941676358945 0 0.056856196982622668 -0.022918615311455715 0 0.057683525636368138 -0.023034760634490507 0 0.056934923575783572 -0.021835633654550924 0 0.056856196982622668 -0.022918615311455715 0 0.057254746652389242 -0.024056437456036806 0 0.057683525636368138 -0.023034760634490507 0 0.057683525636368138 -0.023034760634490507 0 0.058621294513216363 -0.02401941676358945 0 0.058442040537403234 -0.022477464799571596 0 0.059238787056334535 -0.023296162461589973 0 0.058621294513216363 -0.02401941676358945 0 0.058442040537403234 -0.022477464799571596 0 0.059238787056334535 -0.023296162461589973 0 0.059971434949923658 -0.023644963458844977 0 0.059950211535155624 -0.024598718303862826 0 0.059238787056334535 -0.023296162461589973 0 0.059971434949923658 -0.023644963458844977 0 0.059961719221455476 -0.02273349849754509 0 0.059238787056334535 -0.023296162461589973 0 0.059950211535155624 -0.024598718303862826 0 0.058621294513216363 -0.02401941676358945 0 0.06038122384617866 -0.024936254103019896 0 0.058621294513216363 -0.02401941676358945 0 0.059456317726987659 -0.026012771944628369 0 0.060897188555562178 -0.025147553643496683 0 0.060750392022086437 -0.025109462260974776 0 0.057506389270326544 -0.026129779236711635 0 0.059456317726987659 -0.026012771944628369 0 0.058884005308192072 -0.027598830276159392 0 0.059456317726987659 -0.026012771944628369 0 0.058884005308192072 -0.027598830276159392 0 0.06069200130504749 -0.027692550799393565 0 0.059456317726987659 -0.026012771944628369 0 0.06105787315932152 -0.026302888525777387 0 0.06069200130504749 -0.027692550799393565 0 0.06038122384617866 -0.024936254103019896 0 0.059456317726987659 -0.026012771944628369 0 0.06105787315932152 -0.026302888525777387 0 0.06105787315932152 -0.026302888525777387 0 0.06069200130504749 -0.027692550799393565 0 0.062492917573181456 -0.027225668876887502 0 0.062059431556579878 -0.028849232309555814 0 0.06069200130504749 -0.027692550799393565 0 0.062492917573181456 -0.027225668876887502 0 0.06105787315932152 -0.026302888525777387 0 0.062492917573181456 -0.027225668876887502 0 0.062107752486321416 -0.02572187435989538 0 0.061528531732166117 -0.025416006300600941 0 0.060754581502026755 -0.023975876902610726 0 0.061922449577946667 -0.024403427595807464 0 0.06038122384617866 -0.024936254103019896 0 0.06105787315932152 -0.026302888525777387 0 0.062107752486321416 -0.02572187435989538 0 0.060897188555562178 -0.025147553643496683 0 0.061171678984117239 -0.025218905742951221 0 0.059950211535155624 -0.024598718303862826 0 0.061528531732166117 -0.025416006300600941 0 0.060754581502026755 -0.023975876902610726 0 0.059971434949923658 -0.023644963458844977 0 0.059950211535155624 -0.024598718303862826 0 0.060754581502026755 -0.023975876902610726 0 0.059971434949923658 -0.023644963458844977 0 0.060754581502026755 -0.023975876902610726 0 0.059961719221455476 -0.02273349849754509 0 0.060754581502026755 -0.023975876902610726 0 0.061280387688281576 -0.023436967161272752 0 0.059961719221455476 -0.02273349849754509 0 0.060754581502026755 -0.023975876902610726 0 0.061280387688281576 -0.023436967161272752 0 0.061922449577946667 -0.024403427595807464 0 0.062209508338797154 -0.023549586630627513 0 0.061280387688281576 -0.023436967161272752 0 0.061922449577946667 -0.024403427595807464 0 0.062209508338797154 -0.023549586630627513 0 0.061280387688281576 -0.023436967161272752 0 0.061729064001407936 -0.022657163164074574 0 0.060473453121416811 -0.020758758432208146 0 0.05918701813274619 -0.020684981558191616 0 0.061280387688281576 -0.023436967161272752 0 0.061729064001407936 -0.022657163164074574 0 0.059961719221455476 -0.02273349849754509 0 0.061388949443871126 -0.021098442294228272 0 0.060534851077148032 -0.020402777780639564 0 0.059340543434947761 -0.020742614005477372 0 0.059714334223267912 -0.019930947893356504 0 0.061525202978698949 -0.020403220126744431 0 0.060687333520191671 -0.019458402375016191 0 0.060534851077148032 -0.020402777780639564 0 0.059701957667880515 -0.019781509509565563 0 0.06149995983717288 -0.02018609696493472 0 0.060534851077148032 -0.020402777780639564 0 0.059701957667880515 -0.019781509509565563 0 0.059340543434947761 -0.020742614005477372 0 0.060603421635851508 -0.020088603703558139 0 0.06081741012306436 -0.020123659588949631 0 0.061525202978698949 -0.020403220126744431 0 0.0614505951052653 -0.01923033343106547 0 0.060687333520191671 -0.019458402375016191 0 0.061388949443871126 -0.021098442294228272 0 0.060534851077148032 -0.020402777780639564 0 0.06149995983717288 -0.02018609696493472 0 0.062639975391792807 -0.019688986545750218 0 0.061525202978698949 -0.020403220126744431 0 0.0614505951052653 -0.01923033343106547 0 0.0614505951052653 -0.01923033343106547 0 0.060244743260409205 -0.018394164279684641 0 0.060687333520191671 -0.019458402375016191 0 0.062266652118405777 -0.018286756121061939 0 0.0614505951052653 -0.01923033343106547 0 0.060244743260409205 -0.018394164279684641 0 0.040017991744264923 -0.013196950741729253 0 0.040702241219227643 -0.014047247346631491 0 0.042449306368822541 -0.012789726933927428 0 0.048497679422093536 -0.019509455441636042 0 0.050129220454344474 -0.01920596167852491 0 0.040702241219227643 -0.014047247346631491 0 0.042449306368822541 -0.012789726933927428 0 0.044229703674919053 -0.015483625760353833 0 0.059714334223267912 -0.019930947893356504 0 0.060244743260409205 -0.018394164279684641 0 0.059061310363426579 -0.019188296019035926 0 0.059714334223267912 -0.019930947893356504 0 0.060244743260409205 -0.018394164279684641 0 0.060687333520191671 -0.019458402375016191 0 0.060244743260409205 -0.018394164279684641 0 0.059061310363426579 -0.019188296019035926 0 0.058576996496633546 -0.018466872401288074 0 0.050129220454344474 -0.01920596167852491 0 0.051515929422134024 -0.01903856805367455 0 0.042449306368822541 -0.012789726933927428 0 0.046746759371397863 -0.012788907242454699 0 0.044229703674919053 -0.015483625760353833 0 0.047025185164517799 -0.014835616908713154 0 0.046746759371397863 -0.012788907242454699 0 0.044229703674919053 -0.015483625760353833 0 0.048781266067252353 -0.01450542489768355 0 0.046746759371397863 -0.012788907242454699 0 0.0510564106922093 -0.013183683489893308 0 0.048781266067252353 -0.01450542489768355 0 0.047025185164517799 -0.014835616908713154 0 0.046746759371397863 -0.012788907242454699 0 0.059061310363426579 -0.019188296019035926 0 0.058576996496633546 -0.018466872401288074 0 0.058226227805965397 -0.019479313366353251 0 0.058576996496633546 -0.018466872401288074 0 0.058226227805965397 -0.019479313366353251 0 0.057215450306302151 -0.018480641730044715 0 0.059701957667880515 -0.019781509509565563 0 0.058226227805965397 -0.019479313366353251 0 0.059340543434947761 -0.020742614005477372 0 0.060603421635851508 -0.020088603703558139 0 0.060491268162836891 -0.020070336823618591 0 0.059714334223267912 -0.019930947893356504 0 0.059061310363426579 -0.019188296019035926 0 0.058226227805965397 -0.019479313366353251 0 0.058226227805965397 -0.019479313366353251 0 0.059340543434947761 -0.020742614005477372 0 0.057729499772017162 -0.02046705791373166 0 0.05918701813274619 -0.020684981558191616 0 0.057776035028638102 -0.020569834338037003 0 0.059238787056334535 -0.023296162461589973 0 0.059961719221455476 -0.02273349849754509 0 0.058442040537403234 -0.022477464799571596 0 0.057729499772017162 -0.02046705791373166 0 0.057169427305716364 -0.019600580884409545 0 0.056419898115192609 -0.020200803884267614 0 0.057776035028638102 -0.020569834338037003 0 0.056337072411457557 -0.020416261859472925 0 0.057683525636368138 -0.023034760634490507 0 0.058442040537403234 -0.022477464799571596 0 0.056934923575783572 -0.021835633654550924 0 0.057169427305716364 -0.019600580884409545 0 0.056378758918246792 -0.019291908958020913 0 0.056419898115192609 -0.020200803884267614 0 0.058226227805965397 -0.019479313366353251 0 0.057729499772017162 -0.02046705791373166 0 0.057169427305716364 -0.019600580884409545 0 0.058226227805965397 -0.019479313366353251 0 0.057169427305716364 -0.019600580884409545 0 0.057215450306302151 -0.018480641730044715 0 0.051515929422134024 -0.01903856805367455 0 0.05275672982688253 -0.018998001130863768 0 0.0510564106922093 -0.013183683489893308 0 0.050362048285718525 -0.015275907678857885 0 0.05188951198662653 -0.015345429073013032 0 0.048781266067252353 -0.01450542489768355 0 0.0510564106922093 -0.013183683489893308 0 0.050362048285718525 -0.015275907678857885 0 0.0510564106922093 -0.013183683489893308 0 0.052944452992473336 -0.015065314295321824 0 0.053558524808560173 -0.01463950722397748 0 0.0510564106922093 -0.013183683489893308 0 0.05437970153839293 -0.01405212187345092 0 0.053558524808560173 -0.01463950722397748 0 0.052944452992473336 -0.015065314295321824 0 0.05188951198662653 -0.015345429073013032 0 0.052716431520058352 -0.015619849859837163 0 0.052944452992473336 -0.015065314295321824 0 0.053476747046513097 -0.015481067232128186 0 0.053136556507317932 -0.01563015210529679 0 0.0510564106922093 -0.013183683489893308 0 0.052944452992473336 -0.015065314295321824 0 0.05188951198662653 -0.015345429073013032 0 0.057169427305716364 -0.019600580884409545 0 0.057215450306302151 -0.018480641730044715 0 0.056378758918246792 -0.019291908958020913 0 0.05275672982688253 -0.018998001130863768 0 0.053894370258211713 -0.019073862369060588 0 0.057215450306302151 -0.018480641730044715 0 0.056048780566359618 -0.018479133716274784 0 0.056378758918246792 -0.019291908958020913 0 0.056048780566359618 -0.018479133716274784 0 0.055600830086923611 -0.019171363384285458 0 0.056378758918246792 -0.019291908958020913 0 0.053894370258211713 -0.019073862369060588 0 0.05448309205428236 -0.019245358970290297 0 0.05437970153839293 -0.01405212187345092 0 0.053558524808560173 -0.01463950722397748 0 0.054377523078561321 -0.014587729108739745 0 0.05437970153839293 -0.01405212187345092 0 0.054377523078561321 -0.014587729108739745 0 0.054927444447546929 -0.014883358291115287 0 0.053558524808560173 -0.01463950722397748 0 0.054377523078561321 -0.014587729108739745 0 0.054379545463212164 -0.015166984990230909 0 0.054377523078561321 -0.014587729108739745 0 0.054379545463212164 -0.015166984990230909 0 0.054927444447546929 -0.014883358291115287 0 0.052944452992473336 -0.015065314295321824 0 0.053826662570111719 -0.015202005379465174 0 0.053476747046513097 -0.015481067232128186 0 0.052944452992473336 -0.015065314295321824 0 0.053558524808560173 -0.01463950722397748 0 0.053826662570111719 -0.015202005379465174 0 0.053558524808560173 -0.01463950722397748 0 0.054379545463212164 -0.015166984990230909 0 0.053826662570111719 -0.015202005379465174 0 0.054379545463212164 -0.015166984990230909 0 0.053826662570111719 -0.015202005379465174 0 0.053964894928814386 -0.015638767011104091 0 0.05437970153839293 -0.01405212187345092 0 0.054927444447546929 -0.014883358291115287 0 0.055337478961478503 -0.015340568147703992 0 0.05498757784889536 -0.014559800153065603 0 0.054042187272531801 -0.012865497897866035 0 0.055000462467851147 -0.01457674989383516 0 0.054927444447546929 -0.014883358291115287 0 0.05497222093815414 -0.015740285454067537 0 0.054379545463212164 -0.015166984990230909 0 0.054927444447546929 -0.014883358291115287 0 0.05497222093815414 -0.015740285454067537 0 0.055000462467851147 -0.01457674989383516 0 0.054927444447546929 -0.014883358291115287 0 0.055337478961478503 -0.015340568147703992 0 0.055000462467851147 -0.01457674989383516 0 0.055337478961478503 -0.015340568147703992 0 0.054999550209100453 -0.017044440399005066 0 0.05757087679776679 -0.015333369933497081 0 0.055999629913162055 -0.016328145009850071 0 0.056196317800212378 -0.017538122342716459 0 0.053894370258211713 -0.019073862369060588 0 0.053887406892529119 -0.019045137580345043 0 0.05757087679776679 -0.015333369933497081 0 0.055337478961478503 -0.015340568147703992 0 0.055999629913162055 -0.016328145009850071 0 0.055337478961478503 -0.015340568147703992 0 0.055999629913162055 -0.016328145009850071 0 0.054999550209100453 -0.017044440399005066 0 0.055999629913162055 -0.016328145009850071 0 0.054999550209100453 -0.017044440399005066 0 0.056196317800212378 -0.017538122342716459 0 0.055600830086923611 -0.019171363384285458 0 0.055785222377899089 -0.019728886479953654 0 0.054999675955215876 -0.019517282983516439 0 0.05448309205428236 -0.019245358970290297 0 0.0549952654832771 -0.019511785926802035 0 0.054999550209100453 -0.017044440399005066 0 0.056196317800212378 -0.017538122342716459 0 0.055000221947843965 -0.019514862376791859 0 0.055600830086923611 -0.019171363384285458 0 0.056378758918246792 -0.019291908958020913 0 0.055785222377899089 -0.019728886479953654 0 0.056378758918246792 -0.019291908958020913 0 0.055785222377899089 -0.019728886479953654 0 0.056419898115192609 -0.020200803884267614 0 0.056337072411457557 -0.020416261859472925 0 0.055004124796759785 -0.020232418903335485 0 0.055785222377899089 -0.019728886479953654 0 0.056419898115192609 -0.020200803884267614 0 0.05500030474938955 -0.020228598622101433 0 0.055785222377899089 -0.019728886479953654 0 0.05500030474938955 -0.020228598622101433 0 0.054999675955215876 -0.019517282983516439 0 0.056217807258565893 -0.0072554569883775243 0 0.056741089058550839 -0.008870582363893877 0 0.054999991649920553 -0.0093233816450407243 0 0.056217807258565893 -0.0072554569883775243 0 0.054999991649920553 -0.0093233816450407243 0 0.054999988004479305 -0.0061301590621470519 0 0.056217807258565893 -0.0072554569883775243 0 0.058238234446317552 -0.0076035078720756233 0 0.056741089058550839 -0.008870582363893877 0 0.056217807258565893 -0.0072554569883775243 0 0.058238234446317552 -0.0076035078720756233 0 0.056818092459420926 -0.0063409062577179775 0 0.058238234446317552 -0.0076035078720756233 0 0.056741089058550839 -0.008870582363893877 0 0.057745852838876462 -0.009756193870153319 0 0.058238234446317552 -0.0076035078720756233 0 0.057745852838876462 -0.009756193870153319 0 0.059058244882349079 -0.010441857680795474 0 0.056741089058550839 -0.008870582363893877 0 0.057745852838876462 -0.009756193870153319 0 0.056501320542029602 -0.010409964719381536 0 0.056741089058550839 -0.008870582363893877 0 0.054999991649920553 -0.0093233816450407243 0 0.056501320542029602 -0.010409964719381536 0 0.054999999037370892 -0.0093234305643703965 0 0.05499999526088202 -0.011108934368448002 0 0.056505892365154305 -0.010427383946043955 0 0.054990290260341156 -0.0093342976000724553 0 0.054045140138653323 -0.010178985285629241 0 0.054993000810726111 -0.011110419543422449 0 0.053107256543217393 -0.011106794918421887 0 0.05499999526088202 -0.011108934368448002 0 0.056505892365154305 -0.010427383946043955 0 0.057831339015168549 -0.011700548510193243 0 0.054999999618454004 -0.01110895113396671 0 0.056423120362535613 -0.013139810774917453 0 0.05784495118749481 -0.011705481424504291 0 0.054999999983398294 -0.014575970498883628 0 0.054999997278959538 -0.012842456938427662 0 0.056423120362535613 -0.013139810774917453 0 0.054999999618454004 -0.01110895113396671 0 0.054999997278959538 -0.012842456938427662 0 0.056423120362535613 -0.013139810774917453 0 0.053423010357669755 -0.015865259283116447 0 0.053964894928814386 -0.015638767011104091 0 0.053618305286074606 -0.016299877279508528 0 0.053423010357669755 -0.015865259283116447 0 0.053618305286074606 -0.016299877279508528 0 0.05297122527721386 -0.016050638212335374 0 0.053423010357669755 -0.015865259283116447 0 0.053476747046513097 -0.015481067232128186 0 0.053964894928814386 -0.015638767011104091 0 0.053423010357669755 -0.015865259283116447 0 0.053476747046513097 -0.015481067232128186 0 0.053136556507317932 -0.01563015210529679 0 0.053826662570111719 -0.015202005379465174 0 0.053476747046513097 -0.015481067232128186 0 0.053964894928814386 -0.015638767011104091 0 0.054379545463212164 -0.015166984990230909 0 0.05497222093815414 -0.015740285454067537 0 0.053964894928814386 -0.015638767011104091 0 0.05497222093815414 -0.015740285454067537 0 0.053964894928814386 -0.015638767011104091 0 0.053618305286074606 -0.016299877279508528 0 0.054042187272531801 -0.012865497897866035 0 0.053107256543217393 -0.011106794918421887 0 0.05497222093815414 -0.015740285454067537 0 0.053618305286074606 -0.016299877279508528 0 0.053785206665028062 -0.017320029774962279 0 0.053618305286074606 -0.016299877279508528 0 0.053785206665028062 -0.017320029774962279 0 0.053142601383802612 -0.016858312195186968 0 0.051437705541465886 -0.012711276251603596 0 0.052411269389577769 -0.011731794174525479 0 0.054697079320685023 -0.01339424860571776 0 0.053785206665028062 -0.017320029774962279 0 0.053216691920591426 -0.017226114919353989 0 0.053142601383802612 -0.016858312195186968 0 0.057745852838876462 -0.009756193870153319 0 0.056501320542029602 -0.010409964719381536 0 0.058002502977009318 -0.011503179696239599 0 0.053107256543217393 -0.011106794918421887 0 0.052563323062855466 -0.010991256562123566 0 0.057745852838876462 -0.009756193870153319 0 0.058002502977009318 -0.011503179696239599 0 0.059058244882349079 -0.010441857680795474 0 0.052988815518643921 -0.010965339552592462 0 0.052563323062855466 -0.010991256562123566 0 0.053107256543217393 -0.011106794918421887 0 0.052988815518643921 -0.010965339552592462 0 0.056505892365154305 -0.010427383946043955 0 0.057831339015168549 -0.011700548510193243 0 0.058008138055893277 -0.011522455376652059 0 0.054045140138653323 -0.010178985285629241 0 0.052988815518643921 -0.010965339552592462 0 0.052988815518643921 -0.010965339552592462 0 0.051751923774574417 -0.01070721086208423 0 0.041854408649791799 -0.014262462710121339 0 0.041725103543557497 -0.014297352605913152 0 0.041939250954862693 -0.014252389804001859 0 0.041698292625101212 -0.01411932462481599 0 0.041864811682797196 -0.014202304101980161 0 0.041979544503554581 -0.014038413662792664 0 0.051751923774574417 -0.01070721086208423 0 0.051731668625678386 -0.010716827131518761 0 0.041698292625101212 -0.01411932462481599 0 0.041789772754920566 -0.014250893845473555 0 0.041864811682797196 -0.014202304101980161 0 0.041789772754920566 -0.014250893845473555 0 0.041854408649791799 -0.014262462710121339 0 0.041864811682797196 -0.014202304101980161 0 0.041789772754920566 -0.014250893845473555 0 0.041854408649791799 -0.014262462710121339 0 0.041725103543557497 -0.014297352605913152 0 0.041689858497791596 -0.014270553571226008 0 0.041773069368823586 -0.014175184364728569 0 0.041725103543557497 -0.014297352605913152 0 0.041773069368823586 -0.014175184364728569 0 0.041789772754920566 -0.014250893845473555 0 0.041725103543557497 -0.014297352605913152 0 0.041922500393354982 -0.014273788077582382 0 0.041808828649313824 -0.014198650771286021 0 0.041512254804347615 -0.014208020730717181 0 0.052563323062855466 -0.010991256562123566 0 0.051909093814290298 -0.010917008339765031 0 0.053216691920591426 -0.017226114919353989 0 0.053142601383802612 -0.016858312195186968 0 0.052555495450960138 -0.016752026130347115 0 0.052563323062855466 -0.010991256562123566 0 0.050301983466079982 -0.010896041290046468 0 0.051913924722889554 -0.010923034336293005 0 0.051909093814290298 -0.010917008339765031 0 0.053142601383802612 -0.016858312195186968 0 0.052880170056905554 -0.016514550412704283 0 0.052480121740588394 -0.016844302895040447 0 0.053618305286074606 -0.016299877279508528 0 0.052880170056905554 -0.016514550412704283 0 0.05297122527721386 -0.016050638212335374 0 0.053618305286074606 -0.016299877279508528 0 0.053142601383802612 -0.016858312195186968 0 0.052880170056905554 -0.016514550412704283 0 0.052880170056905554 -0.016514550412704283 0 0.052480121740588394 -0.016844302895040447 0 0.052473753093666302 -0.016155197092852822 0 0.052480121740588394 -0.016844302895040447 0 0.051781865852224856 -0.016506164113165127 0 0.052473753093666302 -0.016155197092852822 0 0.051909093814290298 -0.010917008339765031 0 0.051917483269399135 -0.010929647075833635 0 0.05188951198662653 -0.015345429073013032 0 0.051781865852224856 -0.016506164113165127 0 0.052473753093666302 -0.016155197092852822 0 0.050362048285718525 -0.015275907678857885 0 0.05188951198662653 -0.015345429073013032 0 0.051781865852224856 -0.016506164113165127 0 0.05188951198662653 -0.015345429073013032 0 0.052716431520058352 -0.015619849859837163 0 0.052473753093666302 -0.016155197092852822 0 0.052716431520058352 -0.015619849859837163 0 0.053136556507317932 -0.01563015210529679 0 0.05297122527721386 -0.016050638212335374 0 0.052944452992473336 -0.015065314295321824 0 0.052716431520058352 -0.015619849859837163 0 0.053136556507317932 -0.01563015210529679 0 0.053423010357669755 -0.015865259283116447 0 0.053136556507317932 -0.01563015210529679 0 0.05297122527721386 -0.016050638212335374 0 0.052880170056905554 -0.016514550412704283 0 0.05297122527721386 -0.016050638212335374 0 0.052473753093666302 -0.016155197092852822 0 0.052716431520058352 -0.015619849859837163 0 0.05297122527721386 -0.016050638212335374 0 0.052473753093666302 -0.016155197092852822 0 0.051909093814290298 -0.010917008339765031 0 0.05005124914670573 -0.011035237962937513 0 0.041808828649313824 -0.014198650771286021 0 0.041512254804347615 -0.014208020730717181 0 0.041359839985039587 -0.014143729155015746 0 0.052606084362779887 -0.017070687793696217 0 0.051781865852224856 -0.016506164113165127 0 0.048608426613767818 -0.016510886178801875 0 0.050362048285718525 -0.015275907678857885 0 0.051781865852224856 -0.016506164113165127 0 0.048608426613767818 -0.016510886178801875 0 0.048781266067252353 -0.01450542489768355 0 0.050362048285718525 -0.015275907678857885 0 0.048608426613767818 -0.016510886178801875 0 0.047306642124255137 -0.0099929741592205967 0 0.047570543248047603 -0.0096356179860439799 0 0.041946110615582892 -0.0143202167396846 0 0.041979544503554581 -0.014038413662792664 0 0.042303376641110821 -0.013877840127552103 0 0.041939250954862693 -0.014252389804001859 0 0.041946110615582892 -0.0143202167396846 0 0.041578110653656325 -0.014315920385799109 0 0.041854408649791799 -0.014262462710121339 0 0.041946110615582892 -0.0143202167396846 0 0.041864811682797196 -0.014202304101980161 0 0.041854408649791799 -0.014262462710121339 0 0.041939250954862693 -0.014252389804001859 0 0.041946110615582892 -0.0143202167396846 0 0.041946110615582892 -0.0143202167396846 0 0.041864811682797196 -0.014202304101980161 0 0.041979544503554581 -0.014038413662792664 0 0.051751923774574417 -0.01070721086208423 0 0.051144884305583768 -0.011170940612148102 0 0.041698292625101212 -0.01411932462481599 0 0.041979544503554581 -0.014038413662792664 0 0.042087342678876573 -0.013679064257236653 0 0.041979544503554581 -0.014038413662792664 0 0.042087342678876573 -0.013679064257236653 0 0.042303376641110821 -0.013877840127552103 0 0.051148898032975308 -0.0090627901951781543 0 0.051751923774574417 -0.01070721086208423 0 0.041747985296234871 -0.01401266659897478 0 0.041835383964429651 -0.013700378320999599 0 0.042087342678876573 -0.013679064257236653 0 0.041609958754494171 -0.013581038144516678 0 0.041747985296234871 -0.01401266659897478 0 0.041835383964429651 -0.013700378320999599 0 0.041609958754494171 -0.013581038144516678 0 0.041835383964429651 -0.013700378320999599 0 0.04191316958331779 -0.013497580006159936 0 0.04191316958331779 -0.013497580006159936 0 0.042087342678876573 -0.013679064257236653 0 0.042241853427754293 -0.013438999323837757 0 0.041835383964429651 -0.013700378320999599 0 0.04191316958331779 -0.013497580006159936 0 0.042087342678876573 -0.013679064257236653 0 0.042303376641110821 -0.013877840127552103 0 0.042559009691197282 -0.013449969037796997 0 0.042241853427754293 -0.013438999323837757 0 0.042087342678876573 -0.013679064257236653 0 0.042303376641110821 -0.013877840127552103 0 0.042241853427754293 -0.013438999323837757 0 0.047570543248047603 -0.0096356179860439799 0 0.048401155255751352 -0.0085007753744534564 0 0.040734230325149758 -0.014847855877977992 0 0.04054705425337235 -0.014883309474904374 0 0.040070155057395376 -0.014854171341196562 0 0.048274411608078056 -0.0087129755697081205 0 0.048401155255751352 -0.0085007753744534564 0 0.041189255111290811 -0.014787562415175575 0 0.040734230325149758 -0.014847855877977992 0 0.041181108085303009 -0.015641634699804514 0 0.041189255111290811 -0.014787562415175575 0 0.041578070610797387 -0.014978309036342787 0 0.041181108085303009 -0.015641634699804514 0 0.041189255111290811 -0.014787562415175575 0 0.041578070610797387 -0.014978309036342787 0 0.041493257047526877 -0.014519575412469135 0 0.041946110615582892 -0.0143202167396846 0 0.041578070610797387 -0.014978309036342787 0 0.041493257047526877 -0.014519575412469135 0 0.041946110615582892 -0.0143202167396846 0 0.041493257047526877 -0.014519575412469135 0 0.041578110653656325 -0.014315920385799109 0 0.041493257047526877 -0.014519575412469135 0 0.041578110653656325 -0.014315920385799109 0 0.041247205907261587 -0.014396023579084174 0 0.041512254804347615 -0.014208020730717181 0 0.041359839985039587 -0.014143729155015746 0 0.041134806460210081 -0.014149316417236922 0 0.05005124914670573 -0.011035237962937513 0 0.048850681538845302 -0.011079997082359972 0 0.050301983466079982 -0.010896041290046468 0 0.049017643671039994 -0.010849834638063644 0 0.041939250954862693 -0.014252389804001859 0 0.041578110653656325 -0.014315920385799109 0 0.041286079705473738 -0.014107787684206315 0 0.047025185164517799 -0.014835616908713154 0 0.048608426613767818 -0.016510886178801875 0 0.044229703674919053 -0.015483625760353833 0 0.041578110653656325 -0.014315920385799109 0 0.041286079705473738 -0.014107787684206315 0 0.041247205907261587 -0.014396023579084174 0 0.048781266067252353 -0.01450542489768355 0 0.047025185164517799 -0.014835616908713154 0 0.048608426613767818 -0.016510886178801875 0 0.040970594209209371 -0.014100061095643898 0 0.041134806460210081 -0.014149316417236922 0 0.040834400903587448 -0.014092556569937015 0 0.041286079705473738 -0.014107787684206315 0 0.040926618597528226 -0.014384550615833002 0 0.040834400903587448 -0.014092556569937015 0 0.041359839985039587 -0.014143729155015746 0 0.040970594209209371 -0.014100061095643898 0 0.041134806460210081 -0.014149316417236922 0 0.049017643671039994 -0.010849834638063644 0 0.048597250927160773 -0.010835531843853699 0 0.041286079705473738 -0.014107787684206315 0 0.041247205907261587 -0.014396023579084174 0 0.040926618597528226 -0.014384550615833002 0 0.041189255111290811 -0.014787562415175575 0 0.040926618597528226 -0.014384550615833002 0 0.040734230325149758 -0.014847855877977992 0 0.041189255111290811 -0.014787562415175575 0 0.041247205907261587 -0.014396023579084174 0 0.040926618597528226 -0.014384550615833002 0 0.041189255111290811 -0.014787562415175575 0 0.041493257047526877 -0.014519575412469135 0 0.041247205907261587 -0.014396023579084174 0 0.040926618597528226 -0.014384550615833002 0 0.040648388277068653 -0.014273329578080697 0 0.040489762935174124 -0.014606988702975899 0 0.040926618597528226 -0.014384550615833002 0 0.040489762935174124 -0.014606988702975899 0 0.040734230325149758 -0.014847855877977992 0 0.048414627784335577 -0.011084743863788145 0 0.048850681538845302 -0.011079997082359972 0 0.040926618597528226 -0.014384550615833002 0 0.040834400903587448 -0.014092556569937015 0 0.040648388277068653 -0.014273329578080697 0 0.040702241219227643 -0.014047247346631491 0 0.040970594209209371 -0.014100061095643898 0 0.040834400903587448 -0.014092556569937015 0 0.040702241219227643 -0.014047247346631491 0 0.040648388277068653 -0.014273329578080697 0 0.04017339821698819 -0.014375153761649891 0 0.040702241219227643 -0.014047247346631491 0 0.040834400903587448 -0.014092556569937015 0 0.040648388277068653 -0.014273329578080697 0 0.040648388277068653 -0.014273329578080697 0 0.040489762935174124 -0.014606988702975899 0 0.04017339821698819 -0.014375153761649891 0 0.040489762935174124 -0.014606988702975899 0 0.040441644953048084 -0.014874048495157052 0 0.040036646901432743 -0.014816166405288494 0 0.040489762935174124 -0.014606988702975899 0 0.040441644953048084 -0.014874048495157052 0 0.040734230325149758 -0.014847855877977992 0 0.040441644953048084 -0.014874048495157052 0 0.040734230325149758 -0.014847855877977992 0 0.04054705425337235 -0.014883309474904374 0 0.040441644953048084 -0.014874048495157052 0 0.04054705425337235 -0.014883309474904374 0 0.040471229566014975 -0.014925770752728298 0 0.04054705425337235 -0.014883309474904374 0 0.040560643688215436 -0.014724384483166366 0 0.040070155057395376 -0.014854171341196562 0 0.04054705425337235 -0.014883309474904374 0 0.040471229566014975 -0.014925770752728298 0 0.040560643688215436 -0.014724384483166366 0 0.040441644953048084 -0.014874048495157052 0 0.040471229566014975 -0.014925770752728298 0 0.040240088629752729 -0.015030595328711758 0 0.040441644953048084 -0.014874048495157052 0 0.040240088629752729 -0.015030595328711758 0 0.040036646901432743 -0.014816166405288494 0 0.040240088629752729 -0.015030595328711758 0 0.040405451130228531 -0.015139711108883397 0 0.040174383424361103 -0.015315453721515588 0 0.035796548198357717 -0.010072608892134297 0 0.035584117037737791 -0.0100325764459747 0 0.040471229566014975 -0.014925770752728298 0 0.040240088629752729 -0.015030595328711758 0 0.040405451130228531 -0.015139711108883397 0 0.040471229566014975 -0.014925770752728298 0 0.040405451130228531 -0.015139711108883397 0 0.040560643688215436 -0.014724384483166366 0 0.035796548198357717 -0.010072608892134297 0 0.035858606016766645 -0.010089698119022189 0 0.041474144295144372 -0.014218731019338599 0 0.040560643688215436 -0.014724384483166366 0 0.04120010870526937 -0.013418302017886149 0 0.040560643688215436 -0.014724384483166366 0 0.04032622207948787 -0.013463304007738278 0 0.04120010870526937 -0.013418302017886149 0 0.04120010870526937 -0.013418302017886149 0 0.041808372983932508 -0.012724299975390303 0 0.042494668740348226 -0.013707805552044405 0 0.041474144295144372 -0.014218731019338599 0 0.04120010870526937 -0.013418302017886149 0 0.042494668740348226 -0.013707805552044405 0 0.035694024945029476 -0.010147197110067759 0 0.035584117037737791 -0.0100325764459747 0 0.041808372983932508 -0.012724299975390303 0 0.042041724042620521 -0.01150733544130412 0 0.04120168364496312 -0.011661608681200494 0 0.04120010870526937 -0.013418302017886149 0 0.041808372983932508 -0.012724299975390303 0 0.04120168364496312 -0.011661608681200494 0 0.041808372983932508 -0.012724299975390303 0 0.042041724042620521 -0.01150733544130412 0 0.042440258523106122 -0.012042811009608148 0 0.050830502687066792 0.0036274445280825222 0 0.051811960285077438 0.0038869314659578406 0 0.051509481510015248 0.0047039581492287772 0 0.04747137616845979 -0.0065236831376003016 0 0.047859317033814588 -0.0068284753485843798 0 0.042126168665017019 -0.010135889774011633 0 0.042041724042620521 -0.01150733544130412 0 0.04120168364496312 -0.011661608681200494 0 0.051811960285077438 0.0038869314659578406 0 0.052756615019272347 0.0034159686471513752 0 0.05247363597052622 0.0045126098785369393 0 0.051811960285077438 0.0038869314659578406 0 0.051509481510015248 0.0047039581492287772 0 0.05247363597052622 0.0045126098785369393 0 0.04032622207948787 -0.013463304007738278 0 0.04120010870526937 -0.013418302017886149 0 0.04120168364496312 -0.011661608681200494 0 0.05226107129297055 0.0058624069846353538 0 0.051509481510015248 0.0047039581492287772 0 0.052759969840737948 0.0052579447218543737 0 0.051509481510015248 0.0047039581492287772 0 0.052759969840737948 0.0052579447218543737 0 0.05247363597052622 0.0045126098785369393 0 0.048174003019742458 -0.0074682894545059038 0 0.047859317033814588 -0.0068284753485843798 0 0.052759969840737948 0.0052579447218543737 0 0.05247363597052622 0.0045126098785369393 0 0.053418125392475195 0.004748056502580921 0 0.052759969840737948 0.0052579447218543737 0 0.053418125392475195 0.004748056502580921 0 0.05344895478447665 0.005292635831215615 0 0.05247363597052622 0.0045126098785369393 0 0.053161739987477079 0.0039989937586427868 0 0.053418125392475195 0.004748056502580921 0 0.052756615019272347 0.0034159686471513752 0 0.05247363597052622 0.0045126098785369393 0 0.053161739987477079 0.0039989937586427868 0 0.053161739987477079 0.0039989937586427868 0 0.05377833397078377 0.0040376443412326055 0 0.053418125392475195 0.004748056502580921 0 0.05377833397078377 0.0040376443412326055 0 0.053915498916636224 0.0045272928586446428 0 0.053418125392475195 0.004748056502580921 0 0.05377833397078377 0.0040376443412326055 0 0.053915498916636224 0.0045272928586446428 0 0.054393316496806413 0.0043296266320243092 0 0.049388088799895341 -0.0055398706809340267 0 0.049252176192763342 -0.0056485341549346851 0 0.053915498916636224 0.0045272928586446428 0 0.053418125392475195 0.004748056502580921 0 0.054075927202560048 0.0050200572732164266 0 0.053418125392475195 0.004748056502580921 0 0.05344895478447665 0.005292635831215615 0 0.054080813909606507 0.0050827480986359837 0 0.052759969840737948 0.0052579447218543737 0 0.05344895478447665 0.005292635831215615 0 0.053530114196796659 0.0060739564703301326 0 0.048759725769705359 -0.0069282181325372354 0 0.049252176192763342 -0.0056485341549346851 0 0.05344895478447665 0.005292635831215615 0 0.053530114196796659 0.0060739564703301326 0 0.054080813909606507 0.0050827480986359837 0 0.04236431730154433 -0.013101703691666902 0 0.042103441583909669 -0.013023853708971616 0 0.042182029084247667 -0.012759192350653403 0 0.05226107129297055 0.0058624069846353538 0 0.052759969840737948 0.0052579447218543737 0 0.053530114196796659 0.0060739564703301326 0 0.05226107129297055 0.0058624069846353538 0 0.053530114196796659 0.0060739564703301326 0 0.052996384165634292 0.0070426675789824989 0 0.048174003019742458 -0.0074682894545059038 0 0.048401155255751352 -0.0085007753744534564 0 0.040560643688215436 -0.014724384483166366 0 0.04032622207948787 -0.013463304007738278 0 0.040070155057395376 -0.014854171341196562 0 0.04236431730154433 -0.013101703691666902 0 0.042559009691197282 -0.013449969037796997 0 0.042241853427754293 -0.013438999323837757 0 0.048759725769705359 -0.0069282181325372354 0 0.048401155255751352 -0.0085007753744534564 0 0.04236431730154433 -0.013101703691666902 0 0.042241853427754293 -0.013438999323837757 0 0.042009039289602701 -0.013285693465731878 0 0.04191316958331779 -0.013497580006159936 0 0.042241853427754293 -0.013438999323837757 0 0.042009039289602701 -0.013285693465731878 0 0.041609958754494171 -0.013581038144516678 0 0.04191316958331779 -0.013497580006159936 0 0.041740911781341462 -0.013285218527863152 0 0.04191316958331779 -0.013497580006159936 0 0.042009039289602701 -0.013285693465731878 0 0.041740911781341462 -0.013285218527863152 0 0.054876647364117306 0.0050400683638880377 0 0.055311474271135981 0.0047187366517021049 0 0.055611590109509265 0.0053938470145023561 0 0.042009039289602701 -0.013285693465731878 0 0.041740911781341462 -0.013285218527863152 0 0.041825058853656456 -0.01293763485686795 0 0.041740911781341462 -0.013285218527863152 0 0.041825058853656456 -0.01293763485686795 0 0.041472400901025656 -0.013114010489762459 0 0.04987527681920733 -0.0064193740879178902 0 0.050555803520883742 -0.007241673683331425 0 0.04236431730154433 -0.013101703691666902 0 0.042009039289602701 -0.013285693465731878 0 0.042103441583909669 -0.013023853708971616 0 0.041825058853656456 -0.01293763485686795 0 0.042103441583909669 -0.013023853708971616 0 0.042182029084247667 -0.012759192350653403 0 0.042009039289602701 -0.013285693465731878 0 0.041825058853656456 -0.01293763485686795 0 0.042103441583909669 -0.013023853708971616 0 0.054175176894563651 0.0047154448628942899 0 0.054393316496806413 0.0043296266320243092 0 0.054796763219120817 0.0044973652938928941 0 0.04987527681920733 -0.0064193740879178902 0 0.049252176192763342 -0.0056485341549346851 0 0.054876647364117306 0.0050400683638880377 0 0.054175176894563651 0.0047154448628942899 0 0.054796763219120817 0.0044973652938928941 0 0.049252176192763342 -0.0056485341549346851 0 0.049231050091748566 -0.0055144700893006698 0 0.053915498916636224 0.0045272928586446428 0 0.054075927202560048 0.0050200572732164266 0 0.054393316496806413 0.0043296266320243092 0 0.054397864057554014 0.0034337417623243596 0 0.054393316496806413 0.0043296266320243092 0 0.054888311596631004 0.0039560477579421412 0 0.054397864057554014 0.0034337417623243596 0 0.05377833397078377 0.0040376443412326055 0 0.054393316496806413 0.0043296266320243092 0 0.054393316496806413 0.0043296266320243092 0 0.054888311596631004 0.0039560477579421412 0 0.054796763219120817 0.0044973652938928941 0 0.055388485796326895 0.0037498034104984632 0 0.054888311596631004 0.0039560477579421412 0 0.055206267162090837 0.0041777188117112568 0 0.054888311596631004 0.0039560477579421412 0 0.055206267162090837 0.0041777188117112568 0 0.054796763219120817 0.0044973652938928941 0 0.055206267162090837 0.0041777188117112568 0 0.054796763219120817 0.0044973652938928941 0 0.055311474271135981 0.0047187366517021049 0 0.054876647364117306 0.0050400683638880377 0 0.054796763219120817 0.0044973652938928941 0 0.055311474271135981 0.0047187366517021049 0 0.055311474271135981 0.0047187366517021049 0 0.055873295292228932 0.004503194360809093 0 0.055611590109509265 0.0053938470145023561 0 0.055206267162090837 0.0041777188117112568 0 0.055311474271135981 0.0047187366517021049 0 0.055873295292228932 0.004503194360809093 0 0.055206267162090837 0.0041777188117112568 0 0.055700468481365492 0.0039287980971424788 0 0.055873295292228932 0.004503194360809093 0 0.055696503485948165 0.0035739554977951751 0 0.055388485796326895 0.0037498034104984632 0 0.055700468481365492 0.0039287980971424788 0 0.055388485796326895 0.0037498034104984632 0 0.055206267162090837 0.0041777188117112568 0 0.055700468481365492 0.0039287980971424788 0 0.054999971717364773 0.00025644039025701836 0 0.055916281514099518 0.00048246369937362908 0 0.056670800703319209 -0.0021356166028379552 0 0.050618006097734501 -0.0044172397754002665 0 0.050609051942820657 -0.0055034158658208068 0 0.056030987461504519 0.0034582623172989837 0 0.055700468481365492 0.0039287980971424788 0 0.055873295292228932 0.004503194360809093 0 0.054999971717364773 0.00025644039025701836 0 0.056670800703319209 -0.0021356166028379552 0 0.055000004448571893 -0.0029368717912032693 0 0.056670800703319209 -0.0021356166028379552 0 0.055000004448571893 -0.0029368717912032693 0 0.056125114406630434 -0.0038900683146362784 0 0.056125114406630434 -0.0038900683146362784 0 0.057427379983422344 -0.0047494671350624034 0 0.055401492697778221 -0.0057391247300510855 0 0.055000004448571893 -0.0029368717912032693 0 0.054999988004479305 -0.0061301590621470519 0 0.055401492697778221 -0.0057391247300510855 0 0.055000004448571893 -0.0029368717912032693 0 0.056125114406630434 -0.0038900683146362784 0 0.055401492697778221 -0.0057391247300510855 0 0.056670800703319209 -0.0021356166028379552 0 0.056125114406630434 -0.0038900683146362784 0 0.057427379983422344 -0.0047494671350624034 0 0.050609051942820657 -0.0055034158658208068 0 0.050555803520883742 -0.007241673683331425 0 0.041609958754494171 -0.013581038144516678 0 0.041740911781341462 -0.013285218527863152 0 0.041472400901025656 -0.013114010489762459 0 0.058238234446317552 -0.0076035078720756233 0 0.057412675457765912 -0.0047653082778934741 0 0.056818092459420926 -0.0063409062577179775 0 0.051148898032975308 -0.0090627901951781543 0 0.050555803520883742 -0.007241673683331425 0 0.057412675457765912 -0.0047653082778934741 0 0.056818092459420926 -0.0063409062577179775 0 0.055401492697778221 -0.0057391247300510855 0 0.056217807258565893 -0.0072554569883775243 0 0.056818092459420926 -0.0063409062577179775 0 0.055401492697778221 -0.0057391247300510855 0 0.050555803520883742 -0.007241673683331425 0 0.050771465827004335 -0.0071455877329366724 0 0.056217807258565893 -0.0072554569883775243 0 0.054999988004479305 -0.0061301590621470519 0 0.055401492697778221 -0.0057391247300510855 0 0.038101144681831664 -0.014409358974918745 0 0.038061787643982395 -0.014570674661890498 0 0.037922907815356496 -0.014496989896949248 0 0.038101144681831664 -0.014409358974918745 0 0.038206435235537212 -0.014551685837419346 0 0.038061787643982395 -0.014570674661890498 0 0.038101144681831664 -0.014409358974918745 0 0.038265456802581123 -0.014455205470900378 0 0.038206435235537212 -0.014551685837419346 0 0.038206435235537212 -0.014551685837419346 0 0.038369258559443849 -0.014541829021864943 0 0.038291984250880172 -0.014639431791795417 0 0.038265456802581123 -0.014455205470900378 0 0.038206435235537212 -0.014551685837419346 0 0.038369258559443849 -0.014541829021864943 0 0.038206435235537212 -0.014551685837419346 0 0.038061787643982395 -0.014570674661890498 0 0.038122751922834451 -0.014730778911367051 0 0.038061787643982395 -0.014570674661890498 0 0.037922907815356496 -0.014496989896949248 0 0.037949734791828525 -0.014654317443362902 0 0.032451356989211755 -0.018246615067089741 0 0.034048042287235743 -0.017305339059605063 0 0.031945609636065457 -0.016967032807793832 0 0.019533305694341363 -0.013623336988229763 0 0.022733937236028314 -0.012678898959697258 0 0.037763820859368212 -0.014587640029438015 0 0.037922907815356496 -0.014496989896949248 0 0.037949734791828525 -0.014654317443362902 0 0.034048042287235743 -0.017305339059605063 0 0.032895684994673616 -0.01588501588455787 0 0.031945609636065457 -0.016967032807793832 0 0.034048042287235743 -0.017305339059605063 0 0.03415936619714801 -0.015407117652245436 0 0.032895684994673616 -0.01588501588455787 0 0.024917699219509305 -0.012047273666518742 0 0.022733937236028314 -0.012678898959697258 0 0.035653000030172965 -0.016341383274501502 0 0.034048042287235743 -0.017305339059605063 0 0.03415936619714801 -0.015407117652245436 0 0.03415936619714801 -0.015407117652245436 0 0.032895684994673616 -0.01588501588455787 0 0.03260946608462427 -0.014527439564213205 0 0.033401012632498096 -0.012701854901473755 0 0.03260946608462427 -0.014527439564213205 0 0.031522515441036444 -0.013900041613575692 0 0.03415936619714801 -0.015407117652245436 0 0.03260946608462427 -0.014527439564213205 0 0.034321271513557093 -0.013984126701037818 0 0.033401012632498096 -0.012701854901473755 0 0.03260946608462427 -0.014527439564213205 0 0.034321271513557093 -0.013984126701037818 0 0.03415936619714801 -0.015407117652245436 0 0.034321271513557093 -0.013984126701037818 0 0.035750476778597925 -0.014569938122418876 0 0.035635555770748222 -0.012718694668806492 0 0.034321271513557093 -0.013984126701037818 0 0.035750476778597925 -0.014569938122418876 0 0.035653000030172965 -0.016341383274501502 0 0.035750476778597925 -0.014569938122418876 0 0.037221437919685317 -0.015338317302888708 0 0.035653000030172965 -0.016341383274501502 0 0.03415936619714801 -0.015407117652245436 0 0.035750476778597925 -0.014569938122418876 0 0.024917699219509305 -0.012047273666518742 0 0.026203733774429395 -0.011675202303254089 0 0.038101144681831664 -0.014409358974918745 0 0.038265456802581123 -0.014455205470900378 0 0.038269388702919876 -0.014342447412729494 0 0.035750476778597925 -0.014569938122418876 0 0.037221437919685317 -0.015338317302888708 0 0.037450689195140718 -0.013995261608197652 0 0.035635555770748222 -0.012718694668806492 0 0.035750476778597925 -0.014569938122418876 0 0.037450689195140718 -0.013995261608197652 0 0.038269388702919876 -0.014342447412729494 0 0.038513257173008526 -0.014291421307131243 0 0.038623675987125676 -0.01423767223827857 0 0.037221437919685317 -0.015338317302888708 0 0.037450689195140718 -0.013995261608197652 0 0.038623675987125676 -0.01423767223827857 0 0.038238298231116866 -0.013550355282135981 0 0.037450689195140718 -0.013995261608197652 0 0.038623675987125676 -0.01423767223827857 0 0.038850764005390892 -0.013713115144440968 0 0.038238298231116866 -0.013550355282135981 0 0.038623675987125676 -0.01423767223827857 0 0.038513257173008526 -0.014291421307131243 0 0.038623675987125676 -0.01423767223827857 0 0.03916655972671218 -0.01437553305198451 0 0.038850764005390892 -0.013713115144440968 0 0.038623675987125676 -0.01423767223827857 0 0.039281195610500724 -0.013928936307489599 0 0.038623675987125676 -0.01423767223827857 0 0.03916655972671218 -0.01437553305198451 0 0.039281195610500724 -0.013928936307489599 0 0.038513257173008526 -0.014291421307131243 0 0.03916655972671218 -0.01437553305198451 0 0.039271170194784447 -0.014852186310886591 0 0.036904896358204452 -0.011876651441719894 0 0.036786994445142121 -0.011709787409989094 0 0.038513257173008526 -0.014291421307131243 0 0.038395885851336665 -0.014427290721081128 0 0.038476329258190584 -0.014456429981511868 0 0.038269388702919876 -0.014342447412729494 0 0.038513257173008526 -0.014291421307131243 0 0.038395885851336665 -0.014427290721081128 0 0.038265456802581123 -0.014455205470900378 0 0.038269388702919876 -0.014342447412729494 0 0.038395885851336665 -0.014427290721081128 0 0.026203733774429395 -0.011675202303254089 0 0.026635950665823242 -0.011547570433250762 0 0.039811616858624055 -0.013823492738210135 0 0.039672104910184164 -0.014221465382214665 0 0.04017339821698819 -0.014375153761649891 0 0.040702241219227643 -0.014047247346631491 0 0.039811616858624055 -0.013823492738210135 0 0.04017339821698819 -0.014375153761649891 0 0.039811616858624055 -0.013823492738210135 0 0.039672104910184164 -0.014221465382214665 0 0.039281195610500724 -0.013928936307489599 0 0.03916655972671218 -0.01437553305198451 0 0.039672104910184164 -0.014221465382214665 0 0.039281195610500724 -0.013928936307489599 0 0.03916655972671218 -0.01437553305198451 0 0.039657248250253421 -0.014588455534432575 0 0.039271170194784447 -0.014852186310886591 0 0.03916655972671218 -0.01437553305198451 0 0.039672104910184164 -0.014221465382214665 0 0.039657248250253421 -0.014588455534432575 0 0.040489762935174124 -0.014606988702975899 0 0.04017339821698819 -0.014375153761649891 0 0.040036646901432743 -0.014816166405288494 0 0.039672104910184164 -0.014221465382214665 0 0.039657248250253421 -0.014588455534432575 0 0.04017339821698819 -0.014375153761649891 0 0.039657248250253421 -0.014588455534432575 0 0.04017339821698819 -0.014375153761649891 0 0.040036646901432743 -0.014816166405288494 0 0.040036646901432743 -0.014816166405288494 0 0.039841759532195993 -0.015112068713691021 0 0.039271170194784447 -0.014852186310886591 0 0.039657248250253421 -0.014588455534432575 0 0.040036646901432743 -0.014816166405288494 0 0.039271170194784447 -0.014852186310886591 0 0.03638244367100333 -0.011142327019467997 0 0.036786994445142121 -0.011709787409989094 0 0.040240088629752729 -0.015030595328711758 0 0.040036646901432743 -0.014816166405288494 0 0.039841759532195993 -0.015112068713691021 0 0.038539035796287355 -0.014575765263284173 0 0.038476329258190584 -0.014456429981511868 0 0.038369258559443849 -0.014541829021864943 0 0.038539035796287355 -0.014575765263284173 0 0.038369258559443849 -0.014541829021864943 0 0.038411406669535554 -0.014674883169143232 0 0.038395885851336665 -0.014427290721081128 0 0.038476329258190584 -0.014456429981511868 0 0.038369258559443849 -0.014541829021864943 0 0.038265456802581123 -0.014455205470900378 0 0.038395885851336665 -0.014427290721081128 0 0.038369258559443849 -0.014541829021864943 0 0.038369258559443849 -0.014541829021864943 0 0.038291984250880172 -0.014639431791795417 0 0.038411406669535554 -0.014674883169143232 0 0.038291984250880172 -0.014639431791795417 0 0.038411406669535554 -0.014674883169143232 0 0.038277262892691663 -0.014739646591734955 0 0.038411406669535554 -0.014674883169143232 0 0.03850307401191496 -0.014752468080490909 0 0.038377414981789787 -0.014811433118572448 0 0.038411406669535554 -0.014674883169143232 0 0.038377414981789787 -0.014811433118572448 0 0.038277262892691663 -0.014739646591734955 0 0.038539035796287355 -0.014575765263284173 0 0.038523236701291791 -0.014671765019553669 0 0.038617673362421071 -0.014693109504268402 0 0.03638244367100333 -0.011142327019467997 0 0.035584117037737791 -0.0100325764459747 0 0.040240088629752729 -0.015030595328711758 0 0.039841759532195993 -0.015112068713691021 0 0.040174383424361103 -0.015315453721515588 0 0.038539035796287355 -0.014575765263284173 0 0.038411406669535554 -0.014674883169143232 0 0.038523236701291791 -0.014671765019553669 0 0.038411406669535554 -0.014674883169143232 0 0.038523236701291791 -0.014671765019553669 0 0.03850307401191496 -0.014752468080490909 0 0.038523236701291791 -0.014671765019553669 0 0.03850307401191496 -0.014752468080490909 0 0.038617673362421071 -0.014693109504268402 0 0.043770553554244473 -0.012785646773292957 0 0.042495278834988624 -0.012785159231522862 0 0.042361194572368539 -0.013496512382352197 0 0.033972290433495547 -0.0093144681766474877 0 0.035584117037737791 -0.0100325764459747 0 0.041808372983932508 -0.012724299975390303 0 0.042495278834988624 -0.012785159231522862 0 0.042361194572368539 -0.013496512382352197 0 0.043770553554244473 -0.012785646773292957 0 0.042495278834988624 -0.012785159231522862 0 0.042440258523106122 -0.012042811009608148 0 0.041808372983932508 -0.012724299975390303 0 0.042495278834988624 -0.012785159231522862 0 0.042440258523106122 -0.012042811009608148 0 0.043770553554244473 -0.012785646773292957 0 0.042440258523106122 -0.012042811009608148 0 0.043398586168700973 -0.011372544465359789 0 0.043770553554244473 -0.012785646773292957 0 0.043398586168700973 -0.011372544465359789 0 0.044528369009695361 -0.011017598009610691 0 0.043707329486922013 -0.010228988320558697 0 0.043398586168700973 -0.011372544465359789 0 0.044528369009695361 -0.011017598009610691 0 0.043707329486922013 -0.010228988320558697 0 0.043398586168700973 -0.011372544465359789 0 0.042509337646349059 -0.010714869703516825 0 0.042440258523106122 -0.012042811009608148 0 0.043398586168700973 -0.011372544465359789 0 0.042509337646349059 -0.010714869703516825 0 0.047370546935493363 -0.0070163119033813956 0 0.047417448275157238 -0.0068851263637856527 0 0.042041724042620521 -0.01150733544130412 0 0.042440258523106122 -0.012042811009608148 0 0.042619124996511042 -0.011030275250120916 0 0.042126168665017019 -0.010135889774011633 0 0.042041724042620521 -0.01150733544130412 0 0.042619124996511042 -0.011030275250120916 0 0.031835149007031778 -0.0086370787661086204 0 0.028919303722230623 -0.0080789589502872836 0 0.038377414981789787 -0.014811433118572448 0 0.03824897263599402 -0.01486383869364033 0 0.038277262892691663 -0.014739646591734955 0 0.043770553554244473 -0.012785646773292957 0 0.04528568225801495 -0.011947081691743038 0 0.044528369009695361 -0.011017598009610691 0 0.033972290433495547 -0.0093144681766474877 0 0.031835149007031778 -0.0086370787661086204 0 0.04528568225801495 -0.011947081691743038 0 0.044528369009695361 -0.011017598009610691 0 0.045348069368061288 -0.010178315256545178 0 0.043707329486922013 -0.010228988320558697 0 0.044528369009695361 -0.011017598009610691 0 0.045348069368061288 -0.010178315256545178 0 0.046590907535692665 -0.0096323663788487526 0 0.045348069368061288 -0.010178315256545178 0 0.046786520476348896 -0.011107581350972794 0 0.04528568225801495 -0.011947081691743038 0 0.045348069368061288 -0.010178315256545178 0 0.046786520476348896 -0.011107581350972794 0 0.028919303722230623 -0.0080789589502872836 0 0.02488801919048168 -0.0077526827658595185 0 0.02488801919048168 -0.0077526827658595185 0 0.025629334103905877 -0.0087829051601262201 0 0.037959429058807136 -0.015033694312728694 0 0.038012792279283426 -0.015009223819318813 0 0.037989348202252325 -0.014936538103368181 0 0.03824897263599402 -0.01486383869364033 0 0.03812327776221533 -0.014914361940750237 0 0.038159966562107114 -0.014791880434921889 0 0.038012792279283426 -0.015009223819318813 0 0.038059125033426552 -0.014878890378886928 0 0.037989348202252325 -0.014936538103368181 0 0.047749893345426432 -0.0094942784342076699 0 0.046786520476348896 -0.011107581350972794 0 0.048318251772171257 -0.010287344534272859 0 0.02299475143494983 -0.0082634304783950514 0 0.02488801919048168 -0.0077526827658595185 0 0.038059125033426552 -0.014878890378886928 0 0.037989348202252325 -0.014936538103368181 0 0.03797935176756459 -0.014816517841835615 0 0.03824897263599402 -0.01486383869364033 0 0.038159966562107114 -0.014791880434921889 0 0.038277262892691663 -0.014739646591734955 0 0.038159966562107114 -0.014791880434921889 0 0.038277262892691663 -0.014739646591734955 0 0.038193629870980503 -0.01467165204221996 0 0.038059125033426552 -0.014878890378886928 0 0.038122751922834451 -0.014730778911367051 0 0.03797935176756459 -0.014816517841835615 0 0.025629334103905877 -0.0087829051601262201 0 0.026074343571719619 -0.0093498842419243999 0 0.038122751922834451 -0.014730778911367051 0 0.037949734791828525 -0.014654317443362902 0 0.03797935176756459 -0.014816517841835615 0 0.038061787643982395 -0.014570674661890498 0 0.038122751922834451 -0.014730778911367051 0 0.037949734791828525 -0.014654317443362902 0 0.026223147014918177 -0.0095285598020648406 0 0.026074343571719619 -0.0093498842419243999 0 0.038291984250880172 -0.014639431791795417 0 0.038277262892691663 -0.014739646591734955 0 0.038193629870980503 -0.01467165204221996 0 0.038206435235537212 -0.014551685837419346 0 0.038291984250880172 -0.014639431791795417 0 0.038193629870980503 -0.01467165204221996 0 0.015691452723952233 -0.012269776918719551 0 0.015291695259306883 -0.011263668668416977 0 0.016040324336026063 -0.011366034374760756 0 0.037763820859368212 -0.014587640029438015 0 0.037949734791828525 -0.014654317443362902 0 0.037842284642560765 -0.014759203341050632 0 0.019533305694341363 -0.013623336988229763 0 0.020962791645903867 -0.012158319471666852 0 0.037949734791828525 -0.014654317443362902 0 0.03797935176756459 -0.014816517841835615 0 0.037842284642560765 -0.014759203341050632 0 0.03797935176756459 -0.014816517841835615 0 0.037842284642560765 -0.014759203341050632 0 0.03790978930453421 -0.014905685718297489 0 0.020962791645903867 -0.012158319471666852 0 0.022111680120181495 -0.010408324216084961 0 0.015291695259306883 -0.011263668668416977 0 0.015673304566549619 -0.010618620089083573 0 0.014893996189830047 -0.010258367739786443 0 0.015291695259306883 -0.011263668668416977 0 0.015673304566549619 -0.010618620089083573 0 0.016040324336026063 -0.011366034374760756 0 0.015673304566549619 -0.010618620089083573 0 0.01552259180205968 -0.010015855613783283 0 0.014893996189830047 -0.010258367739786443 0 0.037989348202252325 -0.014936538103368181 0 0.03797935176756459 -0.014816517841835615 0 0.03790978930453421 -0.014905685718297489 0 0.037959429058807136 -0.015033694312728694 0 0.037989348202252325 -0.014936538103368181 0 0.03790978930453421 -0.014905685718297489 0 0.02299475143494983 -0.0082634304783950514 0 0.022111680120181495 -0.010408324216084961 0 0.014496611607365657 -0.0092515785391431744 0 0.014893996189830047 -0.010258367739786443 0 0.015174308566421997 -0.0095749759617186157 0 0.01552259180205968 -0.010015855613783283 0 0.014893996189830047 -0.010258367739786443 0 0.015174308566421997 -0.0095749759617186157 0 0.01552259180205968 -0.010015855613783283 0 0.015174308566421997 -0.0095749759617186157 0 0.015713927749547048 -0.0094378510450076909 0 0.016206307897449358 -0.0093760861889079401 0 0.01666490632731208 -0.0097875962658027608 0 0.016107926965705132 -0.010071140561884004 0 0.016206307897449358 -0.0093760861889079401 0 0.015713927749547048 -0.0094378510450076909 0 0.016107926965705132 -0.010071140561884004 0 0.01552259180205968 -0.010015855613783283 0 0.015713927749547048 -0.0094378510450076909 0 0.016107926965705132 -0.010071140561884004 0 0.016569557874397661 -0.0090626747665366846 0 0.016206307897449358 -0.0093760861889079401 0 0.01666490632731208 -0.0097875962658027608 0 0.016569557874397661 -0.0090626747665366846 0 0.01666490632731208 -0.0097875962658027608 0 0.017162776435730474 -0.0096056973216927296 0 0.012635905289941487 -0.0068977915765316873 0 0.0086741872699002756 -0.0077167044508546778 0 0.01666490632731208 -0.0097875962658027608 0 0.017152617256674982 -0.0096138848011557993 0 0.017161360734423359 -0.010259032516586651 0 0.0087782954684086818 -0.0076978588967468262 0 0.0086741872699002756 -0.0077167044508546778 0 0.01666490632731208 -0.0097875962658027608 0 0.016618106364840492 -0.010289469012903639 0 0.016107926965705132 -0.010071140561884004 0 0.01666490632731208 -0.0097875962658027608 0 0.016618106364840492 -0.010289469012903639 0 0.017161360734423359 -0.010259032516586651 0 0.016618106364840492 -0.010289469012903639 0 0.016923975113616024 -0.010600301135754395 0 0.017161360734423359 -0.010259032516586651 0 0.016618106364840492 -0.010289469012903639 0 0.016923975113616024 -0.010600301135754395 0 0.01633055094487006 -0.0107010941412326 0 0.015673304566549619 -0.010618620089083573 0 0.016107926965705132 -0.010071140561884004 0 0.01633055094487006 -0.0107010941412326 0 0.016618106364840492 -0.010289469012903639 0 0.016107926965705132 -0.010071140561884004 0 0.01633055094487006 -0.0107010941412326 0 0.015673304566549619 -0.010618620089083573 0 0.01552259180205968 -0.010015855613783283 0 0.016107926965705132 -0.010071140561884004 0 0.0056974179759878727 -0.0021530863431920158 0 0.0032531481374538733 -0.0081777195830010727 0 0.0093648215034523325 -0.0053113552735368419 0 0.0056974179759878727 -0.0021530863431920158 0 -0.0008054141831487754 -0.0044935385843961981 0 0.0032531481374538733 -0.0081777195830010727 0 0.0038989883928181113 -0.0085585996361760147 0 0.0086741872699002756 -0.0077167044508546778 0 0.0086741872699002756 -0.0077167044508546778 0 0.0072214772936660711 -0.0091631866412837295 0 0.017152617256674982 -0.0096138848011557993 0 0.017161360734423359 -0.010259032516586651 0 0.017741422489938312 -0.010151793119430609 0 0.016923975113616024 -0.010600301135754395 0 0.017161360734423359 -0.010259032516586651 0 0.017314254202549444 -0.010776647903900587 0 0.017161360734423359 -0.010259032516586651 0 0.017713302719684684 -0.010592797513740967 0 0.017314254202549444 -0.010776647903900587 0 0.017161360734423359 -0.010259032516586651 0 0.017741422489938312 -0.010151793119430609 0 0.017713302719684684 -0.010592797513740967 0 0.0032531481374538733 -0.0081777195830010727 0 0.0073128925125275088 -0.011862631016377382 0 0.0093648215034523325 -0.0053113552735368419 0 0.017741422489938312 -0.010151793119430609 0 0.017713302719684684 -0.010592797513740967 0 0.018330385619167364 -0.010691383526017104 0 0.0072214772936660711 -0.0091631866412837295 0 0.0056158633557801515 -0.010523001805097481 0 0.0083077072223803686 -0.01695927321850078 0 0.0084589501543439471 -0.017018364951369627 0 0.0083479523920996449 -0.016812760781524733 0 0.0083077072223803686 -0.01695927321850078 0 0.0082855543869473653 -0.017105399935225175 0 0.0084589501543439471 -0.017018364951369627 0 0.0056158633557801515 -0.010523001805097481 0 0.0095593820393148499 -0.011922421424143544 0 0.017713302719684684 -0.010592797513740967 0 0.018330385619167364 -0.010691383526017104 0 0.01775908273021096 -0.011034259455011849 0 0.01775908273021096 -0.011034259455011849 0 0.017314254202549444 -0.010776647903900587 0 0.017179342127458502 -0.01138278061227759 0 0.0095593820393148499 -0.011922421424143544 0 0.013395131735314319 -0.013333987300317126 0 0.017713302719684684 -0.010592797513740967 0 0.01775908273021096 -0.011034259455011849 0 0.017314254202549444 -0.010776647903900587 0 0.013424871904902132 -0.013276235844879388 0 0.013395131735314319 -0.013333987300317126 0 0.017314254202549444 -0.010776647903900587 0 0.017187696392917558 -0.011371056181274883 0 0.016773989049795962 -0.011031290305636099 0 0.0084589501543439471 -0.017018364951369627 0 0.0086570761176681943 -0.016918044115312329 0 0.0085448247364619569 -0.016811019324055161 0 0.0086570761176681943 -0.016918044115312329 0 0.0085448247364619569 -0.016811019324055161 0 0.0087246805092923898 -0.016678186039248512 0 0.013395131735314319 -0.013333987300317126 0 0.014781385286824792 -0.015236285587536265 0 0.0084589501543439471 -0.017018364951369627 0 0.0085448247364619569 -0.016811019324055161 0 0.0083479523920996449 -0.016812760781524733 0 0.0085448247364619569 -0.016811019324055161 0 0.0083479523920996449 -0.016812760781524733 0 0.0085451628637037754 -0.016601702595937417 0 0.015534693363117441 -0.017834688737908486 0 0.015682219361132649 -0.017761329155810173 0 0.015673304566549619 -0.010618620089083573 0 0.01633055094487006 -0.0107010941412326 0 0.016040324336026063 -0.011366034374760756 0 0.01633055094487006 -0.0107010941412326 0 0.016773989049795962 -0.011031290305636099 0 0.016040324336026063 -0.011366034374760756 0 0.016923975113616024 -0.010600301135754395 0 0.01633055094487006 -0.0107010941412326 0 0.016773989049795962 -0.011031290305636099 0 0.016923975113616024 -0.010600301135754395 0 0.017314254202549444 -0.010776647903900587 0 0.016773989049795962 -0.011031290305636099 0 0.012544234789271162 -0.012871204281340988 0 0.012887889376623361 -0.012669546388606507 0 0.012640664081579621 -0.012442607456611528 0 0.012887889376623361 -0.012669546388606507 0 0.01323001020736094 -0.012465072472017842 0 0.012640664081579621 -0.012442607456611528 0 0.016773989049795962 -0.011031290305636099 0 0.01662538967502793 -0.011709044692119221 0 0.016040324336026063 -0.011366034374760756 0 0.017187696392917558 -0.011371056181274883 0 0.016773989049795962 -0.011031290305636099 0 0.01662538967502793 -0.011709044692119221 0 0.013395131735314319 -0.013333987300317126 0 0.015277731464234985 -0.01391334246489612 0 0.015277731464234985 -0.01391334246489612 0 0.017144462278684085 -0.014521303977506389 0 0.015691452723952233 -0.012269776918719551 0 0.016040324336026063 -0.011366034374760756 0 0.016063229189018563 -0.01205248274256965 0 0.01662538967502793 -0.011709044692119221 0 0.016040324336026063 -0.011366034374760756 0 0.016063229189018563 -0.01205248274256965 0 0.019533305694341363 -0.013623336988229763 0 0.019182520491955308 -0.01455715181354927 0 0.019533305694341363 -0.013623336988229763 0 0.017144462278684085 -0.014521303977506389 0 0.017648812650108949 -0.011086374697169542 0 0.017468632440573752 -0.013723625061487287 0 0.019617779812613884 -0.015384553259990138 0 0.015547449181554578 -0.012304561419220031 0 0.017648812650108949 -0.011086374697169542 0 0.017468632440573752 -0.013723625061487287 0 0.015547449181554578 -0.012304561419220031 0 0.017468632440573752 -0.013723625061487287 0 0.017072363200618293 -0.016139248248730701 0 0.017072363200618293 -0.016139248248730701 0 0.019617779812613884 -0.015384553259990138 0 0.018597171919785327 -0.019971974828064943 0 0.019182520491955308 -0.01455715181354927 0 0.018691534050070215 -0.015304679652490064 0 0.017468632440573752 -0.013723625061487287 0 0.017072363200618293 -0.016139248248730701 0 0.019617779812613884 -0.015384553259990138 0 0.019617779812613884 -0.015384553259990138 0 0.022010611207663209 -0.016537151023384742 0 0.018597171919785327 -0.019971974828064943 0 0.015211446825137654 -0.02365529199858208 0 0.01545523038118545 -0.023409766774803952 0 0.015573102115446085 -0.024642508614056303 0 0.016773212294154041 -0.017369180121506948 0 0.018691534050070215 -0.015304679652490064 0 0.019617779812613884 -0.015384553259990138 0 0.022010611207663209 -0.016537151023384742 0 0.022272640985398866 -0.015344565706019674 0 0.016773212294154041 -0.017369180121506948 0 0.016229709235902941 -0.017139775125372968 0 0.018926394968228066 -0.020856550066200102 0 0.019522775002620417 -0.020256096077416168 0 0.019136088377435072 -0.019900217591466613 0 0.016773212294154041 -0.017369180121506948 0 0.016125439480844113 -0.017542022107089737 0 0.016125439480844113 -0.017542022107089737 0 0.016229709235902941 -0.017139775125372968 0 0.017144462278684085 -0.014521303977506389 0 0.016229709235902941 -0.017139775125372968 0 0.01323001020736094 -0.012465072472017842 0 0.012736798119380222 -0.01201394499370235 0 0.012640664081579621 -0.012442607456611528 0 0.016229709235902941 -0.017139775125372968 0 0.014781385286824792 -0.015236285587536265 0 0.017648812650108949 -0.011086374697169542 0 0.019617779812613884 -0.015384553259990138 0 0.022272640985398866 -0.015344565706019674 0 0.0087891917745305005 -0.016420244670906789 0 0.0087246805092923898 -0.016678186039248512 0 0.0085451628637037754 -0.016601702595937417 0 0.0085448247364619569 -0.016811019324055161 0 0.0087246805092923898 -0.016678186039248512 0 0.0085451628637037754 -0.016601702595937417 0 0.016125439480844113 -0.017542022107089737 0 0.015682219361132649 -0.017761329155810173 0 0.0087583018982429154 -0.016391499348018042 0 0.0087891917745305005 -0.016420244670906789 0 0.0085451628637037754 -0.016601702595937417 0 0.0083479523920996449 -0.016812760781524733 0 0.0084842548724963981 -0.016674073164305483 0 0.0083178816843108329 -0.016655874346058992 0 0.0084842548724963981 -0.016674073164305483 0 0.0083178816843108329 -0.016655874346058992 0 0.008399091458973558 -0.016530032342180336 0 0.0083178816843108329 -0.016655874346058992 0 0.008399091458973558 -0.016530032342180336 0 0.0082094575921376652 -0.016540075057283655 0 0.008399091458973558 -0.016530032342180336 0 0.0084596726697239374 -0.016378168572724682 0 0.008284820960455113 -0.016395754629724268 0 0.008399091458973558 -0.016530032342180336 0 0.008284820960455113 -0.016395754629724268 0 0.0082094575921376652 -0.016540075057283655 0 0.008629762209574645 -0.016531332011957847 0 0.008399091458973558 -0.016530032342180336 0 0.0084596726697239374 -0.016378168572724682 0 0.008629762209574645 -0.016531332011957847 0 0.0084842548724963981 -0.016674073164305483 0 0.008399091458973558 -0.016530032342180336 0 0.01545523038118545 -0.023409766774803952 0 0.016682069141822495 -0.024550201081569686 0 0.015573102115446085 -0.024642508614056303 0 0.016125439480844113 -0.017542022107089737 0 0.012981257789773737 -0.019778045957265202 0 0.016682069141822495 -0.024550201081569686 0 0.015746346748857311 -0.025942992569216831 0 0.015573102115446085 -0.024642508614056303 0 0.0084596726697239374 -0.016378168572724682 0 0.008284820960455113 -0.016395754629724268 0 0.0082867114109440362 -0.016225693815781983 0 0.012981257789773737 -0.019778045957265202 0 0.0098386244113382957 -0.021991571353385 0 0.016682069141822495 -0.024550201081569686 0 0.016931000186418337 -0.026439422251419677 0 0.017897556535604875 -0.02568225109908566 0 0.016931000186418337 -0.026439422251419677 0 0.017897556535604875 -0.02568225109908566 0 0.018400240629116819 -0.027554792491357137 0 0.016931000186418337 -0.026439422251419677 0 0.015746346748857311 -0.025942992569216831 0 0.016143696260896755 -0.027602218163417378 0 0.016682069141822495 -0.024550201081569686 0 0.016931000186418337 -0.026439422251419677 0 0.015746346748857311 -0.025942992569216831 0 0.014769224319933374 -0.025655061096742132 0 0.015239818058038255 -0.026853724127296166 0 0.014320021741747594 -0.027692568800495872 0 0.030612490277157241 -0.014852542628093464 0 0.031522515441036444 -0.013900041613575692 0 0.031112424871151838 -0.012725656175707676 0 0.020390899687594524 -0.020582255413470574 0 0.023914596150266615 -0.023882774348390215 0 0.015746346748857311 -0.025942992569216831 0 0.014769224319933374 -0.025655061096742132 0 0.015239818058038255 -0.026853724127296166 0 0.030612490277157241 -0.014852542628093464 0 0.031522515441036444 -0.013900041613575692 0 0.031067363097728628 -0.015082134648926269 0 0.03260946608462427 -0.014527439564213205 0 0.031522515441036444 -0.013900041613575692 0 0.031067363097728628 -0.015082134648926269 0 0.032895684994673616 -0.01588501588455787 0 0.03260946608462427 -0.014527439564213205 0 0.031441213739366668 -0.015692938980988197 0 0.03260946608462427 -0.014527439564213205 0 0.031351676124803544 -0.015804360070943796 0 0.031067363097728628 -0.015082134648926269 0 0.032895684994673616 -0.01588501588455787 0 0.031945609636065457 -0.016967032807793832 0 0.031441213739366668 -0.015692938980988197 0 0.018691534050070215 -0.015304679652490064 0 0.01872702209938789 -0.01533055480113847 0 0.019047577463446434 -0.015086651545400282 0 0.018691534050070215 -0.015304679652490064 0 0.016773212294154041 -0.017369180121506948 0 0.020390899687594524 -0.020582255413470574 0 0.015746346748857311 -0.025942992569216831 0 0.014769224319933374 -0.025655061096742132 0 0.015573102115446085 -0.024642508614056303 0 0.015211446825137654 -0.02365529199858208 0 0.014769224319933374 -0.025655061096742132 0 0.015573102115446085 -0.024642508614056303 0 0.03009580113408563 -0.017056048606539448 0 0.030612490277157241 -0.014852542628093464 0 0.031350086579737466 -0.015812825938083412 0 0.030612490277157241 -0.014852542628093464 0 0.031350086579737466 -0.015812825938083412 0 0.031067363097728628 -0.015082134648926269 0 -0.038674067329571044 -0.029414342625143263 0 -0.030712459565670598 -0.027929140646868328 0 -0.031728654844000406 -0.034959193063856552 0 -0.030712459565670598 -0.027929140646868328 0 -0.031728654844000406 -0.034959193063856552 0 -0.02615837738965128 -0.029848301910907912 0 -0.038674067329571044 -0.029414342625143263 0 -0.030712459565670598 -0.027929140646868328 0 -0.030007800291188415 -0.020301138726031204 0 -0.031728654844000406 -0.034959193063856552 0 -0.023891093674323967 -0.034284355424830847 0 -0.027510409845637077 -0.041974598670801284 0 -0.031728654844000406 -0.034959193063856552 0 -0.02615837738965128 -0.029848301910907912 0 -0.023891093674323967 -0.034284355424830847 0 -0.038674067329571044 -0.029414342625143263 0 -0.031728654844000406 -0.034959193063856552 0 -0.039253167034321731 -0.037440668019785718 0 -0.031728654844000406 -0.034959193063856552 0 -0.039253167034321731 -0.037440668019785718 0 -0.035369735501302409 -0.04210339335830781 0 0.0012031834701557976 -0.021918630069638796 0 0.0065379254676310545 -0.024150267765763515 0 0.0078871917229661852 -0.016302820318928345 0 0.0081274281453946277 -0.016344025332313508 0 0.0081171357318148302 -0.016074836612380981 0 -0.038674067329571044 -0.029414342625143263 0 -0.039253167034321731 -0.037440668019785718 0 -0.047287332567181824 -0.038470080436728171 0 0.0082867114109440362 -0.016225693815781983 0 0.0081274281453946277 -0.016344025332313508 0 0.0081171357318148302 -0.016074836612380981 0 0.017897556535604875 -0.02568225109908566 0 0.019113226121689596 -0.026808830765351219 0 0.018400240629116819 -0.027554792491357137 0 0.0098386244113382957 -0.021991571353385 0 0.0065379254676310545 -0.024150267765763515 0 0.008284820960455113 -0.016395754629724268 0 0.0082867114109440362 -0.016225693815781983 0 0.0081274281453946277 -0.016344025332313508 0 0.0078871917229661852 -0.016302820318928345 0 0.0081274281453946277 -0.016344025332313508 0 0.0079797994648879416 -0.016527332248894747 0 0.008284820960455113 -0.016395754629724268 0 0.0081274281453946277 -0.016344025332313508 0 0.0082094575921376652 -0.016540075057283655 0 0.0081274281453946277 -0.016344025332313508 0 0.0079797994648879416 -0.016527332248894747 0 0.0082094575921376652 -0.016540075057283655 0 0.0079797994648879416 -0.016527332248894747 0 0.0082094575921376652 -0.016540075057283655 0 0.0081330216708539634 -0.016700937508081062 0 0.0083178816843108329 -0.016655874346058992 0 0.0082094575921376652 -0.016540075057283655 0 0.0081330216708539634 -0.016700937508081062 0 0.0083479523920996449 -0.016812760781524733 0 0.0083178816843108329 -0.016655874346058992 0 0.0081330216708539634 -0.016700937508081062 0 0.0079797994648879416 -0.016527332248894747 0 0.0081330216708539634 -0.016700937508081062 0 0.0078597691443635688 -0.01672008578915787 0 -0.00085778893825666416 -0.015052280934345023 0 -0.002192431334189917 -0.018412995314314024 0 0.0079797994648879416 -0.016527332248894747 0 0.0078597691443635688 -0.01672008578915787 0 0.0076505434242934295 -0.016537423769040289 0 0.0078871917229661852 -0.016302820318928345 0 0.0079797994648879416 -0.016527332248894747 0 0.0076505434242934295 -0.016537423769040289 0 0.0012031834701557976 -0.021918630069638796 0 -0.002192431334189917 -0.018412995314314024 0 -0.030712459565670598 -0.027929140646868328 0 -0.030007800291188415 -0.020301138726031204 0 -0.023946438987657928 -0.025727123032675207 0 -0.032712999808102633 -0.017139643230390803 0 -0.032756823455871636 -0.012946336643607117 0 -0.026818098580608608 -0.013690424745216527 0 -0.037394748412873983 -0.011020043872853852 0 -0.032712999808102633 -0.017139643230390803 0 -0.032756823455871636 -0.012946336643607117 0 -0.002192431334189917 -0.018412995314314024 0 -0.0025577516623583119 -0.018563592796515007 0 -0.037394748412873983 -0.011020043872853852 0 -0.032756823455871636 -0.012946336643607117 0 -0.032592017766817763 -0.009209600888404338 0 -0.032756823455871636 -0.012946336643607117 0 -0.032592017766817763 -0.009209600888404338 0 -0.026818098580608608 -0.013690424745216527 0 -0.037394748412873983 -0.011020043872853852 0 -0.032592017766817763 -0.009209600888404338 0 -0.035077179574208237 -0.0084179548270829994 0 -0.032592017766817763 -0.009209600888404338 0 -0.033414361700951321 -0.0078845553803113724 0 -0.033066450774679727 -0.0078249569496889014 0 -0.033414361700951321 -0.0078845553803113724 0 -0.035077179574208237 -0.0084179548270829994 0 -0.034029900518402163 -0.0069738852436950806 0 -0.032592017766817763 -0.009209600888404338 0 -0.033414361700951321 -0.0078845553803113724 0 -0.035077179574208237 -0.0084179548270829994 0 -0.037394748412873983 -0.011020043872853852 0 -0.035077179574208237 -0.0084179548270829994 0 -0.040430132624943556 -0.0078300954299485425 0 -0.035077179574208237 -0.0084179548270829994 0 -0.035779091489921075 -0.0065096987253726035 0 -0.040430132624943556 -0.0078300954299485425 0 -0.035779091489921075 -0.0065096987253726035 0 -0.035168537167421035 -0.0055394101503044033 0 -0.037737199867483286 -0.0049057700931816562 0 -0.0031677541801037323 -0.0071420213962137859 0 -0.0025867065694146749 -0.0074713738391675609 0 -0.035779091489921075 -0.0065096987253726035 0 -0.035168537167421035 -0.0055394101503044033 0 -0.034029900518402163 -0.0069738852436950806 0 -0.035168537167421035 -0.0055394101503044033 0 -0.034029900518402163 -0.0069738852436950806 0 -0.03457034369073872 -0.0039447189778220012 0 -0.034029900518402163 -0.0069738852436950806 0 -0.033505615110431396 -0.0072946405159487965 0 -0.033674383003403051 -0.0066829902481222742 0 -0.033414361700951321 -0.0078845553803113724 0 -0.034029900518402163 -0.0069738852436950806 0 -0.033505615110431396 -0.0072946405159487965 0 -0.035077179574208237 -0.0084179548270829994 0 -0.035779091489921075 -0.0065096987253726035 0 -0.034029900518402163 -0.0069738852436950806 0 0.0083479523920996449 -0.016812760781524733 0 0.0081330216708539634 -0.016700937508081062 0 0.0080674719829489632 -0.0169032763805507 0 0.0083077072223803686 -0.01695927321850078 0 0.0083479523920996449 -0.016812760781524733 0 0.0080674719829489632 -0.0169032763805507 0 0.0081330216708539634 -0.016700937508081062 0 0.0078597691443635688 -0.01672008578915787 0 0.0080674719829489632 -0.0169032763805507 0 -0.00085778893825666416 -0.015052280934345023 0 0.001623618334777924 -0.012361642713647784 0 -0.035779091489921075 -0.0065096987253726035 0 -0.040430132624943556 -0.0078300954299485425 0 -0.03803261648332331 -0.0045444776235485122 0 -0.040430132624943556 -0.0078300954299485425 0 -0.040587875020053427 -0.005104074895576868 0 -0.03803261648332331 -0.0045444776235485122 0 0.0083077072223803686 -0.01695927321850078 0 0.0082855543869473653 -0.017105399935225175 0 0.0080674719829489632 -0.0169032763805507 0 0.0056158633557801515 -0.010523001805097481 0 0.001623618334777924 -0.012361642713647784 0 -0.043704234047683713 -0.0047775889144279823 0 -0.040430132624943556 -0.0078300954299485425 0 -0.040587875020053427 -0.005104074895576868 0 -0.043704234047683713 -0.0047775889144279823 0 -0.040587875020053427 -0.005104074895576868 0 -0.040219242248376925 -0.0026865904009013559 0 0.0056158633557801515 -0.010523001805097481 0 -0.00075105597804467697 -0.0085367258279277179 0 0.0073128925125275088 -0.011862631016377382 0 0.01303124964903425 -0.0084703188077477985 0 0.0093648215034523325 -0.0053113552735368419 0 -0.039732917496211481 -0.0031753996507233847 0 -0.037737199867483286 -0.0049057700931816562 0 -0.036623823057323993 -0.0012966304295342886 0 -0.040587875020053427 -0.005104074895576868 0 -0.040219242248376925 -0.0026865904009013559 0 -0.03803261648332331 -0.0045444776235485122 0 -0.00075105597804467697 -0.0085367258279277179 0 -0.0025867065694146749 -0.0074713738391675609 0 -0.00076916050891005013 -0.0015136112050179408 0 -0.00019340163920045098 -0.00071946492827847379 0 -0.0017434994651185165 -0.00051307803922545951 0 -0.00075105597804467697 -0.0085367258279277179 0 -0.0053987474572144501 -0.0076454736825290704 0 -0.00015327396278603936 0.00039877892539295711 0 -0.00019340163920045098 -0.00071946492827847379 0 -0.0017434994651185165 -0.00051307803922545951 0 0.00033114112126915067 -0.0020125308222826883 0 -0.00019340163920045098 -0.00071946492827847379 0 0.00090484820473169642 -0.00051296133632809432 0 -0.00075105597804467697 -0.0085367258279277179 0 0.001583188802311205 -0.0084966935513299917 0 -0.00015327396278603936 0.00039877892539295711 0 -0.00019340163920045098 -0.00071946492827847379 0 0.00090484820473169642 -0.00051296133632809432 0 0.0038989883928181113 -0.0085585996361760147 0 0.001583188802311205 -0.0084966935513299917 0 -0.034029900518402163 -0.0069738852436950806 0 -0.034168583976325308 -0.0059175277632057335 0 -0.033674383003403051 -0.0066829902481222742 0 -0.034029900518402163 -0.0069738852436950806 0 -0.03457034369073872 -0.0039447189778220012 0 -0.032073237776096539 -0.0021747179436478817 0 -0.014630982746286115 -0.0066338152566738241 0 -0.01406820233710337 -0.0062844970420903225 0 -0.03457034369073872 -0.0039447189778220012 0 -0.034181339011163957 -0.0016921332908014228 0 -0.032073237776096539 -0.0021747179436478817 0 -0.035168537167421035 -0.0055394101503044033 0 -0.037737199867483286 -0.0049057700931816562 0 -0.03457034369073872 -0.0039447189778220012 0 -0.037737199867483286 -0.0049057700931816562 0 -0.03457034369073872 -0.0039447189778220012 0 -0.036623823057323993 -0.0012966304295342886 0 -0.03457034369073872 -0.0039447189778220012 0 -0.036623823057323993 -0.0012966304295342886 0 -0.034181339011163957 -0.0016921332908014228 0 -0.0035253689982199486 -0.0014962262615911604 0 -0.001998625814013891 -0.0015831731940621728 0 -0.0017434994651185165 -0.00051307803922545951 0 -0.001998625814013891 -0.0015831731940621728 0 -0.00076916050891005013 -0.0015136112050179408 0 -0.0017434994651185165 -0.00051307803922545951 0 -0.0091944254912402802 -0.0066028945478756309 0 -0.0053987474572144501 -0.0076454736825290704 0 -0.033432937137210725 0.00064594286226436954 0 -0.034181339011163957 -0.0016921332908014228 0 -0.032073237776096539 -0.0021747179436478817 0 -0.033432937137210725 0.00064594286226436954 0 -0.036623823057323993 -0.0012966304295342886 0 -0.034181339011163957 -0.0016921332908014228 0 -0.012466445065705115 -0.0055267118775946525 0 -0.01406820233710337 -0.0062844970420903225 0 -0.034168583976325308 -0.0059175277632057335 0 -0.033463404244470002 -0.00620482249958743 0 -0.033873497895942101 -0.005311899775845519 0 -0.03448118098729603 -0.0042758334384915206 0 -0.034168583976325308 -0.0059175277632057335 0 -0.033873497895942101 -0.005311899775845519 0 -0.034168583976325308 -0.0059175277632057335 0 -0.033463404244470002 -0.00620482249958743 0 -0.033674383003403051 -0.0066829902481222742 0 -0.033463404244470002 -0.00620482249958743 0 -0.033674383003403051 -0.0066829902481222742 0 -0.032992175162587123 -0.0072636288205876953 0 -0.033463404244470002 -0.00620482249958743 0 -0.032714550012906143 -0.0065709173985327189 0 -0.032992175162587123 -0.0072636288205876953 0 -0.033463404244470002 -0.00620482249958743 0 -0.033187486239123154 -0.0054218944557962003 0 -0.032714550012906143 -0.0065709173985327189 0 -0.03396914030855102 -0.0046074421894805838 0 -0.033873497895942101 -0.005311899775845519 0 -0.033187486239123154 -0.0054218944557962003 0 -0.033463404244470002 -0.00620482249958743 0 -0.033873497895942101 -0.005311899775845519 0 -0.033187486239123154 -0.0054218944557962003 0 -0.033187486239123154 -0.0054218944557962003 0 -0.032406514133571526 -0.0052759373129524978 0 -0.032396253498580711 -0.006023943409847337 0 -0.032982406129653516 -0.0046270739747428426 0 -0.033187486239123154 -0.0054218944557962003 0 -0.032406514133571526 -0.0052759373129524978 0 -0.032406514133571526 -0.0052759373129524978 0 -0.031845117223228477 -0.0059828091757234518 0 -0.031431178530630148 -0.0051200528509456993 0 -0.032317200344746437 -0.0045002365856275806 0 -0.032406514133571526 -0.0052759373129524978 0 -0.031431178530630148 -0.0051200528509456993 0 -0.032406514133571526 -0.0052759373129524978 0 -0.031845117223228477 -0.0059828091757234518 0 -0.032396253498580711 -0.006023943409847337 0 -0.032396253498580711 -0.006023943409847337 0 -0.032714550012906143 -0.0065709173985327189 0 -0.031861843916930033 -0.0067825850647168714 0 -0.031845117223228477 -0.0059828091757234518 0 -0.032396253498580711 -0.006023943409847337 0 -0.031861843916930033 -0.0067825850647168714 0 -0.033187486239123154 -0.0054218944557962003 0 -0.032396253498580711 -0.006023943409847337 0 -0.032714550012906143 -0.0065709173985327189 0 -0.032714550012906143 -0.0065709173985327189 0 -0.032549149178623324 -0.0073720690058483689 0 -0.032992175162587123 -0.0072636288205876953 0 -0.032714550012906143 -0.0065709173985327189 0 -0.032549149178623324 -0.0073720690058483689 0 -0.031861843916930033 -0.0067825850647168714 0 -0.032549149178623324 -0.0073720690058483689 0 -0.031861843916930033 -0.0067825850647168714 0 -0.031641703252196007 -0.0076627367205057174 0 -0.031641703252196007 -0.0076627367205057174 0 -0.032202347957989826 -0.0079016812180276088 0 -0.031818478247867196 -0.0083486820493242492 0 -0.032549149178623324 -0.0073720690058483689 0 -0.031641703252196007 -0.0076627367205057174 0 -0.032202347957989826 -0.0079016812180276088 0 -0.032549149178623324 -0.0073720690058483689 0 -0.032202347957989826 -0.0079016812180276088 0 -0.032514439497327186 -0.0081620818499808755 0 -0.032874488159183847 -0.0080698720305498843 0 -0.033066450774679727 -0.0078249569496889014 0 -0.032992175162587123 -0.0072636288205876953 0 -0.032549149178623324 -0.0073720690058483689 0 -0.032874488159183847 -0.0080698720305498843 0 -0.032514439497327186 -0.0081620818499808755 0 -0.032592017766817763 -0.009209600888404338 0 -0.032874488159183847 -0.0080698720305498843 0 -0.033066450774679727 -0.0078249569496889014 0 -0.033066450774679727 -0.0078249569496889014 0 -0.033505615110431396 -0.0072946405159487965 0 -0.033674383003403051 -0.0066829902481222742 0 -0.033066450774679727 -0.0078249569496889014 0 -0.033674383003403051 -0.0066829902481222742 0 -0.032992175162587123 -0.0072636288205876953 0 -0.033414361700951321 -0.0078845553803113724 0 -0.033066450774679727 -0.0078249569496889014 0 -0.033505615110431396 -0.0072946405159487965 0 -0.032549149178623324 -0.0073720690058483689 0 -0.032874488159183847 -0.0080698720305498843 0 -0.032992175162587123 -0.0072636288205876953 0 -0.028041118550165174 -0.0059396710714763115 0 -0.029013646176928816 -0.005959508347380682 0 -0.028716829420328757 -0.0070418984666138253 0 -0.029013646176928816 -0.005959508347380682 0 -0.02844122144782435 -0.0050483083097889346 0 -0.029459425785340339 -0.0049757507462298402 0 -0.028041118550165174 -0.0059396710714763115 0 -0.029013646176928816 -0.005959508347380682 0 -0.02844122144782435 -0.0050483083097889346 0 -0.029013646176928816 -0.005959508347380682 0 -0.029459425785340339 -0.0049757507462298402 0 -0.030043669155697481 -0.0058824339621933106 0 -0.029459425785340339 -0.0049757507462298402 0 -0.030043669155697481 -0.0058824339621933106 0 -0.030291143671339026 -0.004924849302450701 0 -0.030043669155697481 -0.0058824339621933106 0 -0.030361111571774846 -0.0066477530566484777 0 -0.029609632598224026 -0.0067293765099766855 0 -0.029013646176928816 -0.005959508347380682 0 -0.030043669155697481 -0.0058824339621933106 0 -0.029609632598224026 -0.0067293765099766855 0 -0.030043669155697481 -0.0058824339621933106 0 -0.030769962030253874 -0.0055123117638778444 0 -0.03104337864706502 -0.0061754921894444708 0 -0.030043669155697481 -0.0058824339621933106 0 -0.03104337864706502 -0.0061754921894444708 0 -0.030361111571774846 -0.0066477530566484777 0 -0.030769962030253874 -0.0055123117638778444 0 -0.030291143671339026 -0.004924849302450701 0 -0.031431178530630148 -0.0051200528509456993 0 -0.030043669155697481 -0.0058824339621933106 0 -0.030769962030253874 -0.0055123117638778444 0 -0.030291143671339026 -0.004924849302450701 0 -0.031845117223228477 -0.0059828091757234518 0 -0.031431178530630148 -0.0051200528509456993 0 -0.03104337864706502 -0.0061754921894444708 0 -0.030769962030253874 -0.0055123117638778444 0 -0.031431178530630148 -0.0051200528509456993 0 -0.03104337864706502 -0.0061754921894444708 0 -0.031845117223228477 -0.0059828091757234518 0 -0.031861843916930033 -0.0067825850647168714 0 -0.03104337864706502 -0.0061754921894444708 0 -0.031861843916930033 -0.0067825850647168714 0 -0.03104337864706502 -0.0061754921894444708 0 -0.030965350407154334 -0.007079590935570027 0 -0.031861843916930033 -0.0067825850647168714 0 -0.031641703252196007 -0.0076627367205057174 0 -0.030965350407154334 -0.007079590935570027 0 -0.031641703252196007 -0.0076627367205057174 0 -0.030965350407154334 -0.007079590935570027 0 -0.03072884023338484 -0.0077876813680382035 0 -0.031641703252196007 -0.0076627367205057174 0 -0.03072884023338484 -0.0077876813680382035 0 -0.03110183762545957 -0.0083585466101600923 0 -0.030965350407154334 -0.007079590935570027 0 -0.03072884023338484 -0.0077876813680382035 0 -0.0301287180680022 -0.0073299473142539283 0 -0.03072884023338484 -0.0077876813680382035 0 -0.0301287180680022 -0.0073299473142539283 0 -0.029769106911052421 -0.008084093368858597 0 -0.030965350407154334 -0.007079590935570027 0 -0.0301287180680022 -0.0073299473142539283 0 -0.030361111571774846 -0.0066477530566484777 0 -0.03104337864706502 -0.0061754921894444708 0 -0.030965350407154334 -0.007079590935570027 0 -0.030361111571774846 -0.0066477530566484777 0 -0.0301287180680022 -0.0073299473142539283 0 -0.030361111571774846 -0.0066477530566484777 0 -0.029609632598224026 -0.0067293765099766855 0 -0.0301287180680022 -0.0073299473142539283 0 -0.029609632598224026 -0.0067293765099766855 0 -0.029444199235453133 -0.0074403945174958182 0 -0.029769106911052421 -0.008084093368858597 0 -0.029444199235453133 -0.0074403945174958182 0 -0.028971511467501772 -0.0079800822452862716 0 -0.0301287180680022 -0.0073299473142539283 0 -0.029769106911052421 -0.008084093368858597 0 -0.029444199235453133 -0.0074403945174958182 0 -0.028279705383783223 -0.0078018608457518547 0 -0.028971511467501772 -0.0079800822452862716 0 -0.028716829420328757 -0.0070418984666138253 0 -0.029444199235453133 -0.0074403945174958182 0 -0.028971511467501772 -0.0079800822452862716 0 -0.028716829420328757 -0.0070418984666138253 0 -0.028279705383783223 -0.0078018608457518547 0 -0.028444888125122515 -0.0084099794858446594 0 -0.028971511467501772 -0.0079800822452862716 0 -0.029013646176928816 -0.005959508347380682 0 -0.029609632598224026 -0.0067293765099766855 0 -0.028716829420328757 -0.0070418984666138253 0 -0.029609632598224026 -0.0067293765099766855 0 -0.029444199235453133 -0.0074403945174958182 0 -0.028716829420328757 -0.0070418984666138253 0 -0.028213867678725427 -0.0090229493259070277 0 -0.028923722982806949 -0.0092076374503014709 0 -0.029052043649313585 -0.0087248201449960094 0 -0.028213867678725427 -0.0090229493259070277 0 -0.028923722982806949 -0.0092076374503014709 0 -0.028761192483395256 -0.0096644954878441543 0 -0.029236919462528689 -0.0095416823989665032 0 -0.028923722982806949 -0.0092076374503014709 0 -0.028761192483395256 -0.0096644954878441543 0 -0.029236919462528689 -0.0095416823989665032 0 -0.028923722982806949 -0.0092076374503014709 0 -0.029329002951270531 -0.0091172422864159511 0 -0.028923722982806949 -0.0092076374503014709 0 -0.029052043649313585 -0.0087248201449960094 0 -0.029329002951270531 -0.0091172422864159511 0 -0.029769106911052421 -0.008084093368858597 0 -0.028971511467501772 -0.0079800822452862716 0 -0.029052043649313585 -0.0087248201449960094 0 -0.028444888125122515 -0.0084099794858446594 0 -0.028971511467501772 -0.0079800822452862716 0 -0.029052043649313585 -0.0087248201449960094 0 -0.029769106911052421 -0.008084093368858597 0 -0.029733306706655173 -0.0088108081577533623 0 -0.030373335648763617 -0.0085205241337525245 0 -0.029769106911052421 -0.008084093368858597 0 -0.029052043649313585 -0.0087248201449960094 0 -0.029733306706655173 -0.0088108081577533623 0 -0.029733306706655173 -0.0088108081577533623 0 -0.029711280582135829 -0.0092893717806650667 0 -0.030204814777199621 -0.0090859658504127 0 -0.029733306706655173 -0.0088108081577533623 0 -0.029329002951270531 -0.0091172422864159511 0 -0.029711280582135829 -0.0092893717806650667 0 -0.029052043649313585 -0.0087248201449960094 0 -0.029733306706655173 -0.0088108081577533623 0 -0.029329002951270531 -0.0091172422864159511 0 -0.029236919462528689 -0.0095416823989665032 0 -0.029329002951270531 -0.0091172422864159511 0 -0.029711280582135829 -0.0092893717806650667 0 -0.029236919462528689 -0.0095416823989665032 0 -0.029711280582135829 -0.0092893717806650667 0 -0.029594880447191333 -0.0096852310525435172 0 -0.029711280582135829 -0.0092893717806650667 0 -0.030114190986991349 -0.0095476702653946605 0 -0.029594880447191333 -0.0096852310525435172 0 -0.029711280582135829 -0.0092893717806650667 0 -0.030204814777199621 -0.0090859658504127 0 -0.030114190986991349 -0.0095476702653946605 0 -0.030497864042284047 -0.0093097082455121469 0 -0.030935465836175919 -0.0096387756572498227 0 -0.030114190986991349 -0.0095476702653946605 0 -0.030497864042284047 -0.0093097082455121469 0 -0.030204814777199621 -0.0090859658504127 0 -0.030114190986991349 -0.0095476702653946605 0 -0.030497864042284047 -0.0093097082455121469 0 -0.030745552893485607 -0.0089704396513323164 0 -0.030935465836175919 -0.0096387756572498227 0 -0.030497864042284047 -0.0093097082455121469 0 -0.030745552893485607 -0.0089704396513323164 0 -0.030204814777199621 -0.0090859658504127 0 -0.030745552893485607 -0.0089704396513323164 0 -0.030204814777199621 -0.0090859658504127 0 -0.030373335648763617 -0.0085205241337525245 0 -0.03072884023338484 -0.0077876813680382035 0 -0.029769106911052421 -0.008084093368858597 0 -0.030373335648763617 -0.0085205241337525245 0 -0.03072884023338484 -0.0077876813680382035 0 -0.030373335648763617 -0.0085205241337525245 0 -0.03110183762545957 -0.0083585466101600923 0 -0.029733306706655173 -0.0088108081577533623 0 -0.030204814777199621 -0.0090859658504127 0 -0.030373335648763617 -0.0085205241337525245 0 -0.030745552893485607 -0.0089704396513323164 0 -0.030373335648763617 -0.0085205241337525245 0 -0.03110183762545957 -0.0083585466101600923 0 -0.030745552893485607 -0.0089704396513323164 0 -0.03110183762545957 -0.0083585466101600923 0 -0.031353809940137277 -0.0088470376314547117 0 -0.03110183762545957 -0.0083585466101600923 0 -0.031353809940137277 -0.0088470376314547117 0 -0.031818478247867196 -0.0083486820493242492 0 -0.031353809940137277 -0.0088470376314547117 0 -0.030935465836175919 -0.0096387756572498227 0 -0.032121940767648662 -0.0089591241864074647 0 -0.030745552893485607 -0.0089704396513323164 0 -0.031353809940137277 -0.0088470376314547117 0 -0.030935465836175919 -0.0096387756572498227 0 -0.0035612584920519334 -0.02589576092364362 0 -0.0047210738650650987 -0.028778940499462884 0 -0.0080029896321766377 -0.026703950382975888 0 -0.0035612584920519334 -0.02589576092364362 0 -0.0047210738650650987 -0.028778940499462884 0 -0.001838700196336567 -0.027952720476850084 0 -0.0047210738650650987 -0.028778940499462884 0 -0.0054606601371921916 -0.031625555596396383 0 -0.0077737416007142048 -0.029785372328259917 0 -0.0054606601371921916 -0.031625555596396383 0 -0.0026860190888136513 -0.031048747243203226 0 -0.0041100489558716586 -0.035192342826389306 0 -0.0047210738650650987 -0.028778940499462884 0 -0.0054606601371921916 -0.031625555596396383 0 -0.0026860190888136513 -0.031048747243203226 0 -0.0047210738650650987 -0.028778940499462884 0 -0.0026860190888136513 -0.031048747243203226 0 -0.001838700196336567 -0.027952720476850084 0 -0.0026860190888136513 -0.031048747243203226 0 -0.00015225382315833995 -0.030731557138177934 0 -0.001838700196336567 -0.027952720476850084 0 -0.013164248524910532 -0.029703897863052661 0 -0.013730043203660367 -0.029543963970799586 0 -0.00015225382315833995 -0.030731557138177934 0 -0.001838700196336567 -0.027952720476850084 0 0.0027365810181853713 -0.030068219478565111 0 -0.0026860190888136513 -0.031048747243203226 0 -0.00015225382315833995 -0.030731557138177934 0 -0.0015405941882006581 -0.033267860849290787 0 -0.0035612584920519334 -0.02589576092364362 0 -0.001838700196336567 -0.027952720476850084 0 0.001924087925095383 -0.028596230261062821 0 -0.030935465836175919 -0.0096387756572498227 0 -0.030114190986991349 -0.0095476702653946605 0 -0.029632723213994145 -0.01016815815522109 0 -0.020205970935494953 -0.024361841254329868 0 -0.018210500137264777 -0.026430171840812464 0 -0.001838700196336567 -0.027952720476850084 0 0.001924087925095383 -0.028596230261062821 0 0.0024154136050924123 -0.029882327260737914 0 -0.030114190986991349 -0.0095476702653946605 0 -0.029594880447191333 -0.0096852310525435172 0 -0.029632723213994145 -0.01016815815522109 0 -0.029236919462528689 -0.0095416823989665032 0 -0.029594880447191333 -0.0096852310525435172 0 -0.029284360988444207 -0.0098880416581229591 0 -0.029594880447191333 -0.0096852310525435172 0 -0.029284360988444207 -0.0098880416581229591 0 -0.029632723213994145 -0.01016815815522109 0 -0.029284360988444207 -0.0098880416581229591 0 -0.029632723213994145 -0.01016815815522109 0 -0.02896191274408812 -0.010127001378387759 0 -0.00015225382315833995 -0.030731557138177934 0 0.0018069718050122117 -0.031711387824789258 0 0.00055154991673613115 -0.033552965571666059 0 -0.00015225382315833995 -0.030731557138177934 0 0.0018069718050122117 -0.031711387824789258 0 0.0027365810181853713 -0.030068219478565111 0 0.0018069718050122117 -0.031711387824789258 0 0.0027365810181853713 -0.030068219478565111 0 0.0040848109725517435 -0.032491287507739171 0 0.0071430204740819299 -0.030957575051282285 0 0.001924087925095383 -0.028596230261062821 0 0.0024154136050924123 -0.029882327260737914 0 0.0071430204740819299 -0.030957575051282285 0 0.0024154136050924123 -0.029882327260737914 0 0.0064824670203721116 -0.031676186693434569 0 -0.028485466296813443 -0.010488654866528929 0 -0.029632723213994145 -0.01016815815522109 0 -0.02896191274408812 -0.010127001378387759 0 0.0027365810181853713 -0.030068219478565111 0 0.0040848109725517435 -0.032491287507739171 0 0.0072557950409719123 -0.032036214790160361 0 -0.013730043203660367 -0.029543963970799586 0 -0.01579083190947177 -0.028907889195160748 0 -0.016493065704166972 -0.028756055444909927 0 -0.018210500137264777 -0.026430171840812464 0 -0.028485466296813443 -0.010488654866528929 0 -0.028666795814546991 -0.01019117641293388 0 -0.02896191274408812 -0.010127001378387759 0 -0.028522106862634993 -0.010087337317139426 0 -0.028666795814546991 -0.01019117641293388 0 -0.028728579510923252 -0.0099488228338677192 0 -0.028728579510923252 -0.0099488228338677192 0 -0.02896191274408812 -0.010127001378387759 0 -0.029003189070844208 -0.009868698971246136 0 -0.028666795814546991 -0.01019117641293388 0 -0.028728579510923252 -0.0099488228338677192 0 -0.02896191274408812 -0.010127001378387759 0 -0.029284360988444207 -0.0098880416581229591 0 -0.02896191274408812 -0.010127001378387759 0 -0.029003189070844208 -0.009868698971246136 0 -0.029236919462528689 -0.0095416823989665032 0 -0.029003189070844208 -0.009868698971246136 0 -0.028761192483395256 -0.0096644954878441543 0 -0.029236919462528689 -0.0095416823989665032 0 -0.029284360988444207 -0.0098880416581229591 0 -0.029003189070844208 -0.009868698971246136 0 -0.028728579510923252 -0.0099488228338677192 0 -0.029003189070844208 -0.009868698971246136 0 -0.028761192483395256 -0.0096644954878441543 0 -0.01838166598257155 -0.022529891533616134 0 -0.017918930859552117 -0.015760240414211167 0 -0.014384084242331027 -0.022879078934740272 0 -0.01838166598257155 -0.022529891533616134 0 -0.022116955754078176 -0.019215480255185925 0 -0.017918930859552117 -0.015760240414211167 0 -0.01838166598257155 -0.022529891533616134 0 -0.014384084242331027 -0.022879078934740272 0 -0.015148154864847873 -0.026880074812095318 0 -0.01838166598257155 -0.022529891533616134 0 -0.021801183471266541 -0.022889427566481716 0 -0.019710409142681202 -0.026119816524446976 0 -0.01838166598257155 -0.022529891533616134 0 -0.021801183471266541 -0.022889427566481716 0 -0.022116955754078176 -0.019215480255185925 0 -0.021801183471266541 -0.022889427566481716 0 -0.025685749639013513 -0.020090486498055681 0 -0.023946438987657928 -0.025727123032675207 0 -0.031666846678446069 -0.019882181163409861 0 -0.025685749639013513 -0.020090486498055681 0 -0.023946438987657928 -0.025727123032675207 0 -0.002192431334189917 -0.018412995314314024 0 -0.0027473278538611163 -0.018171807268910784 0 -0.031666846678446069 -0.019882181163409861 0 -0.025685749639013513 -0.020090486498055681 0 -0.026818098580608608 -0.013690424745216527 0 -0.021801183471266541 -0.022889427566481716 0 -0.025685749639013513 -0.020090486498055681 0 -0.022116955754078176 -0.019215480255185925 0 -0.022116955754078176 -0.019215480255185925 0 -0.026818098580608608 -0.013690424745216527 0 -0.017918930859552117 -0.015760240414211167 0 -0.024635453807943828 -0.020863901247756778 0 -0.023902854527163002 -0.021358874569124876 0 -0.032592017766817763 -0.009209600888404338 0 -0.026818098580608608 -0.013690424745216527 0 -0.017918930859552117 -0.015760240414211167 0 -0.032592017766817763 -0.009209600888404338 0 -0.032874488159183847 -0.0080698720305498843 0 -0.032873417305809706 -0.0083349834383193589 0 -0.025685749639013513 -0.020090486498055681 0 -0.022116955754078176 -0.019215480255185925 0 -0.026818098580608608 -0.013690424745216527 0 -0.032874488159183847 -0.0080698720305498843 0 -0.032873417305809706 -0.0083349834383193589 0 -0.032514439497327186 -0.0081620818499808755 0 -0.032202347957989826 -0.0079016812180276088 0 -0.032514439497327186 -0.0081620818499808755 0 -0.031818478247867196 -0.0083486820493242492 0 -0.032514439497327186 -0.0081620818499808755 0 -0.031818478247867196 -0.0083486820493242492 0 -0.032121940767648662 -0.0089591241864074647 0 -0.032873417305809706 -0.0083349834383193589 0 -0.032514439497327186 -0.0081620818499808755 0 -0.032121940767648662 -0.0089591241864074647 0 -0.031641703252196007 -0.0076627367205057174 0 -0.03110183762545957 -0.0083585466101600923 0 -0.031818478247867196 -0.0083486820493242492 0 -0.031353809940137277 -0.0088470376314547117 0 -0.031818478247867196 -0.0083486820493242492 0 -0.032121940767648662 -0.0089591241864074647 0 -0.0035612584920519334 -0.02589576092364362 0 -0.0094207414189993281 -0.022101856647276982 0 -0.0080029896321766377 -0.026703950382975888 0 -0.020205970935494953 -0.024361841254329868 0 -0.022237827988298257 -0.022614468189346426 0 -0.0094207414189993281 -0.022101856647276982 0 -0.011680114998220584 -0.025349034369059553 0 -0.0080029896321766377 -0.026703950382975888 0 -0.023902854527163002 -0.021358874569124876 0 -0.022237827988298257 -0.022614468189346426 0 -0.017918930859552117 -0.015760240414211167 0 -0.0094207414189993281 -0.022101856647276982 0 -0.014384084242331027 -0.022879078934740272 0 -0.0094207414189993281 -0.022101856647276982 0 -0.014384084242331027 -0.022879078934740272 0 -0.011680114998220584 -0.025349034369059553 0 -0.014384084242331027 -0.022879078934740272 0 -0.011680114998220584 -0.025349034369059553 0 -0.015148154864847873 -0.026880074812095318 0 -0.011680114998220584 -0.025349034369059553 0 -0.011229678274661793 -0.028369847664969961 0 -0.015148154864847873 -0.026880074812095318 0 -0.011680114998220584 -0.025349034369059553 0 -0.011229678274661793 -0.028369847664969961 0 -0.0080029896321766377 -0.026703950382975888 0 -0.011229678274661793 -0.028369847664969961 0 -0.014115052572712566 -0.030959991652068922 0 -0.015148154864847873 -0.026880074812095318 0 -0.011229678274661793 -0.028369847664969961 0 -0.0080029896321766377 -0.026703950382975888 0 -0.0077737416007142048 -0.029785372328259917 0 -0.0047210738650650987 -0.028778940499462884 0 -0.0080029896321766377 -0.026703950382975888 0 -0.0077737416007142048 -0.029785372328259917 0 -0.011229678274661793 -0.028369847664969961 0 -0.0077737416007142048 -0.029785372328259917 0 -0.010499658875209233 -0.031164375999872478 0 -0.010499658875209233 -0.031164375999872478 0 -0.010614829089879837 -0.033878840756770799 0 -0.0079977701789864224 -0.033396163323533901 0 -0.0077737416007142048 -0.029785372328259917 0 -0.010499658875209233 -0.031164375999872478 0 -0.0079977701789864224 -0.033396163323533901 0 -0.0054606601371921916 -0.031625555596396383 0 -0.0077737416007142048 -0.029785372328259917 0 -0.0079977701789864224 -0.033396163323533901 0 -0.011229678274661793 -0.028369847664969961 0 -0.014115052572712566 -0.030959991652068922 0 -0.010499658875209233 -0.031164375999872478 0 -0.010499658875209233 -0.031164375999872478 0 -0.013413692688953909 -0.034093565615871187 0 -0.010614829089879837 -0.033878840756770799 0 -0.014115052572712566 -0.030959991652068922 0 -0.010499658875209233 -0.031164375999872478 0 -0.013413692688953909 -0.034093565615871187 0 -0.014115052572712566 -0.030959991652068922 0 -0.014987831473208986 -0.03286893736181052 0 -0.013413692688953909 -0.034093565615871187 0 -0.014115052572712566 -0.030959991652068922 0 -0.014987831473208986 -0.03286893736181052 0 -0.016935751751492659 -0.032149395933652028 0 -0.014987831473208986 -0.03286893736181052 0 -0.016935751751492659 -0.032149395933652028 0 -0.015937637874918423 -0.034335796075359387 0 -0.016935751751492659 -0.032149395933652028 0 -0.017187927276604981 -0.029619180365748912 0 -0.019444594569614518 -0.031256277373876096 0 -0.014115052572712566 -0.030959991652068922 0 -0.016935751751492659 -0.032149395933652028 0 -0.017187927276604981 -0.029619180365748912 0 -0.014115052572712566 -0.030959991652068922 0 -0.017187927276604981 -0.029619180365748912 0 -0.015148154864847873 -0.026880074812095318 0 -0.017187927276604981 -0.029619180365748912 0 -0.019710409142681202 -0.026119816524446976 0 -0.015148154864847873 -0.026880074812095318 0 -0.01838166598257155 -0.022529891533616134 0 -0.019710409142681202 -0.026119816524446976 0 -0.015148154864847873 -0.026880074812095318 0 -0.019710409142681202 -0.026119816524446976 0 -0.02615837738965128 -0.029848301910907912 0 -0.023891093674323967 -0.034284355424830847 0 -0.0066189545819106957 -0.029555952203896833 0 -0.0064713957958214786 -0.029563406660451066 0 -0.030712459565670598 -0.027929140646868328 0 -0.023946438987657928 -0.025727123032675207 0 -0.02615837738965128 -0.029848301910907912 0 -0.017187927276604981 -0.029619180365748912 0 -0.019710409142681202 -0.026119816524446976 0 -0.019444594569614518 -0.031256277373876096 0 -0.021801183471266541 -0.022889427566481716 0 -0.019710409142681202 -0.026119816524446976 0 -0.023946438987657928 -0.025727123032675207 0 -0.019710409142681202 -0.026119816524446976 0 -0.023946438987657928 -0.025727123032675207 0 -0.02615837738965128 -0.029848301910907912 0 -0.0064713957958214786 -0.029563406660451066 0 -0.0058431171248167317 -0.029160806726915806 0 -0.016935751751492659 -0.032149395933652028 0 -0.019444594569614518 -0.031256277373876096 0 -0.017562461882494017 -0.033900117183604389 0 -0.019444594569614518 -0.031256277373876096 0 -0.017562461882494017 -0.033900117183604389 0 -0.018626386232050669 -0.035655761432627657 0 -0.019444594569614518 -0.031256277373876096 0 -0.018626386232050669 -0.035655761432627657 0 -0.020107442674593797 -0.035692749473255632 0 -0.017562461882494017 -0.033900117183604389 0 -0.01690275875262888 -0.035941777952305985 0 -0.018626386232050669 -0.035655761432627657 0 -0.01690275875262888 -0.035941777952305985 0 -0.01769205471351875 -0.036866575024164377 0 -0.018626386232050669 -0.035655761432627657 0 -0.01690275875262888 -0.035941777952305985 0 -0.01769205471351875 -0.036866575024164377 0 -0.016229402721062734 -0.037338987946641887 0 -0.018520714892951571 -0.03644564441393143 0 -0.018375771534949688 -0.037435853195725115 0 -0.01925520875716967 -0.035885598650799093 0 -0.018626386232050669 -0.035655761432627657 0 -0.018520714892951571 -0.03644564441393143 0 -0.01925520875716967 -0.035885598650799093 0 -0.0058984077643000187 -0.029168934749281308 0 -0.0058431171248167317 -0.029160806726915806 0 -0.01769205471351875 -0.036866575024164377 0 -0.018520714892951571 -0.03644564441393143 0 -0.018375771534949688 -0.037435853195725115 0 -0.01769205471351875 -0.036866575024164377 0 -0.018626386232050669 -0.035655761432627657 0 -0.018520714892951571 -0.03644564441393143 0 -0.018375771534949688 -0.037435853195725115 0 -0.017911810671890308 -0.03913245169635924 0 -0.018644151583836276 -0.038739930296166479 0 -0.018375771534949688 -0.037435853195725115 0 -0.017140097316026115 -0.038174523682597661 0 -0.017911810671890308 -0.03913245169635924 0 -0.01769205471351875 -0.036866575024164377 0 -0.018375771534949688 -0.037435853195725115 0 -0.017140097316026115 -0.038174523682597661 0 -0.017140097316026115 -0.038174523682597661 0 -0.015799515387668689 -0.038833670050228267 0 -0.016229402721062734 -0.037338987946641887 0 -0.01769205471351875 -0.036866575024164377 0 -0.017140097316026115 -0.038174523682597661 0 -0.016229402721062734 -0.037338987946641887 0 -0.017140097316026115 -0.038174523682597661 0 -0.016854127342303109 -0.039326472834018612 0 -0.015799515387668689 -0.038833670050228267 0 -0.016854127342303109 -0.039326472834018612 0 -0.015799515387668689 -0.038833670050228267 0 -0.016149411389828273 -0.040014027483499276 0 -0.016854127342303109 -0.039326472834018612 0 -0.017911810671890308 -0.03913245169635924 0 -0.017150492066548093 -0.040419108395042751 0 -0.017140097316026115 -0.038174523682597661 0 -0.016854127342303109 -0.039326472834018612 0 -0.017911810671890308 -0.03913245169635924 0 -0.014179656318122093 -0.039002133368182687 0 -0.015799515387668689 -0.038833670050228267 0 -0.014612839080149088 -0.037715574836480151 0 -0.014179656318122093 -0.039002133368182687 0 -0.014612839080149088 -0.037715574836480151 0 -0.012663747897136679 -0.038122288638768334 0 -0.014179656318122093 -0.039002133368182687 0 -0.015799515387668689 -0.038833670050228267 0 -0.014931053540918761 -0.040038849843519735 0 -0.016229402721062734 -0.037338987946641887 0 -0.014612839080149088 -0.037715574836480151 0 -0.015189295278378185 -0.036177008860869053 0 -0.015799515387668689 -0.038833670050228267 0 -0.016229402721062734 -0.037338987946641887 0 -0.014612839080149088 -0.037715574836480151 0 -0.014612839080149088 -0.037715574836480151 0 -0.015189295278378185 -0.036177008860869053 0 -0.013471007576419258 -0.036657243931856966 0 -0.015189295278378185 -0.036177008860869053 0 -0.013413692688953909 -0.034093565615871187 0 -0.013471007576419258 -0.036657243931856966 0 -0.01690275875262888 -0.035941777952305985 0 -0.015189295278378185 -0.036177008860869053 0 -0.015937637874918423 -0.034335796075359387 0 -0.01690275875262888 -0.035941777952305985 0 -0.016229402721062734 -0.037338987946641887 0 -0.015189295278378185 -0.036177008860869053 0 -0.016935751751492659 -0.032149395933652028 0 -0.017562461882494017 -0.033900117183604389 0 -0.015937637874918423 -0.034335796075359387 0 -0.017562461882494017 -0.033900117183604389 0 -0.01690275875262888 -0.035941777952305985 0 -0.015937637874918423 -0.034335796075359387 0 -0.014987831473208986 -0.03286893736181052 0 -0.015937637874918423 -0.034335796075359387 0 -0.013413692688953909 -0.034093565615871187 0 -0.015189295278378185 -0.036177008860869053 0 -0.015937637874918423 -0.034335796075359387 0 -0.013413692688953909 -0.034093565615871187 0 -0.013413692688953909 -0.034093565615871187 0 -0.010614829089879837 -0.033878840756770799 0 -0.011781813782628216 -0.035892534508778606 0 -0.011781813782628216 -0.035892534508778606 0 -0.0096022095838302259 -0.035691254006235962 0 -0.0107978581363021 -0.037400455314865834 0 -0.010614829089879837 -0.033878840756770799 0 -0.011781813782628216 -0.035892534508778606 0 -0.0096022095838302259 -0.035691254006235962 0 -0.013413692688953909 -0.034093565615871187 0 -0.011781813782628216 -0.035892534508778606 0 -0.013471007576419258 -0.036657243931856966 0 -0.010614829089879837 -0.033878840756770799 0 -0.0079977701789864224 -0.033396163323533901 0 -0.0096022095838302259 -0.035691254006235962 0 -0.0079977701789864224 -0.033396163323533901 0 -0.0096022095838302259 -0.035691254006235962 0 -0.0078611168560779304 -0.036673410694556714 0 -0.0096022095838302259 -0.035691254006235962 0 -0.0078611168560779304 -0.036673410694556714 0 -0.0091526649225867774 -0.038183410484273497 0 -0.0078611168560779304 -0.036673410694556714 0 -0.0091526649225867774 -0.038183410484273497 0 -0.0069115151931959506 -0.038547641090238033 0 -0.0096022095838302259 -0.035691254006235962 0 -0.0091526649225867774 -0.038183410484273497 0 -0.0107978581363021 -0.037400455314865834 0 -0.0091526649225867774 -0.038183410484273497 0 -0.0107978581363021 -0.037400455314865834 0 -0.011120914448015891 -0.039605870271319336 0 -0.0091526649225867774 -0.038183410484273497 0 -0.011120914448015891 -0.039605870271319336 0 -0.0092495947055832046 -0.039892343690619038 0 -0.0091526649225867774 -0.038183410484273497 0 -0.0092495947055832046 -0.039892343690619038 0 -0.0069115151931959506 -0.038547641090238033 0 -0.011781813782628216 -0.035892534508778606 0 -0.013471007576419258 -0.036657243931856966 0 -0.012663747897136679 -0.038122288638768334 0 -0.014612839080149088 -0.037715574836480151 0 -0.013471007576419258 -0.036657243931856966 0 -0.012663747897136679 -0.038122288638768334 0 -0.011781813782628216 -0.035892534508778606 0 -0.0107978581363021 -0.037400455314865834 0 -0.012663747897136679 -0.038122288638768334 0 -0.0107978581363021 -0.037400455314865834 0 -0.012663747897136679 -0.038122288638768334 0 -0.011120914448015891 -0.039605870271319336 0 -0.014179656318122093 -0.039002133368182687 0 -0.012663747897136679 -0.038122288638768334 0 -0.013173615300623952 -0.039841184910379072 0 -0.012663747897136679 -0.038122288638768334 0 -0.013173615300623952 -0.039841184910379072 0 -0.011120914448015891 -0.039605870271319336 0 -0.013173615300623952 -0.039841184910379072 0 -0.011120914448015891 -0.039605870271319336 0 -0.012426364110699695 -0.041141320153653176 0 -0.011120914448015891 -0.039605870271319336 0 -0.012426364110699695 -0.041141320153653176 0 -0.010547350353663418 -0.041270004996910511 0 -0.012426364110699695 -0.041141320153653176 0 -0.013548858684886599 -0.042376911854427268 0 -0.014227191059629584 -0.041155285019862084 0 -0.013173615300623952 -0.039841184910379072 0 -0.012426364110699695 -0.041141320153653176 0 -0.014227191059629584 -0.041155285019862084 0 -0.011120914448015891 -0.039605870271319336 0 -0.0092495947055832046 -0.039892343690619038 0 -0.010547350353663418 -0.041270004996910511 0 -0.0092495947055832046 -0.039892343690619038 0 -0.010547350353663418 -0.041270004996910511 0 -0.0083906294174846581 -0.041645355866243794 0 -0.010253062330686449 -0.042691553978544752 0 -0.0083906294174846581 -0.041645355866243794 0 -0.0097100150662563535 -0.044301788458472165 0 -0.012484112791746648 -0.034101973055764019 0 -0.012515088876453541 -0.034415425413237978 0 -0.010547350353663418 -0.041270004996910511 0 -0.010253062330686449 -0.042691553978544752 0 -0.0083906294174846581 -0.041645355866243794 0 -0.010547350353663418 -0.041270004996910511 0 -0.010253062330686449 -0.042691553978544752 0 -0.011851423509176015 -0.04245388602108606 0 -0.010253062330686449 -0.042691553978544752 0 -0.011093590564447819 -0.043574566170624614 0 -0.0097100150662563535 -0.044301788458472165 0 -0.012426364110699695 -0.041141320153653176 0 -0.011851423509176015 -0.04245388602108606 0 -0.013548858684886599 -0.042376911854427268 0 -0.012426364110699695 -0.041141320153653176 0 -0.010547350353663418 -0.041270004996910511 0 -0.011851423509176015 -0.04245388602108606 0 -0.011851423509176015 -0.04245388602108606 0 -0.011093590564447819 -0.043574566170624614 0 -0.012907792213262438 -0.043642850223953353 0 -0.010253062330686449 -0.042691553978544752 0 -0.011851423509176015 -0.04245388602108606 0 -0.011093590564447819 -0.043574566170624614 0 -0.011851423509176015 -0.04245388602108606 0 -0.012907792213262438 -0.043642850223953353 0 -0.013548858684886599 -0.042376911854427268 0 -0.013548858684886599 -0.042376911854427268 0 -0.014907934326063903 -0.042135959361656684 0 -0.014579223203683531 -0.043532430355081128 0 -0.012907792213262438 -0.043642850223953353 0 -0.013548858684886599 -0.042376911854427268 0 -0.014579223203683531 -0.043532430355081128 0 -0.013548858684886599 -0.042376911854427268 0 -0.014907934326063903 -0.042135959361656684 0 -0.014227191059629584 -0.041155285019862084 0 -0.014907934326063903 -0.042135959361656684 0 -0.016093715615340572 -0.042387926223676521 0 -0.015895938797109925 -0.041199345180443693 0 -0.014907934326063903 -0.042135959361656684 0 -0.014579223203683531 -0.043532430355081128 0 -0.016093715615340572 -0.042387926223676521 0 -0.014579223203683531 -0.043532430355081128 0 -0.016768883887001027 -0.043206186730897024 0 -0.016093715615340572 -0.042387926223676521 0 -0.016768883887001027 -0.043206186730897024 0 -0.017135326268598886 -0.042034650882965326 0 -0.017667728807186606 -0.042658599702572589 0 -0.016768883887001027 -0.043206186730897024 0 -0.017135326268598886 -0.042034650882965326 0 -0.016093715615340572 -0.042387926223676521 0 -0.017135326268598886 -0.042034650882965326 0 -0.016093715615340572 -0.042387926223676521 0 -0.015895938797109925 -0.041199345180443693 0 -0.017135326268598886 -0.042034650882965326 0 -0.015895938797109925 -0.041199345180443693 0 -0.017150492066548093 -0.040419108395042751 0 -0.017135326268598886 -0.042034650882965326 0 -0.017150492066548093 -0.040419108395042751 0 -0.01782380812147356 -0.041125569406186245 0 -0.017911810671890308 -0.03913245169635924 0 -0.017150492066548093 -0.040419108395042751 0 -0.017948761989941126 -0.040326641331557903 0 -0.017150492066548093 -0.040419108395042751 0 -0.017948761989941126 -0.040326641331557903 0 -0.01782380812147356 -0.041125569406186245 0 -0.016854127342303109 -0.039326472834018612 0 -0.017150492066548093 -0.040419108395042751 0 -0.016149411389828273 -0.040014027483499276 0 -0.015895938797109925 -0.041199345180443693 0 -0.017150492066548093 -0.040419108395042751 0 -0.016149411389828273 -0.040014027483499276 0 -0.015799515387668689 -0.038833670050228267 0 -0.016149411389828273 -0.040014027483499276 0 -0.014931053540918761 -0.040038849843519735 0 -0.015895938797109925 -0.041199345180443693 0 -0.016149411389828273 -0.040014027483499276 0 -0.014931053540918761 -0.040038849843519735 0 -0.013173615300623952 -0.039841184910379072 0 -0.014931053540918761 -0.040038849843519735 0 -0.014227191059629584 -0.041155285019862084 0 -0.014179656318122093 -0.039002133368182687 0 -0.013173615300623952 -0.039841184910379072 0 -0.014931053540918761 -0.040038849843519735 0 -0.014907934326063903 -0.042135959361656684 0 -0.015895938797109925 -0.041199345180443693 0 -0.014227191059629584 -0.041155285019862084 0 -0.015895938797109925 -0.041199345180443693 0 -0.014931053540918761 -0.040038849843519735 0 -0.014227191059629584 -0.041155285019862084 0 -0.017780593164160294 -0.029834129088965523 0 -0.017847816170076931 -0.029716235263342133 0 -0.017864886893674509 -0.029872713865630268 0 -0.017733070333178492 -0.029737582103279765 0 -0.017780593164160294 -0.029834129088965523 0 -0.017847816170076931 -0.029716235263342133 0 -0.017733070333178492 -0.029737582103279765 0 -0.017752187290618112 -0.029611420766787803 0 -0.017847816170076931 -0.029716235263342133 0 -0.01579083190947177 -0.028907889195160748 0 -0.014832332051103535 -0.029755490453233259 0 0.0040848109725517435 -0.032491287507739171 0 0.0072557950409719123 -0.032036214790160361 0 0.0042022482039827617 -0.035394772157074768 0 0.0042022482039827617 -0.035394772157074768 0 -0.0009388823918495136 -0.036169200166246127 0 0.00055154991673613115 -0.033552965571666059 0 0.0018069718050122117 -0.031711387824789258 0 0.0040848109725517435 -0.032491287507739171 0 0.00055154991673613115 -0.033552965571666059 0 0.0040848109725517435 -0.032491287507739171 0 0.0042022482039827617 -0.035394772157074768 0 0.00055154991673613115 -0.033552965571666059 0 0.0042022482039827617 -0.035394772157074768 0 0.0011215098196199734 -0.038758184560706323 0 -0.0009388823918495136 -0.036169200166246127 0 -0.017847816170076931 -0.029716235263342133 0 -0.017943685296632195 -0.02982274504816226 0 -0.017864886893674509 -0.029872713865630268 0 -0.014832332051103535 -0.029755490453233259 0 -0.014191710273965728 -0.030703370558676425 0 -0.0018476830027335655 -0.038982922551191262 0 -0.0009388823918495136 -0.036169200166246127 0 -0.0049248682180151621 -0.038448003457775111 0 0.0011215098196199734 -0.038758184560706323 0 -0.0018476830027335655 -0.038982922551191262 0 -0.0009388823918495136 -0.036169200166246127 0 -0.0026860190888136513 -0.031048747243203226 0 -0.0015405941882006581 -0.033267860849290787 0 -0.0037959794884165352 -0.034737818909361819 0 -0.0009388823918495136 -0.036169200166246127 0 0.00055154991673613115 -0.033552965571666059 0 -0.0015405941882006581 -0.033267860849290787 0 -0.00015225382315833995 -0.030731557138177934 0 0.00055154991673613115 -0.033552965571666059 0 -0.0015405941882006581 -0.033267860849290787 0 -0.0009388823918495136 -0.036169200166246127 0 -0.0015405941882006581 -0.033267860849290787 0 -0.0037959794884165352 -0.034737818909361819 0 -0.012106925124215941 -0.03311106854735809 0 -0.012202085354239825 -0.03319954391026101 0 -0.0054606601371921916 -0.031625555596396383 0 -0.0079977701789864224 -0.033396163323533901 0 -0.0041100489558716586 -0.035192342826389306 0 -0.0079977701789864224 -0.033396163323533901 0 -0.0078611168560779304 -0.036673410694556714 0 -0.0041100489558716586 -0.035192342826389306 0 -0.012364083888840945 -0.033381725691722305 0 -0.012438226313436931 -0.033300910746478132 0 -0.0009388823918495136 -0.036169200166246127 0 -0.0037959794884165352 -0.034737818909361819 0 -0.0049248682180151621 -0.038448003457775111 0 -0.012202085354239825 -0.03319954391026101 0 -0.012438226313436931 -0.033300910746478132 0 -0.0078611168560779304 -0.036673410694556714 0 -0.0041100489558716586 -0.035192342826389306 0 -0.0055120030132568909 -0.039576743500264119 0 -0.012438226313436931 -0.033300910746478132 0 -0.013730529099305609 -0.03163533692995403 0 -0.0018476830027335655 -0.038982922551191262 0 -0.0049248682180151621 -0.038448003457775111 0 -0.0019508829331267581 -0.042108959303491587 0 -0.0092495947055832046 -0.039892343690619038 0 -0.0069115151931959506 -0.038547641090238033 0 -0.0083906294174846581 -0.041645355866243794 0 -0.0080606017039255035 -0.038653370392394144 0 -0.0077124368695967527 -0.04051613417509177 0 -0.008913800244595942 -0.041495750368018121 0 -0.0080606017039255035 -0.038653370392394144 0 -0.0077124368695967527 -0.04051613417509177 0 -0.0061366447648308984 -0.041023394822299303 0 -0.012438226313436931 -0.033300910746478132 0 -0.012484112791746648 -0.034101973055764019 0 -0.0077124368695967527 -0.04051613417509177 0 -0.008913800244595942 -0.041495750368018121 0 -0.0080669102022670573 -0.043132089768242905 0 -0.0077124368695967527 -0.04051613417509177 0 -0.0080669102022670573 -0.043132089768242905 0 -0.0061366447648308984 -0.041023394822299303 0 -0.008913800244595942 -0.041495750368018121 0 -0.0080669102022670573 -0.043132089768242905 0 -0.0097100150662563535 -0.044301788458472165 0 -0.0080669102022670573 -0.043132089768242905 0 -0.0063367984934333153 -0.041826138164766283 0 -0.0063188792708384301 -0.043470248272076094 0 -0.0080669102022670573 -0.043132089768242905 0 -0.0063367984934333153 -0.041826138164766283 0 -0.0062426549818751604 -0.041117030691158171 0 -0.013740866013484562 -0.031824556716247565 0 -0.013730529099305609 -0.03163533692995403 0 -0.0063188792708384301 -0.043470248272076094 0 -0.0051759131132011818 -0.04242712490261788 0 -0.0034355196989923668 -0.044569933280941901 0 -0.0063367984934333153 -0.041826138164766283 0 -0.0063188792708384301 -0.043470248272076094 0 -0.0051759131132011818 -0.04242712490261788 0 -0.0063367984934333153 -0.041826138164766283 0 -0.0051925994301919047 -0.042414151939097061 0 -0.0062426549818751604 -0.041117030691158171 0 -0.014754880743562194 -0.031278772904375418 0 -0.013730529099305609 -0.03163533692995403 0 -0.014656166004571253 -0.031344114076843642 0 -0.014754880743562194 -0.031278772904375418 0 -0.017985947845838714 -0.029996433709461381 0 -0.018039588145448673 -0.029929800267808841 0 -0.017942327305873376 -0.029918058661161206 0 -0.017943685296632195 -0.02982274504816226 0 -0.018039588145448673 -0.029929800267808841 0 -0.017942327305873376 -0.029918058661161206 0 0.0011215098196199734 -0.038758184560706323 0 -0.0018476830027335655 -0.038982922551191262 0 -0.0019508829331267581 -0.042108959303491587 0 -0.014191710273965728 -0.030703370558676425 0 -0.013730529099305609 -0.03163533692995403 0 -0.017943685296632195 -0.02982274504816226 0 -0.017864886893674509 -0.029872713865630268 0 -0.017942327305873376 -0.029918058661161206 0 -0.017864886893674509 -0.029872713865630268 0 -0.017942327305873376 -0.029918058661161206 0 -0.017877599337477602 -0.029968459948387427 0 -0.017985947845838714 -0.029996433709461381 0 -0.017877599337477602 -0.029968459948387427 0 -0.017806786325001898 -0.030089421541056954 0 -0.017985947845838714 -0.029996433709461381 0 -0.017942327305873376 -0.029918058661161206 0 -0.017877599337477602 -0.029968459948387427 0 -0.014754880743562194 -0.031278772904375418 0 -0.016646336215635972 -0.030812882649473326 0 -0.014754880743562194 -0.031278772904375418 0 -0.015948061650616192 -0.030467374816429731 0 -0.017877599337477602 -0.029968459948387427 0 -0.017804138021932221 -0.030005656770133171 0 -0.017806786325001898 -0.030089421541056954 0 -0.017877599337477602 -0.029968459948387427 0 -0.017804138021932221 -0.030005656770133171 0 -0.017800803768064925 -0.029940942010847973 0 -0.017804138021932221 -0.030005656770133171 0 -0.017757051524974525 -0.030047321630500501 0 -0.017759536853755892 -0.02999121203399813 0 -0.017804138021932221 -0.030005656770133171 0 -0.017757051524974525 -0.030047321630500501 0 -0.017806786325001898 -0.030089421541056954 0 -0.017804138021932221 -0.030005656770133171 0 -0.017759536853755892 -0.02999121203399813 0 -0.017800803768064925 -0.029940942010847973 0 -0.017742953940606279 -0.029952125302225446 0 -0.017759536853755892 -0.02999121203399813 0 -0.017800803768064925 -0.029940942010847973 0 -0.017742953940606279 -0.029952125302225446 0 -0.017737421986020449 -0.029905024482691209 0 -0.017800803768064925 -0.029940942010847973 0 -0.017864886893674509 -0.029872713865630268 0 -0.017877599337477602 -0.029968459948387427 0 -0.017800803768064925 -0.029940942010847973 0 -0.017780593164160294 -0.029834129088965523 0 -0.017864886893674509 -0.029872713865630268 0 -0.017800803768064925 -0.029940942010847973 0 -0.017730228293795211 -0.029855029791707947 0 -0.017737421986020449 -0.029905024482691209 0 -0.017780593164160294 -0.029834129088965523 0 -0.017737421986020449 -0.029905024482691209 0 -0.017780593164160294 -0.029834129088965523 0 -0.017800803768064925 -0.029940942010847973 0 -0.025399955526885117 -0.01599385646486846 0 -0.025167732540018924 -0.018213005890531885 0 -0.02250754328228835 -0.019513560024786068 0 -0.025399955526885117 -0.01599385646486846 0 -0.022658752650161255 -0.019393050462644033 0 -0.023074421125726843 -0.017044474462897388 0 -0.025399955526885117 -0.01599385646486846 0 -0.023074421125726843 -0.017044474462897388 0 -0.02229218196954446 -0.014099804083140445 0 -0.016699188940757049 -0.02948491320074504 0 -0.015948061650616192 -0.030467374816429731 0 -0.026333517031006823 -0.017119231255808196 0 -0.025399955526885117 -0.01599385646486846 0 -0.025167732540018924 -0.018213005890531885 0 -0.027032289377882192 -0.018609536042040763 0 -0.025167732540018924 -0.018213005890531885 0 -0.024629160871251683 -0.019870125210961258 0 -0.017508823511742121 -0.030892061569398173 0 -0.016646336215635972 -0.030812882649473326 0 -0.025167732540018924 -0.018213005890531885 0 -0.024629160871251683 -0.019870125210961258 0 -0.02250754328228835 -0.019513560024786068 0 -0.017706457163117972 -0.030076486786689352 0 -0.017757051524974525 -0.030047321630500501 0 -0.017806786325001898 -0.030089421541056954 0 -0.016666914027130223 -0.030811500034740931 0 -0.016646336215635972 -0.030812882649473326 0 -0.016646336215635972 -0.030812882649473326 0 -0.015948061650616192 -0.030467374816429731 0 -0.017084024259118993 -0.030133326201917891 0 -0.014456553889910361 -0.03148928957016698 0 -0.015797047305900626 -0.031717716440933408 0 -0.022658752650161255 -0.019393050462644033 0 -0.021403730830191311 -0.018022463281851919 0 -0.023074421125726843 -0.017044474462897388 0 -0.023074421125726843 -0.017044474462897388 0 -0.020931027069232482 -0.016860942524851083 0 -0.02229218196954446 -0.014099804083140445 0 -0.021403730830191311 -0.018022463281851919 0 -0.023074421125726843 -0.017044474462897388 0 -0.020931027069232482 -0.016860942524851083 0 -0.020074167971681264 -0.015611338357561339 0 -0.020931027069232482 -0.016860942524851083 0 -0.018295573177327926 -0.016914837627240862 0 -0.020931027069232482 -0.016860942524851083 0 -0.018926021425513757 -0.018808283936837273 0 -0.018295573177327926 -0.016914837627240862 0 -0.021403730830191311 -0.018022463281851919 0 -0.020931027069232482 -0.016860942524851083 0 -0.018926021425513757 -0.018808283936837273 0 -0.020074167971681264 -0.015611338357561339 0 -0.018295573177327926 -0.016914837627240862 0 -0.018174374699378312 -0.015668818910399236 0 -0.022658752650161255 -0.019393050462644033 0 -0.021403730830191311 -0.018022463281851919 0 -0.018926021425513757 -0.018808283936837273 0 -0.0063188792708384301 -0.043470248272076094 0 -0.0034355196989923668 -0.044569933280941901 0 -0.0067035538324599474 -0.045144101871235291 0 -0.015948061650616192 -0.030467374816429731 0 -0.013773926943213921 -0.030035789334372152 0 -0.0067035538324599474 -0.045144101871235291 0 -0.0097100150662563535 -0.044301788458472165 0 -0.010024258815067391 -0.045738748365549815 0 -0.013773926943213921 -0.030035789334372152 0 -0.011692059607432036 -0.029555846813822537 0 -0.0080669102022670573 -0.043132089768242905 0 -0.0067035538324599474 -0.045144101871235291 0 -0.0097100150662563535 -0.044301788458472165 0 -0.0080669102022670573 -0.043132089768242905 0 -0.0063188792708384301 -0.043470248272076094 0 -0.0067035538324599474 -0.045144101871235291 0 -0.018295573177327926 -0.016914837627240862 0 -0.016484993982069814 -0.016359085910186283 0 -0.015065395172213178 -0.018243747254031092 0 -0.018926021425513757 -0.018808283936837273 0 -0.018295573177327926 -0.016914837627240862 0 -0.015065395172213178 -0.018243747254031092 0 -0.018295573177327926 -0.016914837627240862 0 -0.018174374699378312 -0.015668818910399236 0 -0.016484993982069814 -0.016359085910186283 0 -0.017218760126540514 -0.01447327791527776 0 -0.018370395978098246 -0.012785579985597624 0 -0.015836517198073805 -0.013451653402410117 0 -0.016484993982069814 -0.016359085910186283 0 -0.017218760126540514 -0.01447327791527776 0 -0.015372232147703516 -0.015016391832236577 0 -0.018174374699378312 -0.015668818910399236 0 -0.016484993982069814 -0.016359085910186283 0 -0.017218760126540514 -0.01447327791527776 0 -0.018174374699378312 -0.015668818910399236 0 -0.017218760126540514 -0.01447327791527776 0 -0.019237750702256258 -0.01452290144163028 0 -0.017218760126540514 -0.01447327791527776 0 -0.018370395978098246 -0.012785579985597624 0 -0.019237750702256258 -0.01452290144163028 0 -0.013569715395054187 -0.0097519343091234875 0 -0.013529947484090747 -0.0096817517116738281 0 -0.013190569578369518 -0.010143099511553297 0 -0.014220525697685076 -0.024933059050594959 0 -0.013357475654441842 -0.023970132987307109 0 -0.013464986758599945 -0.0098855749970378024 0 -0.013569715395054187 -0.0097519343091234875 0 -0.013406906342416019 -0.0096939093582056723 0 -0.013569715395054187 -0.0097519343091234875 0 -0.013406906342416019 -0.0096939093582056723 0 -0.013529947484090747 -0.0096817517116738281 0 -0.013464986758599945 -0.0098855749970378024 0 -0.0131330260746539 -0.010074209544095382 0 -0.013406906342416019 -0.0096939093582056723 0 -0.013406906342416019 -0.0096939093582056723 0 -0.013529947484090747 -0.0096817517116738281 0 -0.013323588560337241 -0.0097767614145604902 0 -0.013282880863375505 -0.0099383260909700847 0 -0.013406906342416019 -0.0096939093582056723 0 -0.013323588560337241 -0.0097767614145604902 0 -0.013529947484090747 -0.0096817517116738281 0 -0.013323588560337241 -0.0097767614145604902 0 -0.01323747203390805 -0.0096392255565621778 0 -0.020074167971681264 -0.015611338357561339 0 -0.020931027069232482 -0.016860942524851083 0 -0.02229218196954446 -0.014099804083140445 0 -0.014220525697685076 -0.024933059050594959 0 -0.015321912839765011 -0.026470897104190583 0 -0.020074167971681264 -0.015611338357561339 0 -0.019237750702256258 -0.01452290144163028 0 -0.02229218196954446 -0.014099804083140445 0 -0.018370395978098246 -0.012785579985597624 0 -0.019237750702256258 -0.01452290144163028 0 -0.02229218196954446 -0.014099804083140445 0 -0.020074167971681264 -0.015611338357561339 0 -0.018174374699378312 -0.015668818910399236 0 -0.019237750702256258 -0.01452290144163028 0 -0.01323747203390805 -0.0096392255565621778 0 -0.013197757078494968 -0.009793121116078855 0 -0.013093382668784513 -0.0096943247352309064 0 -0.013323588560337241 -0.0097767614145604902 0 -0.01323747203390805 -0.0096392255565621778 0 -0.013197757078494968 -0.009793121116078855 0 -0.013250699228427757 -0.0098452542156184583 0 -0.013323588560337241 -0.0097767614145604902 0 -0.013197757078494968 -0.009793121116078855 0 -0.013200946883299378 -0.0098779937549147469 0 -0.013122543007816873 -0.0098620333526666226 0 -0.013197757078494968 -0.009793121116078855 0 -0.013250699228427757 -0.0098452542156184583 0 -0.013200946883299378 -0.0098779937549147469 0 -0.013197757078494968 -0.009793121116078855 0 -0.013197757078494968 -0.009793121116078855 0 -0.013094008238985216 -0.0097937079851270516 0 -0.013093382668784513 -0.0096943247352309064 0 -0.013122543007816873 -0.0098620333526666226 0 -0.013094008238985216 -0.0097937079851270516 0 -0.013025365817656287 -0.0098507555755799822 0 -0.013122543007816873 -0.0098620333526666226 0 -0.013197757078494968 -0.009793121116078855 0 -0.013094008238985216 -0.0097937079851270516 0 -0.012978589779715381 -0.0098052011249222734 0 -0.013025365817656287 -0.0098507555755799822 0 -0.013030950806436464 -0.0097721422677697258 0 -0.013094008238985216 -0.0097937079851270516 0 -0.013025365817656287 -0.0098507555755799822 0 -0.013030950806436464 -0.0097721422677697258 0 -0.012955737137931096 -0.0097334926792684937 0 -0.013030950806436464 -0.0097721422677697258 0 -0.013093382668784513 -0.0096943247352309064 0 -0.013094008238985216 -0.0097937079851270516 0 -0.013030950806436464 -0.0097721422677697258 0 -0.013093382668784513 -0.0096943247352309064 0 -0.01299377016756551 -0.0096061839024036092 0 -0.01323747203390805 -0.0096392255565621778 0 -0.013093382668784513 -0.0096943247352309064 0 -0.012955737137931096 -0.0097334926792684937 0 -0.01299377016756551 -0.0096061839024036092 0 -0.013093382668784513 -0.0096943247352309064 0 -0.026131178488967483 -0.015320940235173592 0 -0.025399955526885117 -0.01599385646486846 0 -0.02229218196954446 -0.014099804083140445 0 -0.01653861341895764 -0.028588229386287481 0 -0.015321912839765011 -0.026470897104190583 0 -0.0095004789078267527 -0.028988450506381387 0 -0.006998824543770355 -0.028296010337403154 0 -0.011004275570361462 -0.017681268115952217 0 -0.011823902292433902 -0.014310016009012142 0 -0.0090549038727219273 -0.014818625426255744 0 -0.011004275570361462 -0.017681268115952217 0 -0.0067727162488943112 -0.017076362426288419 0 -0.0090549038727219273 -0.014818625426255744 0 -0.014579223203683531 -0.043532430355081128 0 -0.016768883887001027 -0.043206186730897024 0 -0.01658939877945825 -0.046090287486492187 0 -0.016768883887001027 -0.043206186730897024 0 -0.01658939877945825 -0.046090287486492187 0 -0.018287683597910814 -0.043354639667886143 0 -0.012907792213262438 -0.043642850223953353 0 -0.014579223203683531 -0.043532430355081128 0 -0.013523099876379728 -0.046027664795423084 0 -0.014579223203683531 -0.043532430355081128 0 -0.013523099876379728 -0.046027664795423084 0 -0.01658939877945825 -0.046090287486492187 0 -0.012907792213262438 -0.043642850223953353 0 -0.013523099876379728 -0.046027664795423084 0 -0.011731204776778763 -0.044597242994470217 0 -0.013523099876379728 -0.046027664795423084 0 -0.011731204776778763 -0.044597242994470217 0 -0.010024258815067391 -0.045738748365549815 0 -0.011093590564447819 -0.043574566170624614 0 -0.012907792213262438 -0.043642850223953353 0 -0.011731204776778763 -0.044597242994470217 0 -0.011093590564447819 -0.043574566170624614 0 -0.011731204776778763 -0.044597242994470217 0 -0.0097100150662563535 -0.044301788458472165 0 -0.011731204776778763 -0.044597242994470217 0 -0.0097100150662563535 -0.044301788458472165 0 -0.010024258815067391 -0.045738748365549815 0 -0.016484993982069814 -0.016359085910186283 0 -0.015065395172213178 -0.018243747254031092 0 -0.015043800708649467 -0.016599471825303618 0 -0.015065395172213178 -0.018243747254031092 0 -0.015043800708649467 -0.016599471825303618 0 -0.013510804491233246 -0.0162706072420798 0 -0.015043800708649467 -0.016599471825303618 0 -0.013510804491233246 -0.0162706072420798 0 -0.015372232147703516 -0.015016391832236577 0 -0.016484993982069814 -0.016359085910186283 0 -0.015043800708649467 -0.016599471825303618 0 -0.015372232147703516 -0.015016391832236577 0 -0.011004275570361462 -0.017681268115952217 0 -0.015065395172213178 -0.018243747254031092 0 -0.013510804491233246 -0.0162706072420798 0 -0.011004275570361462 -0.017681268115952217 0 -0.013510804491233246 -0.0162706072420798 0 -0.011823902292433902 -0.014310016009012142 0 -0.0095004789078267527 -0.028988450506381387 0 -0.011692059607432036 -0.029555846813822537 0 -0.013510804491233246 -0.0162706072420798 0 -0.011823902292433902 -0.014310016009012142 0 -0.013883561437301038 -0.013625272116020732 0 -0.011823902292433902 -0.014310016009012142 0 -0.013883561437301038 -0.013625272116020732 0 -0.01198494006017903 -0.012321384062639293 0 -0.011823902292433902 -0.014310016009012142 0 -0.01198494006017903 -0.012321384062639293 0 -0.0097766298108121017 -0.012404462657800472 0 -0.013510804491233246 -0.0162706072420798 0 -0.015372232147703516 -0.015016391832236577 0 -0.013883561437301038 -0.013625272116020732 0 -0.017218760126540514 -0.01447327791527776 0 -0.015372232147703516 -0.015016391832236577 0 -0.015836517198073805 -0.013451653402410117 0 -0.015372232147703516 -0.015016391832236577 0 -0.013883561437301038 -0.013625272116020732 0 -0.015836517198073805 -0.013451653402410117 0 -0.013739775326261788 -0.0096158694073137548 0 -0.013569715395054187 -0.0097519343091234875 0 -0.013190569578369518 -0.010143099511553297 0 -0.018370395978098246 -0.012785579985597624 0 -0.015836517198073805 -0.013451653402410117 0 -0.014287610736110918 -0.011361561899148333 0 -0.013883561437301038 -0.013625272116020732 0 -0.015836517198073805 -0.013451653402410117 0 -0.014287610736110918 -0.011361561899148333 0 -0.01298024443753831 -0.023626476776560858 0 -0.013357475654441842 -0.023970132987307109 0 -0.0099705150118156415 -0.0098053855169182545 0 -0.014287610736110918 -0.011361561899148333 0 -0.01198494006017903 -0.012321384062639293 0 -0.013883561437301038 -0.013625272116020732 0 -0.014287610736110918 -0.011361561899148333 0 -0.01198494006017903 -0.012321384062639293 0 -0.0099705150118156415 -0.0098053855169182545 0 -0.0097766298108121017 -0.012404462657800472 0 -0.0078294788022579866 -0.010187470062807694 0 -0.0099705150118156415 -0.0098053855169182545 0 -0.01198494006017903 -0.012321384062639293 0 -0.0097766298108121017 -0.012404462657800472 0 -0.0097766298108121017 -0.012404462657800472 0 -0.0090549038727219273 -0.014818625426255744 0 -0.0066455444614070425 -0.012712442442386184 0 -0.011823902292433902 -0.014310016009012142 0 -0.0097766298108121017 -0.012404462657800472 0 -0.0090549038727219273 -0.014818625426255744 0 -0.0067727162488943112 -0.017076362426288419 0 -0.0090549038727219273 -0.014818625426255744 0 -0.0066455444614070425 -0.012712442442386184 0 -0.0047123795252771161 -0.0087790672745128584 0 -0.0066455444614070425 -0.012712442442386184 0 -0.0078294788022579866 -0.010187470062807694 0 -0.0097766298108121017 -0.012404462657800472 0 -0.0066455444614070425 -0.012712442442386184 0 -0.0078294788022579866 -0.010187470062807694 0 -0.0047123795252771161 -0.0087790672745128584 0 -0.0014323359814032504 -0.0093150095261990869 0 -0.0034663024484833083 -0.01337444673454131 0 -0.0047123795252771161 -0.0087790672745128584 0 -0.0066455444614070425 -0.012712442442386184 0 -0.0034663024484833083 -0.01337444673454131 0 -0.0014323359814032504 -0.0093150095261990869 0 -0.00034035937092745687 -0.012364094466055152 0 -0.0034663024484833083 -0.01337444673454131 0 -0.002641117876029248 -0.024299982058525918 0 -0.0039228351279122749 -0.027429465051224535 0 -0.0055109879589284941 -0.023531800461363397 0 -0.010374533075499711 -0.033402783181255336 0 0.0017086319397860009 -0.031354029416560569 0 -0.00034035937092745687 -0.012364094466055152 0 -0.0034663024484833083 -0.01337444673454131 0 -0.0024562300629971442 -0.016416680127092579 0 -0.0067727162488943112 -0.017076362426288419 0 -0.0066455444614070425 -0.012712442442386184 0 -0.0034663024484833083 -0.01337444673454131 0 -0.0067727162488943112 -0.017076362426288419 0 -0.0034663024484833083 -0.01337444673454131 0 -0.0024562300629971442 -0.016416680127092579 0 -0.0039228351279122749 -0.027429465051224535 0 -0.0044560214439096262 -0.028295813735791864 0 -0.01658939877945825 -0.046090287486492187 0 -0.019931223262422894 -0.046581084946969546 0 -0.018287683597910814 -0.043354639667886143 0 -0.006998824543770355 -0.028296010337403154 0 -0.0039228351279122749 -0.027429465051224535 0 -0.017196291221687265 -0.035173845255858704 0 -0.011438458687069511 -0.038608660211715017 0 -0.015689325433423499 -0.041934241944494001 0 -0.011438458687069511 -0.038608660211715017 0 -0.015689325433423499 -0.041934241944494001 0 -0.013898006401980131 -0.043469686436481143 0 -0.015689325433423499 -0.041934241944494001 0 -0.013898006401980131 -0.043469686436481143 0 -0.014963140676940908 -0.043833436626804251 0 -0.013898006401980131 -0.043469686436481143 0 -0.014963140676940908 -0.043833436626804251 0 -0.014332631748841019 -0.043947363221947248 0 -0.015689325433423499 -0.041934241944494001 0 -0.014963140676940908 -0.043833436626804251 0 -0.016731249711312842 -0.043185731592987199 0 -0.017196291221687265 -0.035173845255858704 0 -0.015689325433423499 -0.041934241944494001 0 -0.018287683597910814 -0.043354639667886143 0 -0.015689325433423499 -0.041934241944494001 0 -0.016731249711312842 -0.043185731592987199 0 -0.018287683597910814 -0.043354639667886143 0 -0.0003890697773792419 -0.048314057019245862 0 -0.0054337033732147306 -0.039807317845694343 0 0.0054323080817213791 -0.038790631175890947 0 -0.0003890697773792419 -0.048314057019245862 0 0.0054323080817213791 -0.038790631175890947 0 0.011426362985276611 -0.044419874778455666 0 0.01220551771719377 -0.024782210928070023 0 0.01328972610220004 -0.02465431536179816 0 -0.013898006401980131 -0.043469686436481143 0 -0.0003890697773792419 -0.048314057019245862 0 -0.0054337033732147306 -0.039807317845694343 0 -0.013898006401980131 -0.043469686436481143 0 -0.013723212877142385 -0.043842176134254084 0 -0.014018384540421154 -0.043998981765053548 0 -0.011438458687069511 -0.038608660211715017 0 -0.013898006401980131 -0.043469686436481143 0 -0.0054337033732147306 -0.039807317845694343 0 -0.011438458687069511 -0.038608660211715017 0 -0.0054337033732147306 -0.039807317845694343 0 -0.0036013352825163309 -0.031267345811777238 0 -0.0039228351279122749 -0.027429465051224535 0 -0.0028256804303606522 -0.027514270722630293 0 -0.017196291221687265 -0.035173845255858704 0 -0.011438458687069511 -0.038608660211715017 0 -0.0036013352825163309 -0.031267345811777238 0 0.0054323080817213791 -0.038790631175890947 0 -0.0036013352825163309 -0.031267345811777238 0 0.013419820366321012 -0.029458907931210924 0 -0.0054337033732147306 -0.039807317845694343 0 0.0054323080817213791 -0.038790631175890947 0 -0.0036013352825163309 -0.031267345811777238 0 0.0017086319397860009 -0.031354029416560569 0 0.0063267658774142765 -0.021039938363028313 0 0.013419820366321012 -0.029458907931210924 0 -0.0028256804303606522 -0.027514270722630293 0 -0.0020413783144923809 -0.027472414086753646 0 -0.0055109879589284941 -0.023531800461363397 0 0.0017086319397860009 -0.031354029416560569 0 0.0063267658774142765 -0.021039938363028313 0 -0.0016170892633568701 -0.021922673154609794 0 -0.002641117876029248 -0.024299982058525918 0 -0.00057965962277630487 -0.013468205556394023 0 -0.0055109879589284941 -0.023531800461363397 0 0.0063267658774142765 -0.021039938363028313 0 0.0063267658774142765 -0.021039938363028313 0 0.016730579551784478 -0.021319325621732162 0 0.013419820366321012 -0.029458907931210924 0 0.0134960728913579 -0.014077687979242574 0 0.0063267658774142765 -0.021039938363028313 0 0.016730579551784478 -0.021319325621732162 0 0.013419820366321012 -0.029458907931210924 0 0.024428375879162224 -0.025541131039042285 0 0.022643880765073947 -0.034260959409151352 0 0.016730579551784478 -0.021319325621732162 0 0.013419820366321012 -0.029458907931210924 0 0.024428375879162224 -0.025541131039042285 0 0.039208762265994956 -0.02060822065125522 0 0.035156728962688927 -0.018709909662192197 0 0.034003361858927598 -0.024434159134108974 0 0.027961571852264382 -0.017853941163982732 0 0.035156728962688927 -0.018709909662192197 0 0.034003361858927598 -0.024434159134108974 0 0.027961571852264382 -0.017853941163982732 0 0.016730579551784478 -0.021319325621732162 0 0.024428375879162224 -0.025541131039042285 0 0.027961571852264382 -0.017853941163982732 0 0.034003361858927598 -0.024434159134108974 0 0.024428375879162224 -0.025541131039042285 0 0.034003361858927598 -0.024434159134108974 0 0.029739724439505528 -0.032079032186950247 0 0.024428375879162224 -0.025541131039042285 0 0.029739724439505528 -0.032079032186950247 0 0.024428375879162224 -0.025541131039042285 0 0.022643880765073947 -0.034260959409151352 0 0.039559672606817829 -0.031686587404455041 0 0.034003361858927598 -0.024434159134108974 0 0.029739724439505528 -0.032079032186950247 0 0.037752326868589474 -0.020954790400040502 0 0.037551109536058148 -0.021081001167575546 0 0.039898799769377519 -0.031357929610852549 0 0.029739724439505528 -0.032079032186950247 0 0.030604741643863793 -0.03932246767587342 0 0.039898799769377519 -0.031357929610852549 0 0.030604741643863793 -0.03932246767587342 0 0.037381488311114291 -0.043086755634637514 0 0.029739724439505528 -0.032079032186950247 0 0.030604741643863793 -0.03932246767587342 0 0.022643880765073947 -0.034260959409151352 0 0.030604741643863793 -0.03932246767587342 0 0.023696764050912273 -0.043145191421090259 0 0.022643880765073947 -0.034260959409151352 0 0.030604741643863793 -0.03932246767587342 0 0.023696764050912273 -0.043145191421090259 0 0.030740057068542413 -0.047859299762642277 0 0.023696764050912273 -0.043145191421090259 0 0.030740057068542413 -0.047859299762642277 0 0.02411751823540198 -0.052820274346562064 0 0.030604741643863793 -0.03932246767587342 0 0.030740057068542413 -0.047859299762642277 0 0.037381488311114291 -0.043086755634637514 0 0.0054323080817213791 -0.038790631175890947 0 0.013419820366321012 -0.029458907931210924 0 0.015832455928073544 -0.03913418161511429 0 0.013419820366321012 -0.029458907931210924 0 0.022643880765073947 -0.034260959409151352 0 0.015832455928073544 -0.03913418161511429 0 0.023696764050912273 -0.043145191421090259 0 0.022643880765073947 -0.034260959409151352 0 0.015832455928073544 -0.03913418161511429 0 0.023696764050912273 -0.043145191421090259 0 0.018272366387597952 -0.046086156703693613 0 0.02411751823540198 -0.052820274346562064 0 0.015832455928073544 -0.03913418161511429 0 0.018272366387597952 -0.046086156703693613 0 0.011426362985276611 -0.044419874778455666 0 0.023696764050912273 -0.043145191421090259 0 0.015832455928073544 -0.03913418161511429 0 0.018272366387597952 -0.046086156703693613 0 -0.0003890697773792419 -0.048314057019245862 0 0.011426362985276611 -0.044419874778455666 0 0.013119724617147653 -0.051394958988473106 0 0.018272366387597952 -0.046086156703693613 0 0.011426362985276611 -0.044419874778455666 0 0.013115071480658909 -0.050693568120540683 0 0.016232997727610516 -0.024493236422884514 0 0.016192833710277032 -0.024169302094963391 0 0.0054323080817213791 -0.038790631175890947 0 0.015832455928073544 -0.03913418161511429 0 0.011426362985276611 -0.044419874778455666 0 0.01328972610220004 -0.02465431536179816 0 0.016192833710277032 -0.024169302094963391 0 -0.013017756409872861 -0.043959416882038221 0 -0.013251510151189567 -0.04438797859268262 0 -0.013534587833955759 -0.044200711688068058 0 0.018272366387597952 -0.046086156703693613 0 0.013115071480658909 -0.050693568120540683 0 0.02411751823540198 -0.052820274346562064 0 0.016192833710277032 -0.024169302094963391 0 0.02202156718226057 -0.023985312744098052 0 0.024158272335272325 -0.031469576842291916 0 0.020547818066539564 -0.026496385138659186 0 0.017945947309806448 -0.030163963976840475 0 0.020547818066539564 -0.026496385138659186 0 0.022477146621335729 -0.024489049455149778 0 0.017858889183510192 -0.022657316322642729 0 0.024158272335272325 -0.031469576842291916 0 0.020547818066539564 -0.026496385138659186 0 0.022468512860028583 -0.024494774175859647 0 0.014283556784254581 -0.024881780999276612 0 0.014248113216078169 -0.024900041983676253 0 -0.012848191826454186 -0.044654121355402705 0 -0.013346195513407266 -0.044708964607046035 0 -0.013251510151189567 -0.04438797859268262 0 0.016192833710277032 -0.024169302094963391 0 0.014248113216078169 -0.024900041983676253 0 -0.013017756409872861 -0.043959416882038221 0 -0.012848191826454186 -0.044654121355402705 0 -0.013251510151189567 -0.04438797859268262 0 0.073267689839788916 -0.022426834418925443 0 0.073794683684012846 -0.024153643419178476 0 0.074288446022839655 -0.021802337694407588 0 0.0330055107655262 -0.022583938694771169 0 0.027702206057716942 -0.023343581377133691 0 0.030740057068542413 -0.047859299762642277 0 0.037381488311114291 -0.043086755634637514 0 0.034821178107694951 -0.054980683249959632 0 0.073267689839788916 -0.022426834418925443 0 0.073686855606749785 -0.021671587481387498 0 0.074288446022839655 -0.021802337694407588 0 0.027875850406442953 -0.023369026625086414 0 0.027702206057716942 -0.023343581377133691 0 0.030740057068542413 -0.047859299762642277 0 0.034821178107694951 -0.054980683249959632 0 0.02411751823540198 -0.052820274346562064 0 0.027702206057716942 -0.023343581377133691 0 0.02202156718226057 -0.023985312744098052 0 0.011725890201019872 -0.028853877376391723 0 0.017945947309806448 -0.030163963976840475 0 0.016217878754256492 -0.02617760596674398 0 0.016217878754256492 -0.02617760596674398 0 0.012936224666984769 -0.023326967825850465 0 0.017858889183510192 -0.022657316322642729 0 0.020547818066539564 -0.026496385138659186 0 0.017945947309806448 -0.030163963976840475 0 0.016217878754256492 -0.02617760596674398 0 0.020547818066539564 -0.026496385138659186 0 0.016217878754256492 -0.02617760596674398 0 0.017858889183510192 -0.022657316322642729 0 0.073686855606749785 -0.021671587481387498 0 0.074269280701679971 -0.021793826098812773 0 0.074657214645938941 -0.019942515975802065 0 0.072903806854388534 -0.020265257881631259 0 0.073686855606749785 -0.021671587481387498 0 0.074657214645938941 -0.019942515975802065 0 0.011725890201019872 -0.028853877376391723 0 0.016217878754256492 -0.02617760596674398 0 0.012936224666984769 -0.023326967825850465 0 0.027702206057716942 -0.023343581377133691 0 0.026011879061669494 -0.023439405948992947 0 0.026011879061669494 -0.023439405948992947 0 0.023914596150266615 -0.023882774348390215 0 0.072451922067040431 -0.018142829430321569 0 0.074657214645938941 -0.019942515975802065 0 0.075037187945424313 -0.018104445210872799 0 0.012936224666984769 -0.023326967825850465 0 0.017858889183510192 -0.022657316322642729 0 0.014150652495974952 -0.0177943455908041 0 0.017858889183510192 -0.022657316322642729 0 0.014150652495974952 -0.0177943455908041 0 0.020823406155403096 -0.017655434221633303 0 0.015239818058038255 -0.026853724127296166 0 0.014320021741747594 -0.027692568800495872 0 0.016170923816270732 -0.027656084245809922 0 0.023914596150266615 -0.023882774348390215 0 0.015592852883144315 -0.024733211477705554 0 0.033104440166167572 -0.022493890930345362 0 0.023914596150266615 -0.023882774348390215 0 0.033401012632498096 -0.012701854901473755 0 0.031522515441036444 -0.013900041613575692 0 0.031112424871151838 -0.012725656175707676 0 -0.012848191826454186 -0.044654121355402705 0 -0.013346195513407266 -0.044708964607046035 0 -0.013189442823338688 -0.045004726571620648 0 0.01087249911017363 -0.025094562898163243 0 0.008020622539996634 -0.024763952458722625 0 0.014248113216078169 -0.024900041983676253 0 0.01087249911017363 -0.025094562898163243 0 0.011512061318641487 -0.026695909989495913 0 0.015245145247220758 -0.022805686384828043 0 0.0096709548020742428 -0.019109023301028691 0 0.014248113216078169 -0.024900041983676253 0 0.015592852883144315 -0.024733211477705554 0 0.022477146621335729 -0.024489049455149778 0 0.017858889183510192 -0.022657316322642729 0 0.020823406155403096 -0.017655434221633303 0 0.015746346748857311 -0.025942992569216831 0 0.015239818058038255 -0.026853724127296166 0 0.016170923816270732 -0.027656084245809922 0 0.015610840264424771 -0.024814077248776836 0 0.015592852883144315 -0.024733211477705554 0 0.015592852883144315 -0.024733211477705554 0 0.008020622539996634 -0.024763952458722625 0 0.016931000186418337 -0.026439422251419677 0 0.016143696260896755 -0.027602218163417378 0 0.018400240629116819 -0.027554792491357137 0 0.015245145247220758 -0.022805686384828043 0 0.0096709548020742428 -0.019109023301028691 0 0.018976592228309695 -0.018915296119944029 0 0.008020622539996634 -0.024763952458722625 0 0.0037515414201732497 -0.024787581531497779 0 -0.013532281849952534 -0.045355154259191899 0 -0.013719199099986326 -0.044944519501380654 0 -0.014103250400032507 -0.045365596368577031 0 0.0068533408295216487 -0.024995493547394963 0 0.0019419603782500196 -0.030111440058669777 0 0.012176557154070686 -0.029897151356504507 0 0.0065379254676310545 -0.024150267765763515 0 0.008020622539996634 -0.024763952458722625 0 -0.013346195513407266 -0.044708964607046035 0 -0.013189442823338688 -0.045004726571620648 0 -0.013719199099986326 -0.044944519501380654 0 -0.013189442823338688 -0.045004726571620648 0 -0.013532281849952534 -0.045355154259191899 0 -0.013719199099986326 -0.044944519501380654 0 -0.013346195513407266 -0.044708964607046035 0 -0.013719199099986326 -0.044944519501380654 0 -0.013676259713809678 -0.04462912869702694 0 -0.013719199099986326 -0.044944519501380654 0 -0.014154163308381207 -0.044897234898712356 0 -0.014103250400032507 -0.045365596368577031 0 -0.014154163308381207 -0.044897234898712356 0 -0.014103250400032507 -0.045365596368577031 0 -0.014358608529332949 -0.044845586762454995 0 -0.014154163308381207 -0.044897234898712356 0 -0.014358608529332949 -0.044845586762454995 0 -0.014308606846799713 -0.044673958169806946 0 -0.013719199099986326 -0.044944519501380654 0 -0.014154163308381207 -0.044897234898712356 0 -0.014003391070801995 -0.044656932363114507 0 -0.039253167034321731 -0.037440668019785718 0 -0.047287332567181824 -0.038470080436728171 0 -0.043190959094443218 -0.042245726164192317 0 0.0065379254676310545 -0.024150267765763515 0 0.0037515414201732497 -0.024787581531497779 0 -0.014742387225900216 -0.044660143006760813 0 -0.014698112009700216 -0.044678220386913478 0 -0.01470063871055804 -0.044705535598429005 0 -0.039253167034321731 -0.037440668019785718 0 -0.043190959094443218 -0.042245726164192317 0 -0.035369735501302409 -0.04210339335830781 0 0.0037515414201732497 -0.024787581531497779 0 -0.0018863585137782772 -0.027132253318821228 0 -0.014698112009700216 -0.044678220386913478 0 -0.014681073869605857 -0.044712819657054897 0 -0.01470063871055804 -0.044705535598429005 0 -0.0018863585137782772 -0.027132253318821228 0 -0.0058431171248167317 -0.029160806726915806 0 -0.014698112009700216 -0.044678220386913478 0 -0.014649905609077123 -0.044701153016451646 0 -0.014681073869605857 -0.044712819657054897 0 -0.031728654844000406 -0.034959193063856552 0 -0.035369735501302409 -0.04210339335830781 0 -0.027510409845637077 -0.041974598670801284 0 -0.01925520875716967 -0.035885598650799093 0 -0.018644151583836276 -0.038739930296166479 0 -0.019175720237813009 -0.041263763213071049 0 -0.0058431171248167317 -0.029160806726915806 0 -0.0072064463086861496 -0.031564620151332871 0 -0.014649905609077123 -0.044701153016451646 0 -0.014681073869605857 -0.044712819657054897 0 -0.014732368844126877 -0.044712515922144008 0 -0.014681073869605857 -0.044712819657054897 0 -0.014692259397096515 -0.044730574999640282 0 -0.014732368844126877 -0.044712515922144008 0 -0.018375771534949688 -0.037435853195725115 0 -0.01925520875716967 -0.035885598650799093 0 -0.018644151583836276 -0.038739930296166479 0 -0.014681073869605857 -0.044712819657054897 0 -0.014692259397096515 -0.044730574999640282 0 -0.01470063871055804 -0.044705535598429005 0 -0.014692259397096515 -0.044730574999640282 0 -0.014696022848183332 -0.044752062200455571 0 -0.014732368844126877 -0.044712515922144008 0 -0.018499712733634658 -0.039973712094269226 0 -0.018644151583836276 -0.038739930296166479 0 -0.019175720237813009 -0.041263763213071049 0 -0.017911810671890308 -0.03913245169635924 0 -0.018499712733634658 -0.039973712094269226 0 -0.017948761989941126 -0.040326641331557903 0 -0.017911810671890308 -0.03913245169635924 0 -0.018499712733634658 -0.039973712094269226 0 -0.018644151583836276 -0.038739930296166479 0 0.0037515414201732497 -0.024787581531497779 0 0.0033701848435237283 -0.025219399526524394 0 -0.014742387225900216 -0.044660143006760813 0 -0.01470063871055804 -0.044705535598429005 0 -0.014696022848183332 -0.044752062200455571 0 -0.014103250400032507 -0.045365596368577031 0 -0.014696022848183332 -0.044752062200455571 0 -0.014358608529332949 -0.044845586762454995 0 -0.014692259397096515 -0.044730574999640282 0 -0.01470063871055804 -0.044705535598429005 0 -0.014696022848183332 -0.044752062200455571 0 -0.014358608529332949 -0.044845586762454995 0 -0.014518952113879007 -0.044611132536714275 0 -0.014308606846799713 -0.044673958169806946 0 -0.014518952113879007 -0.044611132536714275 0 -0.014308606846799713 -0.044673958169806946 0 -0.014254675420271413 -0.044448240027089227 0 -0.014696022848183332 -0.044752062200455571 0 -0.014358608529332949 -0.044845586762454995 0 -0.014518952113879007 -0.044611132536714275 0 -0.014696022848183332 -0.044752062200455571 0 -0.014518952113879007 -0.044611132536714275 0 -0.014732368844126877 -0.044712515922144008 0 -0.014518952113879007 -0.044611132536714275 0 -0.014732368844126877 -0.044712515922144008 0 -0.014512621583435435 -0.044307033935984091 0 -0.014518952113879007 -0.044611132536714275 0 -0.014512621583435435 -0.044307033935984091 0 -0.014254675420271413 -0.044448240027089227 0 -0.019175720237813009 -0.041263763213071049 0 -0.018058594424149307 -0.041898791512776819 0 -0.017486674101368133 -0.042760334964857066 0 -0.017948761989941126 -0.040326641331557903 0 -0.018321421449565084 -0.040911782801694753 0 -0.01782380812147356 -0.041125569406186245 0 -0.018499712733634658 -0.039973712094269226 0 -0.017948761989941126 -0.040326641331557903 0 -0.018321421449565084 -0.040911782801694753 0 -0.018499712733634658 -0.039973712094269226 0 -0.018321421449565084 -0.040911782801694753 0 -0.019175720237813009 -0.041263763213071049 0 -0.018321421449565084 -0.040911782801694753 0 -0.019175720237813009 -0.041263763213071049 0 -0.018058594424149307 -0.041898791512776819 0 -0.017135326268598886 -0.042034650882965326 0 -0.018058594424149307 -0.041898791512776819 0 -0.01782380812147356 -0.041125569406186245 0 -0.018321421449565084 -0.040911782801694753 0 -0.018058594424149307 -0.041898791512776819 0 -0.01782380812147356 -0.041125569406186245 0 -0.017135326268598886 -0.042034650882965326 0 -0.018058594424149307 -0.041898791512776819 0 -0.017667728807186606 -0.042658599702572589 0 -0.018058594424149307 -0.041898791512776819 0 -0.017486674101368133 -0.042760334964857066 0 -0.017667728807186606 -0.042658599702572589 0 -0.016731249711312842 -0.043185731592987199 0 -0.018287683597910814 -0.043354639667886143 0 -0.017486674101368133 -0.042760334964857066 0 -0.018287683597910814 -0.043354639667886143 0 -0.017486674101368133 -0.042760334964857066 0 -0.017667728807186606 -0.042658599702572589 0 -0.016768883887001027 -0.043206186730897024 0 -0.018287683597910814 -0.043354639667886143 0 -0.017667728807186606 -0.042658599702572589 0 -0.014963140676940908 -0.043833436626804251 0 -0.014732368844126877 -0.044712515922144008 0 -0.014512621583435435 -0.044307033935984091 0 -0.0075990777911012818 -0.032278854459718731 0 -0.0072064463086861496 -0.031564620151332871 0 -0.014963140676940908 -0.043833436626804251 0 -0.019175720237813009 -0.041263763213071049 0 -0.017486674101368133 -0.042760334964857066 0 -0.014963140676940908 -0.043833436626804251 0 -0.016731249711312842 -0.043185731592987199 0 -0.017486674101368133 -0.042760334964857066 0 -0.014963140676940908 -0.043833436626804251 0 -0.014512621583435435 -0.044307033935984091 0 -0.014332631748841019 -0.043947363221947248 0 -0.014512621583435435 -0.044307033935984091 0 -0.014332631748841019 -0.043947363221947248 0 -0.014018384540421154 -0.043998981765053548 0 -0.013898006401980131 -0.043469686436481143 0 -0.014332631748841019 -0.043947363221947248 0 -0.014018384540421154 -0.043998981765053548 0 -0.013723212877142385 -0.043842176134254084 0 -0.014018384540421154 -0.043998981765053548 0 -0.013878396669894193 -0.044335885397723478 0 -0.014512621583435435 -0.044307033935984091 0 -0.014018384540421154 -0.043998981765053548 0 -0.014254675420271413 -0.044448240027089227 0 -0.014018384540421154 -0.043998981765053548 0 -0.014254675420271413 -0.044448240027089227 0 -0.013878396669894193 -0.044335885397723478 0 -0.013723212877142385 -0.043842176134254084 0 -0.013017756409872861 -0.043959416882038221 0 -0.013534587833955759 -0.044200711688068058 0 -0.013723212877142385 -0.043842176134254084 0 -0.013534587833955759 -0.044200711688068058 0 -0.013878396669894193 -0.044335885397723478 0 -0.013534587833955759 -0.044200711688068058 0 -0.013676259713809678 -0.04462912869702694 0 -0.013878396669894193 -0.044335885397723478 0 -0.013251510151189567 -0.04438797859268262 0 -0.013534587833955759 -0.044200711688068058 0 -0.013676259713809678 -0.04462912869702694 0 -0.013346195513407266 -0.044708964607046035 0 -0.013251510151189567 -0.04438797859268262 0 -0.013676259713809678 -0.04462912869702694 0 -0.013719199099986326 -0.044944519501380654 0 -0.013676259713809678 -0.04462912869702694 0 -0.014003391070801995 -0.044656932363114507 0 -0.013676259713809678 -0.04462912869702694 0 -0.014003391070801995 -0.044656932363114507 0 -0.013878396669894193 -0.044335885397723478 0 -0.014003391070801995 -0.044656932363114507 0 -0.014308606846799713 -0.044673958169806946 0 -0.014254675420271413 -0.044448240027089227 0 -0.014154163308381207 -0.044897234898712356 0 -0.014003391070801995 -0.044656932363114507 0 -0.014308606846799713 -0.044673958169806946 0 -0.014003391070801995 -0.044656932363114507 0 -0.014254675420271413 -0.044448240027089227 0 -0.013878396669894193 -0.044335885397723478 0 
</DataArray>
</PointData>
<CellData Scalars="region_id,cross_section_updated," Vectors="" Tensors="stress,">
<DataArray type="Float64" Name="region_id" format="ascii">
5 5 5 5 5 5 6 5 5 5 6 5 5 5 6 5 5 5 5 5 5 6 6 5 5 5 5 6 6 5 6 6 5 6 5 5 5 6 5 5 6 5 5 5 5 5 5 5 6 5 5 5 5 5 5 5 5 6 5 5 6 5 6 5 6 5 6 5 5 5 5 5 5 5 5 5 5 5 5 5 5 5 5 6 5 5 5 5 5 5 5 5 6 5 5 6 6 5 5 5 5 5 5 5 5 5 5 5 5 6 5 5 5 5 5 6 5 5 6 5 5 5 5 5 5 5 5 5 5 5 5 5 5 5 5 5 5 5 6 5 5 5 5 5 6 5 5 5 5 5 5 5 5 5 5 5 5 5 5 5 5 5 5 5 5 5 5 5 5 6 5 6 5 5 5 6 5 5 5 6 5 5 5 6 6 5 5 6 5 5 5 5 6 5 5 5 5 5 6 5 5 5 5 6 5 6 5 5 6 5 5 5 6 5 5 6 5 5 5 5 5 5 5 5 5 5 6 5 5 6 5 5 5 5 5 5 5 6 5 5 5 5 5 5 5 5 5 5 5 5 5 5 5 5 5 5 5 5 5 6 5 6 5 5 5 5 5 6 5 5 5 5 5 5 5 5 6 5 5 5 6 5 5 6 5 5 5 5 6 5 5 6 5 5 5 5 5 6 5 6 5 5 5 5 5 5 5 5 5 5 5 5 5 5 5 5 5 5 6 5 5 5 5 5 6 6 5 5 5 5 5 5 5 5 5 5 6 5 5 5 5 5 5 5 5 5 6 5 5 6 6 5 5 5 6 5 5 6 5 5 5 5 5 5 5 5 5 5 5 5 5 5 5 6 5 5 5 5 5 5 5 5 6 5 5 6 5 5 5 5 6 5 5 5 5 5 5 5 5 5 5 5 5 5 5 6 6 5 5 6 6 5 6 5 6 5 6 5 5 6 5 5 5 5 5 5 5 5 5 6 6 5 5 6 5 5 5 5 5 6 5 5 6 5 5 5 5 6 5 5 5 6 5 5 5 6 5 6 5 5 6 5 5 5 5 5 5 5 5 5 5 5 6 5 5 5 5 5 5 6 5 5 5 6 5 5 5 5 5 5 5 6 5 5 5 5 5 6 5 6 5 5 5 5 5 6 6 5 5 5 6 6 5 6 5 5 5 5 5 5 5 6 5 5 5 5 5 5 5 5 5 5 5 5 5 5 6 5 5 6 5 6 5 5 5 5 5 5 5 5 5 5 5 5 5 5 6 5 5 5 5 5 5 5 5 5 5 5 5 5 5 5 5 6 5 5 5 5 5 5 5 5 5 5 5 6 6 5 5 5 5 5 5 5 5 5 5 5 5 5 5 5 5 6 5 5 5 5 5 5 5 6 5 5 5 5 5 5 5 5 6 5 5 5 6 5 5 5 5 5 5 5 5 5 5 5 5 5 5 5 5 5 5 5 5 5 5 5 5 5 5 5 5 6 5 6 5 5 5 5 5 5 5 5 5 5 5 5 5 6 5 5 5 6 5 5 5 5 5 5 5 5 5 5 5 5 5 6 6 5 5 5 5 5 5 5 6 5 5 5 5 5 5 5 5 5 5 5 6 5 5 5 5 5 5 5 6 5 5 5 5 5 5 5 5 5 5 5 5 5 5 5 5 5 6 5 5 5 5 5 5 5 5 5 5 6 5 5 5 5 5 6 5 5 5 6 5 5 5 5 6 5 5 5 5 5 5 5 6 5 6 5 5 6 5 6 5 5 5 5 5 5 5 5 5 5 5 5 5 5 5 5 5 5 5 5 5 5 5 5 5 5 5 5 5 5 5 5 5 5 5 6 5 6 6 5 5 5 5 5 5 5 5 5 5 5 6 5 5 5 5 5 5 5 6 5 6 5 6 5 5 5 5 5 5 6 5 6 6 5 5 5 5 5 5 5 5 5 5 5 5 5 5 5 5 5 6 5 5 5 5 5 5 5 5 5 5 5 5 5 5 6 5 5 5 5 5 5 5 5 5 5 5 5 5 6 5 5 5 5 5 5 5 5 5 6 5 5 5 5 5 6 6 5 5 5 5 6 6 5 5 5 5 5 5 5 5 5 5 5 6 5 5 5 5 6 5 5 5 5 5 5 6 5 5 6 5 6 5 5 5 6 5 5 5 5 5 5 5 6 5 5 5 5 6 6 5 5 6 5 5 5 6 6 6 6 5 5 6 5 5 5 5 5 5 5 5 6 6 5 5 5 5 5 5 6 5 6 5 5 5 6 5 5 5 5 5 5 5 5 5 5 5 5 5 5 5 5 5 5 5 5 5 5 5 5 5 5 5 5 6 5 5 5 5 5 5 5 5 5 5 5 5 5 5 5 5 5 5 5 5 5 6 5 5 5 5 5 5 5 5 5 6 5 5 5 5 5 5 6 5 5 5 5 5 6 5 5 5 5 5 6 5 5 5 5 5 5 5 5 5 5 6 5 5 5 5 6 6 5 5 6 5 5 5 5 6 5 5 6 5 5 5 5 5 6 6 5 5 5 5 5 5 6 5 5 5 5 5 5 5 6 6 5 5 5 6 5 5 5 6 5 5 6 5 6 5 5 5 6 5 5 6 6 5 5 5 5 5 5 6 5 6 5 6 5 5 5 6 6 5 6 5 5 5 5 5 5 5 5 5 5 5 5 5 5 5 5 6 5 5 5 5 5 5 5 6 5 5 5 5 5 6 5 5 5 6 5 5 5 5 6 5 6 5 6 5 5 5 5 6 5 5 6 5 5 5 5 5 5 5 5 5 5 5 6 5 5 5 5 6 5 5 5 5 6 5 5 5 5 5 5 6 5 5 5 6 5 6 6 5 5 5 5 5 5 5 5 5 5 5 5 5 5 5 5 5 5 5 5 5 5 5 5 5 5 5 5 6 5 5 6 6 5 6 5 5 5 5 6 5 5 6 5 5 5 5 5 5 5 5 5 5 5 5 5 5 5 5 5 5 5 5 5 5 5 5 5 5 5 5 6 5 5 5 5 5 5 5 5 6 5 5 5 5 5 5 5 6 5 6 5 5 5 6 5 5 5 5 5 5 5 6 5 6 5 5 5 5 5 6 5 5 5 5 5 5 5 5 5 5 5 5 5 5 5 5 5 5 5 5 5 5 5 5 5 5 5 5 5 5 5 5 5 5 5 5 5 5 5 6 6 5 5 6 5 5 5 6 5 5 5 6 6 5 5 6 5 5 5 5 5 5 5 5 5 5 5 5 5 5 5 5 5 5 5 5 5 6 5 6 5 5 5 5 5 5 5 5 5 5 5 5 5 5 5 5 5 5 5 5 5 5 5 5 5 5 5 5 5 5 5 5 5 5 5 5 5 5 5 5 5 5 5 5 5 6 5 6 5 6 5 5 6 5 5 5 5 5 5 5 5 5 5 5 5 5 5 5 5 5 5 5 5 5 5 5 5 5 5 5 6 5 5 5 5 5 5 5 5 5 5 5 5 5 5 5 5 5 5 5 5 5 5 5 5 5 5 5 5 5 5 5 5 5 5 5 5 5 5 5 5 5 5 5 5 5 5 5 5 5 6 5 5 5 5 6 5 5 5 5 5 5 5 5 6 5 5 5 5 5 6 6 6 5 5 5 5 6 6 5 5 6 5 5 5 5 5 5 5 5 5 5 5 5 5 5 6 6 5 6 5 5 5 5 5 5 5 5 5 5 5 5 5 5 5 5 5 5 6 5 5 5 5 5 5 6 5 5 5 5 5 5 5 5 5 5 5 5 5 5 5 5 5 5 6 5 5 5 5 5 5 5 5 5 6 5 5 6 5 5 5 5 5 5 5 5 5 5 5 5 5 5 5 5 6 5 6 5 5 5 5 6 5 6 5 5 6 6 5 5 6 5 5 5 6 5 5 5 5 5 5 6 5 5 5 6 5 5 5 5 6 5 5 5 5 5 5 5 6 5 5 5 5 5 6 5 5 6 5 5 5 5 5 5 5 6 5 5 5 6 6 5 5 5 6 5 5 5 5 5 6 6 6 5 5 5 5 5 5 5 5 5 6 6 5 6 5 5 5 5 5 6 5 5 6 5 6 5 5 5 6 5 5 6 5 5 5 5 5 5 5 6 5 5 6 6 5 5 6 5 6 5 5 6 5 5 6 5 6 5 5 5 6 5 5 6 5 6 5 5 6 5 6 5 5 5 5 6 6 5 5 5 5 5 5 5 5 5 6 5 5 5 5 5 5 5 5 5 5 5 5 5 5 5 5 5 5 6 6 5 5 5 6 5 5 5 5 6 5 5 6 5 5 5 6 5 5 6 5 5 5 5 6 5 5 5 5 5 6 5 5 5 6 6 5 5 6 5 5 5 5 5 6 6 5 5 5 5 6 5 5 5 5 6 5 5 5 5 5 5 5 5 5 5 5 5 5 5 5 5 5 5 5 5 5 5 5 5 5 5 5 5 6 5 5 5 5 5 5 5 5 5 5 5 6 5 5 5 5 6 5 5 5 6 5 5 6 5 5 5 5 5 6 5 5 5 5 5 5 5 5 5 5 5 5 5 5 5 5 5 5 5 5 6 5 5 5 5 5 6 5 5 5 5 5 5 5 6 5 5 5 5 5 5 5 5 5 5 5 5 5 6 5 5 5 5 5 6 6 5 5 5 5 6 5 6 5 5 5 6 6 5 5 6 5 5 5 6 5 5 5 5 6 5 5 6 6 5 5 5 5 5 5 6 5 5 6 5 5 5 5 6 5 5 5 5 5 5 5 5 5 5 5 5 5 5 5 5 5 5 5 6 5 6 5 5 5 6 5 6 5 6 5 5 6 5 5 6 6 6 5 5 5 6 5 5 5 5 5 5 6 5 5 5 5 5 5 5 6 5 6 5 5 5 5 5 5 5 6 5 5 5 5 5 5 5 5 5 5 5 6 5 5 6 5 5 5 5 5 5 5 5 5 5 5 5 5 5 5 5 6 5 5 5 5 5 5 5 5 5 5 5 5 5 5 5 5 5 5 5 5 5 6 5 5 5 6 5 5 5 5 5 5 5 5 5 5 6 5 5 5 5 5 5 5 5 5 5 6 5 5 5 5 5 5 6 5 5 5 6 5 5 5 5 5 5 5 5 5 5 5 5 5 5 5 5 5 5 5 5 5 6 5 5 5 5 5 6 5 5 6 5 5 5 5 5 5 6 5 5 5 5 6 5 5 5 5 5 5 5 5 5 5 5 5 5 5 5 5 5 5 6 5 5 5 5 5 6 5 5 5 6 5 6 5 5 5 5 5 5 5 6 5 5 5 6 6 5 5 5 5 5 6 5 5 5 6 5 5 5 5 5 5 5 5 5 5 5 5 5 5 5 6 5 5 5 5 5 5 6 5 5 5 5 5 5 5 5 5 5 5 6 5 5 5 5 5 5 5 5 5 6 5 5 5 5 6 6 5 5 5 5 5 5 5 5 6 6 5 6 5 5 5 5 5 6 5 5 5 5 5 5 6 5 6 5 5 5 5 5 5 5 5 5 5 6 5 5 5 5 5 5 6 5 5 5 5 5 5 5 5 6 5 5 5 5 5 6 5 5 6 5 5 5 5 5 5 6 5 5 5 5 5 5 5 5 6 5 5 5 5 6 5 5 5 5 5 5 5 5 5 5 6 5 5 5 5 5 5 5 5 5 6 5 5 5 5 6 5 5 5 5 5 5 5 5 6 5 6 5 5 5 6 5 5 5 5 5 5 5 5 6 5 5 5 6 5 5 5 6 5 5 6 5 5 5 5 5 5 5 5 5 5 5 5 5 5 5 5 5 5 5 5 5 5 5 5 5 5 5 5 5 5 5 5 5 5 5 5 5 5 5 5 5 5 5 5 5 5 5 5 5 5 5 5 5 6 5 5 5 6 5 5 5 5 5 5 6 5 6 5 5 5 5 6 6 5 5 5 5 5 5 5 5 5 5 5 5 5 5 5 5 5 5 5 5 5 5 6 5 5 6 5 5 5 6 5 5 5 5 5 5 5 5 5 5 5 5 5 5 6 5 6 5 6 5 5 5 5 5 5 5 5 5 5 5 5 5 5 5 5 5 6 5 5 5 5 5 5 5 5 5 5 5 5 5 5 5 5 5 5 5 5 5 5 5 5 5 5 5 5 5 5 5 5 5 6 5 5 5 5 5 5 6 5 5 6 5 6 5 5 6 5 5 5 6 5 5 5 5 5 5 5 5 5 5 5 5 5 5 5 5 5 5 5 5 5 5 5 5 5 6 5 5 5 5 6 5 5 6 5 5 5 5 5 5 5 5 5 5 5 5 5 5 5 5 5 5 5 5 5 5 5 5 5 5 5 5 5 5 6 5 5 5 6 5 5 5 5 6 5 5 5 5 5 6 5 5 5 5 6 5 5 5 5 5 5 5 5 5 5 5 5 5 5 6 6 5 6 5 6 5 5 5 5 5 5 5 5 5 5 5 5 5 5 5 5 5 5 5 5 5 5 5 5 5 6 6 5 5 6 5 5 6 5 5 5 5 5 5 5 5 5 5 5 6 5 5 6 5 5 5 5 5 5 5 5 5 5 5 5 5 5 6 6 5 6 6 5 5 5 5 6 5 5 5 6 6 5 5 5 5 5 5 5 6 5 5 5 5 5 5 5 5 5 5 5 5 5 5 5 5 6 5 5 5 5 6 5 5 5 5 5 5 5 6 5 5 5 5 5 5 5 6 5 5 6 5 5 5 5 5 5 5 5 5 5 5 5 5 5 5 6 5 5 5 5 5 5 5 5 6 5 5 5 5 5 5 5 6 5 5 5 5 5 6 5 5 5 5 6 5 5 5 5 5 5 5 5 5 5 5 5 6 5 5 5 5 5 5 5 5 5 5 5 5 5 5 6 5 5 5 5 5 5 5 5 5 5 5 5 5 6 6 5 5 6 5 5 5 5 6 5 5 5 6 5 5 6 5 5 5 5 6 5 5 5 5 5 5 5 5 5 5 5 5 5 5 5 5 5 5 5 5 5 5 5 5 5 5 5 5 5 5 5 5 5 5 6 5 5 5 6 5 6 5 5 5 5 5 5 5 5 5 5 5 5 5 5 6 5 5 5 5 5 5 5 5 6 5 5 5 6 5 5 5 5 5 5 5 6 5 6 5 5 5 5 5 5 5 5 5 5 5 5 5 5 6 5 5 6 5 5 5 5 5 5 5 6 5 5 5 5 5 5 5 5 5 5 5 5 5 5 5 5 5 5 5 5 5 5 5 5 5 5 5 6 5 5 6 5 5 5 6 5 5 6 5 5 5 5 5 5 5 5 5 5 5 5 5 5 5 5 5 5 5 6 5 5 5 5 5 5 5 5 5 5 5 5 5 6 5 5 5 5 5 5 5 5 5 5 5 5 5 5 5 5 5 5 5 6 5 5 5 5 5 5 5 5 5 5 5 5 5 5 5 5 6 5 5 6 5 5 5 6 5 5 6 5 5 5 5 5 5 5 5 5 5 5 5 5 5 6 5 5 6 5 5 5 5 5 5 5 5 5 5 5 5 5 5 5 5 5 5 5 5 5 5 5 5 5 5 5 5 5 5 5 5 5 5 5 5 6 5 5 5 5 6 5 5 5 5 5 5 5 5 5 5 5 5 5 5 5 6 5 6 6 5 5 6 5 6 5 5 5 5 5 5 5 5 6 5 5 6 5 5 5 5 6 6 5 6 5 5 5 5 5 5 5 5 5 5 5 5 5 5 5 5 5 5 5 5 5 6 5 5 5 5 5 5 5 5 5 5 5 5 5 5 5 5 5 5 5 5 5 5 5 5 5 6 5 5 5 5 5 6 5 5 5 5 5 5 5 5 5 6 5 5 5 5 5 5 5 5 5 5 5 5 5 5 5 5 5 6 6 5 5 6 5 5 5 6 5 5 5 5 5 5 5 5 5 5 6 5 5 6 5 6 5 5 5 5 6 5 5 5 6 5 5 5 5 5 5 6 5 5 5 5 5 5 6 5 5 5 5 5 5 5 5 5 5 5 5 5 5 6 5 5 6 5 5 5 6 6 5 5 5 5 5 5 5 5 5 5 6 5 5 5 6 5 5 5 5 6 5 5 5 5 5 5 5 5 6 5 5 5 5 5 6 6 5 5 5 6 5 6 6 5 5 5 5 5 6 5 5 5 5 5 5 6 5 5 5 5 5 5 5 6 5 5 6 5 5 6 5 5 5 5 5 5 5 5 5 5 5 5 5 5 6 5 5 5 6 5 5 6 5 5 5 5 6 5 5 5 5 5 5 5 5 6 5 5 5 5 6 5 5 5 5 5 5 5 5 6 5 5 5 5 5 5 5 5 5 6 5 5 5 6 5 5 6 5 5 6 5 5 5 5 5 5 5 5 5 6 5 5 5 5 5 5 5 5 5 5 5 5 5 5 5 5 6 5 5 5 5 5 5 5 5 5 5 5 5 5 5 5 5 5 5 5 5 5 5 5 5 5 5 6 5 6 5 5 5 5 5 5 5 5 5 5 6 5 5 6 5 5 5 5 5 5 5 5 5 5 5 5 5 5 5 5 5 5 5 5 5 6 5 5 5 5 5 5 5 5 5 6 5 6 5 5 5 5 5 5 5 6 5 6 5 5 5 5 5 5 5 5 5 5 5 6 5 5 5 5 6 5 6 5 5 5 5 5 5 6 5 5 6 5 5 6 5 5 5 6 6 6 5 5 5 5 5 5 5 5 5 5 5 5 5 6 5 5 5 5 5 5 5 6 5 6 5 6 5 5 6 6 5 5 5 5 5 5 6 5 5 5 5 6 5 6 5 6 5 6 5 5 5 5 6 5 5 5 5 5 6 5 5 5 5 5 5 5 5 5 5 5 5 5 5 6 5 5 5 5 5 6 5 5 5 6 5 5 5 5 5 5 5 5 5 5 5 5 5 5 5 5 5 6 5 5 5 5 6 5 5 5 5 5 5 6 5 5 5 5 5 5 5 5 5 5 6 5 5 6 5 6 5 5 5 5 5 5 5 5 5 5 5 6 5 5 5 5 5 5 6 5 6 6 5 6 5 5 5 5 5 5 5 6 5 5 5 5 5 5 5 5 5 5 5 5 5 5 5 5 6 5 5 5 5 5 5 5 5 5 5 6 5 5 5 5 5 5 5 5 5 5 6 5 5 5 5 6 5 5 5 5 5 6 5 5 5 5 6 5 5 5 5 5 5 5 5 5 5 5 5 5 5 5 5 5 5 6 5 5 5 5 5 5 5 5 6 5 6 6 5 5 5 5 5 6 5 5 5 5 5 5 5 5 5 5 5 5 5 5 6 5 5 6 5 6 6 5 5 5 5 5 5 6 5 5 5 5 6 5 6 5 5 6 5 5 5 5 5 5 6 6 5 5 5 5 5 5 5 5 5 5 5 5 5 5 5 6 5 5 5 5 5 5 5 6 5 6 5 5 5 6 5 6 5 5 5 5 5 5 5 5 6 5 5 5 5 5 6 5 6 5 5 5 5 6 5 5 5 5 5 6 5 5 5 5 5 5 5 5 5 5 5 5 5 5 5 5 5 5 5 5 5 5 5 5 6 5 5 5 6 5 6 5 5 5 6 5 5 5 5 5 5 5 5 5 5 5 5 5 5 5 5 5 6 6 6 6 5 5 5 5 5 5 6 5 5 5 6 5 5 5 5 5 5 5 5 5 5 6 6 6 5 5 6 6 5 5 5 5 5 5 5 5 5 6 5 5 5 5 5 5 5 5 6 6 5 5 5 6 5 5 5 5 5 5 5 5 5 5 5 6 5 6 5 5 5 5 5 6 6 5 5 6 6 5 5 5 5 5 5 5 5 5 5 5 5 5 5 5 5 5 5 5 5 5 5 5 5 5 5 5 5 5 5 5 5 5 5 5 5 5 5 5 5 5 5 6 6 5 5 5 5 5 5 5 5 5 5 5 5 5 5 5 5 5 5 5 5 6 5 5 5 5 5 5 5 5 5 5 5 5 5 5 5 5 6 5 6 5 5 5 5 5 5 5 5 6 5 5 5 5 5 5 5 5 5 5 5 6 5 5 6 5 5 6 5 5 5 5 6 5 5 5 5 6 5 5 6 5 6 5 5 5 5 5 6 5 5 5 5 5 5 5 6 5 5 5 5 5 5 5 5 5 5 5 5 5 5 5 5 5 5 5 5 5 5 5 5 6 5 5 5 6 5 5 6 5 5 5 6 5 5 5 5 6 5 6 5 5 5 5 5 5 5 5 6 5 5 5 5 5 5 5 5 5 5 6 5 5 6 5 5 6 5 5 6 6 5 5 5 5 5 5 5 6 6 5 5 5 6 5 5 6 6 5 5 5 6 6 5 6 5 5 6 5 5 5 5 6 5 6 6 5 5 5 6 5 6 6 5 6 6 6 6 5 6 5 6 5 6 5 5 5 6 5 5 6 5 6 6 5 5 5 5 6 5 6 6 5 5 5 6 6 5 5 6 6 5 5 5 5 6 5 5 5 5 6 5 5 5 5 6 5 6 5 6 5 6 5 6 5 6 5 5 5 5 5 6 5 5 6 6 6 5 5 6 6 5 6 5 5 6 5 5 5 5 5 5 6 5 5 6 5 6 5 5 5 5 6 5 6 5 6 5 5 5 6 5 5 6 5 6 5 6 5 5 5 5 5 6 5 5 5 5 5 5 5 5 5 5 6 5 5 5 5 6 5 5 6 5 5 5 5 5 6 5 5 6 5 5 5 6 5 6 5 5 5 6 5 5 5 5 6 5 5 5 5 6 6 5 5 5 5 5 5 6 5 5 6 5 5 5 5 5 5 5 5 5 5 5 5 5 5 5 5 5 5 5 5 5 5 5 5 5 5 5 5 5 5 5 5 5 5 5 5 5 5 5 5 5 5 5 5 5 5 5 5 5 5 5 5 5 5 5 5 5 5 6 5 5 5 5 5 5 5 5 5 5 5 5 6 5 5 6 5 5 5 6 5 5 5 5 5 5 5 5 5 5 5 5 5 5 5 6 5 5 5 5 5 5 5 5 5 5 5 5 5 5 5 5 6 5 5 5 5 5 5 5 5 5 5 5 5 5 6 5 5 6 5 5 6 5 6 5 5 5 5 5 5 5 6 5 5 5 5 5 5 5 5 5 5 5 5 6 5 5 5 6 5 5 5 5 5 5 5 5 5 6 5 5 5 5 5 5 6 5 5 5 5 5 5 6 5 5 5 6 5 5 5 5 5 5 5 6 5 5 5 5 5 5 5 5 5 5 6 5 5 5 5 5 5 5 5 5 5 5 5 5 5 5 5 6 5 6 5 5 5 5 5 5 5 5 5 5 6 5 6 5 5 5 5 5 5 5 5 5 5 5 6 5 5 5 5 5 5 5 5 5 5 5 6 5 5 5 5 5 5 5 6 5 5 5 5 5 5 5 6 5 5 5 5 5 5 5 5 5 5 5 6 5 5 5 5 5 5 5 5 6 5 6 5 5 5 5 5 5 5 5 5 5 6 5 5 5 6 5 5 5 5 5 5 5 5 5 6 5 5 5 5 5 5 5 5 5 5 5 5 5 5 5 5 6 5 5 5 5 5 5 5 5 5 5 5 5 5 5 5 5 5 5 6 5 5 6 5 5 6 5 5 5 5 5 6 5 5 5 5 5 5 5 5 5 5 5 5 5 5 5 5 5 5 5 5 5 5 5 5 5 5 5 5 5 5 5 5 5 5 5 5 5 5 5 5 5 5 5 5 5 5 5 5 5 5 5 5 5 5 5 5 5 5 5 6 5 5 6 5 5 5 5 5 5 5 5 5 5 5 5 5 5 5 5 5 5 5 5 5 5 5 5 6 6 5 5 5 5 5 5 5 5 5 5 5 5 5 5 5 5 6 6 5 5 5 5 5 5 5 6 5 6 5 5 6 6 5 5 5 5 5 5 5 5 5 5 5 6 5 6 5 5 5 6 5 5 5 6 5 6 5 5 5 5 5 6 6 5 5 5 5 5 5 5 5 5 5 5 5 5 5 5 5 5 5 5 5 5 5 5 5 5 5 5 5 5 5 5 5 5 5 5 5 5 5 5 5 5 5 5 5 5 5 5 5 5 5 5 5 5 5 5 5 5 5 5 5 5 5 5 5 5 5 5 5 5 5 5 5 5 5 5 5 5 5 5 5 5 5 5 5 5 5 5 5 5 5 5 5 5 5 5 5 5 5 5 5 5 5 5 5 6 6 5 6 5 6 5 5 6 5 5 5 5 6 5 5 5 5 5 5 5 6 6 6 5 5 5 5 5 6 6 5 5 5 5 5 5 5 5 5 5 5 5 5 5 5 5 5 5 5 5 5 5 5 5 5 5 5 5 5 5 5 5 5 5 6 5 5 6 5 5 5 5 5 5 5 5 5 5 5 6 5 5 5 5 5 5 5 6 5 5 5 5 5 5 5 5 5 5 5 5 5 5 5 5 6 5 5 6 5 5 5 5 5 5 5 5 5 5 5 5 5 5 5 5 5 5 5 5 5 5 5 6 5 5 6 5 5 6 5 5 5 5 5 5 5 6 5 5 5 5 5 5 6 5 5 6 5 5 5 5 6 5 6 5 5 6 5 5 5 5 6 5 6 5 5 6 5 5 5 5 5 5 5 5 5 5 5 5 6 5 5 5 6 5 5 6 5 5 5 5 6 5 5 5 5 5 5 5 5 5 5 6 5 5 5 5 5 5 5 5 5 5 6 5 5 5 5 5 5 5 5 5 5 5 5 6 5 5 6 5 5 5 5 5 5 5 5 5 5 6 5 5 5 5 5 6 5 6 6 5 5 6 5 5 5 5 5 5 5 5 5 6 6 5 5 5 5 5 5 6 5 5 5 5 5 5 5 5 5 5 5 5 5 5 5 5 5 5 5 5 5 5 5 5 5 6 5 5 5 5 5 5 5 5 5 5 5 5 5 5 5 5 5 5 5 5 5 5 5 5 5 5 5 5 5 5 5 5 5 5 5 5 5 5 5 5 6 5 5 5 5 5 5 5 5 5 5 6 5 5 5 6 5 6 5 5 5 6 5 5 5 6 5 6 5 6 5 6 6 5 5 6 5 5 5 6 5 5 5 5 5 6 5 5 5 5 6 5 5 5 6 5 5 5 5 6 5 6 5 5 5 5 5 5 5 5 5 5 5 5 5 5 6 5 5 5 5 6 5 5 6 5 5 6 6 5 5 6 5 6 5 5 5 6 6 6 6 5 5 6 5 5 5 5 6 5 6 5 5 6 6 6 5 6 5 5 6 6 6 5 5 5 5 5 5 5 5 5 6 6 5 5 5 5 6 6 5 5 5 6 5 6 5 5 5 5 5 5 5 5 5 5 5 6 5 5 5 5 5 5 5 5 5 5 5 5 5 5 5 5 5 5 5 5 5 5 5 6 5 5 5 5 5 5 5 5 5 5 5 5 5 5 5 5 6 5 5 6 5 5 5 5 5 5 5 5 5 6 5 5 5 6 6 5 5 6 5 5 5 5 5 6 5 6 5 5 5 6 5 5 5 5 5 5 5 6 5 5 6 5 5 5 5 6 5 5 5 6 6 5 5 6 5 5 5 6 5 5 5 5 5 5 5 6 5 5 6 5 6 6 6 5 6 5 6 6 5 5 5 5 5 5 6 5 5 6 5 5 5 5 5 5 5 5 5 5 5 5 5 5 5 5 5 5 5 5 5 5 5 5 5 5 5 5 5 5 5 5 5 5 5 6 6 5 5 5 5 5 5 5 5 6 6 6 6 5 5 6 5 5 5 5 5 5 5 5 6 5 5 6 5 5 5 6 5 5 5 5 6 5 5 5 5 5 5 5 5 5 5 5 5 5 5 6 5 5 5 5 5 6 5 5 5 5 5 5 5 5 6 5 5 5 6 6 5 5 6 6 5 5 5 5 5 6 5 5 5 5 5 5 6 5 6 5 5 5 5 5 5 5 5 6 6 5 6 6 6 5 6 5 5 5 5 5 5 6 5 5 5 5 5 5 5 6 5 5 5 5 5 5 5 5 5 5 5 5 5 5 5 5 5 5 5 5 5 5 5 5 5 5 5 5 5 5 5 5 5 5 5 5 5 5 5 5 5 5 5 5 5 5 5 5 5 5 5 5 5 5 5 5 5 6 5 5 5 5 5 5 5 6 5 5 6 5 5 5 6 5 6 5 5 6 5 5 5 5 5 5 5 6 5 5 5 6 5 5 5 5 5 5 5 6 5 6 5 5 5 5 5 5 5 5 5 5 5 5 5 5 5 5 5 5 5 5 5 5 5 5 5 6 6 5 6 5 5 5 5 5 5 5 6 5 6 5 6 6 6 5 5 6 5 5 6 5 5 5 6 5 5 5 5 5 5 5 6 6 5 5 6 5 5 5 6 5 5 5 5 6 5 6 5 5 5 5 5 5 6 5 6 5 5 5 5 5 6 5 5 6 5 5 5 5 5 5 5 5 5 5 5 5 5 5 5 5 6 5 5 6 6 5 6 5 5 5 5 5 5 5 5 6 5 5 5 5 5 5 5 5 5 5 5 5 5 5 5 5 6 5 5 5 6 5 5 6 5 5 5 5 5 5 6 5 5 5 5 5 5 5 5 5 5 5 5 5 5 5 5 5 5 5 6 6 5 5 5 5 5 5 5 6 5 5 5 6 5 5 6 5 6 5 5 6 5 6 6 5 6 5 6 5 6 5 5 5 5 5 5 5 5 5 5 5 5 5 5 5 6 6 5 5 5 5 5 5 5 6 5 5 5 5 5 5 5 5 5 5 5 5 5 5 5 6 5 6 5 5 5 5 5 5 6 5 5 5 6 5 5 5 6 5 5 5 5 5 5 5 5 5 5 5 5 5 5 5 5 5 5 5 5 5 6 5 5 5 5 6 5 5 5 5 5 6 5 5 5 6 5 5 5 5 5 5 5 5 5 5 5 5 6 5 5 5 5 6 5 5 5 5 5 5 5 5 6 5 5 5 5 5 5 5 6 5 5 5 5 6 5 5 5 5 5 5 5 5 6 5 5 5 5 5 5 5 5 5 6 5 5 5 5 5 5 5 5 5 5 5 5 5 5 5 5 5 5 5 5 5 5 5 5 5 5 5 5 6 5 5 5 5 5 5 5 6 5 5 5 5 5 5 5 5 5 5 5 5 5 5 5 5 5 5 5 5 5 5 5 5 5 5 5 5 5 6 5 5 5 5 5 5 5 5 5 5 5 5 5 5 5 5 5 5 5 5 5 5 5 5 5 5 5 5 5 5 5 5 6 5 5 6 5 5 5 5 6 5 5 6 5 5 5 5 6 5 5 5 6 5 5 5 6 5 5 5 5 5 5 5 5 5 5 6 5 5 6 5 5 5 5 5 5 6 5 5 5 5 5 6 5 5 5 5 6 5 5 5 5 5 5 5 5 5 5 6 5 5 5 5 5 5 5 5 5 6 5 5 5 5 5 5 5 5 5 5 5 5 5 6 5 5 5 5 5 5 5 6 5 5 5 5 5 6 5 5 5 5 5 5 5 5 5 5 5 5 5 5 6 5 5 5 5 5 5 5 5 6 5 5 5 5 5 5 5 5 5 5 5 5 5 5 5 5 5 5 5 5 5 5 5 5 5 5 5 5 5 5 5 5 5 6 5 5 5 5 6 6 5 5 6 5 5 6 5 5 6 5 5 5 5 5 5 5 5 5 5 5 5 5 5 5 5 5 5 5 6 5 5 5 5 6 5 5 5 5 5 5 5 5 5 5 5 5 5 5 5 5 5 5 5 5 5 5 5 5 5 5 5 5 5 5 5 5 5 5 5 5 5 5 5 5 5 5 5 5 5 5 5 5 5 5 5 5 5 5 5 5 5 5 5 5 5 5 5 5 5 5 5 5 5 5 5 6 5 5 5 5 6 5 6 5 5 6 5 5 5 5 6 5 5 6 5 5 5 5 5 5 5 5 5 5 5 5 5 5 5 5 5 5 5 5 5 5 5 5 5 5 5 5 5 5 5 5 5 5 5 5 5 5 5 5 5 5 5 5 5 5 5 5 5 5 5 5 5 5 5 5 5 5 5 5 6 5 5 5 5 5 5 5 5 5 6 5 5 5 5 5 5 5 6 5 5 5 5 5 5 5 5 5 5 5 5 5 5 5 5 5 5 5 6 6 5 5 6 5 6 5 5 5 5 5 5 5 5 5 5 5 5 5 5 5 5 5 5 5 5 5 5 5 5 5 5 5 5 5 5 5 5 5 5 5 5 5 5 5 5 5 5 5 5 5 5 5 5 5 5 5 5 5 5 5 6 6 5 5 5 5 5 5 5 5 5 5 5 5 5 5 5 5 5 5 5 5 6 5 5 5 5 5 5 5 5 5 5 6 5 5 5 6 5 5 5 5 5 5 6 5 5 5 5 5 5 5 5 5 5 5 5 5 6 5 5 5 5 5 5 6 6 5 6 5 5 6 5 5 5 6 5 5 5 6 5 5 5 5 5 6 5 6 5 5 5 5 6 5 5 5 5 6 5 6 5 5 6 6 5 5 5 5 5 6 5 5 5 5 5 6 6 6 5 6 5 6 5 5 5 5 5 6 5 5 5 5 5 5 5 5 6 6 5 5 6 5 5 5 5 6 5 5 6 5 5 6 5 5 5 5 5 5 5 5 5 6 5 5 5 5 5 5 5 5 6 5 5 5 5 5 5 5 5 5 6 6 5 5 5 5 5 5 5 5 5 5 5 5 5 5 5 5 5 5 5 5 5 5 5 5 5 5 5 5 5 5 5 5 5 5 5 6 5 5 5 5 6 5 5 5 5 5 5 5 5 5 5 5 5 5 5 5 5 6 6 5 5 5 5 5 5 5 5 5 6 5 5 5 5 6 5 5 6 5 5 5 5 5 5 5 5 5 5 5 5 5 6 5 5 5 5 5 5 5 5 5 5 5 5 5 5 5 5 5 5 5 5 5 5 5 5 5 6 5 5 5 5 5 6 5 5 5 6 5 5 5 6 6 5 5 5 5 5 5 5 5 5 5 5 5 5 5 6 5 5 5 6 5 5 5 5 6 6 5 5 5 5 5 5 5 5 5 5 5 5 5 5 5 5 5 5 5 5 5 5 5 6 5 5 5 5 5 5 5 5 5 6 5 5 5 5 6 5 6 5 5 5 5 6 5 5 5 5 5 5 5 5 5 5 5 5 5 5 5 6 5 5 6 5 5 5 5 5 5 5 5 5 5 6 6 5 5 5 5 6 5 5 5 6 5 5 5 5 6 6 5 6 5 6 5 6 5 5 6 5 5 6 5 5 6 5 5 5 6 5 5 6 5 6 5 6 5 5 6 5 5 5 5 5 5 5 5 5 5 5 5 5 6 5 5 5 5 5 5 5 5 5 5 5 5 5 5 5 5 6 6 5 5 5 5 5 6 5 5 5 5 6 5 5 6 5 5 5 5 6 5 5 5 5 5 5 5 5 5 5 5 5 5 5 5 5 5 5 5 5 5 5 5 5 5 5 5 5 5 5 5 5 5 5 5 5 5 5 6 5 5 5 5 5 5 5 5 5 5 5 5 5 6 5 6 5 5 5 5 6 5 5 5 5 5 5 5 5 5 5 5 5 5 5 5 5 5 5 6 5 6 5 5 6 5 5 5 6 5 5 5 5 5 5 5 5 5 5 5 5 5 5 5 5 5 5 5 5 5 5 5 5 5 5 5 6 5 5 6 5 5 5 5 5 5 5 5 5 5 5 5 5 5 5 5 5 5 5 5 5 5 5 5 5 5 5 5 5 5 5 5 5 5 5 6 5 6 5 5 5 5 5 5 5 5 5 5 5 5 5 5 5 5 5 6 6 5 5 5 5 5 6 5 5 5 5 6 5 5 5 5 6 5 5 5 5 5 5 5 5 5 5 5 5 5 5 5 5 5 5 6 5 5 5 5 5 5 6 5 5 6 5 5 5 5 5 5 5 5 5 5 5 5 6 5 5 6 5 5 5 5 5 5 5 5 6 5 5 5 5 5 5 6 5 5 6 5 5 5 5 5 5 5 5 5 5 5 5 5 5 5 5 5 5 5 5 5 5 5 5 5 5 5 5 5 5 5 5 5 5 5 5 6 5 5 5 6 5 5 6 5 5 5 5 5 5 6 5 5 5 5 5 6 5 5 5 5 5 5 6 5 5 5 5 6 5 6 5 5 6 5 5 5 6 5 5 5 5 5 5 5 5 5 5 5 5 5 6 5 5 5 5 5 5 5 5 5 5 5 5 5 5 5 5 5 5 5 5 5 5 5 5 6 5 6 5 6 5 6 5 5 5 5 6 5 5 5 5 6 5 5 5 5 5 5 5 5 5 5 5 5 5 5 6 5 5 5 6 5 5 5 6 5 5 6 5 5 5 6 5 5 5 5 6 5 5 5 5 6 5 5 5 5 5 5 5 5 5 5 6 5 5 5 5 5 6 5 6 5 5 5 5 5 6 6 5 5 6 5 6 5 5 6 5 5 5 5 5 5 5 5 5 5 5 5 5 6 5 5 5 5 5 6 5 5 5 5 5 5 5 5 5 5 6 5 6 5 5 6 5 5 6 5 6 5 6 5 5 5 5 5 6 6 5 5 5 5 5 5 5 5 5 5 5 6 5 5 5 5 5 6 5 5 5 6 5 6 5 5 5 5 5 5 5 5 5 5 5 5 5 5 5 6 5 5 5 5 6 5 5 5 5 5 5 5 5 5 5 5 5 5 5 5 5 5 5 5 5 5 5 5 6 5 5 6 5 5 5 5 5 5 5 6 5 5 6 5 6 5 5 5 5 5 5 5 5 5 6 5 5 6 5 5 5 6 5 5 5 5 5 5 5 6 5 5 5 5 6 6 5 5 5 5 5 5 5 5 5 6 5 5 5 5 5 5 5 5 5 5 5 5 5 5 5 5 6 5 6 5 5 5 6 5 5 5 5 5 5 5 5 5 5 5 5 5 6 5 5 5 5 5 6 5 5 5 6 6 5 5 5 6 5 5 6 5 5 5 5 6 6 5 5 5 6 5 5 6 5 5 5 5 6 5 6 5 5 5 6 5 5 5 5 5 5 5 5 5 5 5 5 5 5 5 5 5 5 5 5 5 6 5 5 5 5 5 5 5 5 5 6 5 5 5 6 5 6 5 5 5 5 5 5 5 5 5 5 5 6 5 5 5 5 5 6 5 5 5 5 5 6 5 5 5 5 5 5 5 5 5 5 5 5 5 5 5 5 6 5 5 5 5 5 5 5 5 5 6 5 5 5 5 5 5 5 5 5 5 5 5 5 5 5 6 5 5 5 5 5 5 5 5 5 5 5 5 5 5 5 5 5 5 5 5 5 5 5 5 5 5 5 5 5 6 5 5 5 5 6 5 6 6 5 5 5 5 5 5 6 5 6 5 5 5 6 5 5 6 5 5 5 5 5 5 6 5 5 5 5 5 5 5 6 5 5 5 5 6 5 5 5 5 5 5 6 5 5 5 5 5 5 5 5 5 5 5 5 6 5 6 5 5 5 5 5 5 5 6 6 5 5 5 5 5 5 5 5 6 5 5 5 6 5 5 6 5 5 5 5 5 5 5 5 5 5 5 5 5 5 5 5 5 5 5 5 5 5 5 5 5 6 5 5 6 5 5 5 5 5 6 5 5 6 5 6 5 5 5 6 5 5 5 5 6 5 5 6 6 5 5 5 5 5 6 5 5 6 5 5 5 5 5 6 5 5 5 5 5 5 5 5 5 6 5 5 5 5 6 5 5 5 5 5 5 6 5 6 5 5 5 6 5 6 5 5 6 5 6 5 5 5 6 5 5 5 5 5 5 5 5 5 5 5 5 5 6 5 5 5 5 6 5 5 5 5 5 5 6 5 5 5 5 5 5 5 6 5 5 5 5 5 5 6 5 5 5 5 5 5 5 6 5 5 6 5 5 5 5 5 5 5 5 5 6 6 5 5 5 5 5 5 5 5 5 5 5 5 6 5 5 5 5 5 5 5 6 5 5 5 6 5 6 5 5 6 5 5 5 5 5 6 5 5 5 6 5 5 5 5 6 5 5 5 6 5 5 5 5 5 5 5 6 5 5 6 5 5 5 6 5 5 5 6 5 5 5 5 6 5 5 5 6 5 5 5 5 5 5 5 5 5 6 5 5 5 5 5 5 5 5 5 6 5 5 5 5 6 5 5 6 5 5 5 5 5 5 5 5 5 5 5 5 5 5 5 5 5 5 5 5 5 5 5 5 5 5 6 5 5 5 5 5 5 5 5 5 5 5 6 5 5 5 6 5 5 5 5 5 5 6 5 5 5 5 5 5 5 5 5 5 5 5 5 5 5 5 5 5 5 5 5 5 5 5 5 5 6 5 6 5 5 6 6 5 5 5 5 5 5 5 5 5 5 5 5 5 5 5 5 5 6 5 5 5 5 5 5 5 5 5 5 5 5 5 5 5 5 5 5 5 5 5 5 5 5 5 5 5 5 5 5 5 5 5 5 5 5 5 5 5 5 5 5 5 5 5 5 5 5 5 5 5 5 5 5 5 5 5 5 5 5 5 6 5 5 6 5 5 5 5 6 5 5 5 5 5 5 5 5 5 5 6 5 6 5 5 5 6 5 5 5 6 5 6 5 5 5 6 5 6 5 6 5 5 5 6 5 5 5 5 6 5 6 5 5 5 5 5 6 5 6 6 5 5 5 5 5 5 6 5 5 5 6 5 5 5 5 5 5 5 5 5 5 5 5 5 5 5 5 5 5 5 6 5 5 5 6 6 5 5 5 5 5 6 5 5 5 5 5 5 5 5 5 5 5 5 5 5 6 5 5 6 5 6 5 5 5 6 5 6 5 5 6 5 5 5 5 5 5 5 5 5 5 5 6 5 5 5 5 5 5 5 5 5 5 6 6 5 5 5 5 5 5 5 6 5 5 5 5 5 5 5 5 5 5 5 5 5 5 6 5 5 5 5 5 5 5 5 5 5 6 5 5 5 6 5 6 6 5 5 5 5 5 5 5 5 6 5 5 5 5 5 5 5 5 5 6 5 6 5 6 5 5 5 5 5 5 5 5 6 5 6 5 5 5 5 5 5 6 5 5 6 5 6 5 5 5 5 5 5 5 5 5 5 5 5 5 5 6 5 5 5 5 5 5 5 5 5 5 6 5 5 5 5 5 5 6 5 5 5 5 5 5 5 5 5 5 5 5 5 5 5 5 5 5 5 5 5 5 5 5 5 6 5 5 5 5 5 6 5 5 5 5 5 5 5 5 5 5 5 6 5 5 5 5 6 5 5 5 5 5 6 5 5 5 5 5 6 5 5 6 5 5 5 5 5 5 5 5 5 5 5 5 5 5 5 5 5 5 5 5 5 5 5 5 5 5 6 5 5 6 5 5 5 5 5 5 5 5 5 5 5 5 5 5 5 6 5 5 5 5 5 5 5 5 5 6 5 5 5 5 5 5 5 6 5 5 5 5 5 6 5 5 5 5 5 5 6 5 5 5 5 6 5 5 5 5 5 5 5 6 5 5 6 5 5 6 5 5 5 5 6 5 5 5 5 5 5 5 5 6 5 5 6 5 5 5 5 5 5 5 5 5 6 5 5 5 5 5 6 5 5 5 5 6 5 5 5 6 5 5 5 5 5 5 5 5 5 5 5 6 6 5 5 5 5 5 5 5 5 5 5 5 6 5 5 5 5 5 6 5 6 6 5 6 6 5 5 6 5 5 5 5 5 5 6 5 6 6 5 5 5 5 5 6 5 5 5 5 5 5 5 5 6 5 5 5 5 6 5 5 5 5 5 6 5 5 6 5 5 5 5 5 5 5 6 5 6 5 5 5 5 5 5 5 6 6 5 5 5 5 5 5 5 6 5 5 5 5 5 5 6 5 5 5 5 5 5 5 5 5 5 5 5 5 5 6 5 5 6 5 5 5 5 6 5 5 5 5 6 5 5 5 5 5 5 6 5 5 5 5 5 5 5 6 5 5 5 6 5 5 5 5 6 5 5 6 5 5 5 5 5 5 5 6 5 5 5 5 6 5 6 5 5 5 5 5 5 5 5 5 5 5 5 5 5 6 5 5 5 5 5 5 5 6 5 5 6 5 5 6 5 5 5 5 5 5 5 5 5 6 5 5 5 6 5 5 5 5 5 5 5 5 5 6 5 5 5 5 5 5 5 5 5 5 5 6 5 5 5 6 5 5 5 5 5 5 5 5 5 5 5 6 5 5 5 5 5 5 5 5 5 5 6 5 5 5 5 5 6 5 5 5 5 5 5 5 5 6 5 5 6 5 5 6 5 5 5 5 6 6 5 5 5 5 6 5 5 5 5 6 5 5 6 5 5 5 5 6 5 5 6 5 5 5 5 5 6 5 5 5 5 5 5 5 5 6 5 6 5 5 5 5 5 5 5 5 5 6 6 5 5 5 5 5 5 6 5 5 6 5 5 6 5 6 5 5 5 6 5 5 6 5 5 5 5 5 5 5 5 6 6 5 5 6 6 5 5 5 5 6 5 5 5 6 5 6 5 6 6 6 5 6 5 5 5 6 5 5 5 5 5 5 5 5 5 6 5 5 6 5 5 5 5 5 5 6 5 5 5 5 5 5 6 6 6 5 5 5 5 5 5 5 5 5 5 5 6 5 5 5 5 6 5 5 5 5 5 5 5 5 6 5 5 6 5 5 5 6 5 5 5 5 5 5 5 5 5 6 5 5 5 5 5 5 5 5 6 5 5 5 6 5 5 6 5 5 5 6 5 6 5 5 6 5 6 5 5 6 5 5 5 5 5 5 6 5 5 6 5 5 5 5 5 5 5 5 5 5 5 5 5 5 5 5 5 5 5 5 5 5 5 5 5 5 5 5 5 5 5 5 5 5 5 5 5 5 5 5 5 5 5 5 5 5 5 5 5 5 5 5 5 5 5 5 5 5 5 5 5 5 5 5 5 5 5 5 5 5 5 5 5 5 5 5 5 5 5 5 5 5 5 5 5 5 5 5 5 5 5 5 5 5 5 5 6 5 5 5 5 6 5 5 5 5 5 5 5 5 5 5 5 5 6 6 5 5 5 5 5 5 5 5 5 5 5 5 5 5 5 6 5 5 5 6 5 5 5 5 5 5 5 5 5 5 6 5 6 5 5 5 5 5 5 5 5 5 5 5 5 5 5 5 5 5 5 5 5 5 5 5 5 6 5 5 5 5 6 5 5 5 5 5 5 5 5 6 5 5 5 5 5 5 5 5 5 5 5 5 5 5 5 5 5 5 5 5 5 5 5 5 5 5 5 5 5 5 5 5 5 5 5 5 5 5 5 5 5 5 5 5 5 5 5 5 5 6 5 5 5 5 5 5 5 5 5 5 5 5 5 5 5 5 5 5 5 5 5 5 5 5 5 5 5 5 5 5 5 5 6 5 5 5 5 5 5 6 5 5 5 5 5 5 6 5 5 6 5 6 5 6 5 5 5 5 6 5 5 5 5 5 6 5 5 5 6 6 5 5 5 6 5 5 5 5 6 6 5 5 5 5 5 5 5 5 5 5 5 5 5 5 6 5 5 6 5 5 6 6 5 5 5 5 5 5 5 5 5 5 6 5 6 5 5 5 5 5 5 5 5 5 5 5 6 5 5 5 5 5 5 5 6 5 5 5 5 5 5 5 5 5 5 5 5 5 5 5 5 5 5 6 6 5 5 5 5 5 5 5 5 5 5 5 5 5 5 5 5 5 6 5 5 5 5 5 5 5 5 5 6 5 5 5 5 5 5 5 5 5 5 5 5 6 5 5 5 5 6 5 6 5 5 5 5 5 5 5 5 5 6 5 5 5 5 6 5 5 5 5 6 5 6 5 5 5 5 5 5 5 5 5 5 5 5 6 5 5 5 5 5 5 5 5 5 5 5 5 5 5 5 6 5 6 5 5 6 5 5 5 6 5 6 5 5 6 5 5 6 5 6 5 5 5 5 5 5 5 6 6 5 5 5 5 6 6 5 5 6 6 5 6 5 5 6 6 5 5 6 5 5 6 5 5 5 5 5 5 5 5 6 5 5 6 5 6 5 5 5 6 5 5 5 5 5 5 5 5 6 5 5 5 5 5 5 5 5 5 5 5 5 5 5 5 5 5 5 5 5 5 5 6 5 5 5 5 5 5 5 5 5 5 5 5 5 5 5 5 5 5 
</DataArray>
<DataArray type="Float64" Name="stress" NumberOfComponents="9" format="ascii">
1935.4481932588023 -4319.5303186034653 0 -4319.5303186034653 0.45629672989161918 0 0 0 0 -0.31361042031494435 -4202.5054683166163 0 -4202.5054683166163 3105.8152429756301 0 0 0 0 380.98683823471947 -3538.9469426472442 0 -3538.9469426472442 4245.529366190196 0 0 0 0 592.5906554698231 -3877.0041554535346 0 -3877.0041554535346 1752.7642783883493 0 0 0 0 197.07437801992637 -2129.2781086665418 0 -2129.2781086665418 2649.7268431147531 0 0 0 0 -205.79038570043485 -2640.5567736538214 0 -2640.5567736538214 6061.6496601487597 0 0 0 0 0.55358658687410767 0.097435299831264643 0 0.097435299831264643 0.76897909423562005 0 0 0 0 582.11557579804503 -592.67119395705959 0 -592.67119395705959 859.30158445559209 0 0 0 0 2532.4439523890323 -1703.727804542068 0 -1703.727804542068 -509.54447128043103 0 0 0 0 118.12343283195514 -910.28961220702331 0 -910.28961220702331 998.10227433787804 0 0 0 0 1.2263680685519311 0.29257749562047053 0 0.29257749562047053 0.57637110453463603 0 0 0 0 6590.1642594082805 -1660.5827356469308 0 -1660.5827356469308 -735.82072253743536 0 0 0 0 -933.56215255850111 -1178.6694845467864 0 -1178.6694845467864 -84.11223281378625 0 0 0 0 218.89164961484494 509.90360937654623 0 509.90360937654623 -66.165519056259654 0 0 0 0 1.8812481203773253 -0.37047328136015167 0 -0.37047328136015167 -0.16892524344993198 0 0 0 0 4035.5128926015896 -2158.480834473703 0 -2158.480834473703 2087.9158842699167 0 0 0 0 1462.3016786294902 -4354.8569788241948 0 -4354.8569788241948 1998.4912009106047 0 0 0 0 3870.8356845831768 -4139.3386953468162 0 -4139.3386953468162 2767.5668102088384 0 0 0 0 1724.6358460670308 -1823.6054400414578 0 -1823.6054400414578 269.51929778624617 0 0 0 0 1769.6908118946594 -812.87808462142129 0 -812.87808462142129 3.1094802419029293 0 0 0 0 2405.8286828510609 -823.12479472840641 0 -823.12479472840641 276.05588661482034 0 0 0 0 0.16935494595422185 -0.28771310617383161 0 -0.28771310617383161 0.13290483754779103 0 0 0 0 5.23205636767592 -1.2580673446165864 0 -1.2580673446165864 -0.58508835506471257 0 0 0 0 269.3176057873934 -129.3624975736966 0 -129.3624975736966 -759.39041638730487 0 0 0 0 -12.491964253065817 1.1884512907927274 0 1.1884512907927274 146.49814888830588 0 0 0 0 -32.644063226129219 -30.389828815204964 0 -30.389828815204964 -21.394316102640005 0 0 0 0 30.997062859474681 -46.484915437584277 0 -46.484915437584277 63.01333058232558 0 0 0 0 0.028040046244832695 -0.14350409039104584 0 -0.14350409039104584 0.070933468226058949 0 0 0 0 7.6865167790398417 -4.073942807900524 0 -4.073942807900524 1.9803466085376797 0 0 0 0 0.38317170026130043 -1.866650956653757 0 -1.866650956653757 -0.0915645097666129 0 0 0 0 0.84867986274685947 -3.6632246677590423 0 -3.6632246677590423 1.6869002656769618 0 0 0 0 4.354013764058795 -3.9964012811539602 0 -3.9964012811539602 -0.29027745294564511 0 0 0 0 1.0611434509337414 -7.4820017139209085 0 -7.4820017139209085 -2.5018394283542875 0 0 0 0 4.5724920832557308 -2.286403323956975 0 -2.286403323956975 2.3164862867382041 0 0 0 0 -16.883535003842553 13.040447645944369 0 13.040447645944369 2.7790506195451599 0 0 0 0 16.729970404750929 -43.812162733182049 0 -43.812162733182049 -37.900544406817062 0 0 0 0 -11.139057552136364 -2.2809342428954551 0 -2.2809342428954551 5.4476839197450317 0 0 0 0 9.2344174242555859 -6.1340936014160805 0 -6.1340936014160805 -2.3585373031498307 0 0 0 0 -41.027665071072988 -605.60434523127333 0 -605.60434523127333 -119.98993234657974 0 0 0 0 -852.34061133556679 242.176037139041 0 242.176037139041 683.80153838073602 0 0 0 0 0.93895408102359923 -0.29472604389981782 0 -0.29472604389981782 -0.58134076140712665 0 0 0 0 -7.7014573047345039 79.841162759585131 0 79.841162759585131 -44.048903600720223 0 0 0 0 442.26056293299189 144.49329633649904 0 144.49329633649904 -123.13501171971438 0 0 0 0 -26.555819345376221 -32.373169599704852 0 -32.373169599704852 12.544044731286704 0 0 0 0 5.6699550816847477 -20.763287542678881 0 -20.763287542678881 -28.506680005521048 0 0 0 0 -19.254508244863246 -10.312018565629842 0 -10.312018565629842 73.935559892401216 0 0 0 0 77.789651833096286 -95.362832840037299 0 -95.362832840037299 48.642721846670611 0 0 0 0 210.66146773778019 94.729024329786625 0 94.729024329786625 -1286.9764248221618 0 0 0 0 0.6228217691954967 0.24954086371112894 0 0.24954086371112894 0.25517749696989966 0 0 0 0 1634.1965919346549 1579.2579917124385 0 1579.2579917124385 -2452.7719639080024 0 0 0 0 1600.7640511775244 -847.34420975249668 0 -847.34420975249668 -69.892630545451539 0 0 0 0 278.81543864519335 -1541.4643692769605 0 -1541.4643692769605 2546.308039780939 0 0 0 0 66.987530717160553 -118.58764064626303 0 -118.58764064626303 1375.9213064060314 0 0 0 0 367.87523261507158 109.2195797318127 0 109.2195797318127 -297.1934597220461 0 0 0 0 675.91074827325065 -740.84859984742798 0 -740.84859984742798 486.00283805643267 0 0 0 0 -116.24858508113539 412.0474123205131 0 412.0474123205131 72.73751422411533 0 0 0 0 13.604848535454948 -0.36205339862499386 0 -0.36205339862499386 -1.791694416286191 0 0 0 0 4.0259869606349099 -4.0723794790290029 0 -4.0723794790290029 3.3921955584508714 0 0 0 0 11.56618490551773 -8.4085212284744557 0 -8.4085212284744557 4.6393193481926573 0 0 0 0 -7.4525021524896147 -8.502638522109919 0 -8.502638522109919 -2.1799440783652244 0 0 0 0 -4.3696566689887959 -7.9073392123619897 0 -7.9073392123619897 7.4118028379535801 0 0 0 0 -123.26414305187063 121.09368661370536 0 121.09368661370536 -143.63604271911026 0 0 0 0 5.6234341168708113 -6.0503569753891568 0 -6.0503569753891568 2.6947700809923729 0 0 0 0 -717.81448071177874 22.390032176015666 0 22.390032176015666 154.46765940354089 0 0 0 0 -0.46004964658317249 -0.068041191744461216 0 -0.068041191744461216 0.27368698102282707 0 0 0 0 12.547853382478934 -7.2302737298377906 0 -7.2302737298377906 8.5352260851068422 0 0 0 0 0.4052076526578734 -7.8674788651360235 0 -7.8674788651360235 2.6951292587137416 0 0 0 0 16.286974520597141 -4.3681602752694744 0 -4.3681602752694744 0.42027260680333711 0 0 0 0 14.796941697975853 -10.158914778265171 0 -10.158914778265171 1.6875339972903021 0 0 0 0 17.378599887480959 -6.437654615365318 0 -6.437654615365318 -9.9782739285728894 0 0 0 0 17.018305335355763 -9.1923828484823389 0 -9.1923828484823389 -11.033986014619586 0 0 0 0 22.081302814811352 -36.96025951401316 0 -36.96025951401316 -57.516683461632056 0 0 0 0 10.415296739643964 -39.749650907524483 0 -39.749650907524483 41.128971771584474 0 0 0 0 19.015371970366687 -37.775374358498084 0 -37.775374358498084 -4.2388918768892836 0 0 0 0 6.9275848875404336 2.141855637950357 0 2.141855637950357 -7.6563948406510463 0 0 0 0 15.154289877202245 -0.16975879384335713 0 -0.16975879384335713 -9.5420840433362173 0 0 0 0 25.392050753929652 -13.781304220567108 0 -13.781304220567108 -8.8526663169759559 0 0 0 0 21.311069676565239 1.6667765233360115 0 1.6667765233360115 -56.419198148301803 0 0 0 0 61.395500789687503 -9.932794699765509 0 -9.932794699765509 -57.818358097952114 0 0 0 0 -5.8916313988156617 31.160038466470724 0 31.160038466470724 -49.528866691369331 0 0 0 0 -8.2267972907575313 -0.43381570368364919 0 -0.43381570368364919 6.8561048939664033 0 0 0 0 17.999433684075484 -5.0684504347518669 0 -5.0684504347518669 -9.2884044477177667 0 0 0 0 8.6080172552319709 -9.0717738812891184 0 -9.0717738812891184 -2.4249475522956345 0 0 0 0 1.7354081378610999 -1.175450094937764 0 -1.175450094937764 -1.5778947453778258 0 0 0 0 -12.418389501690399 -21.327002383230138 0 -21.327002383230138 -78.900002554364619 0 0 0 0 20.138322909297131 -1.360312769014854 0 -1.360312769014854 -4.9640552523778751 0 0 0 0 -87.512953100405866 18.151103034586413 0 18.151103034586413 -96.552380442933895 0 0 0 0 33.398697168391664 -93.24070445918187 0 -93.24070445918187 -161.83898163855338 0 0 0 0 -60.842969962628558 -114.41184707701905 0 -114.41184707701905 -126.41675887390738 0 0 0 0 0.05940272068255581 -90.329756056162296 0 -90.329756056162296 -138.00085561505693 0 0 0 0 27.166413352664676 -46.623983827841585 0 -46.623983827841585 -78.339408912448562 0 0 0 0 19.868418610451045 -71.905270567069238 0 -71.905270567069238 -188.99415367671463 0 0 0 0 0.24050667556985061 -0.70409273507208781 0 -0.70409273507208781 2.9666913976340314 0 0 0 0 -49.052204728504876 -52.5047030890928 0 -52.5047030890928 3.8737528374767862 0 0 0 0 23.063394738230272 -53.720819868403851 0 -53.720819868403851 -90.195510461984668 0 0 0 0 0.49675665579100325 -0.91761678591998752 0 -0.91761678591998752 2.8687562538318492 0 0 0 0 0.029657313215301073 -0.3639688705559081 0 -0.3639688705559081 0.54958813300055809 0 0 0 0 1092.6101400639163 -946.22198523939005 0 -946.22198523939005 733.19615531954332 0 0 0 0 254.95171752552415 -351.13497595308218 0 -351.13497595308218 330.13260719220852 0 0 0 0 373.91876017232426 -864.18515008810755 0 -864.18515008810755 1164.3619747969788 0 0 0 0 1.4811545382835902 -728.31528782958776 0 -728.31528782958776 1196.0803264601418 0 0 0 0 -2.513544805085985 -891.09014493596624 0 -891.09014493596624 1162.5527938466439 0 0 0 0 141.90470867908152 -966.28102731116815 0 -966.28102731116815 1139.3589469467115 0 0 0 0 785.3633313998871 466.44332621850481 0 466.44332621850481 99.511302839571727 0 0 0 0 -251.9065485369938 -491.42186476156348 0 -491.42186476156348 1839.1342804944288 0 0 0 0 222.62201265937256 -1284.294054159669 0 -1284.294054159669 1414.1612782031298 0 0 0 0 -225.6452234092867 -543.16258402794483 0 -543.16258402794483 865.31374947548557 0 0 0 0 14.291211131159798 -543.19956647790605 0 -543.19956647790605 456.96336686532595 0 0 0 0 250.12965299776988 160.64642657403601 0 160.64642657403601 25.083733556683001 0 0 0 0 2.3842799534404477 -3.0421368456876969 0 -3.0421368456876969 3.8266375881539556 0 0 0 0 12.151829766924493 -5.0409006370537099 0 -5.0409006370537099 1.675893812047434 0 0 0 0 -130.03213635663269 291.82942306683981 0 291.82942306683981 1161.5500758148992 0 0 0 0 17.275980903636082 -119.8982127996278 0 -119.8982127996278 53.966543635673588 0 0 0 0 -64.602490596022108 33.937655067798914 0 33.937655067798914 17.190487489802763 0 0 0 0 179.23558787038564 -204.00351583542579 0 -204.00351583542579 62.486443888483336 0 0 0 0 -2.9424369303514801 -1.7437977662612401 0 -1.7437977662612401 0.99453899952047919 0 0 0 0 151.81923427121365 -87.907009695394663 0 -87.907009695394663 -32.614064110908657 0 0 0 0 135.03757337636489 -79.911640639533289 0 -79.911640639533289 88.226510791613691 0 0 0 0 -1.3174809599490906 -0.85585267724710157 0 -0.85585267724710157 0.31370329142836084 0 0 0 0 185.59553729413528 -135.76870175094882 0 -135.76870175094882 48.876022717027809 0 0 0 0 118.67309046516311 -47.896222338124062 0 -47.896222338124062 43.135435402975418 0 0 0 0 131.21179463284352 -66.389575843269995 0 -66.389575843269995 -0.34690749993023928 0 0 0 0 111.95571271851077 -95.711065534240333 0 -95.711065534240333 -37.2817836071481 0 0 0 0 129.66526119920309 -70.95877822728653 0 -70.95877822728653 6.1676324594009202 0 0 0 0 100.63873284000874 -24.679380625930207 0 -24.679380625930207 -21.793221178493695 0 0 0 0 33.455925037458655 -49.382057105540298 0 -49.382057105540298 11.891734015152906 0 0 0 0 33.638209926270065 -50.267473398339462 0 -50.267473398339462 -41.032446219469421 0 0 0 0 20.346330953805591 -55.670700210961513 0 -55.670700210961513 0.081270931914332323 0 0 0 0 -64.74019428199972 -12.964101240053424 0 -12.964101240053424 -4.2363283679587767 0 0 0 0 -77.982353053586849 -53.161512442169624 0 -53.161512442169624 0.0052346242882777005 0 0 0 0 -88.817877017922001 -43.223255283213803 0 -43.223255283213803 9.906253022592864 0 0 0 0 -83.174142309851959 -103.64143124808697 0 -103.64143124808697 -76.087228639982641 0 0 0 0 34.843840197878308 -13.476780019089347 0 -13.476780019089347 -29.884255138240405 0 0 0 0 92.006928775532288 -167.8866249317216 0 -167.8866249317216 -1.8982651425794757 0 0 0 0 139.36492193345111 -93.405954956908317 0 -93.405954956908317 101.63097587635275 0 0 0 0 -44.688191931010806 -7.8206834707816597 0 -7.8206834707816597 -13.777035793522373 0 0 0 0 -642.13348857179517 110.16904594461812 0 110.16904594461812 124.59973323080339 0 0 0 0 -80.824612546952267 -68.274388147510763 0 -68.274388147510763 -94.563138555473415 0 0 0 0 1.0710311701836424 -1.8448877752017712 0 -1.8448877752017712 -0.038267961003263906 0 0 0 0 28.128669353056466 -20.711343651506468 0 -20.711343651506468 19.573291195323691 0 0 0 0 27.925968687619388 -27.600712721069158 0 -27.600712721069158 -0.84212757076602429 0 0 0 0 81.037978681284585 -26.285753035568632 0 -26.285753035568632 -14.645462104643229 0 0 0 0 -441.51181820053898 20.318241789696913 0 20.318241789696913 3.5330765230901306 0 0 0 0 156.01249464483408 -26.037499679841858 0 -26.037499679841858 -27.41921117468155 0 0 0 0 0.36229558694912289 -0.46053383875093701 0 -0.46053383875093701 -0.0081327609607768636 0 0 0 0 -148.6912259060482 -13.607378250926558 0 -13.607378250926558 -17.806660518192075 0 0 0 0 -116.39649619679403 -92.049333633480273 0 -92.049333633480273 -8.915051287796814 0 0 0 0 -44.957278278794547 -39.88593484924786 0 -39.88593484924786 -0.041500896491925232 0 0 0 0 -1.3359733680263162 -13.033961949484365 0 -13.033961949484365 9.6491965888708364 0 0 0 0 27.82599917895277 -86.557568822041503 0 -86.557568822041503 -20.507414440231514 0 0 0 0 -17.51785377424676 -34.22905935178278 0 -34.22905935178278 -17.402498405303049 0 0 0 0 -32.533283540571574 -15.039387917451677 0 -15.039387917451677 12.638695194676984 0 0 0 0 -36.537801348407811 -23.541939532093238 0 -23.541939532093238 -21.550868806196377 0 0 0 0 -40.783225453691557 -37.629641899955459 0 -37.629641899955459 -17.696283150588897 0 0 0 0 -62.16926671663532 -21.906759895646246 0 -21.906759895646246 0.026015259240691591 0 0 0 0 -49.718838525048341 -6.1766988371819025 0 -6.1766988371819025 10.230923878436442 0 0 0 0 -45.099571538477903 -31.718311323667876 0 -31.718311323667876 -9.3661595553858206 0 0 0 0 -27.021135112430784 -19.856881879197317 0 -19.856881879197317 0.87400798182352446 0 0 0 0 -10.484632549852904 -6.2845623018183687 0 -6.2845623018183687 5.8976165287022013 0 0 0 0 -26.623541389853926 -22.457430522845243 0 -22.457430522845243 14.58795616765201 0 0 0 0 -15.998017047677422 -34.584909051685827 0 -34.584909051685827 23.515188620403933 0 0 0 0 -21.028172625938168 -20.739206174774154 0 -20.739206174774154 10.287469701754162 0 0 0 0 -37.018098179396475 -30.704763650195673 0 -30.704763650195673 11.811231358151417 0 0 0 0 -5.3353050531295594 -25.656977581849787 0 -25.656977581849787 1.4417283232614864 0 0 0 0 -0.40918788925046101 -36.410536540439352 0 -36.410536540439352 4.8118509509658907 0 0 0 0 -3.3905130944913253 -27.140128020371776 0 -27.140128020371776 -23.600917941774242 0 0 0 0 -5.627660305093741 -16.36057763628196 0 -16.36057763628196 4.0205326674040407 0 0 0 0 -31.543474511214299 -12.916601185686886 0 -12.916601185686886 -4.7074084060441237 0 0 0 0 -43.315013013052521 -56.355697979190154 0 -56.355697979190154 -37.792100449674763 0 0 0 0 0.06662483631209426 -0.16107211496527896 0 -0.16107211496527896 0.16435472847211585 0 0 0 0 -18.634708471188787 -28.787983625312336 0 -28.787983625312336 -6.9996698411996476 0 0 0 0 9.3066702395662837 -7.2333600963054456 0 -7.2333600963054456 -1.5190602798673289 0 0 0 0 -17.596760484317201 -23.087165403499966 0 -23.087165403499966 0.49650650335752289 0 0 0 0 -3.2773100381455151 -3.1775860880952678 0 -3.1775860880952678 1.7281131984964304 0 0 0 0 -41.461767799395602 -28.34755034459522 0 -28.34755034459522 4.1961233593974612 0 0 0 0 -2.8756833608982895 -4.2347712165621436 0 -4.2347712165621436 6.4036274746113619 0 0 0 0 -22.144289222065709 -45.11590132114361 0 -45.11590132114361 -5.369671655309503 0 0 0 0 -3.7499964011076372 -1.3889491701702354 0 -1.3889491701702354 2.7891246275103185 0 0 0 0 -3.1299019329744624 -2.9911561767876265 0 -2.9911561767876265 1.2851293121493654 0 0 0 0 -1.7133492116444984 -7.8900995232027187 0 -7.8900995232027187 4.333903641239619 0 0 0 0 -4.1149437530693831 -1.514331790007418 0 -1.514331790007418 2.9345320832799189 0 0 0 0 7.9061714081981336 -16.845367184883798 0 -16.845367184883798 4.1821256268303841 0 0 0 0 6.1291887757906807 -28.286880799325445 0 -28.286880799325445 10.570319208796718 0 0 0 0 4.2003176615724307 -3.1853981449175031 0 -3.1853981449175031 -1.5071706434014587 0 0 0 0 -3.0179019630408916 -19.053976886409185 0 -19.053976886409185 3.8993826360858854 0 0 0 0 -8.5730311710212845 -6.2143069794401526 0 -6.2143069794401526 18.074234104977222 0 0 0 0 -10.677247520390665 -11.438542589283315 0 -11.438542589283315 20.575575029593892 0 0 0 0 -1.9738745239429747 -2.187102438375998 0 -2.187102438375998 10.289169358555164 0 0 0 0 -3.5166975311003625 -1.1435530049420777 0 -1.1435530049420777 2.8191930993634742 0 0 0 0 -4.06877388974317 -1.1559095932980199 0 -1.1559095932980199 3.0811155015835539 0 0 0 0 -2.8747463193431031 -3.2957704224463669 0 -3.2957704224463669 2.2545587591739604 0 0 0 0 -6.7326254134995764 14.032897810934131 0 14.032897810934131 17.568941698293202 0 0 0 0 -2.5490029089603325 -2.338715453993693 0 -2.338715453993693 9.5893952424043238 0 0 0 0 -13.015427788806846 -6.7369049743574578 0 -6.7369049743574578 26.4856176968824 0 0 0 0 -11.719704913572059 -16.014368763033417 0 -16.014368763033417 30.083094525907654 0 0 0 0 -20.419664257220575 -38.031996846417314 0 -38.031996846417314 22.407635275965731 0 0 0 0 -12.257245318280184 -2.486368818259507 0 -2.486368818259507 47.924820063344669 0 0 0 0 -124.39108691394347 -137.81888719524477 0 -137.81888719524477 -7.3557405692990869 0 0 0 0 -1.1253744504982155 0.093352359951801134 0 0.093352359951801134 1.2480606153610623 0 0 0 0 -33.577390713035129 -41.713438475155272 0 -41.713438475155272 7.7135714439209551 0 0 0 0 -125.25908242666628 12.881415968760848 0 12.881415968760848 37.451052407093812 0 0 0 0 -6.7349916182185581 15.821292841970873 0 15.821292841970873 43.759432334103622 0 0 0 0 -7.4759688474005088 6.2577314926311374 0 6.2577314926311374 -34.030436077562626 0 0 0 0 -0.072434542116891598 0.25076331748629777 0 0.25076331748629777 -0.013490334264243842 0 0 0 0 39.220263872959549 -19.067488854692783 0 -19.067488854692783 9.2180780818453059 0 0 0 0 0.36277427234981019 -3.2722662753608347 0 -3.2722662753608347 5.7170737702668184 0 0 0 0 -395.29431450871198 -354.27325685296455 0 -354.27325685296455 -157.63522952300264 0 0 0 0 -276.9472947269096 6.1409766100696288 0 6.1409766100696288 29.389531506662024 0 0 0 0 1.7714797956239294 -4.0177686324995605 0 -4.0177686324995605 -0.27764916820203567 0 0 0 0 -514.11423195553652 -219.56943521497305 0 -219.56943521497305 279.22710506425938 0 0 0 0 -481.89544902059424 -196.49083853812772 0 -196.49083853812772 -59.03764642601891 0 0 0 0 27.442801970202709 -20.277936058068008 0 -20.277936058068008 -14.2702703755931 0 0 0 0 0.068031805480927687 -0.20893750278149525 0 -0.20893750278149525 0.18850584621137756 0 0 0 0 -3.0933538608223898 0.25925809225009289 0 0.25925809225009289 1.2860022027889499 0 0 0 0 8.1909883858752437 -27.209329408768099 0 -27.209329408768099 -11.464117614494171 0 0 0 0 -0.56276192696597427 -5.5202757508872944 0 -5.5202757508872944 5.8164259683619193 0 0 0 0 10.375968949141679 -16.288620185368927 0 -16.288620185368927 -16.050240463504451 0 0 0 0 14.993650650329073 -24.834112583535898 0 -24.834112583535898 -1.224835238797823 0 0 0 0 -18.091161855380051 -21.199570355609467 0 -21.199570355609467 0.80030732497107238 0 0 0 0 26.21485345849942 -30.291402644579648 0 -30.291402644579648 -12.376059309230186 0 0 0 0 25.462062976526113 -4.4633825206040001 0 -4.4633825206040001 -0.25651703187031671 0 0 0 0 152.89476018861751 341.33757195406361 0 341.33757195406361 -121.20845643998473 0 0 0 0 115.80510746026994 -663.13693330713431 0 -663.13693330713431 541.08779584582953 0 0 0 0 56.295926305829198 -183.23087824918184 0 -183.23087824918184 393.2238751961122 0 0 0 0 233.24740595980256 -278.15202377580863 0 -278.15202377580863 15.710009930575325 0 0 0 0 73.463850043044658 -181.39627163358091 0 -181.39627163358091 105.28049982697166 0 0 0 0 -5.2044450084177551 -2.8124693802489951 0 -2.8124693802489951 2.3045282041650061 0 0 0 0 77.045893687871285 61.282393529021647 0 61.282393529021647 -5.1973737869411707 0 0 0 0 -30.83623390388675 68.472482475510333 0 68.472482475510333 25.997881995514035 0 0 0 0 0.24461489868788355 0.06329611700121518 0 0.06329611700121518 -0.23384701802832453 0 0 0 0 -14.059337486418372 5.5715429606862017 0 5.5715429606862017 9.0718809439567849 0 0 0 0 35.597793785411341 -3.2419440311568906 0 -3.2419440311568906 -29.092016536626033 0 0 0 0 35.999877937545534 18.537450647621881 0 18.537450647621881 -10.160592318105046 0 0 0 0 47.540964567961055 16.748633812487242 0 16.748633812487242 -11.750562259112485 0 0 0 0 88.103675918959198 21.743252714077244 0 21.743252714077244 -20.643596832465846 0 0 0 0 73.378049423947232 11.683305358601501 0 11.683305358601501 -42.363898010924459 0 0 0 0 86.715669512690511 31.831391974672442 0 31.831391974672442 -24.086168383902987 0 0 0 0 -0.01929389083319677 -0.94377752845033669 0 -0.94377752845033669 -0.32331842286486445 0 0 0 0 98.668391165556386 171.93261505011469 0 171.93261505011469 133.84830214970862 0 0 0 0 44.342781913699582 85.788930052192882 0 85.788930052192882 207.28412447709707 0 0 0 0 135.80074695742223 23.653739345623762 0 23.653739345623762 -107.79808905831305 0 0 0 0 122.09566473129962 9.2607659515633713 0 9.2607659515633713 -70.946278497867752 0 0 0 0 221.87447940686252 215.07849327329313 0 215.07849327329313 -54.279630247503519 0 0 0 0 284.27564209609409 198.84151676375404 0 198.84151676375404 -310.05591498163994 0 0 0 0 279.62256136938231 -143.03819515525538 0 -143.03819515525538 -452.13859135145321 0 0 0 0 180.08298149675829 6.7266391960147303 0 6.7266391960147303 -118.38714338568388 0 0 0 0 187.62921928544529 7.9958132789179217 0 7.9958132789179217 -154.58239029417746 0 0 0 0 -8.4728661052940879 -145.01288624721928 0 -145.01288624721928 -51.909138016402721 0 0 0 0 -4.9006480420939624 -125.66688082262408 0 -125.66688082262408 -65.959330510522705 0 0 0 0 104.14019134754199 -95.190825770318042 0 -95.190825770318042 -196.58425533302943 0 0 0 0 89.965592011762055 -27.312703952258744 0 -27.312703952258744 -77.580574071616866 0 0 0 0 17.410940092828241 -88.503086951255682 0 -88.503086951255682 -48.381010552293446 0 0 0 0 -37.787766219873447 -68.424146725272294 0 -68.424146725272294 47.588688320742222 0 0 0 0 34.777636545033602 -38.825077549467096 0 -38.825077549467096 -5.0969076413748553 0 0 0 0 25.829775976271776 -64.265428830418386 0 -64.265428830418386 -39.960764791234396 0 0 0 0 77.60232262549107 -27.627473454049323 0 -27.627473454049323 -61.13553226053773 0 0 0 0 55.316191345627885 -11.254820158908842 0 -11.254820158908842 -49.250010281626601 0 0 0 0 55.176825889826432 -11.41953807788741 0 -11.41953807788741 -26.319270138861611 0 0 0 0 19.316244671499589 -6.6677935412662919 0 -6.6677935412662919 -14.35306803896674 0 0 0 0 -7.3480671908630999 -21.710200284553309 0 -21.710200284553309 1.5680313974604978 0 0 0 0 35.426250853619422 -18.29596553920419 0 -18.29596553920419 -19.904480277386028 0 0 0 0 -6.3395659204409593 -23.88957815159651 0 -23.88957815159651 0.4245312866331119 0 0 0 0 35.57221934646077 -38.204714756910107 0 -38.204714756910107 -16.518940367248433 0 0 0 0 158.48370049832738 -98.282182274211664 0 -98.282182274211664 23.591091452748515 0 0 0 0 81.268739794555586 -135.69188295710774 0 -135.69188295710774 59.466808088647667 0 0 0 0 107.68502734951471 -182.38108222454321 0 -182.38108222454321 61.618058597698109 0 0 0 0 132.86978493572678 -131.98271403182298 0 -131.98271403182298 56.416950513135816 0 0 0 0 0.88219174296831859 -0.64408291634102977 0 -0.64408291634102977 -0.54011729170905909 0 0 0 0 -69.123866041307338 -147.19849207329389 0 -147.19849207329389 104.76863382998272 0 0 0 0 -10.517694928916171 -185.08885026993812 0 -185.08885026993812 68.782070425077109 0 0 0 0 -26.193254244350101 -151.40808455487058 0 -151.40808455487058 105.18050981627312 0 0 0 0 -98.005735914892284 -118.93505496169382 0 -118.93505496169382 154.31401603821723 0 0 0 0 -19.558103609932004 -71.400997632066719 0 -71.400997632066719 84.913248564789683 0 0 0 0 -31.605241042238049 -57.063371629199537 0 -57.063371629199537 128.27555001707515 0 0 0 0 -5.1931345028278884 -110.07806450492353 0 -110.07806450492353 80.290382488194155 0 0 0 0 -126.30158762865176 -0.0011092078639194369 0 -0.0011092078639194369 129.80262123983994 0 0 0 0 -28.236450212189801 -6.7875522726356792 0 -6.7875522726356792 8.0649280823638527 0 0 0 0 24.245928736170754 -5.6628454416641034 0 -5.6628454416641034 -14.854364142142003 0 0 0 0 30.084510683482222 -3.9687601498735603 0 -3.9687601498735603 -14.844841253390769 0 0 0 0 -14.473233951342991 -7.9143252977228258 0 -7.9143252977228258 10.619866277411347 0 0 0 0 0.051719925281771495 -6.4311700383890447 0 -6.4311700383890447 -5.415860078150839 0 0 0 0 -22.982848603172897 -20.36818791398764 0 -20.36818791398764 35.108036146353697 0 0 0 0 -33.25349097212893 2.6590764052089071 0 2.6590764052089071 20.717916505469475 0 0 0 0 -7.1111866899502214 -2.7172265285856589 0 -2.7172265285856589 4.4740906587492937 0 0 0 0 7.964317330319318 -27.594413959828671 0 -27.594413959828671 19.452943481781404 0 0 0 0 223.69269937368517 -1.2803500847512623 0 -1.2803500847512623 -380.65576789801707 0 0 0 0 3.7872477470045851 -3.2867750763543881 0 -3.2867750763543881 -3.1610719121163129 0 0 0 0 3.8533180743906996 -1.8617114858643617 0 -1.8617114858643617 -4.780798187610344 0 0 0 0 4.3199127516733657 -3.847439755713844 0 -3.847439755713844 -3.4895780967119645 0 0 0 0 2.5970271971164038 -1.7435718798951712 0 -1.7435718798951712 -1.8661262989917304 0 0 0 0 3.3527456008177978 -4.0431019774150627 0 -4.0431019774150627 -1.3171915568527766 0 0 0 0 -4.4848688396872998 -7.1417363096628019 0 -7.1417363096628019 1.6644619603255446 0 0 0 0 65.604032134826411 -51.137707474685158 0 -51.137707474685158 13.936326412294875 0 0 0 0 4.4319253624380508 -7.2637474045732233 0 -7.2637474045732233 -4.0877331985684577 0 0 0 0 3.1436346801087893 -8.6401873431204876 0 -8.6401873431204876 -4.0431799542857334 0 0 0 0 42.812619596814329 -18.427554981601133 0 -18.427554981601133 -31.485679296951275 0 0 0 0 57.076312182340189 -15.22087496741733 0 -15.22087496741733 -21.474822631018469 0 0 0 0 6.8858759726743859 -3.028903584742773 0 -3.028903584742773 -3.3416403284609331 0 0 0 0 108.6001595298585 27.857043434705702 0 27.857043434705702 -24.638175769521979 0 0 0 0 17.705972195648865 -5.2463972252166222 0 -5.2463972252166222 -5.5065471877818819 0 0 0 0 23.393558590854809 -9.448767711124674 0 -9.448767711124674 29.98423390937387 0 0 0 0 43.645116264669923 -46.081151315611351 0 -46.081151315611351 -108.81896824564319 0 0 0 0 55.426218011751189 39.867623299709521 0 39.867623299709521 -61.114779956100392 0 0 0 0 40.333604396786541 -34.566097547445679 0 -34.566097547445679 -121.47292687173467 0 0 0 0 48.375771994724346 -70.001462893262214 0 -70.001462893262214 -60.08327438638662 0 0 0 0 27.177370834731846 -118.56988587523665 0 -118.56988587523665 -171.29916765433154 0 0 0 0 -58.385868363722693 -163.50918323607766 0 -163.50918323607766 -82.166131797392154 0 0 0 0 -9.6314005263266154 -122.32311433224822 0 -122.32311433224822 -47.410628817771794 0 0 0 0 20.120062397661968 -140.33011001096747 0 -140.33011001096747 -63.600391561572906 0 0 0 0 -5.5176006432448048 -138.66727892532072 0 -138.66727892532072 53.338281736418139 0 0 0 0 -49.018279622519913 -196.03706059915567 0 -196.03706059915567 -22.311587115982547 0 0 0 0 138.03014349803561 -179.5750897490143 0 -179.5750897490143 71.668647362210322 0 0 0 0 284.27752175307251 -229.09287379341549 0 -229.09287379341549 86.14080439240206 0 0 0 0 101.20629157172516 -119.80661899794359 0 -119.80661899794359 75.683724634203827 0 0 0 0 53.050674115147558 -180.15450782589323 0 -180.15450782589323 27.391807617852464 0 0 0 0 30.971570831956342 -103.69274297455559 0 -103.69274297455559 14.379801659881196 0 0 0 0 105.71167889195931 -186.66565291291772 0 -186.66565291291772 39.220019588945433 0 0 0 0 206.74896349820483 -172.70099355094135 0 -172.70099355094135 10.562856693941285 0 0 0 0 2.3483012373442333 -1.0735184398602851 0 -1.0735184398602851 -1.1680003868034774 0 0 0 0 -20.65414233921183 -99.916670223406982 0 -99.916670223406982 7.863592658075504 0 0 0 0 319.51286215122673 19.326741153301555 0 19.326741153301555 -24.684243384164802 0 0 0 0 47.810258828365477 -65.910327978883288 0 -65.910327978883288 -68.180075352633139 0 0 0 0 54.635319187094865 -14.057967748718511 0 -14.057967748718511 -38.75077011945541 0 0 0 0 261.61031153763179 -117.25563353928737 0 -117.25563353928737 22.87541373060958 0 0 0 0 10.520453111057394 -18.267588259527443 0 -18.267588259527443 -8.7950726831162722 0 0 0 0 -22.549586754004746 -18.019571122977446 0 -18.019571122977446 12.150058072973444 0 0 0 0 207.46707757515833 -114.01611356939247 0 -114.01611356939247 81.551299915648997 0 0 0 0 6.5394099459372228 -52.447338950179983 0 -52.447338950179983 11.988839577286853 0 0 0 0 14.30074448211235 -29.514096516519203 0 -29.514096516519203 22.899473493918777 0 0 0 0 12.105558278786702 -30.404104016834026 0 -30.404104016834026 19.182613300275989 0 0 0 0 20.142309956583631 -34.240932442595295 0 -34.240932442595295 19.12792718221317 0 0 0 0 18.637686765781837 -26.42976553979679 0 -26.42976553979679 12.888411655905657 0 0 0 0 12.389355381194036 -18.117301755060907 0 -18.117301755060907 11.820427573589768 0 0 0 0 6.159329084061028 -26.10080399839353 0 -26.10080399839353 27.06648463307647 0 0 0 0 -2.4383493357017869 -14.978371638586395 0 -14.978371638586395 22.061826462493627 0 0 0 0 0.82698083830473479 -23.156380585242005 0 -23.156380585242005 13.995094959449489 0 0 0 0 -19.263752885002543 -18.928003189838755 0 -18.928003189838755 8.5520065544227819 0 0 0 0 0.6012708600028418 -19.536693112648209 0 -19.536693112648209 33.600929333420936 0 0 0 0 92.537833424235941 -66.368254356159923 0 -66.368254356159923 2.1874708746327087 0 0 0 0 87.695826726936502 -5.0429709113377612 0 -5.0429709113377612 -30.335170932587062 0 0 0 0 90.420426906697685 -57.20903016255761 0 -57.20903016255761 7.6159806552605005 0 0 0 0 136.98443317502097 -39.438419563943171 0 -39.438419563943171 -19.231968846987002 0 0 0 0 54.216996356553864 -11.142372393020196 0 -11.142372393020196 -24.280061304729315 0 0 0 0 78.284803850634489 -16.020545900915749 0 -16.020545900915749 -28.470353792101378 0 0 0 0 62.000763074218412 -72.959895580715965 0 -72.959895580715965 18.236611704545794 0 0 0 0 90.31509182562877 -41.716641880710085 0 -41.716641880710085 -21.710010632057674 0 0 0 0 -0.15658170816104899 -7.0252842845249628 0 -7.0252842845249628 -1.0010772217043673 0 0 0 0 1.9480374970298726 -9.4976354711216118 0 -9.4976354711216118 1.2395333827198556 0 0 0 0 1.4151931684955343 -8.6444541498131002 0 -8.6444541498131002 -3.5033871950363391 0 0 0 0 22.88043105908574 -12.123130813812196 0 -12.123130813812196 -5.6655401426004843 0 0 0 0 0.32806890751867224 -0.12771112668533569 0 -0.12771112668533569 -0.073164883057234675 0 0 0 0 -47.352946116065141 -71.841691886307672 0 -71.841691886307672 7.6024511689320207 0 0 0 0 2.231005679233931 -10.733988781787048 0 -10.733988781787048 -2.8979485813306383 0 0 0 0 9.8224892589787487 -24.471714990810142 0 -24.471714990810142 -3.6566927112289704 0 0 0 0 0.054288900930698603 -0.17490621867782252 0 -0.17490621867782252 -0.066623363326745455 0 0 0 0 -4.8361832389782649 -8.4241778235300444 0 -8.4241778235300444 -9.6344541017897427 0 0 0 0 74.502858215870219 -40.816723299500154 0 -40.816723299500154 42.001742550986819 0 0 0 0 30.70696704395592 -17.098675821031044 0 -17.098675821031044 -12.997521785801597 0 0 0 0 2.1731882478488842 -10.52703426410153 0 -10.52703426410153 -1.101335607956571 0 0 0 0 16.191856500081485 -22.557768224112806 0 -22.557768224112806 11.807111803966109 0 0 0 0 16.179245582025032 -18.739497638394823 0 -18.739497638394823 3.6955268775636796 0 0 0 0 23.683180397667456 -18.334855299413903 0 -18.334855299413903 -1.4481464306736598 0 0 0 0 16.601365893846378 -11.747012254490983 0 -11.747012254490983 -7.5559065078559797 0 0 0 0 12.934096753364429 -16.285313041720656 0 -16.285313041720656 12.463905859214719 0 0 0 0 12.005795064120321 -16.40869150889921 0 -16.40869150889921 0.2026964256510837 0 0 0 0 18.271040650346549 -21.661607301881304 0 -21.661607301881304 -0.51925566690624692 0 0 0 0 13.727367460960522 -17.340389279299416 0 -17.340389279299416 -2.3476852332896669 0 0 0 0 15.97802026696445 -21.901825377310161 0 -21.901825377310161 -7.2066983162367251 0 0 0 0 10.383271555940155 -18.339574711746536 0 -18.339574711746536 3.1476001124101458 0 0 0 0 10.712863772743731 -15.737643912027124 0 -15.737643912027124 -14.354413113265764 0 0 0 0 18.365310738663538 -26.332583776689717 0 -26.332583776689717 6.721043889883731 0 0 0 0 0.26915022463936111 -23.959638902025972 0 -23.959638902025972 35.607782208986464 0 0 0 0 -5.1172585228268872 -23.501011743363051 0 -23.501011743363051 35.574391758753336 0 0 0 0 -14.271525548606853 -11.557150170671658 0 -11.557150170671658 11.966657337520562 0 0 0 0 -0.63714846766379196 -36.949014907630044 0 -36.949014907630044 77.353301002178341 0 0 0 0 32.052815488023043 -9.4432213261025026 0 -9.4432213261025026 33.865903043188155 0 0 0 0 41.676520324952435 -23.230051054037176 0 -23.230051054037176 17.082173700968269 0 0 0 0 32.347055232006824 -29.056783291511238 0 -29.056783291511238 13.936966133434908 0 0 0 0 14.211992941302015 -19.345445752056548 0 -19.345445752056548 28.698739336919971 0 0 0 0 15.696716848062351 -19.487868660566164 0 -19.487868660566164 11.22653624087252 0 0 0 0 11.000993546447717 -28.329767978444579 0 -28.329767978444579 27.270519600540865 0 0 0 0 9.1933807484747376 -29.206245696026599 0 -29.206245696026599 57.312254146978376 0 0 0 0 9.6381274687341971 -17.871945069370629 0 -17.871945069370629 -7.2441045735785661 0 0 0 0 25.071275169073488 -31.675918302702485 0 -31.675918302702485 14.033047760123736 0 0 0 0 49.28087148242048 -51.716221547321766 0 -51.716221547321766 18.779531289532315 0 0 0 0 -0.083983096895753562 -0.1428352212840549 0 -0.1428352212840549 -0.14652069247527955 0 0 0 0 -2.4180311390518909 -26.055789144767914 0 -26.055789144767914 19.476155161435599 0 0 0 0 -7.0808888015453704 -10.295286557491636 0 -10.295286557491636 17.630594849601039 0 0 0 0 1.1553740293020383 -21.785630257829325 0 -21.785630257829325 12.041935394932807 0 0 0 0 4.1808578466298059 -46.81981865860871 0 -46.81981865860871 24.098670500403387 0 0 0 0 -4.1434832283643672 -20.215576918371831 0 -20.215576918371831 4.9152735172392052 0 0 0 0 -3.4700329662591685 -34.946119100459327 0 -34.946119100459327 19.183061107556568 0 0 0 0 4.0589273639125167 -24.398753345547448 0 -24.398753345547448 -2.1272171132732183 0 0 0 0 14.154773226386169 -38.02602228926844 0 -38.02602228926844 8.1185101453520474 0 0 0 0 21.233438133989694 -28.598709660440363 0 -28.598709660440363 -9.4305427735380363 0 0 0 0 23.737153034744551 -24.146657482742739 0 -24.146657482742739 -30.840568885061657 0 0 0 0 28.715282762161223 -31.347007159627537 0 -31.347007159627537 -20.429256744697341 0 0 0 0 25.858139634219697 -55.074739511881489 0 -55.074739511881489 -32.304000330404961 0 0 0 0 14.380554908100748 -42.511319552362693 0 -42.511319552362693 35.54095461597899 0 0 0 0 -9.8130904259742238 -67.731260085602116 0 -67.731260085602116 75.942416063509881 0 0 0 0 -2.9333415592845995 -72.536996360795456 0 -72.536996360795456 76.326711224594874 0 0 0 0 -8.0284546204056824 -12.47282596120931 0 -12.47282596120931 19.232181106650387 0 0 0 0 5.2010554003354628 -29.889425888264668 0 -29.889425888264668 -7.2000621236802544 0 0 0 0 9.6499778755460284 -5.1834548879342037 0 -5.1834548879342037 3.6915813680825522 0 0 0 0 2.4187776158287306 -27.780476683299639 0 -27.780476683299639 14.00934533799591 0 0 0 0 -15.117477610546388 -9.0841410351208634 0 -9.0841410351208634 13.381312211295379 0 0 0 0 3.4805187461010583 -16.33868884361944 0 -16.33868884361944 -4.8922845993449027 0 0 0 0 4.7966491631232202 -15.889705443609273 0 -15.889705443609273 21.116143627907149 0 0 0 0 11.828210299565399 -7.4039157506449556 0 -7.4039157506449556 -21.2181266771222 0 0 0 0 -10.020439087605846 -10.957690780203961 0 -10.957690780203961 -0.90988697077527902 0 0 0 0 -3.6482310393247523 -13.319479719822715 0 -13.319479719822715 0.70413537595897679 0 0 0 0 -7.9868786778242793 -22.71026746462303 0 -22.71026746462303 19.17325822719431 0 0 0 0 0.59519048044973033 -0.52498170337904071 0 -0.52498170337904071 -0.091006542415746239 0 0 0 0 -5.9380280842306092 -11.195306010897184 0 -11.195306010897184 1.1245766346692108 0 0 0 0 1.5740314441376881 -16.088632389001635 0 -16.088632389001635 -0.13926943428859384 0 0 0 0 1.6589218462322606 -11.668512855219888 0 -11.668512855219888 -0.81886623155151028 0 0 0 0 -1.9461072822800745 -14.033312295594897 0 -14.033312295594897 -2.9826238279115849 0 0 0 0 46.013947518236819 -226.2454472114805 0 -226.2454472114805 82.323442708351649 0 0 0 0 -0.63269045957713388 90.436066257840139 0 90.436066257840139 -184.44951854445389 0 0 0 0 13.337773080495253 -8.6902130412631351 0 -8.6902130412631351 -2.1923796521221544 0 0 0 0 4.3737796265195357 -8.8194812644978811 0 -8.8194812644978811 -3.6062899160897359 0 0 0 0 -89.446969822020037 84.859624748947681 0 84.859624748947681 14.05486365876277 0 0 0 0 -67.588784490217222 -21.038710759421519 0 -21.038710759421519 138.59498438362789 0 0 0 0 184.53236141692469 -95.219101467955625 0 -95.219101467955625 53.609187052526977 0 0 0 0 245.04644177713635 30.484381654283425 0 30.484381654283425 1.7442790164932376 0 0 0 0 50.780220480897697 -46.161124109617958 0 -46.161124109617958 48.593788489582948 0 0 0 0 164.97675093763974 -33.493695289391326 0 -33.493695289391326 -4.202781514992239 0 0 0 0 118.5700205375324 27.286042244006239 0 27.286042244006239 24.345362343505258 0 0 0 0 75.691362678888254 -20.016398986059357 0 -20.016398986059357 -2.8863735191262094 0 0 0 0 -6.5588261958595346 -0.47306922948832231 0 -0.47306922948832231 1.720454085144004 0 0 0 0 -3.58342922501296 -14.631100467400188 0 -14.631100467400188 -2.6532243331922167 0 0 0 0 -164.51466804973461 -111.21033664554488 0 -111.21033664554488 36.605704219458858 0 0 0 0 92.27365983009804 1.9595290554862004 0 1.9595290554862004 5.0906713687581941 0 0 0 0 -1.9813954400911875 -0.28007411889056577 0 -0.28007411889056577 0.37718748474337005 0 0 0 0 -193.54752851161174 25.18977250008902 0 25.18977250008902 -180.17610127973603 0 0 0 0 9.5830333095073001 -12.501700525135675 0 -12.501700525135675 -1.2330179003911326 0 0 0 0 4.6817815607282682 -7.4475605391562567 0 -7.4475605391562567 -0.35720164899976226 0 0 0 0 -10.92570061836733 12.267469999746794 0 12.267469999746794 -8.3672828245180426 0 0 0 0 -11.01915525849472 2.4042906887552817 0 2.4042906887552817 -8.275741368328454 0 0 0 0 11.007144009904692 -11.316826881094338 0 -11.316826881094338 -1.4467225049843275 0 0 0 0 1.4656434169301065 -8.0414659676171141 0 -8.0414659676171141 0.3867681362098665 0 0 0 0 18.494760654608399 -12.367236480604333 0 -12.367236480604333 -9.2362145453935227 0 0 0 0 9.7981530771287808 -11.956721465658894 0 -11.956721465658894 -2.071379666556675 0 0 0 0 17.191572674837516 -10.779017186934652 0 -10.779017186934652 -15.42534883695771 0 0 0 0 8.6650754352085642 -1.6022654146727291 0 -1.6022654146727291 -12.535830291844832 0 0 0 0 8.7054424534326245 -19.628106134216068 0 -19.628106134216068 -9.6289908600156195 0 0 0 0 11.157772169179225 -13.105254831338243 0 -13.105254831338243 -4.4592940148286289 0 0 0 0 9.1889029047905666 -12.47136139566372 0 -12.47136139566372 -2.9327393256458869 0 0 0 0 1.6473936006659642 -10.28564212697529 0 -10.28564212697529 -1.0739483210190883 0 0 0 0 7.3964980781747727 -31.90638240257249 0 -31.90638240257249 -13.617327892483445 0 0 0 0 9.8049327823682688 -26.671254831144324 0 -26.671254831144324 -4.1553007257462014 0 0 0 0 3.9073302543927095 -15.975061408011907 0 -15.975061408011907 -0.96303354762499804 0 0 0 0 8.9996930754423374 -23.673023404444393 0 -23.673023404444393 1.1326046810281696 0 0 0 0 6.3677695814840263 -20.661552607758495 0 -20.661552607758495 -2.0844445260154316 0 0 0 0 6.8458777509804349 -12.00980296410853 0 -12.00980296410853 -1.1314761802277644 0 0 0 0 0.79542422583722949 -15.798676646513833 0 -15.798676646513833 -1.5390147878585696 0 0 0 0 -8.0687523567466997 -18.337631198053714 0 -18.337631198053714 2.368106283227462 0 0 0 0 10.08857795666157 -11.768455503017474 0 -11.768455503017474 0.066026065841839454 0 0 0 0 -12.347867904223676 -21.814992123338016 0 -21.814992123338016 -0.45770608793827705 0 0 0 0 -12.039600972875633 -21.370544949877512 0 -21.370544949877512 -2.3661956213181838 0 0 0 0 -8.3996413573500917 -3.4161269391466549 0 -3.4161269391466549 3.1043969789892145 0 0 0 0 -11.670197311359516 -19.41422577623598 0 -19.41422577623598 -4.1095884276073775 0 0 0 0 -12.348123857158498 -19.30588205793174 0 -19.30588205793174 -1.7063028467091499 0 0 0 0 -6.1808568862797983 -24.781878508572845 0 -24.781878508572845 -11.286969236956793 0 0 0 0 4.3496895597199909 -15.764052851816814 0 -15.764052851816814 -4.1915068547023111 0 0 0 0 4.5019829791999655 -15.895457926533709 0 -15.895457926533709 -7.7169328091658826 0 0 0 0 6.1415671973081771 -15.746049738161673 0 -15.746049738161673 -16.67517583508743 0 0 0 0 59.576094027463114 -48.137009092351946 0 -48.137009092351946 2.7066322392056463 0 0 0 0 2.3535132805300236 -12.964144922218111 0 -12.964144922218111 -4.8619234901634627 0 0 0 0 -38.502403664009762 -7.2696970498327573 0 -7.2696970498327573 12.776072397537064 0 0 0 0 -126.56145252562419 -95.706827840447659 0 -95.706827840447659 22.351117100857664 0 0 0 0 12.127747782800725 -22.682457400753265 0 -22.682457400753265 -29.934402039914858 0 0 0 0 0.69086520597785417 -1.7088157205464283 0 -1.7088157205464283 -0.88363769414576687 0 0 0 0 -15.613004641298176 -38.547450540288992 0 -38.547450540288992 -24.755241660735919 0 0 0 0 -56.97019558865577 -31.678349600795627 0 -31.678349600795627 -4.4361622441319923 0 0 0 0 26.650490011601505 -14.230140050483897 0 -14.230140050483897 -9.8828362076601479 0 0 0 0 34.945732486641646 -6.3333381925403955 0 -6.3333381925403955 -11.298756222182419 0 0 0 0 33.232546255399939 -5.5731799620189122 0 -5.5731799620189122 -3.5225633021909744 0 0 0 0 9.6142050817288691 -15.833277483288839 0 -15.833277483288839 -5.03106209354155 0 0 0 0 0.23272776118197447 -0.5754105836707577 0 -0.5754105836707577 -0.29286512502157791 0 0 0 0 91.920733039682091 -6.3644462587981252 0 -6.3644462587981252 -16.417014544284029 0 0 0 0 45.686811848034267 -33.757785423560563 0 -33.757785423560563 9.5136649147607386 0 0 0 0 -54.745161251070385 -20.258677650894242 0 -20.258677650894242 10.263895654847147 0 0 0 0 0.46848643092448095 -0.074811048756690646 0 -0.074811048756690646 -0.032845673944089882 0 0 0 0 13.820236019280856 11.155772511847317 0 11.155772511847317 -2.9994204037939198 0 0 0 0 -1.7250701123120962 -45.74916268097877 0 -45.74916268097877 -42.537996079408913 0 0 0 0 17.517014358614688 -9.4509280834099627 0 -9.4509280834099627 1.3268030846811598 0 0 0 0 -6.9333672354987357 -17.72774384656077 0 -17.72774384656077 -0.71658696854865411 0 0 0 0 -15.816449890804506 -13.313599685920053 0 -13.313599685920053 -1.2845488751772791 0 0 0 0 19.661995302201831 -35.21767287372495 0 -35.21767287372495 -17.946818885437096 0 0 0 0 6.9745357759165927 -13.852446238030097 0 -13.852446238030097 -4.7597625974449329 0 0 0 0 -4.0251557201716377 -16.704714703102724 0 -16.704714703102724 0.15710752905457426 0 0 0 0 6.319819801425183 -11.02984976470907 0 -11.02984976470907 -4.3307265182811534 0 0 0 0 -0.56625850061391247 -14.229016641460476 0 -14.229016641460476 -1.0052723970002262 0 0 0 0 12.438446175852732 -11.004263298797014 0 -11.004263298797014 -5.4015289435192244 0 0 0 0 22.276425083859067 -6.2666640363531769 0 -6.2666640363531769 -4.0983060222351924 0 0 0 0 12.613741373745142 -10.024202215194236 0 -10.024202215194236 -4.4455150342846537 0 0 0 0 8.2425656943785128 -5.1005883871555495 0 -5.1005883871555495 -4.5855318920653048 0 0 0 0 2.7586546302190982 -8.0610048024973366 0 -8.0610048024973366 -3.5790536087733926 0 0 0 0 2.9149133238545568 -8.0811611488480981 0 -8.0811611488480981 -4.4080709608315098 0 0 0 0 4.6059859345887162 -6.0295560971862869 0 -6.0295560971862869 -1.9813603463844629 0 0 0 0 1.7364499846444232 -7.2619373519191868 0 -7.2619373519191868 -3.8062311166722793 0 0 0 0 4.6270237063145032 -5.2354402607888915 0 -5.2354402607888915 -3.4644803610572126 0 0 0 0 17.834364455615287 -24.861220432208938 0 -24.861220432208938 11.941069337772205 0 0 0 0 18.383682067069458 -26.627467088372214 0 -26.627467088372214 8.0166694788495079 0 0 0 0 6.3397360498488773 -5.8164902479409122 0 -5.8164902479409122 -2.8835259440793841 0 0 0 0 0.97384632021472672 -10.990413026101114 0 -10.990413026101114 2.5726947096730193 0 0 0 0 24.672646750070271 -16.541814841897576 0 -16.541814841897576 -4.3688084678142332 0 0 0 0 31.772599282907322 -35.805211377213709 0 -35.805211377213709 22.283282429983956 0 0 0 0 58.903730148362229 -27.533725582339684 0 -27.533725582339684 -6.198551056033466 0 0 0 0 0.10731786059845838 -0.59444325746274806 0 -0.59444325746274806 -0.010131977135857229 0 0 0 0 -5.1263414780067205 -16.633932373957766 0 -16.633932373957766 1.4392259674846972 0 0 0 0 52.567944913404062 -27.5087212092767 0 -27.5087212092767 -6.0789514385687653 0 0 0 0 5.1135989288980284 -9.2445466587837437 0 -9.2445466587837437 -6.1327456332525374 0 0 0 0 4.7029546176272561 -6.5013289087437443 0 -6.5013289087437443 1.6949557866319083 0 0 0 0 -126.12187404470751 14.736669320103829 0 14.736669320103829 44.814819962773299 0 0 0 0 -62.736648189806147 -66.768323335079913 0 -66.768323335079913 -5.7627741859614616 0 0 0 0 -126.18829478483531 26.123532042933221 0 26.123532042933221 55.237846480988082 0 0 0 0 -120.90125907868787 10.320325374643289 0 10.320325374643289 13.355592843028717 0 0 0 0 -131.11661038402235 0.054466856920043938 0 0.054466856920043938 82.164892824861454 0 0 0 0 -45.589481369417626 -30.820985983402352 0 -30.820985983402352 49.865475329679612 0 0 0 0 0.083682119961797863 -0.3643937377186397 0 -0.3643937377186397 -0.12661849353397159 0 0 0 0 -147.1030073781294 11.300557322188979 0 11.300557322188979 59.541194682213245 0 0 0 0 -337.69498952502909 -201.8689283255917 0 -201.8689283255917 -59.73478912646533 0 0 0 0 -128.92095669655828 8.8801799645007122 0 8.8801799645007122 44.900748068023631 0 0 0 0 -283.55915378661302 -65.645137875286309 0 -65.645137875286309 -0.88097018921689596 0 0 0 0 6.9411724446690641 -141.94058852595481 0 -141.94058852595481 -10.071099656874139 0 0 0 0 20.745871019375045 -50.455590475350618 0 -50.455590475350618 -8.0381314288752037 0 0 0 0 0.0061957365687703714 -82.242525782712619 0 -82.242525782712619 -32.637146197506809 0 0 0 0 -21.74012847607446 -74.659741394674711 0 -74.659741394674711 -21.174824533212814 0 0 0 0 -22.079310925240861 -74.266568611994444 0 -74.266568611994444 -5.7608743539894931 0 0 0 0 -42.947097733558621 -62.832913890046257 0 -62.832913890046257 -5.7481101112207398 0 0 0 0 -12.384177593674394 -40.193454364001809 0 -40.193454364001809 10.22181301213277 0 0 0 0 -1.4902630908763967 -61.611386494150793 0 -61.611386494150793 -23.356854101961289 0 0 0 0 -0.024603685980876474 -69.662477636469589 0 -69.662477636469589 -44.292895603808574 0 0 0 0 102.92085158273039 -11.747255411211881 0 -11.747255411211881 -67.754018154577352 0 0 0 0 0.087270533994106891 -0.36826022278746429 0 -0.36826022278746429 -0.15795091051599641 0 0 0 0 -180.67019172996515 -184.29428090818692 0 -184.29428090818692 -94.636390332844144 0 0 0 0 -216.76076466133964 -228.29695943678598 0 -228.29695943678598 -108.56268508022185 0 0 0 0 0.6631272588148871 -0.5071025980778483 0 -0.5071025980778483 -0.63554404333952519 0 0 0 0 -85.485686166735832 133.43412793113384 0 133.43412793113384 -168.66892302420456 0 0 0 0 0.15834197999031963 -0.67336014857996673 0 -0.67336014857996673 -0.270262189437247 0 0 0 0 14.458319017125177 46.11266970988072 0 46.11266970988072 -101.28775346541079 0 0 0 0 -174.75323678261339 -159.98412708471187 0 -159.98412708471187 -178.26877123554004 0 0 0 0 -275.90680038850405 49.933712354963063 0 49.933712354963063 3.8054480279060954 0 0 0 0 20.909672709036386 55.989989103130938 0 55.989989103130938 -236.21090007538442 0 0 0 0 -29.442296598659595 56.380028720450355 0 56.380028720450355 -50.978920071996981 0 0 0 0 42.456567662302405 16.257161065761466 0 16.257161065761466 -75.840612673709984 0 0 0 0 22.832233046094188 33.579497335027554 0 33.579497335027554 -89.543414579282398 0 0 0 0 42.741786616599711 15.778751036985341 0 15.778751036985341 -93.083905935869552 0 0 0 0 97.517996210692218 -8.6045035002607619 0 -8.6045035002607619 -99.774071229305264 0 0 0 0 77.4451618619496 -24.410879839950212 0 -24.410879839950212 -88.037881007432588 0 0 0 0 174.4933821359009 -67.39835468295496 0 -67.39835468295496 -89.934545731954131 0 0 0 0 49.029896564199589 -74.485696750751231 0 -74.485696750751231 -121.61961196182892 0 0 0 0 -8.1575368782505393 3.3748456191096921 0 3.3748456191096921 -31.066602814564249 0 0 0 0 69.357907138197334 33.884396749432199 0 33.884396749432199 -154.60092990173143 0 0 0 0 1.2998937372779054 -1.0058853225072113 0 -1.0058853225072113 -0.40910091489898726 0 0 0 0 43.880082068091724 -37.972552184408414 0 -37.972552184408414 -153.37206660569063 0 0 0 0 99.020384180825204 -41.973918569623493 0 -41.973918569623493 -84.582598998289541 0 0 0 0 50.185518744481669 -33.398408766995999 0 -33.398408766995999 -84.910390165503486 0 0 0 0 56.700322452059481 -82.542357266080217 0 -82.542357266080217 -25.232773584481038 0 0 0 0 11.724983467400307 -56.738503172142373 0 -56.738503172142373 -22.239340693180566 0 0 0 0 8.2264234606991522 -86.278673862383584 0 -86.278673862383584 26.241022878806689 0 0 0 0 5.1516360714340408 -72.213159834981525 0 -72.213159834981525 38.305121582772699 0 0 0 0 -40.361435359867755 -71.046124042739393 0 -71.046124042739393 135.84504524004296 0 0 0 0 35.729934878530912 -111.09822705830447 0 -111.09822705830447 63.188108791408013 0 0 0 0 35.654329637327464 -107.66655360368713 0 -107.66655360368713 33.83747690715245 0 0 0 0 234.24635701958323 -206.87061008287128 0 -206.87061008287128 83.158353317165165 0 0 0 0 90.273826945995097 -122.81721974461834 0 -122.81721974461834 22.43792036875675 0 0 0 0 -64.240208782262926 -155.19623486428918 0 -155.19623486428918 178.47409900308412 0 0 0 0 -96.12399232754251 -51.370100366009865 0 -51.370100366009865 130.01763758090965 0 0 0 0 10.991268255049363 -42.966910443094093 0 -42.966910443094093 -60.67591433065536 0 0 0 0 -62.816183693590574 -21.08673379594984 0 -21.08673379594984 98.808990569610614 0 0 0 0 1.284770258827848 -0.96487259870805353 0 -0.96487259870805353 -0.87210652318711723 0 0 0 0 -6.9462282477179542 -45.839086453532218 0 -45.839086453532218 107.12023546587443 0 0 0 0 0.46558123431168497 9.9174638676995528 0 9.9174638676995528 86.999858042792766 0 0 0 0 83.879129021952394 -15.592032190172176 0 -15.592032190172176 -26.86451395903714 0 0 0 0 151.83423501148354 -71.94026403783937 0 -71.94026403783937 -19.280192619287845 0 0 0 0 209.55989811524887 23.108898400583712 0 23.108898400583712 99.471586362284143 0 0 0 0 88.373580614395905 -118.37209756202355 0 -118.37209756202355 259.80415561159316 0 0 0 0 -50.651522307394771 -28.990188573094201 0 -28.990188573094201 112.18293751402234 0 0 0 0 114.30079041837598 -66.682172192486178 0 -66.682172192486178 70.449700386190671 0 0 0 0 208.75946702403598 -61.372635693413031 0 -61.372635693413031 31.12568172342435 0 0 0 0 101.01623840510729 -140.89907409820808 0 -140.89907409820808 76.050386672548484 0 0 0 0 488.23083803756163 -217.76059130348585 0 -217.76059130348585 65.360751692562189 0 0 0 0 -0.71712641420822809 -0.18610117284267247 0 -0.18610117284267247 0.16119684733899575 0 0 0 0 -2.1534906171534631 -0.25334103875777814 0 -0.25334103875777814 0.46492569241816817 0 0 0 0 -24.5219968452584 -6.7961423365268274 0 -6.7961423365268274 8.1795174391227192 0 0 0 0 227.80145250383066 -100.23603313696367 0 -100.23603313696367 14.472807838421431 0 0 0 0 171.2965834440547 -115.4337431746535 0 -115.4337431746535 33.785765325633292 0 0 0 0 73.572678809025092 -111.88880493973556 0 -111.88880493973556 36.158968021045439 0 0 0 0 127.59731871346594 -73.861552094756917 0 -73.861552094756917 14.341103497106815 0 0 0 0 17.227861456136452 -21.719272575421201 0 -21.719272575421201 -15.211916349129751 0 0 0 0 -8.8198208212270401 -44.099253644104465 0 -44.099253644104465 9.6175922001857543 0 0 0 0 -0.5946900361450389 -41.594395978492685 0 -41.594395978492685 10.277849624413648 0 0 0 0 -70.738593015819788 -35.56720355044672 0 -35.56720355044672 7.9580695340118837 0 0 0 0 -18.505931267674896 -24.438802364908042 0 -24.438802364908042 17.56871729370323 0 0 0 0 -11.438594009028748 -20.818048637345782 0 -20.818048637345782 11.621761082191369 0 0 0 0 -43.359830191795481 9.5642366132669849 0 9.5642366132669849 72.940202641795622 0 0 0 0 -31.336141668416531 23.183438182906457 0 23.183438182906457 19.758712970113265 0 0 0 0 -13.112051376112504 -26.09313642934876 0 -26.09313642934876 19.69298651596182 0 0 0 0 -12.23526918279822 -9.119165339092433 0 -9.119165339092433 2.5706908036772802 0 0 0 0 -2.9952086952980608 53.792030763492221 0 53.792030763492221 -40.884702404724521 0 0 0 0 11.215193431491894 -13.034040860930984 0 -13.034040860930984 0.017709961950293618 0 0 0 0 -14.496585247397888 -25.027969697977824 0 -25.027969697977824 25.255622376163956 0 0 0 0 13.303628099849448 44.68171298901143 0 44.68171298901143 -40.424959953292273 0 0 0 0 27.903963556920644 16.855833316090866 0 16.855833316090866 -32.657218622134678 0 0 0 0 -14.108412147557829 25.500212593105971 0 25.500212593105971 -30.228942631150858 0 0 0 0 2.5170815909514204 -19.589659170451341 0 -19.589659170451341 18.635466807594639 0 0 0 0 -6.0879364387365058 2.0191395193542121 0 2.0191395193542121 23.051706535596168 0 0 0 0 24.168833091505803 -9.6283363229886163 0 -9.6283363229886163 8.7826809997204691 0 0 0 0 8.3158839431195375 -11.925086945773943 0 -11.925086945773943 1.473907689986806 0 0 0 0 -6.498466847335294 18.993450969950118 0 18.993450969950118 -12.860026577400276 0 0 0 0 2.8442357942985836 0.79365909098669363 0 0.79365909098669363 1.1046731355309021 0 0 0 0 12.149602054560091 -18.124297460482921 0 -18.124297460482921 18.740637953655096 0 0 0 0 15.546053467667662 -12.705234731329256 0 -12.705234731329256 26.298900511115789 0 0 0 0 77.502546845411416 -23.443775153202296 0 -23.443775153202296 -3.4447780445480021 0 0 0 0 28.419243501281017 -3.1964757058012765 0 -3.1964757058012765 17.862298490596004 0 0 0 0 66.800018192298012 -73.265239044543705 0 -73.265239044543705 65.383022070149309 0 0 0 0 188.97874346751269 -91.244539383671963 0 -91.244539383671963 18.433904909470584 0 0 0 0 8.5716021768525934 -7.4923645277188751 0 -7.4923645277188751 2.2285426087097999 0 0 0 0 191.97366176162177 -131.97251223424155 0 -131.97251223424155 72.444102391178603 0 0 0 0 34.977131852181628 1.9293915143352933 0 1.9293915143352933 5.2482419325024239 0 0 0 0 -13.943913767172489 0.33058313078072388 0 0.33058313078072388 10.06849480420351 0 0 0 0 0.69431128890143157 -0.4866473187247955 0 -0.4866473187247955 -0.33221937069554031 0 0 0 0 73.134312520487583 -126.98171786735111 0 -126.98171786735111 51.830713071030914 0 0 0 0 74.243176423711702 -42.661599604711228 0 -42.661599604711228 -12.385594220730127 0 0 0 0 162.44324085890548 -67.981976422874141 0 -67.981976422874141 -5.3733664093306288 0 0 0 0 79.334154980344465 -106.02072366925131 0 -106.02072366925131 30.678292498494557 0 0 0 0 32.771485998295248 -103.4409738840186 0 -103.4409738840186 36.666468152754305 0 0 0 0 28.762352126359474 -92.70402737949189 0 -92.70402737949189 36.964041564082663 0 0 0 0 -14.742049114865949 -110.82848911548717 0 -110.82848911548717 48.815818756600493 0 0 0 0 32.554545981402043 -104.96128334646346 0 -104.96128334646346 40.470482501004881 0 0 0 0 -33.544826130964793 -80.705871130856394 0 -80.705871130856394 44.54201041781198 0 0 0 0 -34.358682381600374 -59.940763563974542 0 -59.940763563974542 28.203378748992691 0 0 0 0 -112.60917009654804 -64.381510905463074 0 -64.381510905463074 50.261222742876271 0 0 0 0 -46.657586582616204 -83.348683160693326 0 -83.348683160693326 28.575685784002417 0 0 0 0 -40.643441847205395 -74.001671847589023 0 -74.001671847589023 41.3558390294329 0 0 0 0 16.737824067429756 -129.07030949653563 0 -129.07030949653563 44.478646386633045 0 0 0 0 55.298092434459249 -131.14565883825708 0 -131.14565883825708 12.058778404389159 0 0 0 0 55.10649560931779 -81.2618909677185 0 -81.2618909677185 20.346556301767123 0 0 0 0 -60.14864009275334 -104.43870612504543 0 -104.43870612504543 48.974223803059431 0 0 0 0 -147.99151953576074 -19.356995532245492 0 -19.356995532245492 2.7392972189554712 0 0 0 0 -183.13973947544582 -52.551186824064644 0 -52.551186824064644 48.349853154089942 0 0 0 0 -58.647202853462659 -80.593427177016565 0 -80.593427177016565 -0.71390187369252089 0 0 0 0 -248.25505160745524 -95.735508267001933 0 -95.735508267001933 28.742604751896579 0 0 0 0 -113.43346153003222 24.704606723757024 0 24.704606723757024 6.7000812098995084 0 0 0 0 -292.54192292317384 68.502699220350223 0 68.502699220350223 -29.639814739275607 0 0 0 0 -38.78355117677711 -52.051590112721897 0 -52.051590112721897 33.211375217477325 0 0 0 0 -57.657727583951782 -95.006627499344177 0 -95.006627499344177 -53.278684315471764 0 0 0 0 51.252506856006221 -36.232830270277191 0 -36.232830270277191 42.702509678492788 0 0 0 0 0.022166045077028684 -70.555406196246622 0 -70.555406196246622 28.27083728028083 0 0 0 0 -498.33980831662484 13.429296064128721 0 13.429296064128721 22.980999759456608 0 0 0 0 -0.47062833839757978 -0.75362158648957234 0 -0.75362158648957234 0.45970265906494134 0 0 0 0 140.54933175284532 -111.48021373372467 0 -111.48021373372467 -16.190883797360584 0 0 0 0 -1.1667093682476199 -1.9030199975693858 0 -1.9030199975693858 1.1372206956350457 0 0 0 0 44.770479024387896 -45.312682970470632 0 -45.312682970470632 24.59656548233761 0 0 0 0 21.08582027630473 -44.575097349348653 0 -44.575097349348653 43.376110155120841 0 0 0 0 0.030497687883325852 -31.884787969171157 0 -31.884787969171157 39.061956228899362 0 0 0 0 32.515433304186445 -21.527190684755624 0 -21.527190684755624 10.03914505931607 0 0 0 0 -201.87232149585907 20.604383654790581 0 20.604383654790581 31.043032785091782 0 0 0 0 -91.132906663726317 4.9090173982040142 0 4.9090173982040142 -15.750766694734921 0 0 0 0 -87.018237184267491 -30.880388458142988 0 -30.880388458142988 22.041346018908371 0 0 0 0 -44.939043971302453 -23.568407333397772 0 -23.568407333397772 17.299269227034529 0 0 0 0 -70.463051739847288 -45.939761015339172 0 -45.939761015339172 41.00907017532154 0 0 0 0 2.2639010495040566 -10.626768218891812 0 -10.626768218891812 9.3590950572888687 0 0 0 0 0.016052770282840356 -7.1127036043217231 0 -7.1127036043217231 6.0945492488099262 0 0 0 0 6.8833670879539568 -9.1362943012136384 0 -9.1362943012136384 3.828156118048355 0 0 0 0 -97.855812683628756 6.421462971580695 0 6.421462971580695 26.911462834017584 0 0 0 0 -1.5625691788454397 -2.6168250946207579 0 -2.6168250946207579 1.5005646633650969 0 0 0 0 5.0361070979270153 -4.3713766001455951 0 -4.3713766001455951 -2.197613603901118 0 0 0 0 5.0833267905982211 -3.6708578030120407 0 -3.6708578030120407 -0.84667980123776942 0 0 0 0 3.5805516637628898 -3.6435430311539676 0 -3.6435430311539676 0.10748839093139395 0 0 0 0 0.026627442025553449 -0.035933437133158108 0 -0.035933437133158108 -0.038955506162494657 0 0 0 0 -15.678755708620884 -14.718061952349672 0 -14.718061952349672 -13.008937444199546 0 0 0 0 -55.761327256448567 15.274161334993551 0 15.274161334993551 -3.6900725945597515 0 0 0 0 -56.710634201124776 -31.426290522053023 0 -31.426290522053023 24.44532680199336 0 0 0 0 2.913225864758715 -59.405626737250714 0 -59.405626737250714 14.1643463563164 0 0 0 0 -14.356316214543767 -70.618500846525421 0 -70.618500846525421 39.870062416311157 0 0 0 0 -36.991850623453502 -29.626098149077734 0 -29.626098149077734 14.738381953386124 0 0 0 0 -19.035520876641385 -65.15042121650913 0 -65.15042121650913 30.949018895247718 0 0 0 0 -3.9306720608146861 -75.281082964647794 0 -75.281082964647794 36.75632678999682 0 0 0 0 14.295255159842782 -65.629814776228159 0 -65.629814776228159 16.975412675470579 0 0 0 0 41.005714483064367 -101.64671587971679 0 -101.64671587971679 -26.554110885714181 0 0 0 0 62.169362998392899 -44.735368690089672 0 -44.735368690089672 -6.2742817166363238 0 0 0 0 6.3841119303251617 -111.09779577553127 0 -111.09779577553127 32.88529722279327 0 0 0 0 -0.0017645292682573199 -2.8179957533393463 0 -2.8179957533393463 0.079809531502974096 0 0 0 0 -2.1927479362232134 -1.8747328812014761 0 -1.8747328812014761 1.3026282821145792 0 0 0 0 1.2702889916790134 -0.92485332371593465 0 -0.92485332371593465 -1.1846086032603012 0 0 0 0 -4.4820006817244575 14.430399055743692 0 14.430399055743692 -48.430400763005309 0 0 0 0 13.405948729166994 -77.660318786889547 0 -77.660318786889547 85.268247191059345 0 0 0 0 5.5576266768330242 -100.96469358999093 0 -100.96469358999093 58.613536554606981 0 0 0 0 42.060690443162457 -92.03152726999906 0 -92.03152726999906 31.107388123928104 0 0 0 0 11.493452269874979 -83.402398225865909 0 -83.402398225865909 37.467324260731402 0 0 0 0 -16.662932971055852 -62.511098677019618 0 -62.511098677019618 55.34109482877102 0 0 0 0 -14.501227735414432 -93.407592339662642 0 -93.407592339662642 83.704767874849495 0 0 0 0 -0.18334065121784704 -0.25430450741056632 0 -0.25430450741056632 0.33894272732658726 0 0 0 0 -32.77119511316414 -61.786179181082844 0 -61.786179181082844 229.29900517882197 0 0 0 0 10.168442338137538 -130.64243510438882 0 -130.64243510438882 72.160391914992942 0 0 0 0 3.5963760498852935 -21.995843086806417 0 -21.995843086806417 64.159701318159932 0 0 0 0 -17.172211223049089 -39.66310485961003 0 -39.66310485961003 -175.38402993702584 0 0 0 0 135.84174178531975 -207.40099403301429 0 -207.40099403301429 -336.64450213744567 0 0 0 0 15.656408803683007 -125.09691648015723 0 -125.09691648015723 -34.1937191033212 0 0 0 0 353.81355177992373 128.76220793602988 0 128.76220793602988 -178.87591382386381 0 0 0 0 -0.077642804433708079 -115.24296498927652 0 -115.24296498927652 -187.27328087475325 0 0 0 0 -68.457221711418242 -120.16099268973267 0 -120.16099268973267 -101.58426878596947 0 0 0 0 -125.12713355553569 -87.592162255019502 0 -87.592162255019502 10.475747557367868 0 0 0 0 -60.091946821208694 -122.45808096971268 0 -122.45808096971268 -173.90097575932305 0 0 0 0 1.0517936240703243 -0.77926083618118724 0 -0.77926083618118724 -1.115835780446389 0 0 0 0 281.77919409039896 -6.3512629917713639 0 -6.3512629917713639 -166.27566426667181 0 0 0 0 -98.324807080614846 -145.25372133802375 0 -145.25372133802375 -152.57710772180508 0 0 0 0 -59.576100495876744 -211.08238083885226 0 -211.08238083885226 -322.92711440050334 0 0 0 0 0.047705199914243268 -162.96356375518195 0 -162.96356375518195 -394.26442321172362 0 0 0 0 -23.497801173041807 -112.58975932980138 0 -112.58975932980138 -280.22973720228765 0 0 0 0 30.104837219638284 -196.29172041451602 0 -196.29172041451602 -540.8877628348182 0 0 0 0 -343.85533781042614 -403.93516552604888 0 -403.93516552604888 -392.89712898550351 0 0 0 0 0.44302877631220738 -0.3336203262692905 0 -0.3336203262692905 -0.49579957344688808 0 0 0 0 -48.474813197695767 -175.33121458052665 0 -175.33121458052665 -406.62821597324 0 0 0 0 7.7525014653365361 -160.61120168283742 0 -160.61120168283742 -430.25082455977099 0 0 0 0 -35.044514934132167 -138.79719594151993 0 -138.79719594151993 -298.46758353430778 0 0 0 0 35.038224001989875 -59.234690384553687 0 -59.234690384553687 -280.54179322130949 0 0 0 0 -95.152206273647607 -161.66869121017498 0 -161.66869121017498 -106.82016487017972 0 0 0 0 -206.05992629966931 -8.4529524378776841 0 -8.4529524378776841 -291.262177418801 0 0 0 0 29.165118744203937 -122.18630274779753 0 -122.18630274779753 -103.60890653589013 0 0 0 0 -101.06869566065143 -97.471621439486626 0 -97.471621439486626 82.374994122532371 0 0 0 0 -48.433500185987214 -163.41577539144782 0 -163.41577539144782 68.259192509845889 0 0 0 0 -20.534960990811669 -35.481008871327504 0 -35.481008871327504 88.617556586796127 0 0 0 0 -0.028660231939284131 -177.07598738492197 0 -177.07598738492197 108.58644703427126 0 0 0 0 0.046568372650654055 -178.63584990192976 0 -178.63584990192976 -228.57434643737361 0 0 0 0 3.0090210202761227 -35.242770431590543 0 -35.242770431590543 -36.875694823465892 0 0 0 0 -27.016416929705883 -158.08546975635181 0 -158.08546975635181 -72.664022902783472 0 0 0 0 -11.314240293577313 -158.59139364202929 0 -158.59139364202929 276.83208762767765 0 0 0 0 -10.817868908372475 -170.10898727688254 0 -170.10898727688254 -17.597891929257457 0 0 0 0 232.53230305627221 -117.63073788279144 0 -117.63073788279144 -40.741165638992243 0 0 0 0 -0.37981772771764355 -0.039743080930188412 0 -0.039743080930188412 0.24994617775034644 0 0 0 0 -43.235621116735274 -371.02477226415067 0 -371.02477226415067 270.48466134824935 0 0 0 0 -110.74847530899569 -329.73226520857497 0 -329.73226520857497 154.13489811930413 0 0 0 0 -33.820368992455769 -351.62458842755223 0 -351.62458842755223 103.16486732575504 0 0 0 0 -106.78265019226819 -306.84348138873247 0 -306.84348138873247 132.92429369995807 0 0 0 0 -73.270899867231492 -246.0573049651648 0 -246.0573049651648 -25.768344967356825 0 0 0 0 -218.74383124750193 -366.98408557092569 0 -366.98408557092569 -354.61559896201652 0 0 0 0 -182.67998159237322 -175.83334961100627 0 -175.83334961100627 -22.827274707529341 0 0 0 0 -55.731612717849202 -283.44440734162708 0 -283.44440734162708 -167.77474824689125 0 0 0 0 -32.124291499334504 20.308484646380748 0 20.308484646380748 -215.71629699430196 0 0 0 0 35.439625705417711 -51.731254568927397 0 -51.731254568927397 -717.61389954831611 0 0 0 0 -0.31261710344809046 0.16935722220697791 0 0.16935722220697791 0.13460909335407667 0 0 0 0 -139.16982938745787 2.5186563794013637 0 2.5186563794013637 -156.79310394547065 0 0 0 0 -245.62962235091254 50.433771792297193 0 50.433771792297193 371.84679493560543 0 0 0 0 -144.58169601495933 -483.33670908201316 0 -483.33670908201316 20.083278167840035 0 0 0 0 -159.94894968078006 422.81662350788247 0 422.81662350788247 -156.14475928557658 0 0 0 0 72.608175107074203 117.07161865526723 0 117.07161865526723 -457.70168314699549 0 0 0 0 -0.59996680039475692 0.35280365816740122 0 0.35280365816740122 0.27676021817497443 0 0 0 0 57.833008267887635 -29.89026821256266 0 -29.89026821256266 -214.75564369426684 0 0 0 0 -3.7223976411842159 -73.517725968297782 0 -73.517725968297782 39.793023842990806 0 0 0 0 159.74105775530916 -73.631705891322781 0 -73.631705891322781 -58.006386577082594 0 0 0 0 -0.48873761904527058 0.3610431783200756 0 0.3610431783200756 0.2695618998328051 0 0 0 0 82.152417663834058 -79.931608764312841 0 -79.931608764312841 -318.69099848004407 0 0 0 0 134.83579494073638 22.491407993500616 0 22.491407993500616 -325.97926067417575 0 0 0 0 10.149534306226997 -7.8952734161757689 0 -7.8952734161757689 -18.330376889029139 0 0 0 0 -52.357140038628131 104.79898205560312 0 104.79898205560312 -180.29784867071066 0 0 0 0 6.2070536153205325 2.4544810416539646 0 2.4544810416539646 -3.241630102378815 0 0 0 0 46.286371894966578 39.784278320003068 0 39.784278320003068 -0.48106224431830924 0 0 0 0 -0.19594887933635619 4.4967818647746753 0 4.4967818647746753 -5.9251339723268757 0 0 0 0 -15.400658197351731 -88.217359805890737 0 -88.217359805890737 -680.93816330291884 0 0 0 0 -9.8043458052561618 -28.560991877446213 0 -28.560991877446213 -179.87522896841983 0 0 0 0 -18.974886830162632 -109.14083958744317 0 -109.14083958744317 -261.79537118271401 0 0 0 0 -115.32046308273857 175.79626342317715 0 175.79626342317715 -258.82106498254871 0 0 0 0 -196.17302168897004 -218.50530616232209 0 -218.50530616232209 -227.05193836060062 0 0 0 0 0.41205164610597955 -0.86622760735713911 0 -0.86622760735713911 -0.32482678673774501 0 0 0 0 -141.18715667867218 -108.4061550312399 0 -108.4061550312399 -61.798502645782719 0 0 0 0 -0.87965103163476144 -1.3610435337145788 0 -1.3610435337145788 1.3313974735661245 0 0 0 0 13.836073596146889 -22.778862468418083 0 -22.778862468418083 29.986147685249307 0 0 0 0 -5.5758818637341392 -5.9543932766098351 0 -5.9543932766098351 -4.3345867271564202 0 0 0 0 7.5455797015721924 -6.5639549848480083 0 -6.5639549848480083 0.6299212779263712 0 0 0 0 -7.7891328588011675 -5.5877836283980287 0 -5.5877836283980287 17.840967944619479 0 0 0 0 7.9483944400415716 -7.1915598477039637 0 -7.1915598477039637 1.4531574020364353 0 0 0 0 -17.854826233291533 -4.8825909554075224 0 -4.8825909554075224 7.1029972689866554 0 0 0 0 13.712708368901986 -28.530830716762921 0 -28.530830716762921 13.018519100412959 0 0 0 0 35.85354586323956 -39.276591797635774 0 -39.276591797635774 16.006086316334404 0 0 0 0 21.635841713490663 -63.116515885129047 0 -63.116515885129047 38.898852681741118 0 0 0 0 61.18940334932995 3.3788848923213664 0 3.3788848923213664 -11.324557703650498 0 0 0 0 18.568088079322479 -14.882040445743769 0 -14.882040445743769 -4.739917122584302 0 0 0 0 -4.0057954444200732 -14.511609257497184 0 -14.511609257497184 7.8327868043415947 0 0 0 0 5.5879444037273061 -4.026425746109453 0 -4.026425746109453 -6.219755370679195 0 0 0 0 58.846132220787695 -20.0183339111245 0 -20.0183339111245 -4.0505497063713847 0 0 0 0 23.141941078774835 -0.21201307745195663 0 -0.21201307745195663 -6.9362875311053358 0 0 0 0 115.62553304916946 -13.634827301946643 0 -13.634827301946643 -19.603599890033365 0 0 0 0 89.823318338370882 -8.0976836667541647 0 -8.0976836667541647 -20.770592000371835 0 0 0 0 94.745746527594747 -0.37345955578348367 0 -0.37345955578348367 -41.369315520743839 0 0 0 0 99.182523661875166 -11.585603081053705 0 -11.585603081053705 -35.998325627268059 0 0 0 0 94.09604270895943 0.22350737181841396 0 0.22350737181841396 -30.527238006055995 0 0 0 0 82.34434824399068 0.13615432673395844 0 0.13615432673395844 -29.498914317518938 0 0 0 0 58.314698962232796 13.959826314174279 0 13.959826314174279 -35.717871306987945 0 0 0 0 118.69889498999692 12.653063011006452 0 12.653063011006452 -66.285810296132695 0 0 0 0 101.44198882456112 28.442629070337716 0 28.442629070337716 -38.822397201904096 0 0 0 0 111.23602121655131 -9.7751695480837952 0 -9.7751695480837952 -120.46355460493942 0 0 0 0 100.12161271640798 -6.7896094285533763 0 -6.7896094285533763 -69.577443825106457 0 0 0 0 71.636341296543833 -17.403652228844294 0 -17.403652228844294 -51.567135673423763 0 0 0 0 80.667417556978762 -26.555705552193103 0 -26.555705552193103 -69.834115785168251 0 0 0 0 93.457856131870358 8.8684300410777723 0 8.8684300410777723 -7.3148612851655344 0 0 0 0 90.916113674698863 -10.509279977253755 0 -10.509279977253755 -56.546264288481325 0 0 0 0 -163.36750970082358 -78.758246482175309 0 -78.758246482175309 -58.524010529159568 0 0 0 0 60.379879309097305 -35.640873691736488 0 -35.640873691736488 -9.1430346922716126 0 0 0 0 81.477317376440624 -1.3328941083673271 0 -1.3328941083673271 -35.308366751065478 0 0 0 0 89.629994361923309 -8.6321666522853775 0 -8.6321666522853775 -37.105994695157278 0 0 0 0 95.588514746632427 1.626735519428621 0 1.626735519428621 -31.74876078221132 0 0 0 0 90.43004244833719 -4.6673341214627726 0 -4.6673341214627726 -21.104480036068708 0 0 0 0 99.56182896651444 9.0721267214757972 0 9.0721267214757972 -9.8216165127814747 0 0 0 0 80.716167276070337 9.2041217750156648 0 9.2041217750156648 -2.1053044737200253 0 0 0 0 -49.281481480458751 1.3902604301692918 0 1.3902604301692918 -6.7515340945246862 0 0 0 0 -17.157029823298217 5.1489950838222285 0 5.1489950838222285 -22.984165021975059 0 0 0 0 0.44806481768304529 0.06820488584812523 0 0.06820488584812523 -0.15291259535147361 0 0 0 0 -38.565296422944812 -14.639664674192318 0 -14.639664674192318 -37.816440783266444 0 0 0 0 -5.4285988433082792 -23.432612267271672 0 -23.432612267271672 5.6216758168452845 0 0 0 0 -0.24874731923086113 -0.019219807601749128 0 -0.019219807601749128 0.040539244847376921 0 0 0 0 34.271412860831333 -1.7083177962704212 0 -1.7083177962704212 -46.173962312561343 0 0 0 0 -18.132606144856254 3.5179611024286714 0 3.5179611024286714 -4.881815290209488 0 0 0 0 0.26946107370167738 18.655400191571971 0 18.655400191571971 7.3802122143970337 0 0 0 0 3.8853796416881323 73.627116343768193 0 73.627116343768193 42.274246241926448 0 0 0 0 131.05330044995208 37.039185558482131 0 37.039185558482131 -65.701097276050859 0 0 0 0 319.89833477409411 211.22684205754922 0 211.22684205754922 88.564509056290262 0 0 0 0 -73.007277138698555 -16.004477012087591 0 -16.004477012087591 112.19502262996684 0 0 0 0 -90.189409698861709 -120.25733066828252 0 -120.25733066828252 -51.875340514699928 0 0 0 0 -366.58026552211959 12.959916001236707 0 12.959916001236707 668.77067468114547 0 0 0 0 56.356208076191251 -88.964261383957819 0 -88.964261383957819 -165.75242710612656 0 0 0 0 -82.194608248581062 -49.646434179383505 0 -49.646434179383505 31.427845336133032 0 0 0 0 5.6362818841990059 -21.119281894585903 0 -21.119281894585903 -8.5270764836987887 0 0 0 0 -73.4713881648604 -51.505045634163253 0 -51.505045634163253 -15.804599509137915 0 0 0 0 -38.043449885371956 -68.997820738843075 0 -68.997820738843075 -45.470095485979982 0 0 0 0 120.89016429329058 45.426184897492931 0 45.426184897492931 -218.43789548076165 0 0 0 0 -95.486670795034797 -27.909144642789045 0 -27.909144642789045 -6.7344295382063137 0 0 0 0 80.683998332417104 40.188164773022436 0 40.188164773022436 -29.639674933016067 0 0 0 0 21.950579523861961 -66.705081238254934 0 -66.705081238254934 -74.365808415106585 0 0 0 0 -89.029001700166873 -716.464373315442 0 -716.464373315442 -490.49468411265116 0 0 0 0 4.2197652055393426 -21.579310476023736 0 -21.579310476023736 -6.4316502091399315 0 0 0 0 -347.47760892325459 -184.7464057499019 0 -184.7464057499019 73.827585359103978 0 0 0 0 0.65723522586979111 -0.36246652739065466 0 -0.36246652739065466 -0.39522471098045919 0 0 0 0 39.247176807988581 -23.517866487192805 0 -23.517866487192805 -5.7704638158047601 0 0 0 0 2.2652930137565761 -21.902218593563852 0 -21.902218593563852 -4.6864530590798683 0 0 0 0 -964.422400333322 -359.3911127550673 0 -359.3911127550673 915.82760939268701 0 0 0 0 1012.8392934568692 -283.78760258368857 0 -283.78760258368857 -745.29787392000071 0 0 0 0 907.56513187411474 288.49776571844995 0 288.49776571844995 -516.50610105111991 0 0 0 0 344.8553552373487 446.84273335828038 0 446.84273335828038 282.79446176343481 0 0 0 0 103.72523105633445 -460.18396185013989 0 -460.18396185013989 43.828515023077898 0 0 0 0 -181.14332549297251 -353.02053769397025 0 -353.02053769397025 41.278760491244611 0 0 0 0 1.3524003519354366 0.78730708153329054 0 0.78730708153329054 -0.77947029843228632 0 0 0 0 122.07658550987253 379.41741025135707 0 379.41741025135707 469.68720429526729 0 0 0 0 -0.19686337878226823 0.17094172488806691 0 0.17094172488806691 0.12404395556685222 0 0 0 0 3.8798106728001258 1.8813665818769665 0 1.8813665818769665 -2.1231231408942195 0 0 0 0 10.3541472988436 36.885446039006638 0 36.885446039006638 -501.79575263341758 0 0 0 0 188.2331870412454 37.031779826651473 0 37.031779826651473 -690.5223721532675 0 0 0 0 60.069212286733091 35.777799021438113 0 35.777799021438113 -4.6242958901493694 0 0 0 0 56.148511068779044 31.533456294517237 0 31.533456294517237 17.774435086728772 0 0 0 0 72.839673505688552 37.195381558522058 0 37.195381558522058 -39.502557545545642 0 0 0 0 101.34712460596347 75.080818625599932 0 75.080818625599932 10.319004152639536 0 0 0 0 156.1671481213998 62.428467068813916 0 62.428467068813916 -102.28708622328122 0 0 0 0 112.15365513009601 40.548717441366534 0 40.548717441366534 -70.280593093833886 0 0 0 0 268.79950017094961 209.84573396507767 0 209.84573396507767 -150.50505847476597 0 0 0 0 63.880598238727544 97.77691610660986 0 97.77691610660986 310.86847935029073 0 0 0 0 0.015331535125369555 -22.492178785927536 0 -22.492178785927536 14.648803489661077 0 0 0 0 2.6362476610811427 -19.604296199700912 0 -19.604296199700912 -7.2429887049875106 0 0 0 0 19.361674198618857 -10.921129575443047 0 -10.921129575443047 -10.055214692438312 0 0 0 0 6.1502397559692668 -12.788161966772918 0 -12.788161966772918 -9.0149152480007615 0 0 0 0 -31.515530875178229 -36.569515136601694 0 -36.569515136601694 16.477825717331143 0 0 0 0 5.9951119851936028 -3.7659183529306688 0 -3.7659183529306688 -35.687253429772682 0 0 0 0 3.4042047660295793 -23.965756909747142 0 -23.965756909747142 -65.580623488742276 0 0 0 0 0.074081116553159632 -2.469832808644 0 -2.469832808644 -0.38993270333654162 0 0 0 0 -62.663926447152335 -54.568428855825914 0 -54.568428855825914 88.425564665660204 0 0 0 0 14.208669642688619 4.2712862360549479 0 4.2712862360549479 37.959860478847986 0 0 0 0 -31.065560541770537 -38.296777916424617 0 -38.296777916424617 -33.691606139826035 0 0 0 0 -10.641988340229091 -19.448890789089091 0 -19.448890789089091 -23.929370169062167 0 0 0 0 -11.094351115403697 -28.911730759027705 0 -28.911730759027705 -12.455314228711359 0 0 0 0 -30.081344197795261 -33.946054447871575 0 -33.946054447871575 -0.55434898932435317 0 0 0 0 -30.203879426779167 -16.186511601379607 0 -16.186511601379607 15.637427376845153 0 0 0 0 -34.639196816257027 -22.446484679778223 0 -22.446484679778223 26.566658724739682 0 0 0 0 -24.872669386109919 1.8529502225283068 0 1.8529502225283068 50.996154555661633 0 0 0 0 -22.31389707575272 -8.6337221212452278 0 -8.6337221212452278 -55.655470960569801 0 0 0 0 19.437083004508168 -80.55635094390891 0 -80.55635094390891 25.43203698155412 0 0 0 0 -31.307180152284673 -47.925721291760055 0 -47.925721291760055 -15.325186590809608 0 0 0 0 -29.807000508255442 -1.7332180019875523 0 -1.7332180019875523 167.99966177590977 0 0 0 0 63.710294781169068 -17.149887139999919 0 -17.149887139999919 -235.92835473676678 0 0 0 0 0.015654891723461795 -0.76534965865911797 0 -0.76534965865911797 -0.12512549682262419 0 0 0 0 -41.323368164623389 -7.6036786147014936 0 -7.6036786147014936 -53.920536024234025 0 0 0 0 71.888338435586775 -33.030637120915344 0 -33.030637120915344 -13.147085418000643 0 0 0 0 4.9212249683987466 -68.040132854694093 0 -68.040132854694093 80.062352327411645 0 0 0 0 91.6613302725018 -131.16700696494081 0 -131.16700696494081 -159.94145849377674 0 0 0 0 2.0238537966833974 -94.01715094343308 0 -94.01715094343308 22.644370152498595 0 0 0 0 160.45141347420576 -31.548208531472483 0 -31.548208531472483 -0.28258678722704644 0 0 0 0 81.823807706765365 -182.25717630666622 0 -182.25717630666622 -52.720044344430789 0 0 0 0 22.281631864723749 -44.4375665368716 0 -44.4375665368716 -21.812858681227226 0 0 0 0 96.214637338547618 -149.58477879156999 0 -149.58477879156999 116.68795555544784 0 0 0 0 6.4426674150890904 -5.1440658473002259 0 -5.1440658473002259 97.937272246548673 0 0 0 0 -10.1322579040243 -22.928996013055439 0 -22.928996013055439 92.372626395663247 0 0 0 0 62.088205716805533 -82.654239833995234 0 -82.654239833995234 204.3798010801911 0 0 0 0 368.80421326878786 -172.96315818156836 0 -172.96315818156836 70.579006154963281 0 0 0 0 0.32843594087390926 -0.41945686754090672 0 -0.41945686754090672 -0.3217735848315062 0 0 0 0 115.70117092753935 -329.55290549708297 0 -329.55290549708297 -347.95077468668751 0 0 0 0 561.25270749981064 327.23628006651415 0 327.23628006651415 -214.36882686259924 0 0 0 0 848.69849234975118 -192.91422549398703 0 -192.91422549398703 -682.1806310969987 0 0 0 0 15.835922226486218 40.734494202422866 0 40.734494202422866 48.144194957625587 0 0 0 0 19.33894805530872 21.158548075072758 0 21.158548075072758 131.27593012678699 0 0 0 0 149.09982666920405 -25.198596467584139 0 -25.198596467584139 6.7044766301405616 0 0 0 0 -86.751766975648934 106.2167246607205 0 106.2167246607205 34.845304210408358 0 0 0 0 146.09198214916978 209.25490846075991 0 209.25490846075991 141.15338350529782 0 0 0 0 -33.626157609774964 12.167976269731298 0 12.167976269731298 178.67307137609168 0 0 0 0 1.9482462106584828 -0.96941939936399901 0 -0.96941939936399901 -1.1955879254481125 0 0 0 0 44.812956767542346 -45.416847241031064 0 -45.416847241031064 -140.02357613921777 0 0 0 0 -67.110070587557857 -84.703149889228371 0 -84.703149889228371 0.46809271737583913 0 0 0 0 23.150692674760649 -39.850093549823214 0 -39.850093549823214 -25.552056180575164 0 0 0 0 140.67757807567978 -25.989662789426802 0 -25.989662789426802 -60.627586787886685 0 0 0 0 45.51037623297816 -62.622136978296112 0 -62.622136978296112 55.956795587786473 0 0 0 0 0.90793175516509494 -1.2638942878390707 0 -1.2638942878390707 -0.85265372109084936 0 0 0 0 -0.059404770462924361 -0.12653777614033812 0 -0.12653777614033812 -0.17932872994383331 0 0 0 0 149.87152057011917 -21.000987502395674 0 -21.000987502395674 -15.025136524389382 0 0 0 0 -6.1559539731169934 -0.95306975447601872 0 -0.95306975447601872 10.100684093718883 0 0 0 0 34.452141149435192 9.568407623875828 0 9.568407623875828 -12.959003514086362 0 0 0 0 99.362098586014326 55.190455777566967 0 55.190455777566967 13.832564139040187 0 0 0 0 -2.2298766536779215 -3.3317771483010432 0 -3.3317771483010432 1.2607099932089603 0 0 0 0 4.2777446559577905 -0.027159658554453348 0 -0.027159658554453348 -3.724463328482714 0 0 0 0 -5.9968506394438919 -2.5602209456096716 0 -2.5602209456096716 12.62007204334077 0 0 0 0 -13.741946447567898 -1.7237721043129568 0 -1.7237721043129568 12.791285782514024 0 0 0 0 -6.7610337066289503 8.2395735040263389 0 8.2395735040263389 24.109174787576194 0 0 0 0 -5.2826567066658754 8.8141604447882855 0 8.8141604447882855 4.0140098746342119 0 0 0 0 -22.376236248524037 0.43007613580266479 0 0.43007613580266479 39.844588248874061 0 0 0 0 -8.64975530889933 -11.094379165697319 0 -11.094379165697319 13.566475795290899 0 0 0 0 -14.677270065170887 -15.09749138791085 0 -15.09749138791085 12.883821217401419 0 0 0 0 -26.415777772052934 -14.67436566829474 0 -14.67436566829474 18.868223989469698 0 0 0 0 -14.881160120218738 -24.901332212603847 0 -24.901332212603847 8.5538849399017636 0 0 0 0 -8.2483856382896192 -8.5500404578560847 0 -8.5500404578560847 20.327370232145768 0 0 0 0 -1.5731451366154943 -13.074023628454597 0 -13.074023628454597 13.092611210238829 0 0 0 0 -0.69369942553194086 -14.586469986050732 0 -14.586469986050732 1.6360941460894587 0 0 0 0 -4.7891328658924976 -27.428999061639615 0 -27.428999061639615 -4.3366549924394349 0 0 0 0 -3.1914711072895443 -7.8287622414572979 0 -7.8287622414572979 3.6457866094788187 0 0 0 0 -5.4454289023851743 -18.835712930208047 0 -18.835712930208047 8.5894958562712418 0 0 0 0 12.026491798904317 -34.539235314728103 0 -34.539235314728103 10.010571005303063 0 0 0 0 -2.0441278903967248 -14.279634231048567 0 -14.279634231048567 2.3996396243404288 0 0 0 0 -15.338536590308649 -16.859523259256093 0 -16.859523259256093 9.0330091010582692 0 0 0 0 9.7490440179317375 -16.284033713076496 0 -16.284033713076496 9.6685780891712056 0 0 0 0 -30.60584262084285 -25.656176751532485 0 -25.656176751532485 -10.035677827356267 0 0 0 0 -22.909489969739298 -18.090888165133947 0 -18.090888165133947 -28.967014927460696 0 0 0 0 -13.269247247651947 -27.376841410838097 0 -27.376841410838097 0.79570583540771622 0 0 0 0 -7.9590252329653595 -32.567634125148288 0 -32.567634125148288 -6.178793371822394 0 0 0 0 -4.1106466366066616 -9.1513932996645657 0 -9.1513932996645657 4.4077545708365085 0 0 0 0 -20.974971311901754 -16.77710519752145 0 -16.77710519752145 -15.233913825977652 0 0 0 0 0.28562177850108128 -2.0412028684513643 0 -2.0412028684513643 -2.2110477592577809 0 0 0 0 10.208654119536373 -14.895717113620233 0 -14.895717113620233 1.2102625567919887 0 0 0 0 2.2025660965955467 -6.9910774449526798 0 -6.9910774449526798 -5.2308962327224435 0 0 0 0 3.7931192112710352 -5.2998146973289648 0 -5.2998146973289648 -5.1102878606870101 0 0 0 0 4.5933028208273754 -5.3962871998901392 0 -5.3962871998901392 -6.5383563038176362 0 0 0 0 2.0177557597053237 -6.1438731129010193 0 -6.1438731129010193 -5.4913503318966832 0 0 0 0 26.487744182588358 -10.452610781623662 0 -10.452610781623662 -5.2773595917678904 0 0 0 0 18.938640571335707 -11.204631124938679 0 -11.204631124938679 -2.2864699276346112 0 0 0 0 24.680902528474689 -4.5380701847134333 0 -4.5380701847134333 -10.540208859121776 0 0 0 0 25.563896690728143 -1.0986760377636529 0 -1.0986760377636529 -10.110741884745948 0 0 0 0 23.787648318182619 -16.712209645440453 0 -16.712209645440453 -19.144739270377613 0 0 0 0 24.443238237145124 -20.859755517707526 0 -20.859755517707526 1.1637760038865963 0 0 0 0 53.150072765252844 -9.7045018316603091 0 -9.7045018316603091 -21.535107436531689 0 0 0 0 8.0085536925435008 -8.9361842106136464 0 -8.9361842106136464 -27.949486841855105 0 0 0 0 29.047279298451031 -29.541743799229153 0 -29.541743799229153 -29.614768405194809 0 0 0 0 -0.31300936798756762 0.043708799195718573 0 0.043708799195718573 0.13765179586910392 0 0 0 0 15.834922053614719 -17.479813528778323 0 -17.479813528778323 1.6671475849434501 0 0 0 0 17.892010002266034 -12.53038724448561 0 -12.53038724448561 -4.4080961111403667 0 0 0 0 15.447733201370283 -13.586423490763991 0 -13.586423490763991 -3.6432737231516512 0 0 0 0 20.852410755993333 -4.9019931721268222 0 -4.9019931721268222 -1.7389014434884302 0 0 0 0 -4.5247168444394115 -22.869917531544445 0 -22.869917531544445 -1.9643929846390158 0 0 0 0 19.656629978180362 -11.277674789060853 0 -11.277674789060853 -2.5646592579481711 0 0 0 0 -85.348459262022516 -76.02849424885062 0 -76.02849424885062 -27.540616389669594 0 0 0 0 5.3003765057983401 -13.346785887536043 0 -13.346785887536043 -17.11329803199078 0 0 0 0 -1.5333186361814342 -2.553577113186082 0 -2.553577113186082 1.0136496017318 0 0 0 0 -53.309069167997222 -83.682811842783849 0 -83.682811842783849 -60.131962647021282 0 0 0 0 -21.390281191619579 -29.506663898031547 0 -29.506663898031547 1.7992403858224861 0 0 0 0 1.9481993204972241 -5.0539719256266835 0 -5.0539719256266835 -0.57852648547850549 0 0 0 0 1.7591787697189387 -14.498545927364166 0 -14.498545927364166 -0.61832940300034966 0 0 0 0 -0.87155148436420582 -15.125907296528965 0 -15.125907296528965 -4.1007416091253877 0 0 0 0 15.894174716896046 -11.710673238199014 0 -11.710673238199014 -3.6926243255480449 0 0 0 0 0.74734724667227681 -0.052689417368924296 0 -0.052689417368924296 -0.42972338154784673 0 0 0 0 -6.6396203503827564 -13.515791093194821 0 -13.515791093194821 -9.1834998430522319 0 0 0 0 -144.92497685120907 -143.7970941807398 0 -143.7970941807398 -43.954802759835729 0 0 0 0 19.907829675553455 -19.819264845711512 0 -19.819264845711512 -8.9835930050195589 0 0 0 0 -94.415214045613538 -66.903444511084672 0 -66.903444511084672 6.3028146528085927 0 0 0 0 3.1091255131177604 -11.459594356693742 0 -11.459594356693742 -6.7464170199855289 0 0 0 0 -122.576874742168 -50.095241039045504 0 -50.095241039045504 -3.7272933189415198 0 0 0 0 -4.8752477845409885 -13.792821215063668 0 -13.792821215063668 -14.780871310296334 0 0 0 0 4.6887499604054028 -14.520628761817534 0 -14.520628761817534 -16.921995564451208 0 0 0 0 0.12008860121204634 -13.090053150718859 0 -13.090053150718859 -11.787056639212096 0 0 0 0 7.6122955369683041 -9.1198131160535922 0 -9.1198131160535922 -7.4373079166362004 0 0 0 0 4.188257943460485 -16.163902199197764 0 -16.163902199197764 -17.474790084856068 0 0 0 0 1.6946452013475657 -12.025762885249883 0 -12.025762885249883 -4.7145336781453437 0 0 0 0 -0.024517760391542964 -11.131166966207456 0 -11.131166966207456 -4.2172542271515994 0 0 0 0 1.5156733219100715 -8.2374826459317774 0 -8.2374826459317774 -4.8212944836741372 0 0 0 0 -2.9823161039676052 -4.5746093039379048 0 -4.5746093039379048 -5.8266966583510111 0 0 0 0 -1.4243157057862845 -17.111878108732071 0 -17.111878108732071 -19.149095209621919 0 0 0 0 -0.18731482893963403 -20.812097104582108 0 -20.812097104582108 -22.58531900609978 0 0 0 0 1.4332604831142817 -17.261086003001765 0 -17.261086003001765 -19.848969316124567 0 0 0 0 -3.9319062272843439 -16.573795588326902 0 -16.573795588326902 -26.743308449389588 0 0 0 0 -2.118259943145036 -10.895944053765952 0 -10.895944053765952 -3.5630453651360856 0 0 0 0 -2.5060769056053687 -19.636968337848884 0 -19.636968337848884 -21.976995645862189 0 0 0 0 6.4419852029468174 -6.3522554214960003 0 -6.3522554214960003 -3.53514230445787 0 0 0 0 -4.4693275569688922 -10.3256541578819 0 -10.3256541578819 -4.4826339923529304 0 0 0 0 200.20165645188536 -112.66901844515451 0 -112.66901844515451 -196.44435592845366 0 0 0 0 105.75319780671543 -340.39896703501114 0 -340.39896703501114 204.93049559617793 0 0 0 0 -0.369087137309414 -0.032740560908605332 0 -0.032740560908605332 0.25291217652523379 0 0 0 0 189.85785494497395 -120.199735060065 0 -120.199735060065 17.746292133673705 0 0 0 0 124.37932817995897 -115.2733373942192 0 -115.2733373942192 39.139733529540536 0 0 0 0 80.491954710130813 -346.74432910520409 0 -346.74432910520409 311.65607703796559 0 0 0 0 150.63053053349722 -467.44106844496127 0 -467.44106844496127 -125.18382724672483 0 0 0 0 96.263510372140445 -401.42077292211616 0 -401.42077292211616 -30.218763035809388 0 0 0 0 151.75068776379339 -481.34349574757289 0 -481.34349574757289 -1.2168388283753302 0 0 0 0 489.14130225614645 -157.40731642075843 0 -157.40731642075843 -233.60480426299182 0 0 0 0 166.23973448137986 251.09100854147982 0 251.09100854147982 -67.154684645189263 0 0 0 0 -320.67656465802429 71.759174493558021 0 71.759174493558021 -0.42601458530407399 0 0 0 0 -221.11135812173598 33.530399406896322 0 33.530399406896322 -41.326762184820836 0 0 0 0 -96.316267615766264 -150.66203521385978 0 -150.66203521385978 -177.27764969707641 0 0 0 0 115.79807170436834 -153.8589672320486 0 -153.8589672320486 -204.87165398373327 0 0 0 0 -109.49294950510375 -155.35644877663799 0 -155.35644877663799 60.028492456083768 0 0 0 0 -62.885965428693453 24.641400411903305 0 24.641400411903305 -30.784687500758082 0 0 0 0 -101.61059579442372 -51.559618971059535 0 -51.559618971059535 18.366286136850249 0 0 0 0 -342.09303138765972 -34.847434442046506 0 -34.847434442046506 21.647926468154765 0 0 0 0 -201.31761174579151 -217.49645068249083 0 -217.49645068249083 -147.02499703554349 0 0 0 0 -140.89869831735268 -16.381420479476219 0 -16.381420479476219 6.7688011089267093 0 0 0 0 -209.40427820943296 -55.859147086552184 0 -55.859147086552184 45.21965034326422 0 0 0 0 -140.03382368711755 -49.711832788114407 0 -49.711832788114407 29.207669915063889 0 0 0 0 -142.67829222520595 -28.876535922009225 0 -28.876535922009225 61.653167851691251 0 0 0 0 -93.829592340218369 -22.872294254018925 0 -22.872294254018925 42.333367135855951 0 0 0 0 -128.70587345786043 -36.220150303408445 0 -36.220150303408445 45.006242994968488 0 0 0 0 -60.97590557942749 -24.305188279024151 0 -24.305188279024151 51.931006224209796 0 0 0 0 27.100267287525639 -101.81058567902892 0 -101.81058567902892 43.573369129775529 0 0 0 0 94.108504962932784 -27.542811087423615 0 -27.542811087423615 117.55226387180301 0 0 0 0 200.56269785319455 -199.40795461916787 0 -199.40795461916787 114.58628126292115 0 0 0 0 186.33428038761122 -254.24887643197917 0 -254.24887643197917 175.64641324900731 0 0 0 0 -0.69702804113122241 -0.07877105056897804 0 -0.07877105056897804 0.4493252587920491 0 0 0 0 86.590553691872628 -77.817188634995546 0 -77.817188634995546 80.623849155035714 0 0 0 0 78.647832089457097 -123.8811816996128 0 -123.8811816996128 5.5972775387781439 0 0 0 0 80.452267475568988 -73.886124069244715 0 -73.886124069244715 -6.9240362107739202 0 0 0 0 18.849749326618621 -71.378122699225059 0 -71.378122699225059 64.178031873219879 0 0 0 0 8.3277878331718966 -50.368246876278135 0 -50.368246876278135 30.448719674837776 0 0 0 0 6.7313992881099693 -82.988550926503194 0 -82.988550926503194 136.79801972454152 0 0 0 0 37.262646655603021 -47.250880622124441 0 -47.250880622124441 -46.071578704948479 0 0 0 0 35.22051816250314 -56.226212838762876 0 -56.226212838762876 28.674209081375011 0 0 0 0 74.419701873373583 -55.085053096973994 0 -55.085053096973994 -21.859972223755904 0 0 0 0 74.747818287141854 -105.75303838633408 0 -105.75303838633408 37.540866097449907 0 0 0 0 -73.924830783216748 -48.205945512416292 0 -48.205945512416292 31.791611604290665 0 0 0 0 -213.23106504094903 -32.532482219288795 0 -32.532482219288795 42.226351083654208 0 0 0 0 -107.63503425632371 -50.648962344221218 0 -50.648962344221218 44.462049228321121 0 0 0 0 -145.50148883709335 -13.606918505761314 0 -13.606918505761314 23.870079933505622 0 0 0 0 -144.26240949390922 -35.011288825291558 0 -35.011288825291558 53.120325952018902 0 0 0 0 -104.63710175547749 0.19866058771003736 0 0.19866058771003736 11.497036249744269 0 0 0 0 -110.17355534480885 -9.4973211720498512 0 -9.4973211720498512 13.856077361604548 0 0 0 0 -157.71200592980313 27.539874641077404 0 27.539874641077404 1.1116147311913664 0 0 0 0 -50.948842120415065 -132.01876812403134 0 -132.01876812403134 -111.76452770661126 0 0 0 0 -24.037164718029089 -38.995548669290656 0 -38.995548669290656 7.965390960651348 0 0 0 0 304.88561967431451 358.72152719167752 0 358.72152719167752 281.22350835314865 0 0 0 0 -12.291339090437052 -16.579754542584485 0 -16.579754542584485 2.0303301264722626 0 0 0 0 -82.478387239738367 -22.415816315316988 0 -22.415816315316988 133.02911051461342 0 0 0 0 -195.65157469097176 109.87593565357747 0 109.87593565357747 -2.1383005733341633 0 0 0 0 -4.6580617542640539 -155.18884099937895 0 -155.18884099937895 -37.473916965922399 0 0 0 0 95.018518827146636 150.457558152247 0 150.457558152247 100.26905798170628 0 0 0 0 101.63742678487597 -178.35911124610365 0 -178.35911124610365 48.835313739884441 0 0 0 0 316.51295961253345 135.81257222133354 0 135.81257222133354 29.784258536519701 0 0 0 0 1146.8870932899299 278.61732678175395 0 278.61732678175395 -288.61787657814841 0 0 0 0 49.493728741479572 -217.54442596272656 0 -217.54442596272656 -316.15319673711565 0 0 0 0 -286.20935328946507 -61.220743464508814 0 -61.220743464508814 -134.07917348674164 0 0 0 0 0.035348904708070172 -0.13791725512891873 0 -0.13791725512891873 -0.86150283002579986 0 0 0 0 -812.22261538710154 656.85398761763417 0 656.85398761763417 123.42580820159583 0 0 0 0 -1786.3204825038119 -730.65473956153164 0 -730.65473956153164 341.92678672998773 0 0 0 0 -301.6146995761228 101.53460754353273 0 101.53460754353273 -114.96061672888936 0 0 0 0 814.29801522375783 200.79884923544341 0 200.79884923544341 -411.52769543068462 0 0 0 0 126.72942150829476 895.92921876034779 0 895.92921876034779 -301.62249925804281 0 0 0 0 -26.504701301048044 -4.6494200629931584 0 -4.6494200629931584 80.869037183929322 0 0 0 0 -0.29568267104412627 0.25767402583895738 0 0.25767402583895738 0.28884813717740254 0 0 0 0 5.6792097257196019 -28.084972678351022 0 -28.084972678351022 116.85164484350389 0 0 0 0 5.655791447381489 -33.632264790052432 0 -33.632264790052432 58.832446270182118 0 0 0 0 -12.754002125293482 -9.4824157136899885 0 -9.4824157136899885 38.89992692132364 0 0 0 0 -21.429163486463949 -23.057546523574274 0 -23.057546523574274 93.871379294141661 0 0 0 0 -1.3779014020401519 18.293868612890947 0 18.293868612890947 73.684234328218736 0 0 0 0 -10.838067163400474 -13.526834717372148 0 -13.526834717372148 1.5469440610274297 0 0 0 0 -2973.7985577210784 35.217848631873494 0 35.217848631873494 35.786754649609065 0 0 0 0 -0.33299187140073627 53.641515455256013 0 53.641515455256013 -21.68033759973423 0 0 0 0 765.68239149052533 -1742.037232543981 0 -1742.037232543981 -378.20379847389268 0 0 0 0 -34.707369821982866 -20.802418811226744 0 -20.802418811226744 101.57331311790585 0 0 0 0 -1.1020276279305108 -18.758842053965054 0 -18.758842053965054 -34.438900107179506 0 0 0 0 0.21120924302937105 -2.9045026375904492 0 -2.9045026375904492 -0.15494437826456053 0 0 0 0 -41.323712861565582 11.728641004393467 0 11.728641004393467 70.136060053770052 0 0 0 0 8.2876376421918394 -10.931961427040733 0 -10.931961427040733 -27.987506019670036 0 0 0 0 -4.9413611105419477 -18.290196885495106 0 -18.290196885495106 -24.539200642924698 0 0 0 0 -7.3145081378461327 -15.079464358101177 0 -15.079464358101177 -17.379764930275996 0 0 0 0 0.7855105815542629 -17.699216200333467 0 -17.699216200333467 -21.993247354981577 0 0 0 0 -7.1940714680677047 -15.769646444761747 0 -15.769646444761747 -20.66497886813795 0 0 0 0 -4.8037087410939421 -17.295443603741887 0 -17.295443603741887 -21.007425128391333 0 0 0 0 1.9199190779254423 -12.635476677558927 0 -12.635476677558927 -16.100272339921503 0 0 0 0 2.2608804818009958 -13.16004265104857 0 -13.16004265104857 -15.534445051522198 0 0 0 0 8.7982332579267677 -34.706306224314176 0 -34.706306224314176 17.989561380858504 0 0 0 0 0.34859960539154855 -4.5530320149364538 0 -4.5530320149364538 -0.23070459520978964 0 0 0 0 8.0472234674502943 -2.5354055568554514 0 -2.5354055568554514 -12.953738084739598 0 0 0 0 14.33611989406927 -25.71704288337969 0 -25.71704288337969 5.4635156091462704 0 0 0 0 8.3870336162945023 -3.9327697525068288 0 -3.9327697525068288 -7.2679034021221014 0 0 0 0 3.6656805783713935 -6.2926196131047618 0 -6.2926196131047618 -5.3469147989600287 0 0 0 0 -0.96776986466271708 -10.893147104406278 0 -10.893147104406278 -2.6657395385645253 0 0 0 0 2.6098786650986376 -4.9471019527767197 0 -4.9471019527767197 -3.2760084383212238 0 0 0 0 5.3802461150771705 -10.240552342508636 0 -10.240552342508636 -6.8019499468191498 0 0 0 0 6.8150937236277969 -8.4499386873608273 0 -8.4499386873608273 -13.573030419251154 0 0 0 0 17.694216411942655 -19.513752115040482 0 -19.513752115040482 -7.2478878837126253 0 0 0 0 -91.731381395933568 -23.757301545342671 0 -23.757301545342671 7.4043410421727458 0 0 0 0 9.9045659868206712 -9.555477590425653 0 -9.555477590425653 -13.169744418019036 0 0 0 0 -107.10860937531106 -5.2567204300285084 0 -5.2567204300285084 0.018302152831893181 0 0 0 0 -109.30982067878358 -12.257699247646087 0 -12.257699247646087 1.9008158070791978 0 0 0 0 0.34577197413047855 -5.5530940631702848 0 -5.5530940631702848 -0.78055522626591312 0 0 0 0 36.422745962045155 -63.976347520838317 0 -63.976347520838317 -149.60727914408835 0 0 0 0 -90.261923698155442 17.443026172717509 0 17.443026172717509 -34.781538427334453 0 0 0 0 15.636353660994299 -13.66516791791339 0 -13.66516791791339 -5.6276857029926877 0 0 0 0 -1.1047391729662195 -6.1533341469003062 0 -6.1533341469003062 -3.7083205901762994 0 0 0 0 -17.6864399544138 -13.514973095952882 0 -13.514973095952882 -25.521851391877135 0 0 0 0 115.1979775246582 -26.881790224902943 0 -26.881790224902943 -129.79774573559007 0 0 0 0 -51.124171088158619 -65.599100125255063 0 -65.599100125255063 78.276918365547317 0 0 0 0 3.7754457083356101 -28.224818037166187 0 -28.224818037166187 -1.6746770967183693 0 0 0 0 -13.275285309335231 -21.467902429521764 0 -21.467902429521764 2.6981060517051652 0 0 0 0 0.91699693790911851 -1.9185258813717296 0 -1.9185258813717296 -0.046580420469054751 0 0 0 0 -40.163950554793701 101.87707449515801 0 101.87707449515801 50.188260022100621 0 0 0 0 126.55666069031577 -125.41835281834028 0 -125.41835281834028 -69.366417007175187 0 0 0 0 4.3102304905769415 -119.35386230864606 0 -119.35386230864606 215.09366369739655 0 0 0 0 42.975954870984424 37.288950323079916 0 37.288950323079916 11.552472417410172 0 0 0 0 9.3950030661071651 29.604354475613945 0 29.604354475613945 119.98496798134693 0 0 0 0 -51.256222237367183 40.380147191524884 0 40.380147191524884 13.123502115515294 0 0 0 0 2.8231886272140798 -6.0302997777462721 0 -6.0302997777462721 -0.23348065193986356 0 0 0 0 -111.54997891036328 -65.648986520383914 0 -65.648986520383914 21.123261274195102 0 0 0 0 228.26242019809433 148.94480309181199 0 148.94480309181199 -319.32137490940477 0 0 0 0 -34.935904077341547 -60.811286204989301 0 -60.811286204989301 63.928237037878716 0 0 0 0 -75.181771836010739 -90.384492931851128 0 -90.384492931851128 26.782620559897623 0 0 0 0 -31.684715194860473 -87.333627804782736 0 -87.333627804782736 24.379362250700069 0 0 0 0 26.89163255123276 -44.102227460887661 0 -44.102227460887661 23.22007156338077 0 0 0 0 -9.617395019158721 -74.027637498689728 0 -74.027637498689728 -96.524351578535061 0 0 0 0 -1.6875474730583289 -7.7916069555208569 0 -7.7916069555208569 -2.7537712907806013 0 0 0 0 13.380115426475857 -12.633337881549775 0 -12.633337881549775 -5.1159887013982921 0 0 0 0 -11.088737214158755 -64.398575342194817 0 -64.398575342194817 -28.597734106395365 0 0 0 0 -3.3482429168852832 -8.8395314611351523 0 -8.8395314611351523 -3.7523879765358288 0 0 0 0 -2.5965610204148106 -6.1767100969350395 0 -6.1767100969350395 -4.389870556050198 0 0 0 0 8.224734543338851 -16.028799374342142 0 -16.028799374342142 -10.118916358055003 0 0 0 0 12.844504239059461 -4.8326678045159497 0 -4.8326678045159497 -12.981450168252195 0 0 0 0 -47.726190111061442 -83.432492782689224 0 -83.432492782689224 -27.340341042323416 0 0 0 0 41.213414617042872 76.879331377822382 0 76.879331377822382 -217.33212881663349 0 0 0 0 1.9025628906664664 -12.345829510239158 0 -12.345829510239158 -3.065192317743259 0 0 0 0 12.00004765256017 13.083401896936266 0 13.083401896936266 36.694930676796503 0 0 0 0 21.491233573120553 4.0071083661277953 0 4.0071083661277953 31.710905941064993 0 0 0 0 1.2457723692327036 -15.967241775862805 0 -15.967241775862805 -3.8559106741228311 0 0 0 0 -179.17332346468174 -249.57931871713845 0 -249.57931871713845 337.44616748348926 0 0 0 0 -2.022484063273696 -15.295384976446432 0 -15.295384976446432 -3.4284109570282659 0 0 0 0 -304.81224451072922 -17.897154590856189 0 -17.897154590856189 516.57200641804957 0 0 0 0 56.948945910611656 217.94048568707876 0 217.94048568707876 -114.59428463246149 0 0 0 0 2.0591094367337064 -10.818548776561329 0 -10.818548776561329 -8.4259228566770616 0 0 0 0 1.3209355469651882 -12.078076642752803 0 -12.078076642752803 0.46051040815061517 0 0 0 0 0.33548055987921543 -10.939838494126889 0 -10.939838494126889 -8.0564919922544505 0 0 0 0 -0.66809874671889702 -9.9744914361459678 0 -9.9744914361459678 -6.6645187986691781 0 0 0 0 2.2540067385673623 -12.116175130312101 0 -12.116175130312101 -3.3309936434623717 0 0 0 0 0.1586950192482206 -0.8031665993545416 0 -0.8031665993545416 -0.38909396397624163 0 0 0 0 -13.083174378276453 -10.289341913927274 0 -10.289341913927274 42.093208118400071 0 0 0 0 82.665688448556466 15.446816662657511 0 15.446816662657511 -174.41749516119489 0 0 0 0 -92.844783066177115 -160.40095876777832 0 -160.40095876777832 60.30051956544412 0 0 0 0 -74.915192651587859 -29.905534224072198 0 -29.905534224072198 61.273099992144125 0 0 0 0 3.2940336508436303 -10.242669589606521 0 -10.242669589606521 -3.3515698831997724 0 0 0 0 -46.48009242102853 -42.336637009882907 0 -42.336637009882907 -3.4275051411459572 0 0 0 0 -0.67262768486356528 -15.881285645060569 0 -15.881285645060569 -2.5662946852481348 0 0 0 0 -88.982412153069163 36.989706282755833 0 36.989706282755833 0.099307649935781228 0 0 0 0 -14.291910410096742 -6.8400043326202402 0 -6.8400043326202402 19.351910342205716 0 0 0 0 0.0083472672595235053 -8.5146135546240203 0 -8.5146135546240203 -3.6401571361495257 0 0 0 0 -1.1912083628293759 -0.19646093234969975 0 -0.19646093234969975 0.22331431145296587 0 0 0 0 -104.39945388345222 -121.41086797324078 0 -121.41086797324078 -84.594327629340114 0 0 0 0 219.37446825695224 -206.5201773977733 0 -206.5201773977733 115.84952997242362 0 0 0 0 229.10409865355177 -239.64114671356947 0 -239.64114671356947 226.14008443373314 0 0 0 0 -0.90650437013454166 -0.2829115930192021 0 -0.2829115930192021 0.60629382198856119 0 0 0 0 -14.667572962484297 3.0562426923809793 0 3.0562426923809793 4.3184790678667238 0 0 0 0 -0.69135078596627864 -1.8004823105356991 0 -1.8004823105356991 1.2993269700364181 0 0 0 0 0.37159760817249499 -5.1555950909933257 0 -5.1555950909933257 0.21789645122701051 0 0 0 0 374.78120216075331 -95.017548266408994 0 -95.017548266408994 -94.535482788623995 0 0 0 0 298.28875252246507 -74.821524521081301 0 -74.821524521081301 -158.07742851100738 0 0 0 0 212.58495553403191 -87.169860858740776 0 -87.169860858740776 44.599877878707048 0 0 0 0 219.46635807445273 1.3305252472600841 0 1.3305252472600841 81.66818175103981 0 0 0 0 644.82819438562728 -3.0021012511642766 0 -3.0021012511642766 79.970135586193464 0 0 0 0 120.58726652213954 -96.232656888756537 0 -96.232656888756537 243.72342873776506 0 0 0 0 193.4770056692505 144.89531363419428 0 144.89531363419428 125.6564947678562 0 0 0 0 393.28340025281068 -77.096097688165173 0 -77.096097688165173 22.146833775565028 0 0 0 0 -29.405667417420773 56.375112126177555 0 56.375112126177555 109.96348098573435 0 0 0 0 -58.357873167726211 32.515947108475302 0 32.515947108475302 97.293549698209972 0 0 0 0 -111.85173282041796 75.044133903695183 0 75.044133903695183 97.774417294618615 0 0 0 0 -28.382050543703372 22.228768801815022 0 22.228768801815022 -26.123620245227357 0 0 0 0 -39.278003227955196 8.8275119497193373 0 8.8275119497193373 -21.376653439385336 0 0 0 0 -0.1549944485668675 -67.986325656298959 0 -67.986325656298959 -187.93639533239912 0 0 0 0 -59.216772606130689 39.414506743436505 0 39.414506743436505 -14.145185219163977 0 0 0 0 -261.10270516760283 -243.63210976495134 0 -243.63210976495134 -202.13999240814883 0 0 0 0 -0.23404692203041577 -0.098650681814394403 0 -0.098650681814394403 -0.10774881721792706 0 0 0 0 77.411723366109072 -79.694141282683631 0 -79.694141282683631 -626.41801080848563 0 0 0 0 -121.37781081660796 -95.189368610685051 0 -95.189368610685051 268.06311620264751 0 0 0 0 -151.43960541703564 203.18857796817701 0 203.18857796817701 -228.84959300563787 0 0 0 0 -246.38651600993035 -310.43733632088515 0 -310.43733632088515 256.50342864166305 0 0 0 0 20.844892774242908 -116.72126259019933 0 -116.72126259019933 163.98239806354172 0 0 0 0 -4.5052764467109228 -83.045370956379884 0 -83.045370956379884 252.65282581109568 0 0 0 0 -70.806973968778038 -163.57325615840455 0 -163.57325615840455 157.96369636724557 0 0 0 0 2.5634811233922665 -10.105909864219374 0 -10.105909864219374 1.777181280546607 0 0 0 0 10.045302869323677 -7.1852887066129369 0 -7.1852887066129369 6.051847195107257 0 0 0 0 87.435359002149198 -92.667260192018148 0 -92.667260192018148 83.773926652072987 0 0 0 0 141.03118297588662 -304.81380315600109 0 -304.81380315600109 234.57124649370235 0 0 0 0 15.839040173785179 -2.3841261411434971 0 -2.3841261411434971 -4.4130050979365478 0 0 0 0 329.10518289453466 -20.645802283592275 0 -20.645802283592275 -176.59787020135991 0 0 0 0 0.71810608408890886 -0.88849550665199883 0 -0.88849550665199883 -0.40646755728780448 0 0 0 0 345.38389699254185 -23.769099388446193 0 -23.769099388446193 -120.6758296078915 0 0 0 0 394.49488677608315 -57.61741580699163 0 -57.61741580699163 -456.3468012398298 0 0 0 0 502.64542308132513 -456.65050811141191 0 -456.65050811141191 329.14003760915693 0 0 0 0 3.5167089906262881 -6.0721332649394286 0 -6.0721332649394286 3.4275951468812385 0 0 0 0 4.2039170911812107 -7.1687049511483565 0 -7.1687049511483565 -0.52747656484643812 0 0 0 0 10.297164892879664 -10.358737473442261 0 -10.358737473442261 0.92524111174134305 0 0 0 0 2.1189226863425574 -9.2340222967104637 0 -9.2340222967104637 -2.5021318926810636 0 0 0 0 2.9515552832890535 -5.4996150065344409 0 -5.4996150065344409 -0.20672575958451489 0 0 0 0 3.3794355588590506 -9.6323072098985545 0 -9.6323072098985545 4.7487321160019622 0 0 0 0 0.42477180931018665 -6.7636847357398437 0 -6.7636847357398437 6.2539915625020512 0 0 0 0 0.0099311610325552024 0.0055542604180036648 0 0.0055542604180036648 0.0043266390589309367 0 0 0 0 2.3418292637134073 -8.0568047130038849 0 -8.0568047130038849 -4.0754059857936227 0 0 0 0 2.9166882706445119 -9.7943646803479254 0 -9.7943646803479254 4.8449419606459605 0 0 0 0 -1.3785324572672835 -7.8038082253315224 0 -7.8038082253315224 0.19334860013805155 0 0 0 0 1.9894156138325343 -6.3644015809636585 0 -6.3644015809636585 1.430882143398776 0 0 0 0 1.5703079288796289 -7.414886374966045 0 -7.414886374966045 1.7835442186787986 0 0 0 0 -4.3645164010958979 3.7124606686866173 0 3.7124606686866173 4.0169617081255637 0 0 0 0 -9.3455373014762131 -11.648553966183179 0 -11.648553966183179 -2.3855880763126494 0 0 0 0 -210.38354571081982 -185.75828411949965 0 -185.75828411949965 -96.0115744953182 0 0 0 0 -17.834894873929443 -84.045807017948391 0 -84.045807017948391 -45.909054105994073 0 0 0 0 0.083667397729596971 -0.64116916377907174 0 -0.64116916377907174 -2.6809099083936783 0 0 0 0 163.57893349826918 94.329793494443948 0 94.329793494443948 -68.76096660573296 0 0 0 0 19.479270559633733 159.12771471607408 0 159.12771471607408 -88.051219103977019 0 0 0 0 179.48611136470572 77.559091363134939 0 77.559091363134939 -217.68583485318391 0 0 0 0 19.56954251199204 -156.59314800594984 0 -156.59314800594984 -200.48221632467448 0 0 0 0 20.875844062014949 -183.12262989053852 0 -183.12262989053852 -0.13968131189972155 0 0 0 0 226.22991271289357 -105.55161266513005 0 -105.55161266513005 -141.65395026583064 0 0 0 0 104.65681918911287 102.0150904927541 0 102.0150904927541 19.647605042102441 0 0 0 0 32.340137502291327 -186.56320947067707 0 -186.56320947067707 -171.52663418863449 0 0 0 0 -14.971818512683967 -67.504595163594786 0 -67.504595163594786 -257.81853501144542 0 0 0 0 -10.218753879220458 -105.51191124746128 0 -105.51191124746128 -132.38150929542826 0 0 0 0 18.003198369173333 -23.410958954744274 0 -23.410958954744274 -198.65685024441245 0 0 0 0 -0.61117908856861902 -0.44129193795646349 0 -0.44129193795646349 -0.40229623605407316 0 0 0 0 38.283369956407114 -82.249465520242666 0 -82.249465520242666 176.39010351838806 0 0 0 0 17.712894309530384 -77.785302816461808 0 -77.785302816461808 140.27015417707298 0 0 0 0 29.858705331789679 -98.391125752550579 0 -98.391125752550579 169.80579831866453 0 0 0 0 57.832666628142761 -54.63541765516311 0 -54.63541765516311 56.082350633649185 0 0 0 0 -0.84674792265835919 -1.0132940338372209 0 -1.0132940338372209 -0.82872722233214791 0 0 0 0 17.348396982415579 -19.442475966421625 0 -19.442475966421625 -50.927675692390039 0 0 0 0 -22.566694868626655 -24.954083429542152 0 -24.954083429542152 -24.872650967070513 0 0 0 0 -8.0790188762475736 -40.854684804940916 0 -40.854684804940916 -68.592551342477236 0 0 0 0 178.52534024455235 -45.132368613339167 0 -45.132368613339167 -61.320055481441159 0 0 0 0 0.057019618259123828 -1.488154900237868 0 -1.488154900237868 -4.5135249966752369 0 0 0 0 -32.299515246791998 -35.041886804333444 0 -35.041886804333444 -35.281952761939465 0 0 0 0 252.99445205324446 -17.092043674939191 0 -17.092043674939191 -106.28370081224239 0 0 0 0 233.43366078916006 -102.02326913580509 0 -102.02326913580509 -14.218437138675654 0 0 0 0 241.95598140062066 -149.54026133873958 0 -149.54026133873958 119.51833601303224 0 0 0 0 -0.98466961568919942 -22.610308430640544 0 -22.610308430640544 140.30474281024726 0 0 0 0 232.29689276028057 -132.60018142344651 0 -132.60018142344651 77.720883199322998 0 0 0 0 -0.83716144090613342 -1.0550783536833599 0 -1.0550783536833599 0.51058266463182367 0 0 0 0 277.60433702880982 -185.83364657591301 0 -185.83364657591301 106.01970462802637 0 0 0 0 41.578023119422141 -67.007118853411157 0 -67.007118853411157 82.867117230318399 0 0 0 0 -23.032229258795269 -7.0540540984875406 0 -7.0540540984875406 2.5541811829043581 0 0 0 0 -3.0623297868751536 -3.264628555040396 0 -3.264628555040396 -1.6609610491953526 0 0 0 0 233.71376965325908 -160.0718647777594 0 -160.0718647777594 108.58383000847971 0 0 0 0 -0.065051204207435376 -0.04895097767858303 0 -0.04895097767858303 0.082002742943375173 0 0 0 0 0.67854965854288452 -0.35970640130421572 0 -0.35970640130421572 -0.7580582781291425 0 0 0 0 -103.31851855159039 -455.6899113261552 0 -455.6899113261552 909.62721531486113 0 0 0 0 -2.054274846566841 -711.29083322735096 0 -711.29083322735096 559.87941816825696 0 0 0 0 317.82756777970644 -329.89793626220671 0 -329.89793626220671 -330.33031822503835 0 0 0 0 294.15567580109928 -273.99048092506564 0 -273.99048092506564 182.86128789757458 0 0 0 0 428.42065723740961 -128.01214251022793 0 -128.01214251022793 -124.1665300106215 0 0 0 0 364.02343266394746 -16.517331307965833 0 -16.517331307965833 365.49985217726135 0 0 0 0 460.46053749660496 -16.052683802236061 0 -16.052683802236061 363.30557247751858 0 0 0 0 297.60215728997719 -257.14240149635225 0 -257.14240149635225 318.8108139767719 0 0 0 0 958.472163381055 -334.23110580397406 0 -334.23110580397406 294.36078170958353 0 0 0 0 126.83325054528541 -984.16602221376013 0 -984.16602221376013 -569.48953974595497 0 0 0 0 -151.32840768863025 528.34931700183802 0 528.34931700183802 -20.88969730874669 0 0 0 0 -346.9719048748666 381.04000440328446 0 381.04000440328446 -266.33913741640708 0 0 0 0 170.68795191706158 340.98587437829246 0 340.98587437829246 -825.18193053132018 0 0 0 0 -24.319350930978544 137.14464700269059 0 137.14464700269059 -89.759984955233676 0 0 0 0 335.99633349332726 -58.5737529152143 0 -58.5737529152143 -190.81035557341056 0 0 0 0 322.8192539755255 -89.005420517852144 0 -89.005420517852144 -113.92355747857732 0 0 0 0 306.55736290349159 11.343646498785347 0 11.343646498785347 -308.74709730986189 0 0 0 0 356.3014773963223 26.531149297954698 0 26.531149297954698 -340.63916552301453 0 0 0 0 27.669235356384888 254.14798396651872 0 254.14798396651872 -334.25778161514035 0 0 0 0 227.4568244205293 74.268940250645755 0 74.268940250645755 -175.91986049964407 0 0 0 0 213.77300448366441 49.789319885691611 0 49.789319885691611 -219.5719348239511 0 0 0 0 140.76071145288734 163.27214107209582 0 163.27214107209582 -182.18853958693057 0 0 0 0 -4.0557904813613277 79.888242999040813 0 79.888242999040813 -108.96416256169323 0 0 0 0 -4.5140310394344851 74.759375482569794 0 74.759375482569794 -43.667870145717643 0 0 0 0 -177.88395338240662 150.35569864911872 0 150.35569864911872 -73.43991962142195 0 0 0 0 2.3720496117311995 -0.10863359364975622 0 -0.10863359364975622 4.1100030514062382 0 0 0 0 -56.132619208714459 -4.3087837561988636 0 -4.3087837561988636 5.8322942339209476 0 0 0 0 12.606965334358392 18.363389262040982 0 18.363389262040982 -69.810208228122065 0 0 0 0 0.4065525473768119 -0.1116073146814367 0 -0.1116073146814367 -1.1103350422784932 0 0 0 0 182.06515259921434 108.33819529335005 0 108.33819529335005 -14.172069041418581 0 0 0 0 13.302384796814295 24.906416786241607 0 24.906416786241607 -131.73125851892064 0 0 0 0 0.044720714510255277 -0.079015136754891913 0 -0.079015136754891913 -0.27941605262674507 0 0 0 0 -0.73747048246451286 -3.9338558518122659 0 -3.9338558518122659 -1.1071396660158301 0 0 0 0 -5.1235445312340744 -17.81439990835861 0 -17.81439990835861 -6.7862708721086165 0 0 0 0 -2.00215574620713 -5.717334850498883 0 -5.717334850498883 -1.9260645736529738 0 0 0 0 36.903908911845065 -14.520105557806687 0 -14.520105557806687 -17.150977828175314 0 0 0 0 -61.25830462777958 -25.31973347525232 0 -25.31973347525232 17.298579572383119 0 0 0 0 12.256236908739083 -40.499335053365996 0 -40.499335053365996 -15.145944990611497 0 0 0 0 12.273056864141836 -77.635041327252793 0 -77.635041327252793 -377.48996226850954 0 0 0 0 -1.1434350642836115 1.0285913587764508 0 1.0285913587764508 -1.332168629572698 0 0 0 0 22.359685267663735 13.321401390000915 0 13.321401390000915 -4.8296054750335315 0 0 0 0 -63.586325455835322 -33.727329597325479 0 -33.727329597325479 -288.55156020446339 0 0 0 0 -0.5472186900675311 0.27623136664169756 0 0.27623136664169756 -0.28167863593275766 0 0 0 0 -106.1548168554873 -130.84314799435379 0 -130.84314799435379 -201.17952132684877 0 0 0 0 -218.72166190204007 90.435338165318512 0 90.435338165318512 -20.767675731656482 0 0 0 0 54.414073078049114 -175.89825221362207 0 -175.89825221362207 -984.63493280592684 0 0 0 0 -67.019988735060906 -16.001530662406367 0 -16.001530662406367 -244.55907727895283 0 0 0 0 -37.639349118093378 -100.8350242993838 0 -100.8350242993838 -146.19021682835591 0 0 0 0 20.578631124284584 -38.085470556058681 0 -38.085470556058681 -142.70774660078564 0 0 0 0 -59.54404095474456 -95.218752052648142 0 -95.218752052648142 64.998141467482128 0 0 0 0 -60.722979389043758 -99.060338378687447 0 -99.060338378687447 -89.406454787407711 0 0 0 0 -56.699276875151554 -173.32936612321646 0 -173.32936612321646 -82.976616955185932 0 0 0 0 -173.40570498196757 -6.8516506737050804 0 -6.8516506737050804 230.32140191906183 0 0 0 0 -2.6954739384673303 -50.106688267383106 0 -50.106688267383106 -347.19232679034167 0 0 0 0 -20.236424086469924 8.3454686327586387 0 8.3454686327586387 -535.34715471980439 0 0 0 0 -71.99192399509775 -264.34932476614085 0 -264.34932476614085 -515.77446149595744 0 0 0 0 49.071402378220228 -103.60954807254166 0 -103.60954807254166 -322.05289704030565 0 0 0 0 29.615084768622182 -54.927378677713023 0 -54.927378677713023 -368.06382145229782 0 0 0 0 -45.992357126044226 -18.51766585211044 0 -18.51766585211044 -7.1323459469913359 0 0 0 0 8.7394593973876908 160.56761598115736 0 160.56761598115736 515.70604148349844 0 0 0 0 144.67098014429212 -95.588866904772658 0 -95.588866904772658 518.57433878296433 0 0 0 0 867.76626178811421 -32.662018280339908 0 -32.662018280339908 123.34669591183047 0 0 0 0 -264.79445460921852 -203.47870103865171 0 -203.47870103865171 298.16086070464826 0 0 0 0 -23.224286008713534 110.12557715988351 0 110.12557715988351 323.58443966745108 0 0 0 0 -151.60053135897033 -52.568343857389664 0 -52.568343857389664 91.859983711923633 0 0 0 0 -249.6316460579983 -14.802533172760377 0 -14.802533172760377 393.72994134760575 0 0 0 0 -376.68216710057459 -318.89489691544259 0 -318.89489691544259 89.175899753326433 0 0 0 0 -1009.1019241775211 -868.57886548346778 0 -868.57886548346778 -434.00811568506379 0 0 0 0 -250.51372796965006 -86.325137842013646 0 -86.325137842013646 -7.7560577598560485 0 0 0 0 -0.38615030357323121 430.16681508519605 0 430.16681508519605 857.01875745339203 0 0 0 0 1313.1901874323157 1227.2302727937345 0 1227.2302727937345 -265.93066425395591 0 0 0 0 0.030377397475443324 -0.8487348280951057 0 -0.8487348280951057 0.26972691482888078 0 0 0 0 -75.116535399683926 611.87134763307745 0 611.87134763307745 189.39521753412555 0 0 0 0 317.8472753110691 480.41839290674761 0 480.41839290674761 64.484772951809646 0 0 0 0 -1816.3166652806249 761.71157431765914 0 761.71157431765914 713.92310698882648 0 0 0 0 1489.09367306286 -1635.3701629072712 0 -1635.3701629072712 2424.7498236038919 0 0 0 0 -10.177112681558356 1094.2209064155186 0 1094.2209064155186 -503.07354650091111 0 0 0 0 -398.57479651768517 1974.2216337329237 0 1974.2216337329237 167.52287812721261 0 0 0 0 0.85743922308029141 -362.00561934067537 0 -362.00561934067537 -106.32907437115682 0 0 0 0 -937.29037268625689 -992.78078390578685 0 -992.78078390578685 -463.18304471008184 0 0 0 0 -0.62418398042846235 -0.53980881311910611 0 -0.53980881311910611 -0.27572200283188519 0 0 0 0 -486.02958261885215 87.728200134176859 0 87.728200134176859 19.620163177563882 0 0 0 0 -8.2892922973260283 -197.17878299140739 0 -197.17878299140739 -1589.7665801181206 0 0 0 0 15.583354517220869 -58.727759140505441 0 -58.727759140505441 44.595455233684334 0 0 0 0 -318.5171704053937 -77.567810767388437 0 -77.567810767388437 188.66144444025849 0 0 0 0 -279.41712322103558 -322.0097687827456 0 -322.0097687827456 -35.011783970525357 0 0 0 0 -9.2599320802546572 -57.34229593175769 0 -57.34229593175769 -347.02258630858682 0 0 0 0 -0.29291841383383144 -37.396040215786797 0 -37.396040215786797 -365.75865689579541 0 0 0 0 -1.7090387046137288 -1.6889180927168921 0 -1.6889180927168921 -0.90078059471178817 0 0 0 0 26.172644921149185 -13.792690864060319 0 -13.792690864060319 -1.0195405031390692 0 0 0 0 -0.38915425499161671 -0.28215710772476221 0 -0.28215710772476221 0.12134293449856459 0 0 0 0 41.987441155593842 60.284877865879025 0 60.284877865879025 -32.964855542919395 0 0 0 0 24.531821135606151 -141.15173767394299 0 -141.15173767394299 204.26510416138626 0 0 0 0 -36.264815910892139 -108.74569378046641 0 -108.74569378046641 -49.583963197525009 0 0 0 0 0.48635939514815973 0.42957111992284291 0 0.42957111992284291 -0.40261380563480742 0 0 0 0 213.12274318202981 -227.30413936789046 0 -227.30413936789046 -219.49596723790091 0 0 0 0 -30.58110989414854 3.3339277623163071 0 3.3339277623163071 299.82357049139137 0 0 0 0 -109.18671250389889 61.494504627167771 0 61.494504627167771 405.71810057304174 0 0 0 0 401.06169259797753 -280.56093022504683 0 -280.56093022504683 -233.29845556427244 0 0 0 0 166.01783390034689 -274.17262643914364 0 -274.17262643914364 1128.80147065645 0 0 0 0 142.20929122600501 -143.8579177014567 0 -143.8579177014567 565.09718618778425 0 0 0 0 -35.965659326378955 -96.314770599397889 0 -96.314770599397889 -149.42406690751886 0 0 0 0 0.028302935696103759 -0.42394397445572607 0 -0.42394397445572607 -0.17651860849674117 0 0 0 0 322.00838509883033 -510.48298789436376 0 -510.48298789436376 738.33903669157735 0 0 0 0 -0.091803645281402169 -0.16748663306793699 0 -0.16748663306793699 -0.037039924291502935 0 0 0 0 238.2044448092638 -43.150699580701257 0 -43.150699580701257 -205.12685576705553 0 0 0 0 -0.56430361140519381 -206.89753742052926 0 -206.89753742052926 12.267880358188449 0 0 0 0 13.932644514890853 15.468101343314629 0 15.468101343314629 108.02850130673869 0 0 0 0 -200.90774923884601 -73.725832907304721 0 -73.725832907304721 587.6224779696422 0 0 0 0 -120.86082019655441 -115.83510439692236 0 -115.83510439692236 -19.86225401752381 0 0 0 0 0.95311430834214406 0.93770727887443339 0 0.93770727887443339 -0.85739378326720761 0 0 0 0 -169.36049407100654 -120.14601637713349 0 -120.14601637713349 651.75727792980979 0 0 0 0 -48.854352839098283 -108.02282405100755 0 -108.02282405100755 329.56175596582762 0 0 0 0 -0.067406930204015225 -220.98194484839951 0 -220.98194484839951 503.34671395729492 0 0 0 0 -56.78248444077326 -129.78706412616157 0 -129.78706412616157 494.18593765007245 0 0 0 0 -105.61241886086646 -79.95329761562607 0 -79.95329761562607 585.78690411787102 0 0 0 0 27.114335597492754 -93.714261656576127 0 -93.714261656576127 107.76548643894603 0 0 0 0 -59.294454454007791 -102.31235809627469 0 -102.31235809627469 305.99862485683843 0 0 0 0 -41.310444587361417 -46.524082860520139 0 -46.524082860520139 335.93386470886617 0 0 0 0 -53.961121293512406 -60.322701954260992 0 -60.322701954260992 317.90193555917358 0 0 0 0 105.84760520473355 -226.3725967401042 0 -226.3725967401042 507.65982500918813 0 0 0 0 -50.394081326696323 -1.5186719748853648 0 -1.5186719748853648 1200.7980736304089 0 0 0 0 344.45911157050796 -240.85362690042939 0 -240.85362690042939 508.25132959727489 0 0 0 0 185.18617958508548 -101.16028921880934 0 -101.16028921880934 495.52845695736323 0 0 0 0 303.34653640835313 38.341909779702746 0 38.341909779702746 657.8173048193712 0 0 0 0 -101.08507308413391 -65.816473237242462 0 -65.816473237242462 511.74094353575492 0 0 0 0 -12.393137000559364 50.388222410816525 0 50.388222410816525 635.79748297583501 0 0 0 0 -50.071099858658272 -38.57169316387899 0 -38.57169316387899 508.62455185712315 0 0 0 0 64.870944122230867 7.4066298249854299 0 7.4066298249854299 458.62345385485423 0 0 0 0 -24.15742925091763 -75.866637243854711 0 -75.866637243854711 296.46149615089234 0 0 0 0 70.471721010690089 -55.735841261102905 0 -55.735841261102905 296.45305713598646 0 0 0 0 80.581500048690941 -62.737167659099214 0 -62.737167659099214 116.7247424161269 0 0 0 0 7.1707410979652195 -213.78649250243598 0 -213.78649250243598 182.81302725179557 0 0 0 0 52.868886126234429 -89.087068204531533 0 -89.087068204531533 294.3105783076935 0 0 0 0 18.528862706592918 -282.03284680975548 0 -282.03284680975548 350.58136937147356 0 0 0 0 -12.40313310091733 -164.48442611364953 0 -164.48442611364953 170.4362906346214 0 0 0 0 -7.5400079304235987 21.72237895717808 0 21.72237895717808 501.5900006713 0 0 0 0 -18.397896773531102 -147.86729934344476 0 -147.86729934344476 315.02599306032243 0 0 0 0 -145.53315360227134 -116.01012924180941 0 -116.01012924180941 308.72532301041429 0 0 0 0 -2.407044597704953 -270.29606391696154 0 -270.29606391696154 18.914991443438339 0 0 0 0 -59.059383844956756 -310.27452697314584 0 -310.27452697314584 12.747517792913641 0 0 0 0 153.85001148411538 -92.662591395681375 0 -92.662591395681375 18.433247802604456 0 0 0 0 150.46778508872376 -160.5397860607336 0 -160.5397860607336 -90.792330204061727 0 0 0 0 34.903926506154676 -153.44439763426226 0 -153.44439763426226 179.64231540362744 0 0 0 0 34.430671055772109 -145.78293418629255 0 -145.78293418629255 57.43213268614636 0 0 0 0 6.2305647604807746 -124.53232238133205 0 -124.53232238133205 162.80024869461886 0 0 0 0 0.15898461011238396 -2.3946730551274413 0 -2.3946730551274413 0.8614710296933481 0 0 0 0 -87.865818177342589 -44.26104416400085 0 -44.26104416400085 502.76356664790728 0 0 0 0 -6.2438554857508279 -81.704012537038579 0 -81.704012537038579 223.12693731533 0 0 0 0 1.6442423207045067 -4.0879475422916585 0 -4.0879475422916585 1.4556206024658422 0 0 0 0 -7.0624688494345875 -5.4040640023255646 0 -5.4040640023255646 0.18349856002186093 0 0 0 0 1.3701655821608796 -5.4032250398495361 0 -5.4032250398495361 -1.339162486119136 0 0 0 0 503.22579252917785 -323.78147737967197 0 -323.78147737967197 134.11015272931945 0 0 0 0 97.607062124967342 -0.8883146804455464 0 -0.8883146804455464 -101.43304535434254 0 0 0 0 2.6976598024062 -4.8833664917236108 0 -4.8833664917236108 -1.7041449238337889 0 0 0 0 82.406381772045279 -18.684737133285353 0 -18.684737133285353 -9.0767247004623641 0 0 0 0 0.23156645594281144 -2.3058218008391123 0 -2.3058218008391123 0.8312617023675557 0 0 0 0 -49.178146259771893 -19.074330990044473 0 -19.074330990044473 -4.6526861003803788 0 0 0 0 3.5157036062054168 -1.9915683119574998 0 -1.9915683119574998 -0.88632823935851035 0 0 0 0 0.20117097532056505 -2.4859320552196777 0 -2.4859320552196777 -0.13599483837060689 0 0 0 0 -48.120805821032263 2.0525962232586608 0 2.0525962232586608 66.542102375135073 0 0 0 0 -42.529218356168712 -76.437405005454366 0 -76.437405005454366 683.50651412762818 0 0 0 0 3.230081294314683 -0.95029003879134066 0 -0.95029003879134066 -1.3871231138155851 0 0 0 0 -4.819240345257672 -2.6723168001228403 0 -2.6723168001228403 0.85903017376019586 0 0 0 0 -1.5576951168186497 -1.7539127527988967 0 -1.7539127527988967 1.04505466171031 0 0 0 0 0.030323087121360004 -1.1311824657150282 0 -1.1311824657150282 0.015848642071887298 0 0 0 0 -5.9576928844582326 -3.7915514405539312 0 -3.7915514405539312 0.50228587832674965 0 0 0 0 -0.11266445866203867 -1.9863338608165577 0 -1.9863338608165577 1.388708216834857 0 0 0 0 -38.682818343455438 -970.80060683521583 0 -970.80060683521583 921.11331150398473 0 0 0 0 1338.88028199783 -351.0405364368994 0 -351.0405364368994 -953.54198104487023 0 0 0 0 2595.847292817014 551.12195821170212 0 551.12195821170212 -447.14279145550245 0 0 0 0 2433.1195670905581 -1376.6514345591281 0 -1376.6514345591281 -4.9842687286145519 0 0 0 0 2092.3239554851752 -324.02863727300485 0 -324.02863727300485 -760.90415880700834 0 0 0 0 1344.2714851886558 -531.67691442574187 0 -531.67691442574187 -817.91001048443877 0 0 0 0 1325.2796878352528 -421.52101992720418 0 -421.52101992720418 -875.579901054728 0 0 0 0 1871.2313879525464 -761.93615093801895 0 -761.93615093801895 -1463.3836266264516 0 0 0 0 1287.2986162638117 -797.16918628715393 0 -797.16918628715393 -1106.2028707216832 0 0 0 0 -140.57699242685339 -1339.0768259837391 0 -1339.0768259837391 229.24931245324115 0 0 0 0 320.14700687382719 -230.03648761254772 0 -230.03648761254772 -1345.7019952112951 0 0 0 0 694.52246292016935 -1032.8274977306833 0 -1032.8274977306833 -858.40814287732928 0 0 0 0 1152.8421560382412 -791.2084324385055 0 -791.2084324385055 -1638.5607160096461 0 0 0 0 78.235309561059694 -13.945980983457503 0 -13.945980983457503 210.18734051346837 0 0 0 0 -283.10686786938459 -174.57672588535206 0 -174.57672588535206 878.13523473328723 0 0 0 0 133.73595045501133 -6.1690180528730707 0 -6.1690180528730707 -552.58893277798506 0 0 0 0 202.48042015831743 -170.93133480937979 0 -170.93133480937979 -179.8144454018493 0 0 0 0 79.931842458693836 -72.454980757815903 0 -72.454980757815903 3.8140401671316795 0 0 0 0 38.805441437929403 -42.467933046571943 0 -42.467933046571943 -16.622827779759746 0 0 0 0 3.034774591360474 -49.806289500331786 0 -49.806289500331786 69.508821697846315 0 0 0 0 -3.8677859332095821 -6.323161140530015 0 -6.323161140530015 2.545686868440757 0 0 0 0 -448.14902659202653 -310.48807728530426 0 -310.48807728530426 -155.0572535950314 0 0 0 0 -1.2071530769035803 -2.0161751676321318 0 -2.0161751676321318 0.79307623778193936 0 0 0 0 124.95958395671914 -1009.8644261384902 0 -1009.8644261384902 -1014.8108011861073 0 0 0 0 -449.70607781654689 -313.93653468587127 0 -313.93653468587127 559.07986945804078 0 0 0 0 -192.39348288385372 218.40173159588539 0 218.40173159588539 408.28661384912493 0 0 0 0 -534.89616337118059 -7.0095742816379243 0 -7.0095742816379243 166.50735469426581 0 0 0 0 -714.54126092494698 581.63696685082732 0 581.63696685082732 94.402193837685786 0 0 0 0 -391.99519577392493 -80.608651052957612 0 -80.608651052957612 -39.637027895009851 0 0 0 0 196.19310255390883 -224.87397313429119 0 -224.87397313429119 173.15642941359147 0 0 0 0 842.22816456078726 850.3741567912673 0 850.3741567912673 1669.8553545764216 0 0 0 0 777.34495653558406 -1612.9703837217239 0 -1612.9703837217239 1423.6065552454875 0 0 0 0 2361.3125909746814 -284.93781158567162 0 -284.93781158567162 -66.06139730223731 0 0 0 0 1787.5557713381932 -1392.49680407195 0 -1392.49680407195 601.20371218589571 0 0 0 0 714.76378283291706 -762.53757656816242 0 -762.53757656816242 234.09483878741139 0 0 0 0 412.17112803550845 -689.27421302212315 0 -689.27421302212315 240.20953547166209 0 0 0 0 575.12999424907321 -935.82351448568033 0 -935.82351448568033 526.63827643658215 0 0 0 0 53.313831862258667 -310.5344717984907 0 -310.5344717984907 336.63888745580698 0 0 0 0 90.589732107502641 -561.31717197484613 0 -561.31717197484613 913.97020701848123 0 0 0 0 -28.043250449089101 -124.32568624978921 0 -124.32568624978921 450.26010522664274 0 0 0 0 158.10449229837104 -114.32189505342831 0 -114.32189505342831 -11.781456585307751 0 0 0 0 193.40094516724639 -812.58274541019182 0 -812.58274541019182 1889.9688021440152 0 0 0 0 71.173783898804686 -255.29074330678577 0 -255.29074330678577 33.830879484037723 0 0 0 0 169.06227175824461 -342.51784880266132 0 -342.51784880266132 61.999158866238076 0 0 0 0 38.364915467565879 -201.28599910831872 0 -201.28599910831872 117.26822785584 0 0 0 0 131.06072377860255 -382.49174830158472 0 -382.49174830158472 213.245971360353 0 0 0 0 145.37599601197871 -519.88020721251996 0 -519.88020721251996 539.46208092377856 0 0 0 0 183.30164478902589 -410.0249718672585 0 -410.0249718672585 205.50711233458787 0 0 0 0 121.0393744782632 -307.16137491427526 0 -307.16137491427526 279.22848728204553 0 0 0 0 40.480186676199082 -113.77937138187008 0 -113.77937138187008 212.07648184739082 0 0 0 0 82.345506439902238 -147.94325265523366 0 -147.94325265523366 24.849687562535109 0 0 0 0 91.292528060577752 -216.50409773062574 0 -216.50409773062574 59.405092754943325 0 0 0 0 47.159456413355656 -230.61864334656457 0 -230.61864334656457 246.93331072268211 0 0 0 0 -11.348672928055748 -79.178921373586491 0 -79.178921373586491 68.911817987164682 0 0 0 0 13.835199402965372 -44.729819484150084 0 -44.729819484150084 -74.915751669144811 0 0 0 0 4.2533247579704039 -139.69434752729649 0 -139.69434752729649 -16.73374600319039 0 0 0 0 65.642730202380335 -174.66133264246855 0 -174.66133264246855 -69.578841871250916 0 0 0 0 27.833720705137239 -18.220224851115745 0 -18.220224851115745 -164.59188638690102 0 0 0 0 0.4822261469962541 -6.4688717074459419 0 -6.4688717074459419 -65.531698514393952 0 0 0 0 36.385985131753841 -79.533733657310222 0 -79.533733657310222 -62.51871775239124 0 0 0 0 -8.2544035814498784 28.446228964847251 0 28.446228964847251 -155.02356927345318 0 0 0 0 -85.216797242319444 -58.42200619435971 0 -58.42200619435971 -2.3232631871896956 0 0 0 0 -106.16279252863023 -118.59583125961763 0 -118.59583125961763 -353.57192778109538 0 0 0 0 -223.71700075082481 -287.20246108977744 0 -287.20246108977744 -24.34856224164605 0 0 0 0 -227.55419440713013 18.129148160936893 0 18.129148160936893 120.72060725541951 0 0 0 0 39.311755370377796 -21.669661862764769 0 -21.669661862764769 -195.81774508770104 0 0 0 0 26.255303146521328 -35.961229878217637 0 -35.961229878217637 -162.03811766221452 0 0 0 0 15.434846455726074 -96.75970864190964 0 -96.75970864190964 -126.84185942192266 0 0 0 0 -0.24431214849151495 -0.24655763319005075 0 -0.24655763319005075 0.17512327457246646 0 0 0 0 -237.47563968915938 -106.57803774598777 0 -106.57803774598777 206.99081067121153 0 0 0 0 6.3922908328644414 -3.0541944203140536 0 -3.0541944203140536 -0.11800881809411645 0 0 0 0 1072.4726504205173 161.50231042323526 0 161.50231042323526 -543.92383807356191 0 0 0 0 1.6429665766020669 -0.72703588142252507 0 -0.72703588142252507 0.031739446497790591 0 0 0 0 137.41388260186068 -299.9532165691171 0 -299.9532165691171 -440.25839780755837 0 0 0 0 72.921432503113465 -184.40239991992075 0 -184.40239991992075 -38.292736427158161 0 0 0 0 4.3752894662433555 -2.0182371255141813 0 -2.0182371255141813 0.013114262670625765 0 0 0 0 91.30053027071699 -283.8696915754258 0 -283.8696915754258 -87.393516852585208 0 0 0 0 185.07380969306541 -390.21862594338478 0 -390.21862594338478 -277.06988632644982 0 0 0 0 72.552349361445522 -326.23961648870227 0 -326.23961648870227 -125.27089208240204 0 0 0 0 334.90936654846882 -99.855992972467988 0 -99.855992972467988 -270.60759769902427 0 0 0 0 626.59708602874161 -310.63146258678449 0 -310.63146258678449 -18.088319547403898 0 0 0 0 1353.4513751369959 -407.92028649579913 0 -407.92028649579913 -253.85059552274879 0 0 0 0 820.35953032262478 -239.32624190265096 0 -239.32624190265096 -69.792171940584922 0 0 0 0 315.09308641179814 -214.4303358943389 0 -214.4303358943389 -34.071330375222715 0 0 0 0 635.54685674577922 -311.96700100552926 0 -311.96700100552926 -165.8736398601327 0 0 0 0 -185.3909594231809 -396.1958438702984 0 -396.1958438702984 -73.254520720594428 0 0 0 0 -3.2851159960118821 -267.06265922078842 0 -267.06265922078842 -85.968821257024501 0 0 0 0 213.70456571431714 -367.04870153963543 0 -367.04870153963543 -219.19378258256074 0 0 0 0 346.57664614985697 -212.57854827047959 0 -212.57854827047959 -71.585168148825687 0 0 0 0 43.644382459173357 -129.49660784881758 0 -129.49660784881758 -19.053794258975358 0 0 0 0 762.23622915308806 -223.4942134104349 0 -223.4942134104349 50.891763943471233 0 0 0 0 460.70877949625719 -60.899302894801622 0 -60.899302894801622 102.14834405198417 0 0 0 0 638.72739492284018 -381.2348113070409 0 -381.2348113070409 9.2292235631057338 0 0 0 0 -313.20215766283218 -62.774052656397771 0 -62.774052656397771 -49.696521411059393 0 0 0 0 14.578535303237913 -54.123196648985378 0 -54.123196648985378 -56.847803239846598 0 0 0 0 -456.35330106028414 71.395350039520508 0 71.395350039520508 57.919971382551921 0 0 0 0 -662.33371116679336 -354.12983984551283 0 -354.12983984551283 -10.045650166378891 0 0 0 0 -181.06675941146386 -240.78320035052002 0 -240.78320035052002 9.3727087425827449 0 0 0 0 -270.53259996997076 -528.74741808699673 0 -528.74741808699673 -331.16366125132845 0 0 0 0 39.491908239489931 -179.74813427100185 0 -179.74813427100185 -512.32411545125706 0 0 0 0 -524.90813486212573 35.137770725126757 0 35.137770725126757 -89.768229050289847 0 0 0 0 -606.22907498058339 -482.54022290220473 0 -482.54022290220473 -320.19183807882928 0 0 0 0 -92.406509767810348 -294.48945164523047 0 -294.48945164523047 -864.58219012146492 0 0 0 0 -0.13066027258806301 -0.35260312386456416 0 -0.35260312386456416 -0.048461833418103478 0 0 0 0 -213.56261086086306 -335.66188486804344 0 -335.66188486804344 -321.55611951917672 0 0 0 0 19.499091359182785 -51.742135018145746 0 -51.742135018145746 -349.68871200523427 0 0 0 0 -238.64134010268026 -205.4658440056528 0 -205.4658440056528 -49.545544636378509 0 0 0 0 -254.34638720274233 -185.414988839947 0 -185.414988839947 80.565411946168751 0 0 0 0 -328.2419841239971 -197.05320731108986 0 -197.05320731108986 -48.595047563290791 0 0 0 0 -41.384480836437433 -19.227711354148596 0 -19.227711354148596 -112.02164469826312 0 0 0 0 -351.63996627332381 -117.1711539233811 0 -117.1711539233811 145.76101431590178 0 0 0 0 -78.67703278199042 -104.90185536228273 0 -104.90185536228273 142.85358840558911 0 0 0 0 -124.50599906334537 -51.264420980928662 0 -51.264420980928662 100.87875660570353 0 0 0 0 -221.76999235270341 -141.30642925070606 0 -141.30642925070606 135.74029679302839 0 0 0 0 -189.11581520445179 -141.22222274526848 0 -141.22222274526848 68.319768152683082 0 0 0 0 500.2515277374041 -135.62541487816043 0 -135.62541487816043 43.252805263249684 0 0 0 0 551.56164838065888 -38.062410943140776 0 -38.062410943140776 177.42108388418819 0 0 0 0 -12.107257938849216 -101.14354251708664 0 -101.14354251708664 113.44198065189994 0 0 0 0 210.7356812255166 46.610978019143658 0 46.610978019143658 21.6005095515834 0 0 0 0 -12.554485247354023 22.63658102664067 0 22.63658102664067 143.45420250262123 0 0 0 0 212.97633372856944 -92.597833356421688 0 -92.597833356421688 135.92248558087522 0 0 0 0 212.87631134258118 -32.824043197762876 0 -32.824043197762876 36.663111182326247 0 0 0 0 404.22644582830253 0.7974700234053671 0 0.7974700234053671 76.606781958378633 0 0 0 0 460.86400937126018 -142.63797545274883 0 -142.63797545274883 145.00539559306708 0 0 0 0 212.89017018658342 -45.588714071824143 0 -45.588714071824143 157.53175996525624 0 0 0 0 650.59408835880458 -208.5175012262971 0 -208.5175012262971 114.57572376253802 0 0 0 0 756.05343194858688 -204.45499502769979 0 -204.45499502769979 114.05566170517704 0 0 0 0 944.80297504217015 -289.35941745436503 0 -289.35941745436503 90.647402090554806 0 0 0 0 764.78079994287691 -82.734938049594348 0 -82.734938049594348 28.669218413324415 0 0 0 0 931.01876242361323 -332.06459549825377 0 -332.06459549825377 98.918241371901786 0 0 0 0 916.09788612254488 -321.03675541064786 0 -321.03675541064786 92.030658557057905 0 0 0 0 1054.234864472819 -449.10798601265924 0 -449.10798601265924 137.55767071293394 0 0 0 0 1013.4884109691484 -477.69302523009355 0 -477.69302523009355 159.15126190624505 0 0 0 0 1097.2587240490539 -500.02093501143008 0 -500.02093501143008 113.9415820094473 0 0 0 0 1143.4797412007174 -561.23890441431195 0 -561.23890441431195 162.70285561852506 0 0 0 0 1237.5851929274213 -403.16492892996939 0 -403.16492892996939 86.201636524907371 0 0 0 0 1231.9238730336365 -563.14833797316714 0 -563.14833797316714 132.10143205542045 0 0 0 0 1274.5711336829117 -547.04841910824598 0 -547.04841910824598 135.16242978591799 0 0 0 0 881.9426031424664 -164.26929034841669 0 -164.26929034841669 41.508042842497389 0 0 0 0 891.94541547913104 -279.79587064011594 0 -279.79587064011594 104.28881468095744 0 0 0 0 958.14001805258158 -237.54191520808627 0 -237.54191520808627 99.725440057378364 0 0 0 0 1386.271742079698 -218.02696364340227 0 -218.02696364340227 74.83425725160032 0 0 0 0 947.37727398754214 -14.1204794212249 0 -14.1204794212249 210.74564413337794 0 0 0 0 1070.0238781139342 -499.89766508297157 0 -499.89766508297157 142.60534443069994 0 0 0 0 1064.6271268003475 -497.21038336894662 0 -497.21038336894662 558.93227529990361 0 0 0 0 1071.2212697562827 -345.32017599308051 0 -345.32017599308051 212.76282163099313 0 0 0 0 1586.7840567601379 -92.075685735449952 0 -92.075685735449952 252.8534120591994 0 0 0 0 1510.9890349739289 -555.48329928684689 0 -555.48329928684689 426.94296064157788 0 0 0 0 1871.5713779099751 -634.61730939917106 0 -634.61730939917106 147.96117293992074 0 0 0 0 1110.5171683328226 -803.06931757021812 0 -803.06931757021812 396.62197780117822 0 0 0 0 2411.8393302710465 -1118.7109172284045 0 -1118.7109172284045 494.19876475754609 0 0 0 0 905.58355253693298 -1272.0241214353518 0 -1272.0241214353518 1624.7332306511271 0 0 0 0 2495.9317781699938 -1161.1046217002258 0 -1161.1046217002258 488.90122571815755 0 0 0 0 -0.025258515378730806 -0.71662272774196933 0 -0.71662272774196933 0.12006324901379771 0 0 0 0 1906.6802623587137 -314.95048870280561 0 -314.95048870280561 551.39176381867946 0 0 0 0 2481.4251248778019 -1019.9454801606403 0 -1019.9454801606403 587.79459436059199 0 0 0 0 1770.5897968662903 -201.97313666691934 0 -201.97313666691934 383.00985635695815 0 0 0 0 491.59538439179596 105.16600414799763 0 105.16600414799763 82.585767045420653 0 0 0 0 1.4562233605356205 -0.34169833630347135 0 -0.34169833630347135 -0.61776572281556585 0 0 0 0 635.10747160289611 400.6652363707949 0 400.6652363707949 8.1004026974269436 0 0 0 0 767.05755512462929 -897.88025420597864 0 -897.88025420597864 -622.58531394863508 0 0 0 0 2364.5500512072322 -213.59668038865527 0 -213.59668038865527 -462.84353675674356 0 0 0 0 1417.6070573559482 -1039.4642955104819 0 -1039.4642955104819 162.69844621693164 0 0 0 0 96.011890441179276 -15.183172871627221 0 -15.183172871627221 -94.80741354401539 0 0 0 0 42.534466117154807 -42.737866857818517 0 -42.737866857818517 -17.143847252098112 0 0 0 0 -51.449781013259781 69.522902573737269 0 69.522902573737269 -72.707530460771522 0 0 0 0 -7.6253491032257443 18.9883499227127 0 18.9883499227127 -24.225334309818209 0 0 0 0 1.7070660865944332 -0.30984191320843024 0 -0.30984191320843024 -0.91409188632141158 0 0 0 0 -38.657992796157487 156.31402041412946 0 156.31402041412946 -253.93570842473878 0 0 0 0 35.547940188786015 70.38236680369846 0 70.38236680369846 -197.90621384899313 0 0 0 0 104.36856223471113 -150.01582458578832 0 -150.01582458578832 -4.7037695028739108 0 0 0 0 3.8206684921256056 -11.023830920266846 0 -11.023830920266846 -3.2565646753755573 0 0 0 0 109.92539405768912 -167.72568635024209 0 -167.72568635024209 516.04889576223104 0 0 0 0 12.096762304374046 -5.1514263274010599 0 -5.1514263274010599 -5.0488470763584896 0 0 0 0 -6.5460073680875368 -5.7275115999724981 0 -5.7275115999724981 1.7953536686082787 0 0 0 0 -0.98909796688403517 -4.0816759536226073 0 -4.0816759536226073 2.9069076023377924 0 0 0 0 1.7034820352273528 -3.3562085796202155 0 -3.3562085796202155 2.3119206396868321 0 0 0 0 1109.6422894777388 -796.73111716304197 0 -796.73111716304197 351.77499299505507 0 0 0 0 948.41651143186027 -769.68178935080505 0 -769.68178935080505 361.46543172175552 0 0 0 0 -3.5619008316934924 -23.572272476252692 0 -23.572272476252692 9.1996413765118632 0 0 0 0 14.351191247612299 -9.4560910827558722 0 -9.4560910827558722 -9.6670891691101026 0 0 0 0 2.6168567376645582 -1.2247168227306808 0 -1.2247168227306808 -1.9567109135675043 0 0 0 0 -12.095159661841535 2.9025699573585371 0 2.9025699573585371 20.001137640389061 0 0 0 0 23.233518405249924 -10.648496457960391 0 -10.648496457960391 -11.785354673243091 0 0 0 0 -5.4877841581477638 -10.117852618483534 0 -10.117852618483534 2.9781510812822773 0 0 0 0 837.16258514356684 -428.11880111423881 0 -428.11880111423881 246.36411564997252 0 0 0 0 836.25525640472188 -685.65719414270461 0 -685.65719414270461 374.05455647811323 0 0 0 0 1052.4586627470562 -638.77720624800349 0 -638.77720624800349 196.94103492887916 0 0 0 0 1266.138467387027 -771.2545579680874 0 -771.2545579680874 237.21701070353083 0 0 0 0 1495.6773074269877 -289.58764405972033 0 -289.58764405972033 -248.23065263207536 0 0 0 0 965.76699339303013 -535.61389232291367 0 -535.61389232291367 250.57655057696684 0 0 0 0 1068.4298162092746 -608.97626806536937 0 -608.97626806536937 200.02853557518256 0 0 0 0 1162.6540203129989 -476.95325042761579 0 -476.95325042761579 206.2141015593661 0 0 0 0 1075.4636668568419 -539.75329121480627 0 -539.75329121480627 196.75652545483899 0 0 0 0 1169.6161830080382 -447.8239259085276 0 -447.8239259085276 247.8289228695848 0 0 0 0 1438.4892375547497 -764.15520114976607 0 -764.15520114976607 469.72663817945431 0 0 0 0 949.03267291132943 -437.02006753633032 0 -437.02006753633032 208.07556384231634 0 0 0 0 -3.1396182734879403 -31.949714628478887 0 -31.949714628478887 23.462986304266906 0 0 0 0 -11.51586849243904 24.062403322891441 0 24.062403322891441 12.310971939695719 0 0 0 0 -4.0895080814766853 -10.442398763971752 0 -10.442398763971752 5.1863327013683289 0 0 0 0 0.47727870869293376 -0.29283159519993696 0 -0.29283159519993696 -0.29383329085343468 0 0 0 0 -40.492752047863178 4.896116481927038 0 4.896116481927038 -23.334974544062334 0 0 0 0 0.98661084135709598 -0.42752923456753211 0 -0.42752923456753211 -0.76228703316167934 0 0 0 0 54.961452256466146 45.295335113069655 0 45.295335113069655 -22.612945984974431 0 0 0 0 4.3874240004479361 -13.178799675257324 0 -13.178799675257324 -6.8601263699183619 0 0 0 0 -12.061052485203618 29.763983308561365 0 29.763983308561365 -9.9164700749006442 0 0 0 0 -10.162637195113348 -31.230131163455553 0 -31.230131163455553 37.832587834720471 0 0 0 0 -32.226435245756875 -10.740232077681867 0 -10.740232077681867 19.519447208358542 0 0 0 0 13.804610466231679 -22.699730344249474 0 -22.699730344249474 1.4336822235873115 0 0 0 0 106.87322900753861 -128.09705678386308 0 -128.09705678386308 117.69846409833372 0 0 0 0 -0.95443202388707959 -52.682364450734212 0 -52.682364450734212 65.041558315431757 0 0 0 0 -33.304748481717979 -24.557508686895744 0 -24.557508686895744 95.76449203105949 0 0 0 0 0.071674772258120356 -60.652766689632699 0 -60.652766689632699 43.298202498906903 0 0 0 0 -47.81300568388906 25.224718327372102 0 25.224718327372102 51.103574783855493 0 0 0 0 -45.825071030438266 15.227890008256509 0 15.227890008256509 47.012613950601008 0 0 0 0 21.480068080012643 53.779431478602419 0 53.779431478602419 -167.33622447764719 0 0 0 0 -81.551346740105146 -38.800923801292356 0 -38.800923801292356 287.48953797199647 0 0 0 0 -65.590967543044826 181.22770832161223 0 181.22770832161223 94.195537779574806 0 0 0 0 -55.543055019267058 -72.149042268447374 0 -72.149042268447374 -86.373880537348668 0 0 0 0 -31.990492966566308 -81.489141333732732 0 -81.489141333732732 -114.43056428811224 0 0 0 0 -44.168516545777493 -84.98660200892391 0 -84.98660200892391 -75.800534082784907 0 0 0 0 0.063880194463693474 -0.31428872325574597 0 -0.31428872325574597 0.17681846232971155 0 0 0 0 3.1726848494831756 -27.431221099704999 0 -27.431221099704999 24.578888846902373 0 0 0 0 75.917059873990183 -53.130036529435529 0 -53.130036529435529 -193.20394771151314 0 0 0 0 7.9777101428792321 10.73963514189154 0 10.73963514189154 -11.01852147317004 0 0 0 0 -14.916952308923953 -21.236260389222252 0 -21.236260389222252 -30.341349510668806 0 0 0 0 -30.948670558114543 -89.997047911848767 0 -89.997047911848767 -88.588916840231832 0 0 0 0 -1.2920755419272609 -23.663085707064056 0 -23.663085707064056 20.114252845510691 0 0 0 0 0.029101469346278108 -0.74769650729338544 0 -0.74769650729338544 0.70146539164994559 0 0 0 0 -0.2932156712890901 -0.62115619463645544 0 -0.62115619463645544 12.97846048488816 0 0 0 0 -18.298562396371381 -24.165065335411782 0 -24.165065335411782 23.593537147113238 0 0 0 0 -5.6573562296562159 -30.740297332546106 0 -30.740297332546106 11.756972938914259 0 0 0 0 -16.423289460777141 -22.053166954555309 0 -22.053166954555309 5.2347341106433305 0 0 0 0 -26.30082256082369 -44.063008101291416 0 -44.063008101291416 7.3722953508524824 0 0 0 0 -18.999599033574668 -33.859579746063901 0 -33.859579746063901 21.616253167743707 0 0 0 0 -27.086726741966231 -27.581026161691625 0 -27.581026161691625 18.581333262263797 0 0 0 0 -26.584676054024385 -28.578104652126058 0 -28.578104652126058 18.453992267404828 0 0 0 0 -17.975710756360058 -24.908361103702191 0 -24.908361103702191 16.287611688816469 0 0 0 0 -21.202868638636573 -28.236516438996205 0 -28.236516438996205 13.459019314643228 0 0 0 0 -46.605883537715727 -87.818645785249828 0 -87.818645785249828 182.65425025211789 0 0 0 0 104.84982970245716 -305.35752564073346 0 -305.35752564073346 -27.387996380168261 0 0 0 0 -27.356202471718916 -71.605543210471296 0 -71.605543210471296 -19.217554025429763 0 0 0 0 -29.130757437626187 -47.85373276435439 0 -47.85373276435439 42.406062864782143 0 0 0 0 -44.401905119330195 -95.463930491716383 0 -95.463930491716383 98.929984841255646 0 0 0 0 -34.370317575484933 -16.458906139047031 0 -16.458906139047031 62.885749158111139 0 0 0 0 -32.693826558487217 -25.910817792297166 0 -25.910817792297166 33.379058650640218 0 0 0 0 -38.530096362986797 -18.377215545151557 0 -18.377215545151557 62.638855260884156 0 0 0 0 0.043541428766503132 -0.24160091429381714 0 -0.24160091429381714 -0.087932868582211832 0 0 0 0 -12.710896459099786 10.567449407446475 0 10.567449407446475 88.295316057316086 0 0 0 0 134.26589664560106 -16.057118639702821 0 -16.057118639702821 31.191950061824173 0 0 0 0 -33.254190816481696 -27.289083356845367 0 -27.289083356845367 160.9645966502685 0 0 0 0 36.699531987233058 16.149220269762736 0 16.149220269762736 29.701996597872494 0 0 0 0 -36.544779442318941 -37.944307854129875 0 -37.944307854129875 16.101832461055892 0 0 0 0 -3.1945765869518254 -13.440240861209531 0 -13.440240861209531 -14.686656275272981 0 0 0 0 -12.346253851606207 9.3437631049107495 0 9.3437631049107495 16.660505219722836 0 0 0 0 29.286599507238634 -18.79870152877993 0 -18.79870152877993 -19.217284366459353 0 0 0 0 22.593647676558788 17.945184491759392 0 17.945184491759392 -78.613363825719716 0 0 0 0 0.26385078260416794 -0.83633573492043989 0 -0.83633573492043989 -0.39615070681351727 0 0 0 0 50.034695175627348 -37.198549461574657 0 -37.198549461574657 -93.026435485957336 0 0 0 0 -8.5226048267186343 23.656812015526157 0 23.656812015526157 -94.440822509004647 0 0 0 0 -0.082965603016852824 -0.14772029599676462 0 -0.14772029599676462 0.17117254970939255 0 0 0 0 -38.297763829119503 -24.037938921937894 0 -24.037938921937894 15.983103873171785 0 0 0 0 -27.662474563776414 -21.229794064369344 0 -21.229794064369344 16.372151809795469 0 0 0 0 -1.4878960814353377 -27.832446425259832 0 -27.832446425259832 -0.30956567149405601 0 0 0 0 -39.2844484057714 -35.993830401243031 0 -35.993830401243031 9.356300297746202 0 0 0 0 -23.155261115093708 -28.746259889754583 0 -28.746259889754583 12.593126073104941 0 0 0 0 -29.589167311173242 -29.963882963978449 0 -29.963882963978449 18.057973572482297 0 0 0 0 -21.220594235580393 -23.687477777013555 0 -23.687477777013555 18.277054959020234 0 0 0 0 25.332181605446522 -46.579367366084625 0 -46.579367366084625 -27.026695563061367 0 0 0 0 -13.381293297593402 -37.148240328118845 0 -37.148240328118845 -7.1492733833802049 0 0 0 0 -53.725941368227723 -61.228961028078629 0 -61.228961028078629 -5.8897599319279834 0 0 0 0 -13.41442853265719 -42.122095127980586 0 -42.122095127980586 -1.5351399138016859 0 0 0 0 -71.03993544995501 -33.491771663590043 0 -33.491771663590043 13.355253874276968 0 0 0 0 -55.641165050059499 -10.396573152203928 0 -10.396573152203928 11.303227181531838 0 0 0 0 -34.578491197184121 -24.756723941155542 0 -24.756723941155542 13.321447234920925 0 0 0 0 -4.5964940647154435 -6.3416223601021784 0 -6.3416223601021784 -0.41454817668272881 0 0 0 0 -7.900059057665203 -10.478751383155668 0 -10.478751383155668 2.4788804014536368 0 0 0 0 -3.8869712995587213 -4.4794333053422495 0 -4.4794333053422495 -0.061727429077659657 0 0 0 0 -180.27634847461172 35.872002085285203 0 35.872002085285203 13.236447609542665 0 0 0 0 -6.082700803286845 -12.38256817955156 0 -12.38256817955156 6.4675209051908062 0 0 0 0 -5.7731597469644385 -61.494333047543478 0 -61.494333047543478 -23.323754694578383 0 0 0 0 -12.980619313478428 -10.668136909005284 0 -10.668136909005284 0.069480189192290709 0 0 0 0 -7.8280758891633013 -6.1798767480113383 0 -6.1798767480113383 -2.6327779851195316 0 0 0 0 -17.457141019218511 -18.390445164441189 0 -18.390445164441189 19.346730645422213 0 0 0 0 -5.7379569118065135 -18.390638822978129 0 -18.390638822978129 5.1496148815851015 0 0 0 0 -4.4134939410214429 -10.639765134679237 0 -10.639765134679237 3.0755681086475306 0 0 0 0 7.7534999503676669 -7.0010909530568295 0 -7.0010909530568295 1.6654243573868686 0 0 0 0 18.022598750720135 -14.985837784799514 0 -14.985837784799514 -42.671439186903626 0 0 0 0 -0.77264405518326384 -4.3590383264481716 0 -4.3590383264481716 -0.54950509694936045 0 0 0 0 0.23266274262226272 -9.0073782707848942 0 -9.0073782707848942 -1.6975610902491538 0 0 0 0 4.8635265282446927 -10.586442926909395 0 -10.586442926909395 -1.4637005732234867 0 0 0 0 15.320196094093262 -28.18267916303148 0 -28.18267916303148 -1.9406583202076035 0 0 0 0 26.074918077007169 -24.286985537168221 0 -24.286985537168221 -31.454162731296833 0 0 0 0 15.113528639184072 -11.875083763806268 0 -11.875083763806268 -9.467905307940816 0 0 0 0 41.499017150959844 -39.332533448717641 0 -39.332533448717641 -16.780674967347295 0 0 0 0 28.217848788606716 -8.5843440366952564 0 -8.5843440366952564 -21.290930068985517 0 0 0 0 -17.03511059308039 -45.1070696117431 0 -45.1070696117431 33.686773564822943 0 0 0 0 0.52599472957032611 -0.17594979277157524 0 -0.17594979277157524 -0.58640336002812554 0 0 0 0 -18.773649211674865 -38.123190005728475 0 -38.123190005728475 29.20092666535129 0 0 0 0 13.712067315345848 -33.437326165982086 0 -33.437326165982086 0.21639281419993495 0 0 0 0 67.969127843145543 -75.754821031227038 0 -75.754821031227038 26.470298887456011 0 0 0 0 12.524715611602915 -20.778888964664475 0 -20.778888964664475 -47.556388136723399 0 0 0 0 1.4072888717928436 -8.8078264060959555 0 -8.8078264060959555 12.731650994456686 0 0 0 0 5.7708287662026123 -15.269412446422393 0 -15.269412446422393 5.6498538096439006 0 0 0 0 -0.16915789950820059 0.029440070280681852 0 0.029440070280681852 0.10467870485309327 0 0 0 0 -0.11355268034094479 -6.8171775371856711 0 -6.8171775371856711 13.075354930782851 0 0 0 0 -2.4968589637392142 -10.251267832997655 0 -10.251267832997655 -3.2642655732124695 0 0 0 0 -4.170620955483173 -7.909637761013073 0 -7.909637761013073 2.0059509051679925 0 0 0 0 -10.845388334262422 -12.026457354157751 0 -12.026457354157751 -1.1202930826148894 0 0 0 0 -40.192599620026158 -50.48296813745219 0 -50.48296813745219 -29.892881835345179 0 0 0 0 -1.7135877825749048 -34.400843506482488 0 -34.400843506482488 -33.341537324547744 0 0 0 0 37.75037090648766 -14.124896442685895 0 -14.124896442685895 -35.401294411416529 0 0 0 0 232.06970536228619 434.51306633182685 0 434.51306633182685 322.01205929574644 0 0 0 0 2.1585378476311501 -8.230245124912722 0 -8.230245124912722 4.6668590870290956 0 0 0 0 51.748773570016056 -34.873444326814933 0 -34.873444326814933 -37.651372734027518 0 0 0 0 1.3755649435370287 -7.2770833740032685 0 -7.2770833740032685 7.4192685027137486 0 0 0 0 -1060.8073761835276 -566.88219511435273 0 -566.88219511435273 1079.9051180493043 0 0 0 0 -43.330271283439288 -14.653048387637682 0 -14.653048387637682 -10.727421056251842 0 0 0 0 13.417766026395839 -92.407841486859979 0 -92.407841486859979 -90.88969007206947 0 0 0 0 -46.025101438121055 -48.858137687533599 0 -48.858137687533599 64.220967206034402 0 0 0 0 181.63116370192074 55.727607350890594 0 55.727607350890594 17.601984836721385 0 0 0 0 0.2475023794333735 -0.24565121365233167 0 -0.24565121365233167 -0.16388135129016312 0 0 0 0 23.046589029155257 32.809620194316039 0 32.809620194316039 -2.0464761162111245 0 0 0 0 -86.750220098540012 198.29921868656857 0 198.29921868656857 314.04141574548339 0 0 0 0 4.9325975370538799 -1.2615127893350291 0 -1.2615127893350291 1.3358299507490301 0 0 0 0 14.689803769851096 -0.86631075909872379 0 -0.86631075909872379 -18.108547628275119 0 0 0 0 4.6117037691656151 -1.6138755651372776 0 -1.6138755651372776 -17.491799962887171 0 0 0 0 0.954745497640904 -0.73283935651716769 0 -0.73283935651716769 -0.67039215497549798 0 0 0 0 -10.459318233679369 31.821252166224895 0 31.821252166224895 76.294686260084063 0 0 0 0 14.4550922607541 -0.01281058178483363 0 -0.01281058178483363 37.333120941284506 0 0 0 0 -0.33429718715263212 -0.028044740719228911 0 -0.028044740719228911 -0.030715460909200853 0 0 0 0 -5.6381489761752164 -25.701904016144908 0 -25.701904016144908 4.3555096207583119 0 0 0 0 21.176098014626405 -12.148377780161354 0 -12.148377780161354 -3.5245768778659112 0 0 0 0 -60.105498067958251 -5.3411686227918835 0 -5.3411686227918835 91.852819624092717 0 0 0 0 -19.047975504388887 -37.041625758889495 0 -37.041625758889495 19.797957673105884 0 0 0 0 1.9707306089130725 -22.176073070570055 0 -22.176073070570055 5.7846904734287818 0 0 0 0 -14.103099375141028 -15.130034922181949 0 -15.130034922181949 10.706944921465947 0 0 0 0 -26.27749955451327 1.7446382623529644 0 1.7446382623529644 0.53892591279145563 0 0 0 0 0.69935719484876424 -0.61634018052154416 0 -0.61634018052154416 -0.66411074391327163 0 0 0 0 -26.108423055838102 -7.9353777084616013 0 -7.9353777084616013 10.096120271693508 0 0 0 0 -10.569782167938683 -15.537067016619403 0 -15.537067016619403 10.052696184873639 0 0 0 0 0.19422031171961862 -0.20004081327351741 0 -0.20004081327351741 0.018543510035669897 0 0 0 0 4.9134955735614625 -8.6297238937012164 0 -8.6297238937012164 -1.2822681952326143 0 0 0 0 -3.4319985599426159 -12.7649021646519 0 -12.7649021646519 6.0719730605907714 0 0 0 0 92.90699542728089 -12.585463455326135 0 -12.585463455326135 -86.30528737415716 0 0 0 0 -2.1319850120817136 -9.7582608441489356 0 -9.7582608441489356 0.050466268859963748 0 0 0 0 -8.5150801698837313 -9.018386100020507 0 -9.018386100020507 -9.4355112971497874 0 0 0 0 16.95172373465342 -13.56187971531115 0 -13.56187971531115 -4.5903885459919334 0 0 0 0 -7.0491836619257811 -14.624895569653745 0 -14.624895569653745 -11.944964981858902 0 0 0 0 1.2993081073509529 -14.262472317785523 0 -14.262472317785523 -2.0854637283600823 0 0 0 0 0.50230033892876236 -11.317740884785508 0 -11.317740884785508 0.75687232179012653 0 0 0 0 1.0539068122452591 -13.155998730179817 0 -13.155998730179817 -4.1843169792323351 0 0 0 0 8.6085918569753517 -7.2315344606685343 0 -7.2315344606685343 -15.742776999479247 0 0 0 0 -0.039285887656625107 -0.21161454502584615 0 -0.21161454502584615 -0.042600884869625044 0 0 0 0 4.7975518621173441 -10.778401000686653 0 -10.778401000686653 1.786930184475612 0 0 0 0 1.2365308427965829 -7.8209508356104731 0 -7.8209508356104731 4.8352842326347467 0 0 0 0 1.4160045644457568 -11.159948519614773 0 -11.159948519614773 -95.088742123941415 0 0 0 0 6.3853669796375812 -8.5488136459335227 0 -8.5488136459335227 3.1416295523877125 0 0 0 0 6.3865856277261628 -11.294921427606823 0 -11.294921427606823 3.4519037827240027 0 0 0 0 3.6160084148796159 -7.0590972503587182 0 -7.0590972503587182 7.336050031822424 0 0 0 0 4.7421815007323858 -9.0791340672085283 0 -9.0791340672085283 -3.0096046821672644 0 0 0 0 4.9363335639500292 -13.987928123759048 0 -13.987928123759048 -4.0081440285284771 0 0 0 0 1.2006209653445694 -11.845294887271848 0 -11.845294887271848 -4.7816073625131139 0 0 0 0 1.9876425849433872 -11.283217914452052 0 -11.283217914452052 0.25642133736801043 0 0 0 0 3.9611050816238276 -8.7474308183054745 0 -8.7474308183054745 3.7614463071329283 0 0 0 0 4.8307394394786076 -10.717418930055068 0 -10.717418930055068 2.235701818383478 0 0 0 0 3.7383855982422354 -12.573468369819036 0 -12.573468369819036 -0.86195351695870337 0 0 0 0 -34.549099746531283 -34.779220108795926 0 -34.779220108795926 -24.110156459108111 0 0 0 0 0.89387027839936994 -10.533192834657726 0 -10.533192834657726 -2.5916694304296044 0 0 0 0 2.6967838956261403 -10.531200004646053 0 -10.531200004646053 -8.1018040025910523 0 0 0 0 2.2948227932147347 -12.989251246230594 0 -12.989251246230594 -4.5463275028378121 0 0 0 0 2.9694218219665345 -17.539669972677075 0 -17.539669972677075 -2.6702780684711342 0 0 0 0 9.7497314871434355 -6.3500517668253451 0 -6.3500517668253451 45.20324603528843 0 0 0 0 28.108861734872335 14.990966789235245 0 14.990966789235245 -65.214020706491283 0 0 0 0 0.38597889284945097 -2.2104173346541631 0 -2.2104173346541631 -1.1057347116131846 0 0 0 0 1.773355833523965 -10.810364086411028 0 -10.810364086411028 -0.68490544710766699 0 0 0 0 -1.5276672141644667 -18.045682953775213 0 -18.045682953775213 -16.389860641982523 0 0 0 0 0.50709559511121949 -3.4002337914631049 0 -3.4002337914631049 -1.7615156497898221 0 0 0 0 6.5265712182881543 -4.6875166812133102 0 -4.6875166812133102 -22.397023690269634 0 0 0 0 3.6992862612835236 -12.474830975954042 0 -12.474830975954042 -1.2010764682400632 0 0 0 0 1.2064015354189905 -12.501135744799285 0 -12.501135744799285 -4.3473499858782816 0 0 0 0 0.27352746751057566 -12.503681507043893 0 -12.503681507043893 -3.9685671535453366 0 0 0 0 2.8540180236923618 -4.9335261610443624 0 -4.9335261610443624 -4.2747547519775253 0 0 0 0 1.8827036243803947 -10.583358030454823 0 -10.583358030454823 -2.6906758815016865 0 0 0 0 3.0396412032458784 -7.4911204007928625 0 -7.4911204007928625 -2.2283162025214551 0 0 0 0 2.2869734281757701 -8.7796256810706836 0 -8.7796256810706836 -2.1640502294376347 0 0 0 0 4.0007524110614785 -8.7756159541450849 0 -8.7756159541450849 -2.3098970352732699 0 0 0 0 0.69206462081638165 -8.4271497303898286 0 -8.4271497303898286 0.053710440751274291 0 0 0 0 0.66542376816505566 -7.2247935072191467 0 -7.2247935072191467 -0.018628863753122005 0 0 0 0 -1.5369460830515891 -7.9189368483028488 0 -7.9189368483028488 -0.74497062718944562 0 0 0 0 0.67147318252955301 -7.26864093000205 0 -7.26864093000205 -1.2340556422320788 0 0 0 0 0.68810305709484965 -8.3492188486961822 0 -8.3492188486961822 -1.3352558308949938 0 0 0 0 -2.7441846078436356 -7.4095134180151945 0 -7.4095134180151945 -0.87945079382916447 0 0 0 0 0.97999546169194218 -6.0874739188293461 0 -6.0874739188293461 -3.4773418839577062 0 0 0 0 14.639916163587756 -5.4699138159309859 0 -5.4699138159309859 -0.88696333428176832 0 0 0 0 4.0181615857945872 -8.5069384970802275 0 -8.5069384970802275 -2.717779702070402 0 0 0 0 4.0173436359436892 -8.4439298421957574 0 -8.4439298421957574 -3.7854866719790152 0 0 0 0 17.521526291911243 -5.9033971399312941 0 -5.9033971399312941 -3.3682994738054313 0 0 0 0 3.6136121839305595 -9.5670666544367755 0 -9.5670666544367755 -1.2703793468707887 0 0 0 0 3.1702325556252617 -8.7922093714514631 0 -8.7922093714514631 -3.7115627054427023 0 0 0 0 4.0844744626797365 -7.8671896205632947 0 -7.8671896205632947 -9.6897611009262619 0 0 0 0 7.493213693887224 -4.686103598737712 0 -4.686103598737712 -1.4823324618885931 0 0 0 0 2.2186252541218892 -14.052443739623413 0 -14.052443739623413 -9.9238723188027507 0 0 0 0 6.6133646439386027 -6.2157956496071654 0 -6.2157956496071654 -3.1297243364405474 0 0 0 0 -0.32117640545038739 -7.6661502779716102 0 -7.6661502779716102 -3.0280579025275074 0 0 0 0 1.0434003065929573 -7.1367059696731303 0 -7.1367059696731303 -3.4125418908261054 0 0 0 0 3.1008509725625188 -8.6658431546291315 0 -8.6658431546291315 -2.6479837214188611 0 0 0 0 0.38566327413718682 -7.5957813669751886 0 -7.5957813669751886 -3.4599988950104716 0 0 0 0 17.197103086854781 -5.0687787185252375 0 -5.0687787185252375 -11.767494348052423 0 0 0 0 12.485581848981187 -5.7854509551245714 0 -5.7854509551245714 -2.6509877884217508 0 0 0 0 0.052126130693068262 -6.5395998639742174 0 -6.5395998639742174 -2.4259225809582858 0 0 0 0 -4.8289151692865131 -8.3234307459637105 0 -8.3234307459637105 0.43554415567229932 0 0 0 0 -35.533781367397751 -3.3508302325244586 0 -3.3508302325244586 23.111821947895805 0 0 0 0 60.52167287444172 -12.387688213908405 0 -12.387688213908405 -695.9474408316164 0 0 0 0 -28.246055981529935 -0.25021761536027043 0 -0.25021761536027043 -1.5977207409232506 0 0 0 0 -2.2203014849448293 -4.1167999573910219 0 -4.1167999573910219 2.2501360237495716 0 0 0 0 -1.0483854105198702 -4.6054107062269622 0 -4.6054107062269622 -2.4066197154315887 0 0 0 0 -14.158074320643209 -3.8126576953291078 0 -3.8126576953291078 4.4184519596019527 0 0 0 0 3.4923634192392976 -9.2250054460137321 0 -9.2250054460137321 0.99075819274173194 0 0 0 0 -49.157657900046615 -17.826840760972118 0 -17.826840760972118 12.145744747649587 0 0 0 0 0.38991749768642525 -9.6728633523735024 0 -9.6728633523735024 -0.35271074079071307 0 0 0 0 2.6667211164123046 -2.808274738251086 0 -2.808274738251086 -0.49033812607376603 0 0 0 0 -5.3604880058337585 -6.5941267568268813 0 -6.5941267568268813 -1.9892749343289324 0 0 0 0 5.6049949623327588 -7.6041898543260222 0 -7.6041898543260222 -1.7268005227447061 0 0 0 0 -17.451604931680777 -12.593788997266529 0 -12.593788997266529 34.995627348092967 0 0 0 0 -0.53865970300124033 -1.0723031908068446 0 -1.0723031908068446 0.32925436068285074 0 0 0 0 2.3410289937528432 -32.627326549757527 0 -32.627326549757527 -21.716016613770989 0 0 0 0 -4.3976636180195783 1.9273846660353229 0 1.9273846660353229 7.603670672782755 0 0 0 0 -11.743348162371149 -5.8541592342055537 0 -5.8541592342055537 10.268684559487156 0 0 0 0 -13.583528562594438 -13.679308329998094 0 -13.679308329998094 0.15733715674321047 0 0 0 0 0.81441416348263385 -6.3700356936869404 0 -6.3700356936869404 -2.9944390685295739 0 0 0 0 7.0617734761391358 -7.0252781052161239 0 -7.0252781052161239 -4.9703412829935507 0 0 0 0 -13.682949862690293 -25.468643122223511 0 -25.468643122223511 -33.941196846763887 0 0 0 0 -11.154524814744946 -23.844285531937203 0 -23.844285531937203 23.710691341457277 0 0 0 0 0.60624628685036441 -20.746771202362083 0 -20.746771202362083 -20.617709315265529 0 0 0 0 18.727684476194554 -9.2785346454584214 0 -9.2785346454584214 -27.555384972933098 0 0 0 0 1.1104515377082862 -26.041818532183242 0 -26.041818532183242 -7.094708315711614 0 0 0 0 8.3126819959215936 -4.3092401618196163 0 -4.3092401618196163 4.6912065185097163 0 0 0 0 -6.0526408886071295 -35.999505315683564 0 -35.999505315683564 0.88167986880944227 0 0 0 0 -21.791251616472437 -14.756135272938991 0 -14.756135272938991 120.48140037474514 0 0 0 0 -54.697081154699845 -23.828921686870672 0 -23.828921686870672 -20.778325936374245 0 0 0 0 0.076721114552647407 -1.04709152523714 0 -1.04709152523714 -0.058954929292328484 0 0 0 0 54.917239408314344 -10.685506374024044 0 -10.685506374024044 -132.46868147905661 0 0 0 0 -8.3904634617283591 -40.631445973338487 0 -40.631445973338487 83.850883657627492 0 0 0 0 87.044837982131867 -71.147522144889081 0 -71.147522144889081 -88.814097407532245 0 0 0 0 -0.96231327253917698 -41.999221995080006 0 -41.999221995080006 17.329575471278531 0 0 0 0 35.223261149330938 -7.2178000260314548 0 -7.2178000260314548 -41.149843211831467 0 0 0 0 -21.326886160954018 -13.341767372525283 0 -13.341767372525283 10.519616463298007 0 0 0 0 15.011644561353023 6.675610350952411 0 6.675610350952411 -11.555716677607052 0 0 0 0 -7.2162625125201885 -11.570938760183708 0 -11.570938760183708 -26.503503265314066 0 0 0 0 -6.8941312526294496 -14.172012698853905 0 -14.172012698853905 -22.930909732607688 0 0 0 0 -15.34928869867872 -18.299955924318056 0 -18.299955924318056 -18.012068212447048 0 0 0 0 -14.940609807497822 -22.517129983050836 0 -22.517129983050836 -26.124811480217431 0 0 0 0 -26.936807449848857 -10.3210318142701 0 -10.3210318142701 -23.609927228966626 0 0 0 0 -1.4860773091641022 13.854863715809188 0 13.854863715809188 86.622744519210755 0 0 0 0 11.825177764214459 -23.699592794349883 0 -23.699592794349883 49.268299624012798 0 0 0 0 -8.7701997626691082 -8.0911559253618179 0 -8.0911559253618179 -0.45884103691514611 0 0 0 0 11.991910249382272 -9.1130645415541949 0 -9.1130645415541949 -10.538591038592131 0 0 0 0 6.5017386399185852 -11.282620652384139 0 -11.282620652384139 -3.3084706238914805 0 0 0 0 11.449557845928211 -10.506584125410882 0 -10.506584125410882 -12.473511482741742 0 0 0 0 0.091103061465734492 0.035189244002766573 0 0.035189244002766573 0.0072439101381962523 0 0 0 0 13.659245768005045 -5.9029082344529904 0 -5.9029082344529904 -11.051028784910372 0 0 0 0 -21.859644946016488 -10.157937572938181 0 -10.157937572938181 11.922185830756462 0 0 0 0 11.924946326902955 0.76273637142321604 0 0.76273637142321604 -1.9604316291588475 0 0 0 0 11.965890887953719 -9.1274843736464391 0 -9.1274843736464391 -7.4982068731742402 0 0 0 0 9.9144242227291564 -14.15348885170474 0 -14.15348885170474 -0.63464040839986224 0 0 0 0 8.9144986559549579 -41.211079428500398 0 -41.211079428500398 17.012634196354156 0 0 0 0 36.670832752104616 -38.404202483848167 0 -38.404202483848167 -16.80450251221221 0 0 0 0 -1.3914890712956094 -5.3205055791909217 0 -5.3205055791909217 -0.92048338274616981 0 0 0 0 -2.6688790164854481 -11.465424404084843 0 -11.465424404084843 -8.2787104955204995 0 0 0 0 11.087664481698386 -14.392571511395689 0 -14.392571511395689 -1.3435550289945666 0 0 0 0 -2.8862388069974259 -24.725724382073622 0 -24.725724382073622 -0.95979427456597932 0 0 0 0 -4.1125109443983092 -7.9808083191728656 0 -7.9808083191728656 -6.0560814450091129 0 0 0 0 -7.9312050012334252 -6.5461422441241837 0 -6.5461422441241837 1.4467038092002347 0 0 0 0 -5.1281764490850037 -3.036886200058234 0 -3.036886200058234 0.44546927330770814 0 0 0 0 -1.5442219630301679 -7.5705801293806658 0 -7.5705801293806658 -2.5720152816093105 0 0 0 0 -14.600488199626454 -4.4109744435799314 0 -4.4109744435799314 2.6309240177924949 0 0 0 0 -3.5582340526199916 -4.5101978943114602 0 -4.5101978943114602 -0.76903682486818203 0 0 0 0 -3.1042381903580463 -8.8998964144961406 0 -8.8998964144961406 -0.97370177309494466 0 0 0 0 -8.6696166554208958 -33.086020115255906 0 -33.086020115255906 -8.7013532747841964 0 0 0 0 -8.7337302101333325 -5.1031907466507498 0 -5.1031907466507498 0.11061795043732303 0 0 0 0 -8.7513737073218181 -2.5485802486364264 0 -2.5485802486364264 -0.19389712030169903 0 0 0 0 -14.708427150509124 -6.7184816647995831 0 -6.7184816647995831 1.8357782745115401 0 0 0 0 -12.971537545539832 -5.7946356338870828 0 -5.7946356338870828 0.22135212522334768 0 0 0 0 -6.1889598542402382 -8.805907679397933 0 -8.805907679397933 -7.6490464287489885 0 0 0 0 0.037139835615538325 -0.0972090480490857 0 -0.0972090480490857 0.0095012323793041698 0 0 0 0 -8.241343526457058 -4.0483282733221131 0 -4.0483282733221131 -5.6957086970296587 0 0 0 0 -17.079825576985968 -4.8751313388129347 0 -4.8751313388129347 0.33817947638999613 0 0 0 0 -13.153874545423605 -129.26534438624731 0 -129.26534438624731 95.170964301916683 0 0 0 0 102.71012134590637 56.631599626197385 0 56.631599626197385 -50.080013934435556 0 0 0 0 -16.884743597860506 -13.493391255746246 0 -13.493391255746246 -5.9062572672701208 0 0 0 0 -0.76357525440293816 -15.187157443083791 0 -15.187157443083791 -0.2575985730249879 0 0 0 0 29.675167366178357 -86.211838729446754 0 -86.211838729446754 -46.791607851622757 0 0 0 0 10.727572250718367 -11.486293851019582 0 -11.486293851019582 -9.188444941315538 0 0 0 0 -7.322984404437193 -10.617951904761867 0 -10.617951904761867 -1.8314275853699655 0 0 0 0 3.744573887641458 -9.8857173019641724 0 -9.8857173019641724 -5.0054399719064611 0 0 0 0 0.046873756310138515 -0.0099825816289997871 0 -0.0099825816289997871 -0.045160954090949446 0 0 0 0 -48.624497078555578 -16.614936333557125 0 -16.614936333557125 -5.544684929682262 0 0 0 0 88.625387831576518 99.723096205801994 0 99.723096205801994 -251.7764967743733 0 0 0 0 -0.69878671814868287 -1.3297708467612521 0 -1.3297708467612521 0.72322936602240673 0 0 0 0 -25.711439395756315 -10.340957460424761 0 -10.340957460424761 159.07305012896541 0 0 0 0 1.2882995359250344 -13.879092856870557 0 -13.879092856870557 4.5329967646139266 0 0 0 0 23.315230044681812 -42.740305562543654 0 -42.740305562543654 -11.82642241191752 0 0 0 0 -20.437044469064858 46.282011117797083 0 46.282011117797083 52.472859230532777 0 0 0 0 36.089223852537543 -1.2942930346907815 0 -1.2942930346907815 10.235502606552473 0 0 0 0 11.76828348231663 -6.1193160783657081 0 -6.1193160783657081 -2.7053031009664474 0 0 0 0 -0.77241250424855323 -14.077978699772864 0 -14.077978699772864 -1.2088444412590404 0 0 0 0 -53.156688769475295 4.8893302628216588 0 4.8893302628216588 1.5203870042460039 0 0 0 0 31.90250703968195 0.6461394980433397 0 0.6461394980433397 -89.880309816979207 0 0 0 0 34.042151922534686 -2.961443771836457 0 -2.961443771836457 11.233109902997967 0 0 0 0 33.935257241639192 -7.0049506710802234 0 -7.0049506710802234 -3.3148767791644786 0 0 0 0 5.9241604522711633 -0.46876941160140451 0 -0.46876941160140451 -2.9108288180820914 0 0 0 0 16.112361090708873 4.2879869370713095 0 4.2879869370713095 12.408171223917179 0 0 0 0 33.193427833291935 -1.0715724967485585 0 -1.0715724967485585 13.926232087197604 0 0 0 0 29.820100235636346 -53.29042797447164 0 -53.29042797447164 -49.891905662052068 0 0 0 0 14.412285086538759 17.271996683067982 0 17.271996683067982 -25.190316280104071 0 0 0 0 10.316628154596465 -5.1890343599801163 0 -5.1890343599801163 -3.7046838213357951 0 0 0 0 65.908772282098653 2.3003357233471888 0 2.3003357233471888 -28.126538250677186 0 0 0 0 -83.34147405855947 -19.003874307827573 0 -19.003874307827573 21.860434227339283 0 0 0 0 86.040723249216171 50.721658890865001 0 50.721658890865001 -139.23114508655271 0 0 0 0 92.111229778252891 22.874319233631468 0 22.874319233631468 -29.775640170970291 0 0 0 0 -38.005093317933643 34.136449754792011 0 34.136449754792011 -7.8284945567866089 0 0 0 0 243.10986661628704 180.02034153189379 0 180.02034153189379 -201.644188277176 0 0 0 0 -37.814121540202905 -34.246739127956971 0 -34.246739127956971 -166.15275507024489 0 0 0 0 53.213970872544451 154.27701190987864 0 154.27701190987864 -15.844810518414306 0 0 0 0 178.86166788090486 77.029300425772817 0 77.029300425772817 115.78828719479134 0 0 0 0 59.195064702818399 79.81584447747332 0 79.81584447747332 134.92887936541956 0 0 0 0 22.814170488883974 9.1055126074352302 0 9.1055126074352302 126.57803362482082 0 0 0 0 23.009625190250517 41.348367508755473 0 41.348367508755473 247.61413089442431 0 0 0 0 178.48303237471555 -100.04663632313896 0 -100.04663632313896 66.391418974242697 0 0 0 0 6.1178472354658879 57.350919324888309 0 57.350919324888309 2.2768239978067868 0 0 0 0 -61.557292698264064 -52.991261716591907 0 -52.991261716591907 37.836866061852106 0 0 0 0 38.319855945876043 -1.7554654480190948 0 -1.7554654480190948 0.77974864897623775 0 0 0 0 216.6463336977904 -22.192616060681758 0 -22.192616060681758 -32.462434264794865 0 0 0 0 107.0030430565821 -77.169905903338076 0 -77.169905903338076 60.766066983043856 0 0 0 0 102.38652820809421 -1.7626811128247937 0 -1.7626811128247937 -36.028715880849632 0 0 0 0 96.579484150684038 -24.972663374364402 0 -24.972663374364402 -30.214494280764484 0 0 0 0 25.944886587494693 -39.111250745911093 0 -39.111250745911093 -25.78076865490857 0 0 0 0 25.376326590136159 -68.68432697715798 0 -68.68432697715798 11.747470692675108 0 0 0 0 -15.313056467944989 6.7093474674570075 0 6.7093474674570075 24.903790690710551 0 0 0 0 20.742332872956467 -25.560082271845346 0 -25.560082271845346 41.489647654172927 0 0 0 0 72.040786640798615 66.584520299764051 0 66.584520299764051 188.04989363789059 0 0 0 0 35.215074047300732 -118.42885123058977 0 -118.42885123058977 87.126901882711877 0 0 0 0 -24.523893685647636 -45.509055968803295 0 -45.509055968803295 -28.522309194367836 0 0 0 0 35.42830121661973 -44.806695445500679 0 -44.806695445500679 -34.335967026637263 0 0 0 0 9.3388073261002287 -4.6329127727899087 0 -4.6329127727899087 -4.8474351957942456 0 0 0 0 31.294640309964961 -43.438178151145621 0 -43.438178151145621 -28.06723285515227 0 0 0 0 -49.463151489864686 -39.156942846864467 0 -39.156942846864467 18.951391161470383 0 0 0 0 -17.040551027239417 -27.634348379539006 0 -27.634348379539006 -11.130021093664254 0 0 0 0 -45.1489177792173 -62.055738377614034 0 -62.055738377614034 -14.760623722654145 0 0 0 0 -6.9913940416881815 -14.974229653664224 0 -14.974229653664224 -22.59342244527943 0 0 0 0 -6.9913940418919083 -14.97422965370788 0 -14.97422965370788 -22.593422445284887 0 0 0 0 -7.5005991987709422 -11.958771740059092 0 -11.958771740059092 -23.345807044315734 0 0 0 0 -6.9913940418045968 -14.974229653764269 0 -14.974229653764269 -22.593422445308533 0 0 0 0 -7.2525982618681155 -13.965209723251974 0 -13.965209723251974 -25.633002650625713 0 0 0 0 45.039314128982369 -89.294876791871502 0 -89.294876791871502 -128.65229808864206 0 0 0 0 18.49174315440905 -19.649265901849503 0 -19.649265901849503 -47.492483705884297 0 0 0 0 8.7819809019814521 -11.720078641660571 0 -11.720078641660571 -10.443009382967439 0 0 0 0 -8.3349610972472874 -25.074181654856147 0 -25.074181654856147 -79.86433291411231 0 0 0 0 -21.756389339319867 -39.617488914465866 0 -39.617488914465866 142.92457669136093 0 0 0 0 233.23813328053802 -143.10517742276352 0 -143.10517742276352 -23.294857817600132 0 0 0 0 -1214.2591118124546 537.54374280493357 0 537.54374280493357 53.58559629964293 0 0 0 0 -0.50889317966867864 -1.2039436577796474 0 -1.2039436577796474 0.54463393447491715 0 0 0 0 216.12280090165814 128.66645942075093 0 128.66645942075093 -116.687428057332 0 0 0 0 131.15176542096742 8.241876052950829 0 8.241876052950829 -144.42443769090823 0 0 0 0 18.901642395328963 -26.607384129616548 0 -26.607384129616548 -135.4769415996343 0 0 0 0 9.3637662350909032 -10.78576611920278 0 -10.78576611920278 -10.75899346538497 0 0 0 0 -30.006557106215041 4.9007196522434242 0 4.9007196522434242 -4.3292292535334127 0 0 0 0 10.407173728366615 -13.088775490905391 0 -13.088775490905391 -1.4506995099363849 0 0 0 0 0.28395397448962756 -0.098247526557971199 0 -0.098247526557971199 -0.15637301206480192 0 0 0 0 -7.7467175792262424 97.824341788371385 0 97.824341788371385 -100.93520331579202 0 0 0 0 -30.000050316084526 106.35725886445289 0 106.35725886445289 -103.33042749749802 0 0 0 0 26.863879666270805 -1964.3658195744611 0 -1964.3658195744611 953.46681889603497 0 0 0 0 -78.566340274228423 70.957693260623273 0 70.957693260623273 -50.051261133427033 0 0 0 0 -1153.367171278056 -667.41631026866344 0 -667.41631026866344 639.0809031166209 0 0 0 0 0.90706432333556652 -0.44413570914962941 0 -0.44413570914962941 -0.49556013477824834 0 0 0 0 -463.65500609826995 65.589662059999682 0 65.589662059999682 -240.5217885129241 0 0 0 0 177.28522557082761 -174.75764659560082 0 -174.75764659560082 -506.50524198474159 0 0 0 0 253.67888417953509 153.09394848268857 0 153.09394848268857 -381.00722733143266 0 0 0 0 -141.44957722866093 -459.04688591668673 0 -459.04688591668673 -52.411330966235255 0 0 0 0 186.18770430852237 34.20754528098314 0 34.20754528098314 2.5092980542685837 0 0 0 0 1186.7935567668901 -411.01280898402183 0 -411.01280898402183 -66.510360959833633 0 0 0 0 902.89467979050823 279.37737665470195 0 279.37737665470195 83.583347158306424 0 0 0 0 231.19157716741029 15.781481081845413 0 15.781481081845413 -49.591976875683031 0 0 0 0 197.62689034425603 200.2303682277261 0 200.2303682277261 616.68283243820042 0 0 0 0 178.19640031775634 -120.06980242808277 0 -120.06980242808277 391.30273522506468 0 0 0 0 305.99418359389165 -104.14117186349722 0 -104.14117186349722 27.869763785834948 0 0 0 0 183.43304543023987 11.771974545612466 0 11.771974545612466 -12.970577152609621 0 0 0 0 197.44464262640031 10.704189743311872 0 10.704189743311872 -54.864521092291398 0 0 0 0 157.15096328217987 24.177188574543834 0 24.177188574543834 -55.296890864425222 0 0 0 0 211.19111757050268 9.2270980302746466 0 9.2270980302746466 -61.112814148403459 0 0 0 0 169.80226336982741 14.534175855742433 0 14.534175855742433 -61.021639569426043 0 0 0 0 117.36228350688907 -12.284821309182007 0 -12.284821309182007 -25.139131369258394 0 0 0 0 82.569138366328843 -23.739451830875623 0 -23.739451830875623 -23.856364925895377 0 0 0 0 87.604840806176071 62.79900446060492 0 62.79900446060492 -20.653563227626364 0 0 0 0 -12.985682011436438 -56.816914328681378 0 -56.816914328681378 -50.064946140751999 0 0 0 0 -1.4984051876114446 -3.6690670639031708 0 -3.6690670639031708 1.659279330348771 0 0 0 0 59.605340202604566 -3.032623873119519 0 -3.032623873119519 -38.704211915879569 0 0 0 0 -15.583379141913611 -22.0865810902269 0 -22.0865810902269 -0.66246809998301615 0 0 0 0 47.344395874184556 -27.119829873721756 0 -27.119829873721756 -3.3266650788973493 0 0 0 0 -10.393226434709504 -23.01712661404963 0 -23.01712661404963 -1.8352529994481301 0 0 0 0 -11.482487539411522 -53.179741253699831 0 -53.179741253699831 -35.59847824533972 0 0 0 0 -2.6085738806536352 -6.2806149521628836 0 -6.2806149521628836 2.8950783664881392 0 0 0 0 -32.032113359418872 -20.3420631470226 0 -20.3420631470226 12.915356997331401 0 0 0 0 -20.925692588600214 -5.6454234714456106 0 -5.6454234714456106 -0.77545031608315185 0 0 0 0 -15.491804691533616 -17.740556948601807 0 -17.740556948601807 20.618613448050382 0 0 0 0 -10.625232915663219 -28.955401695522596 0 -28.955401695522596 9.1161712554894621 0 0 0 0 -8.2750638070720015 -19.958855686269089 0 -19.958855686269089 17.83831897345226 0 0 0 0 47.230628799137776 -51.661647131501468 0 -51.661647131501468 23.478760087898991 0 0 0 0 -45.099495789327193 -30.456655713238433 0 -30.456655713238433 35.005267047027701 0 0 0 0 -0.60880489724550735 -0.35780175882908694 0 -0.35780175882908694 -0.17545329514284003 0 0 0 0 83.147822319282568 -70.400176778857713 0 -70.400176778857713 -2.784402408025926 0 0 0 0 97.651791104930453 -57.444353877279354 0 -57.444353877279354 3.1905123774129152 0 0 0 0 172.82275607600241 -107.16991958871222 0 -107.16991958871222 -13.884287846471125 0 0 0 0 111.31005234501936 -48.163405972336477 0 -48.163405972336477 2.8252139942705981 0 0 0 0 57.215454106355537 -18.710193877364418 0 -18.710193877364418 10.195427876067697 0 0 0 0 53.828021055960562 -38.643556481323685 0 -38.643556481323685 10.691347416744975 0 0 0 0 236.65836214704905 -17.724863879424447 0 -17.724863879424447 -76.427838974850602 0 0 0 0 142.07785583434452 -39.586655715584129 0 -39.586655715584129 2.3624572422122583 0 0 0 0 162.65057274346327 7.2687919873133069 0 7.2687919873133069 3.1495142382290737 0 0 0 0 229.51294140838945 -68.736734604581216 0 -68.736734604581216 -90.58683023705089 0 0 0 0 175.73591495230357 -191.54611596129143 0 -191.54611596129143 80.548415482455312 0 0 0 0 48.8678260275301 -100.5597758575168 0 -100.5597758575168 88.094625660494785 0 0 0 0 70.857495511008892 -92.645278777083149 0 -92.645278777083149 73.871905469770354 0 0 0 0 2.2635619134020457 -3.9162357504152951 0 -3.9162357504152951 -1.3855731529450628 0 0 0 0 -13.623187546945701 -23.070719302049838 0 -23.070719302049838 26.020366998309328 0 0 0 0 80.076581720510148 -90.007143141740016 0 -90.007143141740016 26.190991919749649 0 0 0 0 89.889994843120803 -93.081093763688841 0 -93.081093763688841 -14.970758438299526 0 0 0 0 4.210798248561332 -18.898511590232374 0 -18.898511590232374 -16.092050650684541 0 0 0 0 -30.723941504453251 -39.81631462054429 0 -39.81631462054429 10.571353394901962 0 0 0 0 -1.8762514161819879 -1.0299543485586096 0 -1.0299543485586096 -0.50310390207216749 0 0 0 0 4.1150799533797677 -7.38253507539432 0 -7.38253507539432 -2.415703879965307 0 0 0 0 -402.80923795459967 76.011921166347747 0 76.011921166347747 585.13196446179973 0 0 0 0 1.1699644475665991 -17.850585347776359 0 -17.850585347776359 -19.87872045289987 0 0 0 0 -24.382297044678126 -8.3997926146839745 0 -8.3997926146839745 -11.8334952944424 0 0 0 0 17.356260943022789 -17.584031339392823 0 -17.584031339392823 -35.541241362996516 0 0 0 0 7.9706881626411317 -12.204295510724798 0 -12.204295510724798 -10.140501768930644 0 0 0 0 -46.289444246562198 -10.324066052911803 0 -10.324066052911803 -10.095083232125035 0 0 0 0 0.25958716869892307 0.011339454261711124 0 0.011339454261711124 -0.20234859750322443 0 0 0 0 16.549163517483976 -10.794874897212139 0 -10.794874897212139 -15.469651556220015 0 0 0 0 -18.585864037231659 -24.71352831387776 0 -24.71352831387776 26.39954750112247 0 0 0 0 3.4327471698761656 -4.4129631186569895 0 -4.4129631186569895 2.277639388339594 0 0 0 0 0.18951883904564681 -4.5709823673567556 0 -4.5709823673567556 -0.69160194742442072 0 0 0 0 -3.1476698874446303 -14.123549890623293 0 -14.123549890623293 3.2647897334945783 0 0 0 0 18.962326959728671 -20.639244854341086 0 -20.639244854341086 -4.7392255059312447 0 0 0 0 -23.956827213758515 -13.299226637022912 0 -13.299226637022912 -1.9426348118140595 0 0 0 0 -2.6694651284751032 -14.355370447430051 0 -14.355370447430051 -6.0912373903175601 0 0 0 0 -356.66837455407949 -33.660424625359155 0 -33.660424625359155 504.13611530153503 0 0 0 0 -3.2570497673650607 29.8306406474249 0 29.8306406474249 -36.156341957365839 0 0 0 0 8.5336323185911169 -6.4407522898159186 0 -6.4407522898159186 -56.381172077052042 0 0 0 0 -0.65877069019428092 -13.655414934325339 0 -13.655414934325339 -6.416972306525218 0 0 0 0 4.1589340646587516 -21.437773533076097 0 -21.437773533076097 -36.461635622265931 0 0 0 0 77.033879070804687 4.306584816655004 0 4.306584816655004 -28.999792559683556 0 0 0 0 -2.9875515118328622 23.076923176409196 0 23.076923176409196 50.99449434739779 0 0 0 0 -44.551458851172356 -8.5813031365929646 0 -8.5813031365929646 26.940301684796623 0 0 0 0 8.7712644847055152 -4.3423252357107121 0 -4.3423252357107121 -6.1223527546280776 0 0 0 0 -8.9789711524790619 -1.2426840441173681 0 -1.2426840441173681 -22.29147913441966 0 0 0 0 -7.316777313768398 -20.42415717527183 0 -20.42415717527183 -29.477851801126235 0 0 0 0 1.4384346058919792 -1.5389085952904247 0 -1.5389085952904247 -1.7784900438635587 0 0 0 0 0.4620431715244937 -0.47384735414562118 0 -0.47384735414562118 -0.56214432008874393 0 0 0 0 166.77039396523469 -94.760237672606308 0 -94.760237672606308 -27.18789631272557 0 0 0 0 66.006827104916738 70.673817331160535 0 70.673817331160535 -58.461370955275925 0 0 0 0 179.98234259333549 -17.149963469571958 0 -17.149963469571958 -143.84978903433876 0 0 0 0 44.903916944298544 -34.560791841639002 0 -34.560791841639002 -46.496126849007851 0 0 0 0 33.927942979255477 44.25935759732306 0 44.25935759732306 -60.078190818581788 0 0 0 0 -178.09578676414094 112.20364018896362 0 112.20364018896362 -55.013556777139456 0 0 0 0 -1.0752436554359446 -3.2389455456290439 0 -3.2389455456290439 2.7589490991695751 0 0 0 0 172.07227622843493 153.29399990821366 0 153.29399990821366 -288.45632305452091 0 0 0 0 433.78522831071314 -136.34581911121495 0 -136.34581911121495 -139.36986466237454 0 0 0 0 0.71445617770643821 -1.1898150163048293 0 -1.1898150163048293 -0.44666259557284993 0 0 0 0 162.49130783555302 -386.34440133072712 0 -386.34440133072712 586.22077411110149 0 0 0 0 903.3610363059779 -262.70847559637332 0 -262.70847559637332 -298.8205323809143 0 0 0 0 2891.0422385792335 490.60338909005623 0 490.60338909005623 -6681.6651975476707 0 0 0 0 -734.58305698458935 -288.86222991541581 0 -288.86222991541581 1083.6081188088028 0 0 0 0 -0.36178056130497693 -0.94392851211230733 0 -0.94392851211230733 0.42009714116236196 0 0 0 0 642.05061076536367 -687.82224752619732 0 -687.82224752619732 -4898.9632084741315 0 0 0 0 -982.8667312412872 -1068.1504109083344 0 -1068.1504109083344 -614.21591939519567 0 0 0 0 -1590.7974098113118 -3272.2316840463682 0 -3272.2316840463682 -1872.9501095942032 0 0 0 0 -3052.1961008012222 -2248.5796606825279 0 -2248.5796606825279 1431.1012228127511 0 0 0 0 604.9362155068784 1039.7551819646196 0 1039.7551819646196 1434.4954857522316 0 0 0 0 -2081.6181298740848 183.39210126934631 0 183.39210126934631 2775.405216277828 0 0 0 0 460.81861140958063 -305.6172797166364 0 -305.6172797166364 163.5298455850716 0 0 0 0 -841.92447287819232 -482.40695469111961 0 -482.40695469111961 1152.1557683366532 0 0 0 0 -114.01408869511215 -432.0290280428344 0 -432.0290280428344 1155.5576626415423 0 0 0 0 698.90134323100665 -711.07106893215132 0 -711.07106893215132 -1117.7574772330117 0 0 0 0 382.85027914495731 -47.774840189391398 0 -47.774840189391398 -1355.8254722517722 0 0 0 0 649.06939449250785 -330.24305350710893 0 -330.24305350710893 -1422.179946783428 0 0 0 0 406.24440243384015 -224.50518421019842 0 -224.50518421019842 -834.91256206585967 0 0 0 0 375.7105213403629 -259.35743174321033 0 -259.35743174321033 -574.52687248470465 0 0 0 0 357.20359634097258 -254.93219283598228 0 -254.93219283598228 -41.855152512947825 0 0 0 0 296.02124319717404 -103.82801484706215 0 -103.82801484706215 -222.16080846592013 0 0 0 0 183.75588897241687 -46.029163932582378 0 -46.029163932582378 -18.196882600022946 0 0 0 0 115.73960151538267 -156.11951337025039 0 -156.11951337025039 38.473518280145072 0 0 0 0 1.2100046309496975 -2.106160355454449 0 -2.106160355454449 -0.96975035749528615 0 0 0 0 0.41353604126330978 -6.5967235805524753 0 -6.5967235805524753 -3.618025607152167 0 0 0 0 -5.7860735932626994 -270.80618413013144 0 -270.80618413013144 220.03846597040683 0 0 0 0 0.23496626536291387 -0.32603871659429284 0 -0.32603871659429284 -0.40369298868996673 0 0 0 0 -24.018362588831224 -283.09165284524352 0 -283.09165284524352 1264.4717569233762 0 0 0 0 606.9690412631353 -1175.7161504371911 0 -1175.7161504371911 45.421139049140038 0 0 0 0 258.20081609342014 -562.6116702666759 0 -562.6116702666759 -2405.273088914415 0 0 0 0 0.044642101926466893 -0.11435509036548464 0 -0.11435509036548464 -0.22080267390428743 0 0 0 0 187.15371617834899 -1298.6149564547213 0 -1298.6149564547213 -1447.6666632680644 0 0 0 0 -1.6110564014192459 -3.3849026823221928 0 -3.3849026823221928 -0.6851481059801845 0 0 0 0 770.67467699249391 588.46043258883583 0 588.46043258883583 153.20486858509321 0 0 0 0 -2.3500334959718394 1.351210499535564 0 1.351210499535564 -1.4562449576636844 0 0 0 0 276.44472271026461 24.261180932879142 0 24.261180932879142 -3.8413329663976583 0 0 0 0 -2.5723043181060348 9.3957330357370665 0 9.3957330357370665 -4.5565983011292701 0 0 0 0 3.986749600728384 -1.3171107546987777 0 -1.3171107546987777 -4.8554039228955297 0 0 0 0 0.93061690189642832 -1.6208527901735579 0 -1.6208527901735579 -0.22450823403778486 0 0 0 0 -9.2358996109251166 1.3427836715500234 0 1.3427836715500234 -10.864767949554562 0 0 0 0 0.3617879454092634 -3.0484787670114812 0 -3.0484787670114812 -3.1426869521671632 0 0 0 0 3.9018319356457543 -5.4425257557785471 0 -5.4425257557785471 -3.9920376518066583 0 0 0 0 -1.6368664571727258 -2.4863582903911325 0 -2.4863582903911325 0.87256385791476287 0 0 0 0 2.7272824860556284 -2.2921932614642628 0 -2.2921932614642628 -24.347883070393436 0 0 0 0 -8.8855577943959361 -12.090699063350229 0 -12.090699063350229 -23.369822860025124 0 0 0 0 -6.7617581300728489 -2.395421652647201 0 -2.395421652647201 -7.385671202226149 0 0 0 0 -1.9573029614585877 -4.4555525518411603 0 -4.4555525518411603 -1.1504058173373231 0 0 0 0 -24.954803500630078 5.8824653099153181 0 5.8824653099153181 12.128291176525437 0 0 0 0 -4.5634736422471178 -2.8500962644413903 0 -2.8500962644413903 11.34201584755624 0 0 0 0 -6.4763497470848961 5.7334845773850702 0 5.7334845773850702 -3.882672728723719 0 0 0 0 -2.2361557028561947 4.8587192113603521 0 4.8587192113603521 -4.2739612591085461 0 0 0 0 -6.9516035609849496 -3.8168679263652621 0 -3.8168679263652621 -4.3848868832608332 0 0 0 0 -22.769434687554167 -12.828664150479227 0 -12.828664150479227 -8.200425364624607 0 0 0 0 -1.1847858551167896 -1.5752242289320382 0 -1.5752242289320382 0.44805011864019018 0 0 0 0 24.925393762910971 -85.897004783252896 0 -85.897004783252896 65.140604732418069 0 0 0 0 37.369596330361674 -56.835241111038613 0 -56.835241111038613 68.340947573769441 0 0 0 0 168.84940170121263 -44.178344338735265 0 -44.178344338735265 -19.340335094581334 0 0 0 0 0.43951961978746112 14.042907068263045 0 14.042907068263045 -8.129995082448076 0 0 0 0 57.073269994303701 -18.898761477430298 0 -18.898761477430298 1.2374583551622891 0 0 0 0 -11.320721767766372 -29.42847156056115 0 -29.42847156056115 -22.425517978937478 0 0 0 0 1.214972039393615 -2.1777837301588079 0 -2.1777837301588079 -0.053476670575037133 0 0 0 0 -5.2932285411350755 -4.053679863526904 0 -4.053679863526904 0.4375329444011502 0 0 0 0 -27.533546754752024 -7.8650830447699889 0 -7.8650830447699889 130.87681358875705 0 0 0 0 -0.94838338378451681 -0.43249603918189905 0 -0.43249603918189905 0.68330980298369304 0 0 0 0 -242.78783098448184 -51.124871889973292 0 -51.124871889973292 86.933667174240441 0 0 0 0 -6.138853633456165 -28.884811365364271 0 -28.884811365364271 -22.391033178096336 0 0 0 0 9.7045489282754716 -59.835077955499855 0 -59.835077955499855 -16.366059865723628 0 0 0 0 351.6006523767137 -23.995745687900012 0 -23.995745687900012 -13.716824150972187 0 0 0 0 -441.99159999025869 -131.18913854814718 0 -131.18913854814718 300.84717581693405 0 0 0 0 -7.192749238878605 20.403402801524805 0 20.403402801524805 -160.86714426843503 0 0 0 0 206.92059349876217 -365.00986797788585 0 -365.00986797788585 154.09989506175339 0 0 0 0 0.13628669649951419 -0.30001463225081704 0 -0.30001463225081704 0.038742765227179024 0 0 0 0 50.741146777800168 -37.887867142763298 0 -37.887867142763298 -103.33806073529877 0 0 0 0 -28.799088198560639 35.475620386895571 0 35.475620386895571 -72.850648503612319 0 0 0 0 -88.11975356725452 43.587513777144522 0 43.587513777144522 -15.492942839568059 0 0 0 0 -49.365296510019107 29.165096467024341 0 29.165096467024341 -61.384193247997928 0 0 0 0 -127.34784319890605 228.44637371062117 0 228.44637371062117 -160.73172646501916 0 0 0 0 -155.74335824121954 103.98962878458588 0 103.98962878458588 -69.257758613463466 0 0 0 0 -47.589116575264597 46.751313504329929 0 46.751313504329929 -117.49874761168121 0 0 0 0 -57.314868461640799 50.249837951197733 0 50.249837951197733 -253.2240029098607 0 0 0 0 89.226303092145827 72.232146532606521 0 72.232146532606521 181.61045960790398 0 0 0 0 -58.940396035439335 42.321417418685314 0 42.321417418685314 -111.02016878714767 0 0 0 0 -3.9961567413847661 -53.830376758814737 0 -53.830376758814737 94.892939318010576 0 0 0 0 0.46746502427534153 -0.67198452071978898 0 -0.67198452071978898 0.08277638120944053 0 0 0 0 98.548891162470682 69.490349500866387 0 69.490349500866387 -418.25561373251145 0 0 0 0 -172.23092078444461 201.71974371542996 0 201.71974371542996 129.65716705945238 0 0 0 0 -0.45208541398578816 -0.54711606050268102 0 -0.54711606050268102 0.21254957592619605 0 0 0 0 -17.154097992615789 -171.91788092415354 0 -171.91788092415354 -220.76001817272572 0 0 0 0 187.56042828515638 -103.93595633030554 0 -103.93595633030554 -198.22413392079307 0 0 0 0 5.8002370772856011 132.27361634296605 0 132.27361634296605 -285.56405657987625 0 0 0 0 279.37490894598886 -260.23732459208304 0 -260.23732459208304 -88.266113723519538 0 0 0 0 94.924326263455441 177.8987705427935 0 177.8987705427935 -199.08523263597704 0 0 0 0 95.140483863389818 35.104987424029332 0 35.104987424029332 -215.5647050004377 0 0 0 0 281.54807806754252 56.138139281077656 0 56.138139281077656 -244.50290182388562 0 0 0 0 387.99772989593112 -61.868810275202122 0 -61.868810275202122 -143.71002679687081 0 0 0 0 292.96593275823034 228.25543936586234 0 228.25543936586234 -222.94672394940881 0 0 0 0 256.03940340556437 -274.40705927449289 0 -274.40705927449289 -96.261913161070879 0 0 0 0 848.69391434229328 -472.5504743737622 0 -472.5504743737622 -59.008676335236487 0 0 0 0 361.09117532157688 -103.43588998214182 0 -103.43588998214182 -204.88457550699059 0 0 0 0 1071.6115887734341 -315.57347941598755 0 -315.57347941598755 -171.04955874867301 0 0 0 0 618.49282189283986 -98.159717685546639 0 -98.159717685546639 -62.417268816960267 0 0 0 0 639.80509262535088 120.45012573297288 0 120.45012573297288 -303.93068072103324 0 0 0 0 -544.60702738697 101.55929499189824 0 101.55929499189824 462.44432174613416 0 0 0 0 1.9612936752203751 -0.12614176025723101 0 -0.12614176025723101 -0.9315658224415434 0 0 0 0 45.363078464757564 -21.291346912854806 0 -21.291346912854806 -27.321698014160575 0 0 0 0 -47.246836540216464 -68.740632474519771 0 -68.740632474519771 -43.33414593569978 0 0 0 0 -417.30003521693288 76.272873786883792 0 76.272873786883792 -15.715177862127348 0 0 0 0 -70.741194350150181 393.25923934030834 0 393.25923934030834 -268.89223316260171 0 0 0 0 472.53488738705346 -610.95746368030905 0 -610.95746368030905 117.98901116329398 0 0 0 0 545.56362133691437 -532.36372471491086 0 -532.36372471491086 73.134215203098734 0 0 0 0 258.80287930635677 -326.72210093342619 0 -326.72210093342619 241.69106152039149 0 0 0 0 233.7759343952348 -429.23392098695876 0 -429.23392098695876 100.74858750340218 0 0 0 0 231.19649469834258 -443.60636496087363 0 -443.60636496087363 46.147275803574303 0 0 0 0 410.74657034198026 -536.86060176039462 0 -536.86060176039462 109.36511578411773 0 0 0 0 371.93516681289839 -641.65875022303476 0 -641.65875022303476 205.3282682602312 0 0 0 0 474.38953630742617 -600.91384466857789 0 -600.91384466857789 42.225802599854887 0 0 0 0 905.2788267980759 -820.66582544434107 0 -820.66582544434107 139.73066142509379 0 0 0 0 645.7963429303054 -702.04775424591708 0 -702.04775424591708 114.59426050016145 0 0 0 0 364.84384311045869 -653.60517131985443 0 -653.60517131985443 154.78493300041714 0 0 0 0 613.37513286195463 -741.83580976419216 0 -741.83580976419216 100.45514578902475 0 0 0 0 724.49809270701371 -904.09556104855926 0 -904.09556104855926 328.9112431378785 0 0 0 0 108.54173352776706 -586.04154008868045 0 -586.04154008868045 879.76365129290582 0 0 0 0 524.97702176269377 -475.58755702416056 0 -475.58755702416056 1.3399326524158823 0 0 0 0 137.21988155695726 -308.481326175297 0 -308.481326175297 67.774392839715347 0 0 0 0 32.461976210324792 -53.742771976847422 0 -53.742771976847422 -149.09061693680641 0 0 0 0 0.68803595546591367 -0.68850191101414016 0 -0.68850191101414016 0.083748737631267112 0 0 0 0 683.07107221963815 -321.75314481107671 0 -321.75314481107671 -24.291861117079179 0 0 0 0 214.54324121412355 -171.55499724351193 0 -171.55499724351193 -389.16904957534882 0 0 0 0 -435.96352978804498 -469.38603308166932 0 -469.38603308166932 317.84071659602932 0 0 0 0 0.35728774456924128 -0.31352948716677653 0 -0.31352948716677653 0.040116338151591741 0 0 0 0 360.9461068046221 -2.8659182814154747 0 -2.8659182814154747 -483.67968337503271 0 0 0 0 -524.40194487623558 174.31576202462804 0 174.31576202462804 46.626665570955538 0 0 0 0 1008.0527941746695 -462.08503358144708 0 -462.08503358144708 -164.92170311899653 0 0 0 0 801.25774233242555 -719.98846253969521 0 -719.98846253969521 354.66156186461535 0 0 0 0 1031.7162228235902 -595.40240952437966 0 -595.40240952437966 76.575660564871214 0 0 0 0 445.0158341517963 -294.88076576593591 0 -294.88076576593591 531.46959598223589 0 0 0 0 208.97528078161122 -560.98821864514173 0 -560.98821864514173 285.98212649840741 0 0 0 0 105.6283576326241 -414.71611760219798 0 -414.71611760219798 639.51183766137206 0 0 0 0 118.64537587706582 -358.85220434847002 0 -358.85220434847002 525.55427736831962 0 0 0 0 -6.43374602048425 -96.561988539129288 0 -96.561988539129288 553.58101234209369 0 0 0 0 -0.31559108105091482 -0.50895092117212393 0 -0.50895092117212393 0.20441140217286677 0 0 0 0 499.0224898140732 -27.541096024366041 0 -27.541096024366041 -4.0465390348973926 0 0 0 0 321.35217297266354 -875.77868821472964 0 -875.77868821472964 149.45878955849119 0 0 0 0 -9.4498061133926967 -588.36337379642259 0 -588.36337379642259 -99.855328601790006 0 0 0 0 277.53092610815656 -329.82587455871163 0 -329.82587455871163 79.6135328765819 0 0 0 0 -123.29799498963985 -194.49974815421058 0 -194.49974815421058 118.70872451892507 0 0 0 0 -3.7738220200117212 -62.874170195362012 0 -62.874170195362012 146.69861324173377 0 0 0 0 1.2689171925594565 -58.966640918288604 0 -58.966640918288604 117.57317730872748 0 0 0 0 181.38440895281383 -235.51094211389932 0 -235.51094211389932 236.3923475433605 0 0 0 0 -46.816869121044874 73.480347605835277 0 73.480347605835277 266.4939215227264 0 0 0 0 -17.888977693553898 9.1155633096819884 0 9.1155633096819884 19.00811445065392 0 0 0 0 -0.94682666524675696 -1.4983300503165742 0 -1.4983300503165742 0.55008743937053195 0 0 0 0 5.4884794451936614 12.372077690683682 0 12.372077690683682 -8.4444170831372958 0 0 0 0 -12.786409226144315 -43.841162703980444 0 -43.841162703980444 1.1907352715305706 0 0 0 0 65.642721037904266 -6.9530333443883592 0 -6.9530333443883592 5.1417076691227521 0 0 0 0 62.474306409934798 21.938426680202575 0 21.938426680202575 -90.997413202517464 0 0 0 0 -23.720829593235976 132.89554949427654 0 132.89554949427654 -113.18736863284346 0 0 0 0 0.50929405054193921 71.62214605800682 0 71.62214605800682 41.411746566822728 0 0 0 0 -0.55391392580044752 -1.2020330922979237 0 -1.2020330922979237 -0.78480701907941941 0 0 0 0 79.833102529977623 -33.155359992889288 0 -33.155359992889288 -141.99260736711176 0 0 0 0 -571.33232155806036 -43.714392219432966 0 -43.714392219432966 112.5516112561678 0 0 0 0 -1923.2778123367461 -603.993132262789 0 -603.993132262789 -1423.3071577084629 0 0 0 0 -1.5831817861491544 -3.3512486323886996 0 -3.3512486323886996 -2.1048973875376915 0 0 0 0 61.3024437900458 -59.706458136734682 0 -59.706458136734682 18.064154941622519 0 0 0 0 88.597148707398446 -59.802612336610309 0 -59.802612336610309 -61.692225782981609 0 0 0 0 530.43728827347513 840.06700853333678 0 840.06700853333678 -2287.8506204792088 0 0 0 0 -337.62242398776289 -855.47151223693743 0 -855.47151223693743 -284.65555433806446 0 0 0 0 -101.28562601775047 -286.95463263363513 0 -286.95463263363513 -194.16924320438466 0 0 0 0 -241.01062276193989 -280.68484336618297 0 -280.68484336618297 -83.03993867467625 0 0 0 0 -1030.491790851127 -1025.9806906587069 0 -1025.9806906587069 -653.63488355555864 0 0 0 0 53.638987475176691 -563.7249813173147 0 -563.7249813173147 -1224.2734750176908 0 0 0 0 -42.38390378369786 -275.49412499361642 0 -275.49412499361642 -773.46646366876757 0 0 0 0 -38.403005979887212 -111.16330042901997 0 -111.16330042901997 -2845.2198877082246 0 0 0 0 -1979.5057646006462 340.21084003757323 0 340.21084003757323 -525.79723917448246 0 0 0 0 -238.55048271423584 -96.709445872534729 0 -96.709445872534729 -417.73124143532573 0 0 0 0 -661.71128197186772 168.06407225666749 0 168.06407225666749 4.518148966312765 0 0 0 0 -131.44435581261496 373.98162951850134 0 373.98162951850134 -803.76528997148012 0 0 0 0 -197.56742627284257 75.172325287922831 0 75.172325287922831 9.8780224994152377 0 0 0 0 -284.60741628232063 -9.1903915291745761 0 -9.1903915291745761 264.55672262076223 0 0 0 0 -174.45757071948174 -361.34594946259358 0 -361.34594946259358 462.92310837329933 0 0 0 0 -413.47223569673952 2.9809088789011184 0 2.9809088789011184 378.46731132526656 0 0 0 0 98.778259896120289 -137.17182491607446 0 -137.17182491607446 25.253440700074862 0 0 0 0 -26.610543442802737 -175.28322509471946 0 -175.28322509471946 383.57451802796277 0 0 0 0 -127.41479868338502 -260.5006992628023 0 -260.5006992628023 463.76125864770074 0 0 0 0 -0.80525346933560371 -1.0474174581818922 0 -1.0474174581818922 -0.64852746270418238 0 0 0 0 152.33630852421629 -236.23683703004463 0 -236.23683703004463 460.81176087490212 0 0 0 0 -55.959738093835767 -161.22181934183027 0 -161.22181934183027 408.98903598215566 0 0 0 0 -110.12233901457512 -48.525450920626099 0 -48.525450920626099 336.42429524473573 0 0 0 0 -162.17592042371689 18.556211845531834 0 18.556211845531834 268.55010820736788 0 0 0 0 -239.94550925208023 -42.239104971197776 0 -42.239104971197776 443.84139044606854 0 0 0 0 -11.374755437359239 -8.6357866370515612 0 -8.6357866370515612 1.3404637924550147 0 0 0 0 18.054059529255028 59.479090055873257 0 59.479090055873257 133.71459604925712 0 0 0 0 266.50815537240123 -373.23858634699809 0 -373.23858634699809 349.92325309929583 0 0 0 0 -10.998870235802841 -10.431570999796858 0 -10.431570999796858 6.9425430920276998 0 0 0 0 168.90519541059621 -417.31799722435198 0 -417.31799722435198 389.48776043584257 0 0 0 0 9.2286268671159633 91.946662049182578 0 91.946662049182578 80.639232537928365 0 0 0 0 -30.537576981456368 134.18955836738633 0 134.18955836738633 79.081992546881338 0 0 0 0 -392.59408220846672 34.706662785096341 0 34.706662785096341 428.06904299971211 0 0 0 0 490.62195359056932 182.55571130701856 0 182.55571130701856 -164.96610985428015 0 0 0 0 -411.20503811071103 25.998057749329973 0 25.998057749329973 220.58311680970087 0 0 0 0 -6.0111207069381045 -5.6799051682102721 0 -5.6799051682102721 2.6859929376443246 0 0 0 0 935.53770535586227 -1260.5023427133883 0 -1260.5023427133883 -34.063709318364772 0 0 0 0 1358.9377295877202 1007.9480152339147 0 1007.9480152339147 -4487.0446886792543 0 0 0 0 155.84710332532995 587.35559041162151 0 587.35559041162151 137.47821520055106 0 0 0 0 -349.72261398411501 -1085.1854772802737 0 -1085.1854772802737 -3442.7409166504253 0 0 0 0 -1.8827523876707124 -1.7930793921495845 0 -1.7930793921495845 0.4299540446353397 0 0 0 0 -509.42985584601411 -1101.5494262529451 0 -1101.5494262529451 -1078.5557335100511 0 0 0 0 1426.6537735866514 595.30586009639387 0 595.30586009639387 -3020.3208735977369 0 0 0 0 48.918832681549247 -1382.8098193723026 0 -1382.8098193723026 -2378.9626299777469 0 0 0 0 317.00387127832801 -1023.7778534883328 0 -1023.7778534883328 -2614.568338007477 0 0 0 0 -0.14218370972230332 -367.9452791237677 0 -367.9452791237677 -2423.784715421134 0 0 0 0 -404.88965050614206 -348.24235712893642 0 -348.24235712893642 -1215.294486037913 0 0 0 0 -440.45627821733069 -743.23402016519003 0 -743.23402016519003 -1333.6803109193279 0 0 0 0 -3.2258180151366105 -429.64813669629621 0 -429.64813669629621 -1769.8972537119535 0 0 0 0 51.016335820313543 -202.90297023269477 0 -202.90297023269477 -1789.8694056676586 0 0 0 0 -247.22419630719378 -14.13430405746422 0 -14.13430405746422 -208.56863076851954 0 0 0 0 -481.3285201022336 -492.68429835873292 0 -492.68429835873292 -894.24061393473312 0 0 0 0 -461.7613653515582 -7.7392677099787761 0 -7.7392677099787761 54.238095349209289 0 0 0 0 -198.47141396459483 -230.28533852066676 0 -230.28533852066676 -1163.5857273075871 0 0 0 0 -81.639155880955514 1090.2634415777984 0 1090.2634415777984 -938.0869304374919 0 0 0 0 25.165378887642873 1276.3676997134226 0 1276.3676997134226 -615.62218770206164 0 0 0 0 445.80356076102908 436.74089912098998 0 436.74089912098998 -335.8638332629489 0 0 0 0 72.850714185526158 -1891.7031421069721 0 -1891.7031421069721 -3882.2244926240255 0 0 0 0 86.370377493942215 628.02127690358157 0 628.02127690358157 238.70100513264742 0 0 0 0 -1.0552982866937874 0.32669682425452518 0 0.32669682425452518 -0.20142373847789585 0 0 0 0 -498.8037552896858 -412.87528133436217 0 -412.87528133436217 -1530.3497479111493 0 0 0 0 -287.01601776797906 575.30159332511744 0 575.30159332511744 570.15854047812911 0 0 0 0 1311.2317972918536 482.61510925026357 0 482.61510925026357 -3085.6701381712469 0 0 0 0 -953.3117163692441 -1699.0050216965551 0 -1699.0050216965551 -1324.3180900005173 0 0 0 0 -49.157412175634818 -72.488509247126785 0 -72.488509247126785 20.205025776267576 0 0 0 0 -7.3956556573287218 -5.776192070429647 0 -5.776192070429647 -1.3642565616251794 0 0 0 0 5.5884592800248356 14.27933945177756 0 14.27933945177756 30.203992704235134 0 0 0 0 30.074567435276094 -23.401450052793734 0 -23.401450052793734 11.134460921239224 0 0 0 0 -79.679120280081406 -575.78512939508346 0 -575.78512939508346 720.8383918781783 0 0 0 0 -12.587194042625532 -8.5478779069320936 0 -8.5478779069320936 -0.00060578693817237017 0 0 0 0 230.39807110390393 -311.08923376750317 0 -311.08923376750317 195.37866035361367 0 0 0 0 -8.7632279087128033 -6.8949564919721951 0 -6.8949564919721951 -1.3745249083786315 0 0 0 0 174.44769480104515 10.765051833386678 0 10.765051833386678 -61.939514039462665 0 0 0 0 -235.73031997384351 -81.476904030962032 0 -81.476904030962032 554.60948598152027 0 0 0 0 -26.553590549694491 128.71129505946055 0 128.71129505946055 -53.279040053285712 0 0 0 0 -197.0991968091239 162.41473383410886 0 162.41473383410886 159.42526692887941 0 0 0 0 -168.72146100459122 -163.07100274602797 0 -163.07100274602797 -130.6869580557086 0 0 0 0 76.838063513874658 124.54544024344386 0 124.54544024344386 143.51801052549672 0 0 0 0 -125.29985948908143 111.08316733422544 0 111.08316733422544 21.28920008148998 0 0 0 0 -15.228780869948359 -7.7945156144529388 0 -7.7945156144529388 1.7210006050839048 0 0 0 0 -208.72055461758282 15.737347973538817 0 15.737347973538817 533.65372662601203 0 0 0 0 -0.42409771931124851 -4.3785314113920322 0 -4.3785314113920322 9.1676306976660271 0 0 0 0 -8.5198988254269352 -17.922014173442221 0 -17.922014173442221 232.30882817872498 0 0 0 0 -8.7281700469272803 -10.62528981756288 0 -10.62528981756288 -1.0126541387972585 0 0 0 0 -13.751897850320258 -9.8828655741154385 0 -9.8828655741154385 -1.8756994913513712 0 0 0 0 -170.26201989270066 -68.391643557423777 0 -68.391643557423777 -19.687772479257546 0 0 0 0 -0.92351541155221639 -1.7680380751917255 0 -1.7680380751917255 6.5289459853083827 0 0 0 0 422.43127003661357 -288.45004704536404 0 -288.45004704536404 158.90537021927594 0 0 0 0 -190.40557350720337 60.600045275976299 0 60.600045275976299 150.01633776215021 0 0 0 0 622.54522510643801 -448.55348342620709 0 -448.55348342620709 -340.37798080960056 0 0 0 0 -0.73021758326614972 -1.6243355907053685 0 -1.6243355907053685 0.3330577207903449 0 0 0 0 -171.60604359014542 604.16465256386437 0 604.16465256386437 3709.7562123537064 0 0 0 0 -30.99261341332749 -84.867762803973164 0 -84.867762803973164 1254.0732328807499 0 0 0 0 -297.78195042486732 -233.6679013574194 0 -233.6679013574194 1600.9447067207657 0 0 0 0 -2.6316987067544364 -5.152164046548231 0 -5.152164046548231 1.3478809625267232 0 0 0 0 -107.63584275149333 143.52332891472906 0 143.52332891472906 1393.518478563019 0 0 0 0 169.26774591053982 -338.37838434787409 0 -338.37838434787409 545.45709633092156 0 0 0 0 -43.341514019142778 -448.88992450533988 0 -448.88992450533988 1026.5684666521702 0 0 0 0 -9.5862605722850276 -249.14435919043171 0 -249.14435919043171 1021.5414950786653 0 0 0 0 246.82682295684936 -582.58185112496722 0 -582.58185112496722 718.60618129962677 0 0 0 0 -69.226689915769384 -156.95477888761525 0 -156.95477888761525 550.90087523433613 0 0 0 0 16.53863535511482 -383.04033407761744 0 -383.04033407761744 669.89606016143807 0 0 0 0 -314.69682756903148 -418.25241686886147 0 -418.25241686886147 1330.3849368222291 0 0 0 0 1126.6925505293275 -1598.446121704088 0 -1598.446121704088 1267.4808527004789 0 0 0 0 -376.62366805801139 -502.43799886468332 0 -502.43799886468332 2701.5767657529577 0 0 0 0 -157.01184517101137 -499.84316976829723 0 -499.84316976829723 1355.2090211902669 0 0 0 0 -112.3812482589201 -526.34658760061575 0 -526.34658760061575 1350.1185004374129 0 0 0 0 42.40875412890091 -211.05993043450871 0 -211.05993043450871 -517.57182282049325 0 0 0 0 54.560157401123433 -308.23406294576125 0 -308.23406294576125 -1062.6108081003476 0 0 0 0 -79.7662371834449 267.00174522906309 0 267.00174522906309 1062.4067896605775 0 0 0 0 -3.9624179764997809 0.60062266311458501 0 0.60062266311458501 0.64488558636101168 0 0 0 0 -317.36228129824303 459.15723619464552 0 459.15723619464552 2184.6398951494193 0 0 0 0 10.373431063075259 -252.27881140026147 0 -252.27881140026147 -1133.1093714660237 0 0 0 0 -14.479261490145291 -416.80623443191871 0 -416.80623443191871 -751.67922860091494 0 0 0 0 -227.1036713514477 -799.92785375476524 0 -799.92785375476524 -689.00765578807113 0 0 0 0 153.58288801770686 -1232.3097320331508 0 -1232.3097320331508 -1497.5387289756036 0 0 0 0 -579.54907507733151 -1666.9264566217171 0 -1666.9264566217171 1062.2601608301338 0 0 0 0 -1.2390291186286255 0.3857120396322582 0 0.3857120396322582 0.30543898894529065 0 0 0 0 262.94955362131441 -373.29294111588388 0 -373.29294111588388 989.75017304997164 0 0 0 0 1493.8562094761328 -1622.4480404519563 0 -1622.4480404519563 1848.9655997322116 0 0 0 0 286.38010796470189 -169.42602884328153 0 -169.42602884328153 -2942.5756666090456 0 0 0 0 -692.91147766125505 -859.46787270453933 0 -859.46787270453933 -1159.0825496336765 0 0 0 0 -73.903757961816154 151.18682802779949 0 151.18682802779949 -1289.2398083960925 0 0 0 0 216.76054749720788 -270.87755851604015 0 -270.87755851604015 -679.79164029369713 0 0 0 0 403.77576347779541 -126.60639912118495 0 -126.60639912118495 -656.21487469456042 0 0 0 0 128.50168433631188 -952.09874119440792 0 -952.09874119440792 288.87164680988644 0 0 0 0 202.263794755665 -738.913298230691 0 -738.913298230691 -635.83566375246028 0 0 0 0 -51.308551976981107 -701.88999385542411 0 -701.88999385542411 330.57622166968213 0 0 0 0 247.61840096880769 -360.65844515148638 0 -360.65844515148638 347.86130882086582 0 0 0 0 -1.5232970935736745 -0.87032035170975774 0 -0.87032035170975774 0.76320683963447244 0 0 0 0 42.601311975464341 -173.02472598353052 0 -173.02472598353052 -86.111912624415709 0 0 0 0 11.377401228310191 -704.01918011457019 0 -704.01918011457019 271.83521558573557 0 0 0 0 339.29338871248183 -348.57146271737292 0 -348.57146271737292 -343.9850865440967 0 0 0 0 246.07725817533355 -511.99156964464783 0 -511.99156964464783 318.58711232690257 0 0 0 0 402.78584837980452 -78.155170833175362 0 -78.155170833175362 -366.06249673466664 0 0 0 0 400.8189870715687 -163.69556953689971 0 -163.69556953689971 -253.71976930196979 0 0 0 0 426.44551760156173 15.503690584802825 0 15.503690584802825 4.4310528194837389 0 0 0 0 -24.910414242127445 -9.7299910045549041 0 -9.7299910045549041 16.527070467884187 0 0 0 0 16.126557093293741 -10.040217890811618 0 -10.040217890811618 16.41215975995874 0 0 0 0 -13.420943412996339 -11.074780908511711 0 -11.074780908511711 3.2646645352878387 0 0 0 0 -7.5002619199331093 -6.7904391520132776 0 -6.7904391520132776 -0.30260226191603579 0 0 0 0 -7.9997073567501502 -7.3761099030307378 0 -7.3761099030307378 -0.8682471495194477 0 0 0 0 -7.4846505335526672 -6.9273740088879094 0 -6.9273740088879094 -0.10597084670735057 0 0 0 0 164.40071192500909 -150.9297381629076 0 -150.9297381629076 -62.769134974314511 0 0 0 0 -8.1077285621226558 -16.710873534328304 0 -16.710873534328304 1.6314123628481312 0 0 0 0 5.6591102431577252 -13.490780409300285 0 -13.490780409300285 -11.525544067558172 0 0 0 0 -7.4273439619137207 -6.2366707142646192 0 -6.2366707142646192 0.15252522598530049 0 0 0 0 58.057913492953958 -109.99810264695043 0 -109.99810264695043 -175.58240896341158 0 0 0 0 -15.96772745938506 -205.22817152252537 0 -205.22817152252537 -165.34239688727757 0 0 0 0 66.475834293712978 -547.75327397484216 0 -547.75327397484216 -325.07872568783932 0 0 0 0 -0.10094043010030873 48.093723304744344 0 48.093723304744344 -562.19568023871398 0 0 0 0 -6.0571460150458734 -6.3191794250597013 0 -6.3191794250597013 -1.7474649037612835 0 0 0 0 -7.4157964193402677 -6.3448813505274302 0 -6.3448813505274302 -1.6431267110310728 0 0 0 0 -135.60051422718971 -72.124086758512476 0 -72.124086758512476 314.62970287675853 0 0 0 0 -33.359565625807065 -18.105554133269425 0 -18.105554133269425 18.813605658756206 0 0 0 0 3.4084056973365815 -15.564263012351706 0 -15.564263012351706 -9.6157712309522658 0 0 0 0 -68.830145027370236 -82.470048085990129 0 -82.470048085990129 15.039763128559571 0 0 0 0 -32.634567414178264 -15.523516969029755 0 -15.523516969029755 18.631590660855792 0 0 0 0 -29.271444880010677 25.311805427860236 0 25.311805427860236 77.389480754223769 0 0 0 0 -52.510732743132394 -331.28982738917693 0 -331.28982738917693 314.19312560893013 0 0 0 0 -107.56195239491353 12.583485998693504 0 12.583485998693504 331.01395126243006 0 0 0 0 -56.047511825090623 -44.845014086226001 0 -44.845014086226001 30.355489730922272 0 0 0 0 -108.61982340068789 -48.060792272386607 0 -48.060792272386607 151.43814613606082 0 0 0 0 -2.0079721425734509 -1.1938911350673713 0 -1.1938911350673713 1.1179983536425731 0 0 0 0 -51.90194806130603 77.995449718320742 0 77.995449718320742 165.59370489418507 0 0 0 0 -565.71291376743466 204.70665623820969 0 204.70665623820969 364.80403568548354 0 0 0 0 34.692294615939318 -257.72504247737379 0 -257.72504247737379 483.48810268525267 0 0 0 0 -102.96393896750305 83.356953086211433 0 83.356953086211433 275.92055650919792 0 0 0 0 -56.800673077523243 68.695150685933186 0 68.695150685933186 250.59347354611964 0 0 0 0 -0.92054398594336817 -2.6293980379850836 0 -2.6293980379850836 6.5863011767469288 0 0 0 0 -19.351700062628886 -3.5106009488838659 0 -3.5106009488838659 3.4547766319137541 0 0 0 0 161.35324329946889 313.71639106236398 0 313.71639106236398 259.85914206846064 0 0 0 0 -1.0859540916165384 0.23333321108953164 0 0.23333321108953164 1.0022016269337808 0 0 0 0 -62.933279273755034 -321.01458770266618 0 -321.01458770266618 346.74022085304023 0 0 0 0 -95.737542414419295 -78.113634374392859 0 -78.113634374392859 554.38800976265338 0 0 0 0 -107.09581102548691 16.109471760180895 0 16.109471760180895 72.383865221752785 0 0 0 0 24.027549758218811 -47.679457659090986 0 -47.679457659090986 1011.984236802964 0 0 0 0 13.673514778543904 -2.6160669548044098 0 -2.6160669548044098 935.63321712246398 0 0 0 0 -391.58523510180385 -673.49605641118615 0 -673.49605641118615 681.05586593080079 0 0 0 0 -26.979267443311983 -678.5890970172768 0 -678.5890970172768 305.15194975445047 0 0 0 0 -29.995233439476578 -335.42799790021672 0 -335.42799790021672 338.63453835176188 0 0 0 0 162.08651451161131 -666.93116741481936 0 -666.93116741481936 -31.258987658540718 0 0 0 0 -64.969894970476162 -288.3329658350558 0 -288.3329658350558 -21.811079819632141 0 0 0 0 1.5093385215793615 0.25590487494559078 0 0.25590487494559078 -1.0273966575892999 0 0 0 0 -633.12164841761114 -168.00126862380421 0 -168.00126862380421 -11.778723519775667 0 0 0 0 -218.06666786837741 315.93488893743779 0 315.93488893743779 -422.83143140358152 0 0 0 0 -126.72438385957503 -471.16408773099829 0 -471.16408773099829 -459.66980387322837 0 0 0 0 -161.50007443115464 55.010133058269275 0 55.010133058269275 277.41329666770798 0 0 0 0 -0.19814524435787462 -374.13110970120761 0 -374.13110970120761 70.151069882907905 0 0 0 0 79.396865088718187 -20.914440646665753 0 -20.914440646665753 -13.368746171967359 0 0 0 0 2.6809307342163002 -2.8522186784943213 0 -2.8522186784943213 -1.5238483754788135 0 0 0 0 70.006386930443114 -23.15520116782136 0 -23.15520116782136 -10.625278364343103 0 0 0 0 72.436214310320793 -5.8550454233991331 0 -5.8550454233991331 -4.2218613424629439 0 0 0 0 50.872386645904044 -21.754008632822661 0 -21.754008632822661 -5.2291709040873684 0 0 0 0 57.186022643290926 -21.701463771925773 0 -21.701463771925773 -5.3702580314420629 0 0 0 0 -1502.6072674366151 -107.4760246079677 0 -107.4760246079677 896.35875433564797 0 0 0 0 -15.111102367765852 -230.60005555921816 0 -230.60005555921816 -129.76218871961464 0 0 0 0 175.60042264777439 439.28213451596457 0 439.28213451596457 1056.195882798489 0 0 0 0 -604.84553227269134 -1498.4026298170347 0 -1498.4026298170347 3420.5368437255311 0 0 0 0 5.3294866490267623 -4.0084499892050571 0 -4.0084499892050571 -4.1101670873809866 0 0 0 0 51.602381378645077 -17.332462092846981 0 -17.332462092846981 -0.13877291008247994 0 0 0 0 -224.92885478021344 -1184.2481260088171 0 -1184.2481260088171 -1178.5881997286924 0 0 0 0 36.632921815034933 -7.2039491302130045 0 -7.2039491302130045 10.104297843936365 0 0 0 0 -2920.6625591074262 -1736.0365081432392 0 -1736.0365081432392 1707.1625929770889 0 0 0 0 949.04312388259859 635.97153899091791 0 635.97153899091791 -817.87799233252008 0 0 0 0 4.1114206372964546 -15.880387185112696 0 -15.880387185112696 -7.8823257683140753 0 0 0 0 23.652632365410682 -0.027148118624609197 0 -0.027148118624609197 -13.659626457432751 0 0 0 0 -420.92165732555441 -465.61793603016304 0 -465.61793603016304 242.21563051696285 0 0 0 0 4.521074141465566 -14.91716647525589 0 -14.91716647525589 -9.3239630099517505 0 0 0 0 16.434067361740745 -13.74992647007457 0 -13.74992647007457 2.2947973846457899 0 0 0 0 0.25660612696083263 -34.619395266840002 0 -34.619395266840002 -24.475846381075826 0 0 0 0 447.2526862843406 381.25234475117395 0 381.25234475117395 -70.647040515243134 0 0 0 0 169.30014014996414 -11.147344239576341 0 -11.147344239576341 -1936.3306570987043 0 0 0 0 829.94190238625015 -873.38317963412737 0 -873.38317963412737 -4946.5303640318671 0 0 0 0 -273.4019009648182 700.62609063032869 0 700.62609063032869 -2075.2481444015966 0 0 0 0 -1.2700994746716745 0.74763772796767469 0 0.74763772796767469 0.32409963928357244 0 0 0 0 175.89795054064962 -143.86900350288488 0 -143.86900350288488 -2442.5740311288464 0 0 0 0 -590.73839220793161 222.96966523505034 0 222.96966523505034 -1233.531605324908 0 0 0 0 -233.12452583203776 -458.08301750747523 0 -458.08301750747523 -872.38434973754192 0 0 0 0 -256.89127723450656 -167.73450875436538 0 -167.73450875436538 361.34854113715483 0 0 0 0 125.14245315132575 204.09446884804129 0 204.09446884804129 -360.79427536484582 0 0 0 0 299.64213702502457 -97.031230276179485 0 -97.031230276179485 -1065.3335684194972 0 0 0 0 -83.639004789529281 139.34450326645128 0 139.34450326645128 -1078.8956462071146 0 0 0 0 54.673266566212988 -634.20531456758908 0 -634.20531456758908 2323.2229886028799 0 0 0 0 -3.3096710169826231 1.2590827240625853 0 1.2590827240625853 0.65188381437948539 0 0 0 0 448.15734231593797 -1026.4550090040743 0 -1026.4550090040743 806.69803569013311 0 0 0 0 -601.21835774133797 -401.32569786612294 0 -401.32569786612294 967.34891241189143 0 0 0 0 230.53089085935062 -633.62666317443654 0 -633.62666317443654 786.38528579520062 0 0 0 0 73.767626407824082 -303.94514564716155 0 -303.94514564716155 969.18541765306145 0 0 0 0 -4.9188858056200715 0.70466872127427926 0 0.70466872127427926 0.62766013017448796 0 0 0 0 170.88230571541135 -493.05246759299189 0 -493.05246759299189 1308.277109682007 0 0 0 0 294.36527565467986 -157.83919368226634 0 -157.83919368226634 -1656.9852484715047 0 0 0 0 193.17751234094612 -542.52989059308857 0 -542.52989059308857 -1441.8572665254542 0 0 0 0 262.80929913273576 -442.11942573722627 0 -442.11942573722627 -1304.2880499561434 0 0 0 0 185.56198586212122 167.21060675354602 0 167.21060675354602 349.55803331707671 0 0 0 0 872.69393142434274 181.19533803765808 0 181.19533803765808 -1570.348584471838 0 0 0 0 556.75766036819186 -1098.236427287713 0 -1098.236427287713 -594.36023377103993 0 0 0 0 -54.472570980133241 -191.04192616144428 0 -191.04192616144428 -551.44197402425925 0 0 0 0 -706.14843847718691 -57.189323197957549 0 -57.189323197957549 -4.300155684708443 0 0 0 0 -682.45225490259327 -964.35349788245367 0 -964.35349788245367 917.05513459009671 0 0 0 0 -2.3441417302574248 -2.0451840760423892 0 -2.0451840760423892 -0.82327308198291149 0 0 0 0 -1384.7143617247066 542.31871847699222 0 542.31871847699222 237.33193045158987 0 0 0 0 -1754.9086878584276 -265.85081804627407 0 -265.85081804627407 1073.1091407122876 0 0 0 0 130.81739458565426 1508.5664448984116 0 1508.5664448984116 -1270.4168315042571 0 0 0 0 222.76163920083491 1941.3003868363394 0 1941.3003868363394 -4121.2062969018989 0 0 0 0 373.20746702104589 842.10472706885912 0 842.10472706885912 -2253.7576237098037 0 0 0 0 -68.99656506464089 -137.37178965413477 0 -137.37178965413477 -102.94845837306275 0 0 0 0 -5.9149274464161863 -42.874006431735324 0 -42.874006431735324 -45.785175307966711 0 0 0 0 -43.11626040518604 -37.066828142415034 0 -37.066828142415034 -23.82082348017866 0 0 0 0 -112.95338853366775 -241.15156582740383 0 -241.15156582740383 -413.02299532626057 0 0 0 0 -6.4052808674210695 -0.73427236949776731 0 -0.73427236949776731 0.31992995759654308 0 0 0 0 -23.730301879950275 -334.5669053618476 0 -334.5669053618476 878.89115645167476 0 0 0 0 122.5505025323273 -348.87141267670086 0 -348.87141267670086 750.78667408386536 0 0 0 0 66.225140584971086 -78.072092904876627 0 -78.072092904876627 615.58631880582834 0 0 0 0 195.33725745761603 -214.9493095243306 0 -214.9493095243306 242.69309206349135 0 0 0 0 -7.7008104038003502 -3.1514943084295473 0 -3.1514943084295473 -0.31183124158948461 0 0 0 0 571.16220342280576 -382.17776277908706 0 -382.17776277908706 1018.3486910691254 0 0 0 0 196.48788311690441 -392.5061988637317 0 -392.5061988637317 670.36039414635889 0 0 0 0 130.56075461763976 -299.96657895482349 0 -299.96657895482349 1022.8927706078102 0 0 0 0 68.040225770813549 -431.76433942743643 0 -431.76433942743643 1130.5570523865463 0 0 0 0 263.54283819377815 -464.60412954362982 0 -464.60412954362982 813.19961176099605 0 0 0 0 303.50635299042551 -679.93303720757831 0 -679.93303720757831 1218.4083263953726 0 0 0 0 -118.50939662601741 -166.72370591999061 0 -166.72370591999061 1886.316010183742 0 0 0 0 -12.683212890471623 23.191903512662975 0 23.191903512662975 2.1142729926650645 0 0 0 0 -2.2420182259881347 5.1047254176712187 0 5.1047254176712187 3.7126328668459347 0 0 0 0 30.823962255005426 -292.49681595597576 0 -292.49681595597576 1046.1509258934384 0 0 0 0 -6.7637542091041389 0.026628782077724011 0 0.026628782077724011 0.54634407963030451 0 0 0 0 81.173104190475897 -201.27532433764281 0 -201.27532433764281 1426.1586980603315 0 0 0 0 -152.12008500626678 -461.54255146020387 0 -461.54255146020387 1462.4504117706965 0 0 0 0 487.99865141808004 -629.37611447116069 0 -629.37611447116069 786.25029338698369 0 0 0 0 -0.090302253768265728 -0.19442456940166597 0 -0.19442456940166597 0.023643877257342183 0 0 0 0 -142.17579794733319 -99.139007065066835 0 -99.139007065066835 -160.01895929513557 0 0 0 0 -72.240977218883927 -129.76572605698311 0 -129.76572605698311 -146.81266579736257 0 0 0 0 -112.13160204899032 -210.18945268918469 0 -210.18945268918469 -158.96039157823543 0 0 0 0 -220.31601481682446 -334.64513847876515 0 -334.64513847876515 -262.8800913574014 0 0 0 0 -198.52427155645273 -179.41708297143487 0 -179.41708297143487 -34.724351021577604 0 0 0 0 1.4430972183981794 -31.663567079231143 0 -31.663567079231143 -140.83170813717879 0 0 0 0 -677.29267293158046 -452.2305625435838 0 -452.2305625435838 -181.20565643230111 0 0 0 0 -6.2604297321795457 67.095913827437471 0 67.095913827437471 13.463274432142498 0 0 0 0 -6.6873889241096975 -1.5515844416123317 0 -1.5515844416123317 -2.0760871861456778 0 0 0 0 -16.942163962325139 -19.317736680837697 0 -19.317736680837697 2.4264837338341749 0 0 0 0 -14.913669148882036 26.970517481960997 0 26.970517481960997 30.272749955274776 0 0 0 0 -19.128091493861575 45.194152680749539 0 45.194152680749539 64.744294127420289 0 0 0 0 -8.3468982276835675 -0.97102153720935558 0 -0.97102153720935558 -2.5201793461434825 0 0 0 0 229.29607463046705 90.118348514035461 0 90.118348514035461 27.754515538770647 0 0 0 0 546.01347307688775 -34.013979169234517 0 -34.013979169234517 -12.445659480223185 0 0 0 0 -18.987849466581338 -7.1339155402574761 0 -7.1339155402574761 44.328218076319899 0 0 0 0 -2.4607121084817094 -0.53641252151173191 0 -0.53641252151173191 1.6729598955682263 0 0 0 0 -19.927462555013335 36.171390431052714 0 36.171390431052714 73.469314850837691 0 0 0 0 615.57102953677895 -110.79908358159446 0 -110.79908358159446 -28.932362491905224 0 0 0 0 -0.85474773740617316 1.9333109432260276 0 1.9333109432260276 1.3837621652481937 0 0 0 0 81.627633672474985 -371.63807952928619 0 -371.63807952928619 1118.2973568354791 0 0 0 0 64.888521263476832 -464.37143277584983 0 -464.37143277584983 1014.9690539106377 0 0 0 0 171.61274268893794 -243.3728124186182 0 -243.3728124186182 1063.7911711015186 0 0 0 0 505.32531441756873 -560.58374703272784 0 -560.58374703272784 301.39914448565105 0 0 0 0 590.52262165558932 -331.51987662105967 0 -331.51987662105967 912.35278495435705 0 0 0 0 -257.56823306287697 -379.60695674434828 0 -379.60695674434828 594.396084450942 0 0 0 0 -161.91853130377785 -363.27968403102204 0 -363.27968403102204 -278.24427729248418 0 0 0 0 -701.55464087535802 186.17031338342349 0 186.17031338342349 -97.840900608629454 0 0 0 0 -1025.4823589269217 -262.01151270016271 0 -262.01151270016271 -526.72078016086016 0 0 0 0 -789.63562763314985 345.78215038529015 0 345.78215038529015 -536.52730765286833 0 0 0 0 -1235.0630210509698 -53.26439206165378 0 -53.26439206165378 -314.29407625268504 0 0 0 0 -105.59841131177382 -84.36360051354859 0 -84.36360051354859 -355.2400851288694 0 0 0 0 -336.23207013940555 382.5043984168733 0 382.5043984168733 -194.56399351892469 0 0 0 0 712.51774613939961 35.011775979513914 0 35.011775979513914 -152.08337923177169 0 0 0 0 125.77551232903352 288.26269702521677 0 288.26269702521677 232.37943043100677 0 0 0 0 310.76937625623395 393.06072801270057 0 393.06072801270057 -145.9417271316197 0 0 0 0 141.06796978579223 215.11737175231974 0 215.11737175231974 35.449317478603916 0 0 0 0 542.33490677620443 186.95712903265337 0 186.95712903265337 -133.52439279953251 0 0 0 0 17.177084751638176 213.60034190964507 0 213.60034190964507 11.35531905721291 0 0 0 0 -14.655617986391007 338.32635738489626 0 338.32635738489626 2.0170307029620744 0 0 0 0 136.19381175108902 227.42192328859892 0 227.42192328859892 44.708114267094061 0 0 0 0 145.30258443401544 252.25492997119727 0 252.25492997119727 14.688074241086724 0 0 0 0 -167.04882338400057 198.83429590161541 0 198.83429590161541 113.07424179827376 0 0 0 0 -214.92583144252421 244.91354941984173 0 244.91354941984173 77.339348030480323 0 0 0 0 -502.71309751587251 219.76239331734541 0 219.76239331734541 81.404551381914644 0 0 0 0 -811.80809130527632 111.83266806903703 0 111.83266806903703 -87.95256563660223 0 0 0 0 -88.235313739380217 356.44449133773014 0 356.44449133773014 -129.74034945925814 0 0 0 0 -368.71610928917653 297.33379587141098 0 297.33379587141098 -78.065052124977228 0 0 0 0 137.45301701426888 282.98198617962498 0 282.98198617962498 -359.56771274760831 0 0 0 0 -560.56802752238582 81.486117084459693 0 81.486117084459693 -348.77252716262592 0 0 0 0 -476.36245058959321 463.96237193371053 0 463.96237193371053 -301.94805551521131 0 0 0 0 -1278.5128487229231 -192.05368053234997 0 -192.05368053234997 -657.97118581410905 0 0 0 0 -992.53217390034115 347.28592608869076 0 347.28592608869076 -384.50181344831071 0 0 0 0 -1397.7936780113378 -197.76614000211703 0 -197.76614000211703 -37.308148636453552 0 0 0 0 -657.61141734817647 -601.02881889948912 0 -601.02881889948912 -484.03377034151345 0 0 0 0 -543.05976227653446 -139.09853155925521 0 -139.09853155925521 -33.369480193490745 0 0 0 0 -618.05379089819326 -340.92494826977418 0 -340.92494826977418 -78.268247585452627 0 0 0 0 -537.52834451373201 276.47687795679667 0 276.47687795679667 -10.97196462759166 0 0 0 0 -360.21037599653937 19.925194433191791 0 19.925194433191791 117.69774574755138 0 0 0 0 -743.31130720552756 -50.264839033035969 0 -50.264839033035969 104.83785840257769 0 0 0 0 -455.67952151739155 -66.087104528996861 0 -66.087104528996861 161.74834362638649 0 0 0 0 -312.12687248609291 -210.22924632046488 0 -210.22924632046488 26.022629684244748 0 0 0 0 -462.04789413532853 93.901992596773198 0 93.901992596773198 170.6063944750058 0 0 0 0 -119.07492006255779 -163.51728128633113 0 -163.51728128633113 58.110500284553382 0 0 0 0 -143.99575937607733 -208.45854933229566 0 -208.45854933229566 -18.523273827362573 0 0 0 0 -275.85207595102838 -155.69241762912134 0 -155.69241762912134 107.34478153033524 0 0 0 0 -273.48934628679126 -175.78675997909158 0 -175.78675997909158 -1.1119131725135958 0 0 0 0 -275.78763284633169 -251.92886986184749 0 -251.92886986184749 -31.88677749481576 0 0 0 0 -54.957268226768065 -194.07442020516555 0 -194.07442020516555 -193.78772478405153 0 0 0 0 -147.28651413954503 -261.71326563235198 0 -261.71326563235198 -309.3208271326439 0 0 0 0 -158.76505782117601 -216.44062182115158 0 -216.44062182115158 -187.94108956104901 0 0 0 0 34.752458313218085 -130.27979324581975 0 -130.27979324581975 -350.99548959397362 0 0 0 0 4.8052324876916828 -4.009156648942735 0 -4.009156648942735 -4.6130770886702521 0 0 0 0 15.570697387912737 -3.4504453481805948 0 -3.4504453481805948 -5.516048673054609 0 0 0 0 -24.872529121421394 -24.359965226019995 0 -24.359965226019995 57.373630015325034 0 0 0 0 0.87648969056317583 101.41501312544278 0 101.41501312544278 -146.05121860858344 0 0 0 0 -857.39966419377015 166.23456355850794 0 166.23456355850794 -34.417557640816085 0 0 0 0 1.0612185500873643 -0.68652927792239637 0 -0.68652927792239637 -0.28849057984856508 0 0 0 0 23.057907207985409 -178.04996220055909 0 -178.04996220055909 -620.76238304534127 0 0 0 0 356.58712337542966 436.79132736215251 0 436.79132736215251 814.30070725611586 0 0 0 0 -2190.9251549456731 -2690.8247168469061 0 -2690.8247168469061 -1717.2548547328915 0 0 0 0 -2068.0857333400345 88.74895757586637 0 88.74895757586637 -347.07146508240839 0 0 0 0 -1368.8274046665174 208.31656385242241 0 208.31656385242241 -730.20658774103504 0 0 0 0 -1080.8066467343888 -109.25901682471158 0 -109.25901682471158 -696.33229716861388 0 0 0 0 0.55529493264844731 -1.0261266000019607 0 -1.0261266000019607 0.023568845759070367 0 0 0 0 -1405.4296137898928 473.46168452609709 0 473.46168452609709 45.384770686781849 0 0 0 0 0.74863096077673275 -1.0862860936373635 0 -1.0862860936373635 -0.27118608518497211 0 0 0 0 -2476.8510162074963 121.72110289383636 0 121.72110289383636 286.94371503943694 0 0 0 0 102.11770427849115 -155.75822756181879 0 -155.75822756181879 140.08976888911457 0 0 0 0 84.069689774292783 -105.11382131706159 0 -105.11382131706159 37.346598302247003 0 0 0 0 68.16861340989999 -36.512113327829866 0 -36.512113327829866 -14.660232257861935 0 0 0 0 -5.4077410951264326 -5.9534184248917414 0 -5.9534184248917414 2.6693675241843486 0 0 0 0 -0.66645166830963909 -0.53494454549412218 0 -0.53494454549412218 0.051601019349428512 0 0 0 0 -169.91721623396006 75.269865254886099 0 75.269865254886099 37.392952154390514 0 0 0 0 -244.79300938991219 166.00682379900536 0 166.00682379900536 237.74633261110284 0 0 0 0 -181.06295452190534 61.420098767412128 0 61.420098767412128 88.836254050285788 0 0 0 0 -106.96104023323278 -180.56381318009517 0 -180.56381318009517 -140.79145588350366 0 0 0 0 -230.2295548009497 -268.8334448072128 0 -268.8334448072128 -60.094932271633297 0 0 0 0 -122.00559725129278 2.5355121132161003 0 2.5355121132161003 91.408706812260789 0 0 0 0 30.864243994568824 -147.5291275720665 0 -147.5291275720665 -223.84173692224431 0 0 0 0 -67.511238453575061 -64.308937661684467 0 -64.308937661684467 143.57759391210857 0 0 0 0 -48.8002159277803 5.1828103620828188 0 5.1828103620828188 232.03587894662633 0 0 0 0 -97.824316882615676 -120.17109621479176 0 -120.17109621479176 147.94166669328115 0 0 0 0 -162.35296222971374 -84.928603146829118 0 -84.928603146829118 211.0542039986758 0 0 0 0 -172.96042607114941 -148.46404455465381 0 -148.46404455465381 107.69240019354584 0 0 0 0 -95.616230717278086 -182.68165653286269 0 -182.68165653286269 59.185407794469938 0 0 0 0 -177.1308813320793 -142.77360869769473 0 -142.77360869769473 144.65293806479895 0 0 0 0 -289.01063216890907 39.792195074820484 0 39.792195074820484 223.83862872538157 0 0 0 0 -185.54226746100176 113.93160619014816 0 113.93160619014816 169.01064105753721 0 0 0 0 -263.39144271911937 -84.377788934849377 0 -84.377788934849377 195.07686056988314 0 0 0 0 -217.61292473018693 -50.738542366190813 0 -50.738542366190813 157.10476409726107 0 0 0 0 -118.98315018608992 -45.817689539428102 0 -45.817689539428102 201.93578413826253 0 0 0 0 -94.373753666666744 42.780994632383226 0 42.780994632383226 216.56888433406129 0 0 0 0 -31.025266115888371 -6.7149402858922258 0 -6.7149402858922258 262.05901164902025 0 0 0 0 -114.34932655335433 13.70938083827059 0 13.70938083827059 343.85455977322999 0 0 0 0 -23.852019322868451 -4.385508337382344 0 -4.385508337382344 6.3706826033329236 0 0 0 0 3.9071718524719472 124.69080087242037 0 124.69080087242037 262.36002314009238 0 0 0 0 -175.68635881420778 -0.23197160697600339 0 -0.23197160697600339 265.7563827749982 0 0 0 0 -19.687712537940342 -2.7904589942617974 0 -2.7904589942617974 5.1123692221325916 0 0 0 0 -58.994647590072418 138.19532145353151 0 138.19532145353151 336.68923536746297 0 0 0 0 -13.880231513961917 -11.461097406892804 0 -11.461097406892804 -12.03550374268525 0 0 0 0 -113.89381993294228 -62.137836860783864 0 -62.137836860783864 91.476399686536752 0 0 0 0 -0.15849611976965416 -0.13087051511219983 0 -0.13087051511219983 -0.07798333157906967 0 0 0 0 48.099745909523335 94.99807524177595 0 94.99807524177595 260.8849254494562 0 0 0 0 -62.21261058618984 141.50541956828965 0 141.50541956828965 202.52723718777997 0 0 0 0 -146.02658768904803 89.961846375692403 0 89.961846375692403 263.63457128132995 0 0 0 0 65.787627896745107 198.22465314494912 0 198.22465314494912 145.08806651069608 0 0 0 0 -73.450950202390231 150.63917648248753 0 150.63917648248753 239.30869344237726 0 0 0 0 -80.139974125209847 237.80469691025792 0 237.80469691025792 115.06313493179823 0 0 0 0 -42.014371635283169 198.30627387629647 0 198.30627387629647 145.52425050904276 0 0 0 0 -210.05391900658287 132.57338207674184 0 132.57338207674184 205.30827198951738 0 0 0 0 224.47355871597392 207.78170840210805 0 207.78170840210805 35.262131086899899 0 0 0 0 44.663127813308165 224.31033500194462 0 224.31033500194462 156.37974869302707 0 0 0 0 131.94838656736101 183.62423149991082 0 183.62423149991082 134.4486069988634 0 0 0 0 32.060594393129577 273.7168846380373 0 273.7168846380373 60.161013768731209 0 0 0 0 14.186115305608837 13.658188165194588 0 13.658188165194588 11.870278922222496 0 0 0 0 -42.867229604817112 -92.953528397687478 0 -92.953528397687478 -101.35584786116669 0 0 0 0 0.38599511015138077 1.189010482346518 0 1.189010482346518 0.69623403719807886 0 0 0 0 116.29810342641031 201.09088420433181 0 201.09088420433181 163.88935879222117 0 0 0 0 -2.713534969305293 -2.1001040822947079 0 -2.1001040822947079 -0.39369188576183234 0 0 0 0 -47.668634401808959 -91.84013941095327 0 -91.84013941095327 -97.90147475420963 0 0 0 0 -12.266155425986424 1.9278365328671185 0 1.9278365328671185 0.80076906385094304 0 0 0 0 -54.625073197370511 -89.242921282799216 0 -89.242921282799216 -97.993715288350359 0 0 0 0 193.18928972055437 -90.280782228335738 0 -90.280782228335738 -513.48237562642316 0 0 0 0 72.749416070641018 -149.72153659327887 0 -149.72153659327887 -457.27926133747678 0 0 0 0 15.193921725644032 -117.13652492658002 0 -117.13652492658002 -365.5971792193086 0 0 0 0 17.329003022023244 -229.164443323054 0 -229.164443323054 -535.17384468071396 0 0 0 0 15.987121742713498 -412.6229895343713 0 -412.6229895343713 -574.32814796111779 0 0 0 0 -90.391255375056062 -361.29828318840009 0 -361.29828318840009 -470.95529722579522 0 0 0 0 -163.233988071981 -408.219921871525 0 -408.219921871525 -434.77442092268029 0 0 0 0 -180.65263448018231 -308.84961211268092 0 -308.84961211268092 -227.4013187228993 0 0 0 0 -72.967488491194672 -307.07345686890039 0 -307.07345686890039 -344.61346621776465 0 0 0 0 -83.27910178557795 -243.61112514161505 0 -243.61112514161505 -352.29512827674625 0 0 0 0 -77.47107863551355 -221.64402833307395 0 -221.64402833307395 -340.8107237056829 0 0 0 0 -33.064452822887688 -206.7865437141154 0 -206.7865437141154 -371.28286880522501 0 0 0 0 -66.997566204110626 -251.14689172670478 0 -251.14689172670478 -401.22563008585712 0 0 0 0 19.211177014800342 -128.53123078357021 0 -128.53123078357021 -159.5402586341952 0 0 0 0 -198.73677007574588 -127.28445847984403 0 -127.28445847984403 -39.498444534809096 0 0 0 0 -53.449109423119808 64.363550330046564 0 64.363550330046564 2.3270941670343745 0 0 0 0 -1.8036632216437773 -1.43673487343173 0 -1.43673487343173 -0.032461582607114181 0 0 0 0 -34.477103720244486 -150.13463734366815 0 -150.13463734366815 -220.94007887796033 0 0 0 0 -133.1625572580233 -245.05271104667918 0 -245.05271104667918 -150.76550166591187 0 0 0 0 -33.190673453267664 -207.70558711249032 0 -207.70558711249032 -341.26914144546026 0 0 0 0 -346.58283944843424 -424.39256602296518 0 -424.39256602296518 -247.36308469268261 0 0 0 0 -242.57794265706616 -255.70102967763523 0 -255.70102967763523 -58.170047659921693 0 0 0 0 -358.71797882764076 -629.10213290774846 0 -629.10213290774846 -397.58314123620221 0 0 0 0 -268.78944251623034 -499.07257438512897 0 -499.07257438512897 -213.06933935603593 0 0 0 0 -312.18991913829814 -779.69354740153358 0 -779.69354740153358 -523.94603717167047 0 0 0 0 -220.21554849770473 -628.03818679043616 0 -628.03818679043616 -612.75173761264887 0 0 0 0 -154.31170350770844 -480.83315821403812 0 -480.83315821403812 -344.80245681112865 0 0 0 0 -211.20267048646929 -896.79299600765808 0 -896.79299600765808 -635.85516039935465 0 0 0 0 -153.79750927144778 -715.69589685183018 0 -715.69589685183018 -498.79524193698307 0 0 0 0 -210.19204118718335 -855.69180078720092 0 -855.69180078720092 -781.99093046638882 0 0 0 0 -394.13498260211782 -889.53638105323625 0 -889.53638105323625 -311.28497184766456 0 0 0 0 -464.41824167300365 -1022.8244295496552 0 -1022.8244295496552 -563.46655329504574 0 0 0 0 -418.85373128858919 -1069.3373241328227 0 -1069.3373241328227 -675.01973648481362 0 0 0 0 -396.73785628443147 -1095.0535453350749 0 -1095.0535453350749 -703.76621372759109 0 0 0 0 63.196737085081111 -418.80193707788521 0 -418.80193707788521 -2309.8022138798842 0 0 0 0 -735.46453858912173 -1797.793910852346 0 -1797.793910852346 -2021.8334091085999 0 0 0 0 60.098611583161983 -152.88814395373629 0 -152.88814395373629 -725.57830777810887 0 0 0 0 122.57208943969454 -440.37606924085412 0 -440.37606924085412 -1366.1650747864624 0 0 0 0 144.22562169660341 -262.10716045436493 0 -262.10716045436493 -915.31170058861608 0 0 0 0 87.038870516553288 -810.06396333078737 0 -810.06396333078737 -1504.2649079039256 0 0 0 0 -318.86340402333008 -1115.7810737209511 0 -1115.7810737209511 -1070.3227614539792 0 0 0 0 17.924358099240635 -703.26047642158665 0 -703.26047642158665 -1053.7964917494683 0 0 0 0 94.4412877591094 -575.43285871419357 0 -575.43285871419357 -840.73173474494979 0 0 0 0 -16.57255711704056 -500.94317475120624 0 -500.94317475120624 -754.62234707054449 0 0 0 0 189.1367336520052 -232.86735788336955 0 -232.86735788336955 -686.56097502475313 0 0 0 0 101.57518610006082 -366.73293635121081 0 -366.73293635121081 -644.06694006058387 0 0 0 0 133.14430868890486 -248.17830455576768 0 -248.17830455576768 -629.01714267965872 0 0 0 0 5.7118343313413789 8.4673800528544234 0 8.4673800528544234 -0.26005005557090044 0 0 0 0 -27.331330307235476 -101.66431545186788 0 -101.66431545186788 -96.598628093524894 0 0 0 0 307.06058458684129 -139.91382856696146 0 -139.91382856696146 -583.87824469315819 0 0 0 0 0.10680866849707371 0.33046708527127855 0 0.33046708527127855 0.25999078889860083 0 0 0 0 49.890479091043744 21.334336911568244 0 21.334336911568244 -169.84166091674706 0 0 0 0 341.73334095676546 -336.58669554701191 0 -336.58669554701191 -654.85047065868275 0 0 0 0 -29.732764125204994 -424.04712236567866 0 -424.04712236567866 -466.74295276441262 0 0 0 0 -5.6531126105110161 19.213000266921881 0 19.213000266921881 12.642873455421068 0 0 0 0 -4.6169631375669269 16.077311452390859 0 16.077311452390859 22.020397589600179 0 0 0 0 9.4452926419144205 1.4013364995043958 0 1.4013364995043958 11.293223256536294 0 0 0 0 -8.9552683044098984 0.41599218951936656 0 0.41599218951936656 0.83208482060026512 0 0 0 0 -21.293346711216145 -81.37319222924998 0 -81.37319222924998 -82.924463988019852 0 0 0 0 -50.600234702767921 -98.593691306639812 0 -98.593691306639812 -9.3099987297900952 0 0 0 0 -8.0516345266279803 -4.1392628395317708 0 -4.1392628395317708 1.2951894572757183 0 0 0 0 -19.710292735097596 74.037501909434695 0 74.037501909434695 105.19625516567612 0 0 0 0 0.063491725799171839 -0.0028475649688068927 0 -0.0028475649688068927 0.025709858716194134 0 0 0 0 -369.85341931217408 334.57878210174385 0 334.57878210174385 -183.97786518777139 0 0 0 0 -168.47299454687163 -41.463364170456771 0 -41.463364170456771 -20.612634538963903 0 0 0 0 -3.2517328100777476 -2.6266746793609776 0 -2.6266746793609776 -1.0027830329989094 0 0 0 0 -10.832263819407672 463.57822599047358 0 463.57822599047358 -1442.8401356619725 0 0 0 0 -2699.4379405470609 -395.39324335679703 0 -395.39324335679703 -173.42484154610429 0 0 0 0 -2066.104752139152 -2213.6066471925296 0 -2213.6066471925296 -1549.6877576685947 0 0 0 0 -0.99520203471667745 -1.092549560045434 0 -1.092549560045434 -0.81656247201970089 0 0 0 0 -380.23852508861455 265.10762505661114 0 265.10762505661114 -57.510276670946041 0 0 0 0 -1620.0446021116586 -217.37028682492382 0 -217.37028682492382 433.7163250806334 0 0 0 0 -222.20568189259211 -117.55544395177276 0 -117.55544395177276 -79.17769002309069 0 0 0 0 -253.04785769560112 -72.287725865040557 0 -72.287725865040557 -53.171553242893424 0 0 0 0 -215.9444025552657 -135.50689633324509 0 -135.50689633324509 -30.01562198845204 0 0 0 0 -247.1597768960346 -90.153498480969574 0 -90.153498480969574 -2.3273099864309188 0 0 0 0 -189.46593581384514 -639.71722960937768 0 -639.71722960937768 -311.60042589908699 0 0 0 0 -811.58874359587935 -987.05616742146231 0 -987.05616742146231 -328.66753282374702 0 0 0 0 -568.755943430343 -1196.6391099577941 0 -1196.6391099577941 -837.33644883407396 0 0 0 0 -1138.2065572167776 -1289.9928701429999 0 -1289.9928701429999 -583.56695659537218 0 0 0 0 -559.39382701033901 -1165.7070118985575 0 -1165.7070118985575 -835.15865583825507 0 0 0 0 25.275771871221878 -433.34076100047241 0 -433.34076100047241 -922.19829553150339 0 0 0 0 -75.376789100242604 -919.61632540232677 0 -919.61632540232677 -2940.6023249246427 0 0 0 0 -2106.9294338377367 -1235.7641718002415 0 -1235.7641718002415 -330.56618491761037 0 0 0 0 -1254.2203643344692 459.46905205983785 0 459.46905205983785 -1035.7788558029861 0 0 0 0 -210.12083155036453 -417.07482663459814 0 -417.07482663459814 -356.507676891968 0 0 0 0 234.57807395246709 214.65721353029949 0 214.65721353029949 -42.614853877807036 0 0 0 0 -644.48934025369454 -768.50587718587485 0 -768.50587718587485 153.02771094627678 0 0 0 0 -487.45446048287704 -755.79071885085432 0 -755.79071885085432 -211.81443422680968 0 0 0 0 794.01452649333078 -598.11568090377841 0 -598.11568090377841 168.03823915756402 0 0 0 0 -326.81543278586469 -1024.5231202959185 0 -1024.5231202959185 763.69140442731441 0 0 0 0 671.80907317777337 76.762287611729334 0 76.762287611729334 220.54512634518323 0 0 0 0 606.13985856119689 -327.92144310097137 0 -327.92144310097137 714.32058646323276 0 0 0 0 3090.7026490846183 -768.19987134290568 0 -768.19987134290568 1.1796052932768362 0 0 0 0 695.36542893657679 -176.3127421232748 0 -176.3127421232748 -987.27978316994268 0 0 0 0 -0.23006569439094271 -0.4014013568684387 0 -0.4014013568684387 0.36390035328236614 0 0 0 0 -263.2577532186333 -83.779392002397799 0 -83.779392002397799 1154.7631693000731 0 0 0 0 -421.46080671415257 -553.29988228474394 0 -553.29988228474394 -206.08134125531069 0 0 0 0 -512.06437010907393 -591.13868960597028 0 -591.13868960597028 -220.19473305728752 0 0 0 0 -683.16697467170616 -731.68275755117611 0 -731.68275755117611 147.85044201873825 0 0 0 0 -0.69064434895796367 -0.95668379772018142 0 -0.95668379772018142 0.87103736677114441 0 0 0 0 -236.31658054574655 -681.08490424460615 0 -681.08490424460615 0.17123944050399587 0 0 0 0 -211.28687123074633 -435.84045805200003 0 -435.84045805200003 -656.00741872136132 0 0 0 0 -1.1109841403077851 -1.1360388757733091 0 -1.1360388757733091 1.0645640522173299 0 0 0 0 -191.78840274282629 -227.01055999250821 0 -227.01055999250821 -0.53120522783137858 0 0 0 0 -508.1368918578446 -583.31573047044913 0 -583.31573047044913 -520.88165794603992 0 0 0 0 -691.76397524045024 -787.46234491019277 0 -787.46234491019277 -158.9009877545468 0 0 0 0 -798.67122324572119 -941.24363270163303 0 -941.24363270163303 -326.32124639223912 0 0 0 0 -701.83388036310862 -944.5334424878165 0 -944.5334424878165 -92.845615779602667 0 0 0 0 -801.7001003849582 -980.38596881990088 0 -980.38596881990088 -86.166901524207788 0 0 0 0 -402.22368376590748 -765.97366816847352 0 -765.97366816847352 120.66335267218528 0 0 0 0 -688.80414788507915 -1011.021596518709 0 -1011.021596518709 99.203394714029855 0 0 0 0 -912.88192856734895 -1122.6509559812985 0 -1122.6509559812985 140.26458959281445 0 0 0 0 -682.95870417893821 -1274.0596582503422 0 -1274.0596582503422 -474.0247234806593 0 0 0 0 -626.14681538823788 -1084.4274056462964 0 -1084.4274056462964 -58.155723934469279 0 0 0 0 -647.39196460089443 -975.02022711600875 0 -975.02022711600875 -333.7340895129928 0 0 0 0 -552.96594599634409 -784.65743348436808 0 -784.65743348436808 -118.57212907684152 0 0 0 0 -606.31511415056593 -695.73447334122466 0 -695.73447334122466 -265.86109271558234 0 0 0 0 -543.2551497235545 -459.18928059666359 0 -459.18928059666359 -123.66021495599125 0 0 0 0 -480.2799181452865 -529.30764664445451 0 -529.30764664445451 -107.63924305079854 0 0 0 0 -820.73863718120992 -605.50458675433765 0 -605.50458675433765 -66.784478312427382 0 0 0 0 -832.58892247382028 -617.17161411214329 0 -617.17161411214329 -78.149455240316456 0 0 0 0 -862.34942560744821 -877.97565203388331 0 -877.97565203388331 -140.06471621853416 0 0 0 0 -777.90899223467568 -889.21362702807528 0 -889.21362702807528 -199.94365115239543 0 0 0 0 -960.46928877536993 -1005.234282372563 0 -1005.234282372563 -528.48226163729851 0 0 0 0 -862.83159432979301 -809.0185336698778 0 -809.0185336698778 -197.72269542755612 0 0 0 0 -738.3861445256407 -1129.476183931547 0 -1129.476183931547 -483.70725717113237 0 0 0 0 -624.84578875404986 -1113.3695834354585 0 -1113.3695834354585 -1345.4018429480057 0 0 0 0 -1446.8547931742869 -1309.2671774158807 0 -1309.2671774158807 -4.5472873583348701 0 0 0 0 -1473.3610199587856 -757.83028062021185 0 -757.83028062021185 -34.752269357762998 0 0 0 0 -789.22348686064652 -288.06181252736133 0 -288.06181252736133 -73.812677254711161 0 0 0 0 -1105.1258349649906 -310.65734905220961 0 -310.65734905220961 31.768740631930996 0 0 0 0 -308.60211550303939 -1013.6876026249229 0 -1013.6876026249229 -460.22339312487748 0 0 0 0 -3189.3598631947461 -402.43433995282976 0 -402.43433995282976 138.366396698686 0 0 0 0 -4.2974349012447828 -0.76223693773360068 0 -0.76223693773360068 1.2792030434336752 0 0 0 0 234.77157359074045 490.51934181491015 0 490.51934181491015 18.224526199337561 0 0 0 0 146.18505550050759 -112.62954213059857 0 -112.62954213059857 -110.87157567922986 0 0 0 0 146.32828565029195 -75.002675828858628 0 -75.002675828858628 -76.242769986230996 0 0 0 0 -0.3003561233078722 -0.22216843764751637 0 -0.22216843764751637 0.026003585336269452 0 0 0 0 -758.99750429828418 -505.29134515341138 0 -505.29134515341138 0.63357302975782659 0 0 0 0 145.75809605406539 -34.789641944807954 0 -34.789641944807954 -0.79493035704945214 0 0 0 0 15.539848455926403 -416.84984464856097 0 -416.84984464856097 -39.353647861084028 0 0 0 0 -494.75455257704743 69.912724171503214 0 69.912724171503214 88.144142758057569 0 0 0 0 -4.7897246443208212 -1.1985780024590493 0 -1.1985780024590493 1.5516943953995685 0 0 0 0 -64.640250112432113 181.88066042368155 0 181.88066042368155 -8.3221305612241849 0 0 0 0 -902.1292696416931 -131.32817001727381 0 -131.32817001727381 -8.5611441986984573 0 0 0 0 -878.87329111554118 -253.93881707912169 0 -253.93881707912169 -5.8071318560396321 0 0 0 0 -577.50894177613372 -329.95571565453429 0 -329.95571565453429 -64.368994284173823 0 0 0 0 -437.49559946676527 -179.87531764016967 0 -179.87531764016967 74.848714132414898 0 0 0 0 -5.6853166288944958 -1.8097814990663252 0 -1.8097814990663252 2.6271421473909484 0 0 0 0 -105.33074312993267 -117.15167613387166 0 -117.15167613387166 153.71869037273427 0 0 0 0 -117.53825582514037 -55.803526909370703 0 -55.803526909370703 -72.050364086695481 0 0 0 0 -14.884213510591508 -8.8585725043594721 0 -8.8585725043594721 11.180262620320718 0 0 0 0 -15.516895737300729 -11.527379730716348 0 -11.527379730716348 4.0152484933496453 0 0 0 0 -1.590723362331854 -13.074460888641781 0 -13.074460888641781 -5.684926466129717 0 0 0 0 362.23151954254718 526.28072021789558 0 526.28072021789558 335.78676511274534 0 0 0 0 -6.9171849215726979 -6.1707493586436613 0 -6.1707493586436613 6.3170003739796812 0 0 0 0 -4.2907368109790696 -4.6043469694486703 0 -4.6043469694486703 2.1378564839978935 0 0 0 0 -19.571506790580315 -5.5221875899733277 0 -5.5221875899733277 12.046413346455665 0 0 0 0 -13.454607973522798 -6.5158368368574884 0 -6.5158368368574884 21.768245678336825 0 0 0 0 -8.1630204793764278 3.2298688950832002 0 3.2298688950832002 18.257993343271664 0 0 0 0 -12.74052023423792 -7.4687556376156863 0 -7.4687556376156863 9.2013776097592199 0 0 0 0 -11.825544676692516 -11.056080574378029 0 -11.056080574378029 16.725355199771002 0 0 0 0 -10.99350327189677 -15.592231135960901 0 -15.592231135960901 19.788537162952707 0 0 0 0 -10.804811784628782 -12.983492827192094 0 -12.983492827192094 2.9441097246599384 0 0 0 0 -3.3521466236543347 -13.203999568766449 0 -13.203999568766449 -1.7663105186657049 0 0 0 0 -19.641519006103408 -20.892980116303079 0 -20.892980116303079 5.1012857044115663 0 0 0 0 14.070185733104154 -28.1660149307354 0 -28.1660149307354 3.7302906994882505 0 0 0 0 -14.139219000287994 -26.464310187860974 0 -26.464310187860974 3.6394325450819451 0 0 0 0 -0.75463663767301381 -0.71166644573377891 0 -0.71166644573377891 0.97756776303650739 0 0 0 0 -2.4049265333190291 -2.2284490183364669 0 -2.2284490183364669 3.0792737199506455 0 0 0 0 -6.1345357002146557 -21.98039702445385 0 -21.98039702445385 0.14539835114555899 0 0 0 0 -2.6257680273037982 -16.742828322792665 0 -16.742828322792665 -4.2471537705370643 0 0 0 0 300.07743443159416 159.63857355744403 0 159.63857355744403 -8.2901989359816071 0 0 0 0 -1.8728620179616637 -14.775877892591538 0 -14.775877892591538 -5.0354175532278589 0 0 0 0 627.94454754239996 383.19317623987445 0 383.19317623987445 -84.119030253990786 0 0 0 0 232.56435818738828 411.48358320738771 0 411.48358320738771 353.75878541683778 0 0 0 0 403.75639705653157 211.18967831964983 0 211.18967831964983 -766.44983073713956 0 0 0 0 -65.236628703951283 -35.308934426982887 0 -35.308934426982887 -274.60759820579551 0 0 0 0 324.20717454634723 -186.02600033869385 0 -186.02600033869385 -1059.0243101136839 0 0 0 0 -61.375423453551775 -490.98683685442666 0 -490.98683685442666 -768.05761814152356 0 0 0 0 751.66415123177285 -34.689299191319151 0 -34.689299191319151 -559.40515392130328 0 0 0 0 444.4237414245581 197.75802462785214 0 197.75802462785214 -354.2172713032669 0 0 0 0 624.50292771943577 560.66900691112187 0 560.66900691112187 113.54524851622409 0 0 0 0 -148.81950073200278 -1112.8016090057063 0 -1112.8016090057063 -831.09004446628387 0 0 0 0 154.35674611527065 -922.32119900701218 0 -922.32119900701218 -779.394792519568 0 0 0 0 397.29649230030191 -765.95842158116284 0 -765.95842158116284 -1324.3058123367664 0 0 0 0 131.35612330335789 -839.76212662398757 0 -839.76212662398757 -983.63782146168523 0 0 0 0 817.50487208113191 -865.30089524826326 0 -865.30089524826326 -1020.0135635857805 0 0 0 0 357.25350364520455 -846.09128439504457 0 -846.09128439504457 -537.35495068825549 0 0 0 0 436.42538760711614 -1097.0246985838894 0 -1097.0246985838894 -1623.4421433978132 0 0 0 0 1003.7259714059619 -141.72362329458701 0 -141.72362329458701 -855.85008662412292 0 0 0 0 1472.0463130633216 1233.0765609865048 0 1233.0765609865048 636.27643770175496 0 0 0 0 1251.480852168901 -819.09447563863796 0 -819.09447563863796 664.75457740965066 0 0 0 0 325.04193030009628 571.39075455690909 0 571.39075455690909 -4.4296258527465397 0 0 0 0 563.24447106219304 -731.53912295760529 0 -731.53912295760529 -829.6085510138073 0 0 0 0 295.52227663242957 424.44739160439349 0 424.44739160439349 512.16864706543856 0 0 0 0 2082.9874722225359 799.61717933035106 0 799.61717933035106 -37.616856012769858 0 0 0 0 571.26518234683317 -31.002885941838031 0 -31.002885941838031 -464.01214476869791 0 0 0 0 234.91989640547399 578.11452709827427 0 578.11452709827427 1280.8723142404342 0 0 0 0 2.1946470581098128 -0.26044324872122004 0 -0.26044324872122004 -0.9547098511590697 0 0 0 0 -1.7195707781193192 -11.606036694929616 0 -11.606036694929616 -6.268097619841253 0 0 0 0 129.23963847783307 192.00533424584137 0 192.00533424584137 380.79525403225125 0 0 0 0 -7.6215354647501954 -7.907371055243857 0 -7.907371055243857 -1.2548094920639414 0 0 0 0 -0.16713144651484968 -7.0165414954094807 0 -7.0165414954094807 2.0792428828238698 0 0 0 0 1104.3738823576787 -265.30567002981843 0 -265.30567002981843 47.947076448468579 0 0 0 0 1966.9411468966282 -244.33476573672669 0 -244.33476573672669 10.925752086419379 0 0 0 0 -8.6177422631961811 -6.6300103933477894 0 -6.6300103933477894 -0.015376756007196235 0 0 0 0 -9.4365533310701721 -5.4917489419021877 0 -5.4917489419021877 -1.0914005023255413 0 0 0 0 -8.4521612417411234 -12.400949461734854 0 -12.400949461734854 -1.1924926986102946 0 0 0 0 1402.8214774764638 821.45940868738398 0 821.45940868738398 25.931867172770581 0 0 0 0 837.22789300720251 339.68162517867313 0 339.68162517867313 -134.68289282676415 0 0 0 0 1187.0698304518914 635.85362741326026 0 635.85362741326026 -59.457581553055206 0 0 0 0 2375.0993270863091 635.56400375353041 0 635.56400375353041 -87.798434800875839 0 0 0 0 1879.708467114935 875.54918838152662 0 875.54918838152662 130.86124832437235 0 0 0 0 1339.2570498347959 812.54239567590412 0 812.54239567590412 142.15924884630658 0 0 0 0 807.51802504336592 -92.391497844888363 0 -92.391497844888363 22.876495536591392 0 0 0 0 1672.1095675454508 952.97023989067384 0 952.97023989067384 796.65367855076329 0 0 0 0 2351.2470558406276 -148.11241253311164 0 -148.11241253311164 69.458546266701887 0 0 0 0 -8.5505245631459861 -5.5962681821890632 0 -5.5962681821890632 -0.50821911939448938 0 0 0 0 -17.127979410277476 -8.6048053374470328 0 -8.6048053374470328 -0.0027943565073655918 0 0 0 0 3694.4467651884042 1905.814219097374 0 1905.814219097374 563.5298267126891 0 0 0 0 -8.7778513680736712 -4.7606902874797834 0 -4.7606902874797834 -1.086285241824374 0 0 0 0 -8.392624472058742 -8.4854566284338944 0 -8.4854566284338944 5.7940205055347178 0 0 0 0 0.9607245547704224 -6.7229943438869668 0 -6.7229943438869668 -0.34567675084690563 0 0 0 0 -17.179143542742167 -11.431537490556366 0 -11.431537490556366 -0.25194575439672917 0 0 0 0 -13.340488027512038 -5.8636476279789349 0 -5.8636476279789349 -0.0070739074808443547 0 0 0 0 -9.0854209390454344 -8.6042455316492124 0 -8.6042455316492124 0.0013305422908160836 0 0 0 0 -4.097409648275061 -5.1928159825693001 0 -5.1928159825693001 0.35524136578897014 0 0 0 0 -1.1168971926640552 -8.3901685924320191 0 -8.3901685924320191 -0.002394008100964129 0 0 0 0 -1.8533221871948626 -8.0563062056025956 0 -8.0563062056025956 0.79514863123768009 0 0 0 0 -3.6309895189624513 -5.2978542411183298 0 -5.2978542411183298 1.1440384936286137 0 0 0 0 -2.4600664563104147 -8.4046330362252775 0 -8.4046330362252775 2.9197405146551318 0 0 0 0 0.23351837550217169 -11.235903115899418 0 -11.235903115899418 4.1552313229913125 0 0 0 0 2.2762952935445355 -12.535961389963632 0 -12.535961389963632 -0.43326923898712266 0 0 0 0 -3.9750309044447931 -5.9204129375284538 0 -5.9204129375284538 11.474627700459678 0 0 0 0 4.2762223547906615 -5.9996873888449045 0 -5.9996873888449045 -6.8159768220939441 0 0 0 0 0.2895742486696764 -6.7209847350626433 0 -6.7209847350626433 1.7841311363069767 0 0 0 0 -0.1985592213269074 -0.14849339432899988 0 -0.14849339432899988 -0.020536472627956215 0 0 0 0 -1.9837736886147468 6.4428337698191172 0 6.4428337698191172 8.2687411642168627 0 0 0 0 -9.7037091743004851 -1.8289267741173187 0 -1.8289267741173187 5.5957694258718469 0 0 0 0 -0.72844095158600286 0.24691894805856762 0 0.24691894805856762 0.9526127879785804 0 0 0 0 -3.5732243842194293 10.727394853529404 0 10.727394853529404 8.1949513650924928 0 0 0 0 -16.607312951389758 6.0442048499389784 0 6.0442048499389784 7.4231835122045595 0 0 0 0 -4.349783850510903 -4.4218912537835422 0 -4.4218912537835422 -1.8343856435385533 0 0 0 0 -16.590437521312651 1.3755660302558681 0 1.3755660302558681 3.8724381361389533 0 0 0 0 -0.083059988918558147 0.19205590193011801 0 0.19205590193011801 0.041940108463260017 0 0 0 0 0.61727524059824646 -7.4528260738297831 0 -7.4528260738297831 2.2922822720502154 0 0 0 0 -5.9337148222575706 -5.8949116405347013 0 -5.8949116405347013 6.7127121272205841 0 0 0 0 2.0378098923265497 -10.366567382923677 0 -10.366567382923677 7.4032121630443726 0 0 0 0 -3.812573036634574 -3.0428353699193593 0 -3.0428353699193593 0.40711203138413765 0 0 0 0 -3.361175903030253 -2.1181100175957681 0 -2.1181100175957681 3.6747166343019799 0 0 0 0 -7.2175416585414496 -5.6873187274322845 0 -5.6873187274322845 -0.73374796932330355 0 0 0 0 2.5409806306201972 -1.2504544527728285 0 -1.2504544527728285 14.302143335342407 0 0 0 0 -10.171039880298849 5.2697811553953215 0 5.2697811553953215 15.19690432587231 0 0 0 0 5.4505661575117301 16.522430476601585 0 16.522430476601585 13.316561477593496 0 0 0 0 -17.034504072461459 -1.4253590762091335 0 -1.4253590762091335 40.063044564587472 0 0 0 0 -20.568473242831089 -4.343504814132757 0 -4.343504814132757 -0.98819842698867433 0 0 0 0 -5.1422215990560289 14.827424057511962 0 14.827424057511962 -10.553673791844631 0 0 0 0 -0.13301824807317941 0.030685088189994048 0 0.030685088189994048 0.20752813938245751 0 0 0 0 0.071885442546772538 -11.9122049045327 0 -11.9122049045327 -12.702561360565596 0 0 0 0 -18.583398697588336 -14.88784325956658 0 -14.88784325956658 -0.02490567801578436 0 0 0 0 -21.24217734962474 -25.263881987688364 0 -25.263881987688364 -39.854297894635238 0 0 0 0 -30.963004962121886 -35.772014741844032 0 -35.772014741844032 0.019585959278629161 0 0 0 0 -89.39001373597057 -151.67913198322276 0 -151.67913198322276 -140.24075730095501 0 0 0 0 -41.921039523234867 -58.683691652826383 0 -58.683691652826383 -28.149933900684118 0 0 0 0 24.676138109975909 -1.9633711927162949 0 -1.9633711927162949 -124.36308899548385 0 0 0 0 5.8761191736930414 -29.981684237442096 0 -29.981684237442096 -81.919262925905059 0 0 0 0 13.149153893621815 -7.6586231597320875 0 -7.6586231597320875 -33.30478245652921 0 0 0 0 -3.7700941592393065 36.131521105118736 0 36.131521105118736 1.839930838876171 0 0 0 0 -716.70102359051998 -585.35342205070629 0 -585.35342205070629 -358.52293464509421 0 0 0 0 -196.29175100937937 -119.88285709863703 0 -119.88285709863703 -0.50514428648888687 0 0 0 0 58.686773067573085 -40.273918097271235 0 -40.273918097271235 -307.32947991246238 0 0 0 0 -508.43096813047487 -715.32020126925636 0 -715.32020126925636 -876.85744120135496 0 0 0 0 -567.25977174171749 492.29567269263498 0 492.29567269263498 -334.80056504099048 0 0 0 0 -105.19531884493244 -47.449781074385101 0 -47.449781074385101 66.82732588671206 0 0 0 0 -1.8630103562633642 -1.7784993793188111 0 -1.7784993793188111 -0.051069400059734704 0 0 0 0 -93.272553533697646 8.9864138979537529 0 8.9864138979537529 43.220403548883041 0 0 0 0 -88.692405054200208 15.675067717544152 0 15.675067717544152 14.918035365772084 0 0 0 0 -46.988403499130072 10.96816818320076 0 10.96816818320076 -57.903401271469193 0 0 0 0 -175.84130110419937 134.55916829516354 0 134.55916829516354 -67.642160575648631 0 0 0 0 -2.831688505757247 -2.5198096888897226 0 -2.5198096888897226 0.11723904164796828 0 0 0 0 -18.710131063627841 -15.209692329975951 0 -15.209692329975951 70.062182095192838 0 0 0 0 -1.7305610929470276 25.532967566410662 0 25.532967566410662 -19.581452436992549 0 0 0 0 -5.2257138317763747 -23.561581021313032 0 -23.561581021313032 23.071908826274012 0 0 0 0 2.9477763161210078 -6.3406481305746638 0 -6.3406481305746638 -4.9015426298283273 0 0 0 0 -12.14091119261866 3.4168683933166903 0 3.4168683933166903 -0.9019613978889538 0 0 0 0 -60.777647013313981 3.7515276615886251 0 3.7515276615886251 54.475053786040235 0 0 0 0 -6.5017203412044182 32.512085605106677 0 32.512085605106677 54.669640117019298 0 0 0 0 -2.368752633611086 -1.44275122387476 0 -1.44275122387476 2.5437220859322416 0 0 0 0 -23.328747757662313 -31.485536165148005 0 -31.485536165148005 -9.2723177750303876 0 0 0 0 -114.29490156459724 16.786922426326782 0 16.786922426326782 15.433095032400161 0 0 0 0 -465.45272262250364 71.958796801482094 0 71.958796801482094 165.34041314097703 0 0 0 0 -188.54324464368619 -75.666506760731863 0 -75.666506760731863 146.00431478707469 0 0 0 0 -184.48784006909045 -39.456832831623615 0 -39.456832831623615 30.749342014518334 0 0 0 0 -127.84544696564262 -46.184374506061431 0 -46.184374506061431 31.532834193640156 0 0 0 0 -127.30071889175088 -42.09542132721981 0 -42.09542132721981 -10.145889804993203 0 0 0 0 -1.4958976499851713 -0.84395019121160431 0 -0.84395019121160431 1.5491819785413234 0 0 0 0 -406.78092319724237 -147.56016312697466 0 -147.56016312697466 -57.135946726746624 0 0 0 0 -129.48168972480744 -85.873899030244502 0 -85.873899030244502 -54.136808373426902 0 0 0 0 -0.54147290345235444 -0.28268177736329569 0 -0.28268177736329569 0.54361545223535046 0 0 0 0 -46.165979850749864 195.28935716883643 0 195.28935716883643 301.82685110770399 0 0 0 0 -312.77310160102206 -21.950407681346405 0 -21.950407681346405 284.64852415952009 0 0 0 0 3.6892795060775825 -34.154844605305698 0 -34.154844605305698 93.892701101955026 0 0 0 0 69.464810556964949 35.796403024109168 0 35.796403024109168 87.66220533757587 0 0 0 0 -13.606557789873477 -43.659966881663422 0 -43.659966881663422 29.629409791363287 0 0 0 0 -7.5561800113209756 -16.520339436261565 0 -16.520339436261565 68.7503775707155 0 0 0 0 -97.854719035392918 18.090899860690115 0 18.090899860690115 26.706778276487967 0 0 0 0 -34.689959415361955 -34.934113844268722 0 -34.934113844268722 34.029205444792751 0 0 0 0 -20.822207687884656 -17.258940372848883 0 -17.258940372848883 30.185323675419568 0 0 0 0 -63.544464056261859 -35.890575203797198 0 -35.890575203797198 61.542075805569766 0 0 0 0 18.251088487755624 5.1496937852934934 0 5.1496937852934934 15.310072604333982 0 0 0 0 11.773279232438654 53.97264049948717 0 53.97264049948717 121.42438419435348 0 0 0 0 3.1469784724831698 -432.47681691628532 0 -432.47681691628532 -57.871984992816579 0 0 0 0 -551.83618462539016 -605.08182119182311 0 -605.08182119182311 -155.76436179468874 0 0 0 0 18.322578236846311 -465.03051376674557 0 -465.03051376674557 -475.37273661224208 0 0 0 0 -0.018866854780155151 -0.16250364529331307 0 -0.16250364529331307 0.17405689072244357 0 0 0 0 -352.99768756405319 -603.98916044167709 0 -603.98916044167709 -780.64302828093059 0 0 0 0 -196.13539418617438 -102.99030151640181 0 -102.99030151640181 -232.0536681622325 0 0 0 0 -21.802970844761148 -136.19568415101094 0 -136.19568415101094 -437.64412133101723 0 0 0 0 19.569280723044358 -247.08037764477194 0 -247.08037764477194 -229.7215841152356 0 0 0 0 354.09083083713995 -176.77495744956832 0 -176.77495744956832 -142.06409375474323 0 0 0 0 166.05843319953419 -199.81004905464943 0 -199.81004905464943 -113.24070045971894 0 0 0 0 185.64483758179267 -113.3126585054124 0 -113.3126585054124 9.2121541015803814 0 0 0 0 49.550379939973936 -164.04885969017414 0 -164.04885969017414 -79.309213400440058 0 0 0 0 0.049099935960320029 0.18045383723313368 0 0.18045383723313368 -0.054317482708579945 0 0 0 0 368.23140766966389 -214.73118949721538 0 -214.73118949721538 -68.911564575100783 0 0 0 0 -399.58931914501591 -85.427208008099115 0 -85.427208008099115 189.73162530583795 0 0 0 0 -490.72921896984917 -207.74151169701508 0 -207.74151169701508 76.223369354986062 0 0 0 0 47.62783879514609 -371.94311927485978 0 -371.94311927485978 -201.16789972592233 0 0 0 0 86.351195256451319 -139.31255632084503 0 -139.31255632084503 76.556106918578735 0 0 0 0 -55.793659378956363 -506.60285716236103 0 -506.60285716236103 -41.891458598976897 0 0 0 0 -316.73939083512232 -455.39794658898609 0 -455.39794658898609 74.657983468001476 0 0 0 0 0.035174887518799491 0.1682101370345046 0 0.1682101370345046 -0.032337895534013228 0 0 0 0 -171.47605085438408 -113.53853140727733 0 -113.53853140727733 45.654260258655995 0 0 0 0 316.99395716712388 -249.92145222717954 0 -249.92145222717954 58.569694465913926 0 0 0 0 -179.63806573735746 -76.280865468026605 0 -76.280865468026605 79.143272507179063 0 0 0 0 -1734.3385935779261 -404.49044724931446 0 -404.49044724931446 185.69441316620942 0 0 0 0 -506.92742020016885 -377.23033878217393 0 -377.23033878217393 -73.261822233878775 0 0 0 0 0.01377599496477222 0.08424752952229575 0 0.08424752952229575 -0.001029206884343381 0 0 0 0 -539.98282011069136 -812.50383032661512 0 -812.50383032661512 296.77957534012967 0 0 0 0 -214.74793619554112 -1053.7368342983682 0 -1053.7368342983682 128.52350390597712 0 0 0 0 -271.91634069947213 -860.46992555090401 0 -860.46992555090401 -210.43512287191697 0 0 0 0 -231.19628733278478 -977.14265217376305 0 -977.14265217376305 783.33386578768841 0 0 0 0 0.0081401989977951672 -0.19088170501412449 0 -0.19088170501412449 -0.1633429321444293 0 0 0 0 3.1460227725547156 -405.02524573585833 0 -405.02524573585833 -908.74188852390216 0 0 0 0 91.204732303922356 -430.93928817823326 0 -430.93928817823326 543.29326245791162 0 0 0 0 -60.183445385060622 -732.33038758086332 0 -732.33038758086332 -55.612689910150948 0 0 0 0 250.66724373817851 -806.18480628384714 0 -806.18480628384714 -227.86100113826978 0 0 0 0 -487.81984487032241 -616.63185193823301 0 -616.63185193823301 2.594512901679991 0 0 0 0 -536.15758216224549 -766.2463930362228 0 -766.2463930362228 -47.509528306400171 0 0 0 0 -333.3041021093668 -570.17700846204389 0 -570.17700846204389 -592.13295388847473 0 0 0 0 -335.25613533770957 -578.15714157885668 0 -578.15714157885668 -89.79712940549507 0 0 0 0 -209.81058904929705 -341.11912257922813 0 -341.11912257922813 289.89282049282338 0 0 0 0 -927.22373264312773 -750.93812101150979 0 -750.93812101150979 -22.332633420017373 0 0 0 0 -578.03417549936785 -834.80352500815934 0 -834.80352500815934 -858.42004896923027 0 0 0 0 -1187.1133260778552 -1091.0645279726159 0 -1091.0645279726159 -425.19102726702113 0 0 0 0 -0.67769528495405407 -0.69175518887798582 0 -0.69175518887798582 -0.06366791901516855 0 0 0 0 -1859.247912448267 -243.72656251449371 0 -243.72656251449371 291.21044376919417 0 0 0 0 -1716.8978989223942 -690.18972456305346 0 -690.18972456305346 -78.344655711676751 0 0 0 0 -1347.5708076647397 92.010194188183959 0 92.010194188183959 -340.96729943038372 0 0 0 0 -926.45640835846734 -324.41117481323272 0 -324.41117481323272 0.31559555973217357 0 0 0 0 333.50260743070976 -861.09763466068398 0 -861.09763466068398 -96.264467249129666 0 0 0 0 -598.23985509736667 -531.42748715123889 0 -531.42748715123889 -0.22310080379247665 0 0 0 0 -233.50029221437944 -60.761384357028874 0 -60.761384357028874 91.747229189277277 0 0 0 0 595.14822554676357 -470.70199034440157 0 -470.70199034440157 0.69714859801752027 0 0 0 0 1148.8710284639346 -951.17932413836388 0 -951.17932413836388 453.65305761344462 0 0 0 0 1126.238979923146 317.93999479747436 0 317.93999479747436 774.52967087745128 0 0 0 0 2085.0384803758316 -10.056310770436539 0 -10.056310770436539 -0.8972936607315205 0 0 0 0 936.66667622614841 -655.77561715288175 0 -655.77561715288175 205.04996296401077 0 0 0 0 19.258799323048152 134.76179783238695 0 134.76179783238695 1.1174996084155282 0 0 0 0 541.84824391631992 728.49650879380351 0 728.49650879380351 961.13738367308542 0 0 0 0 0.87462302134002101 -0.64694078378203734 0 -0.64694078378203734 -0.072970499807660794 0 0 0 0 1860.0739010164834 268.99416576488147 0 268.99416576488147 -179.94340886027203 0 0 0 0 104.52773616798004 160.5247111681565 0 160.5247111681565 247.63744864934415 0 0 0 0 377.35466245518001 340.6117574038326 0 340.6117574038326 175.33479537765379 0 0 0 0 307.9196924040516 71.269637019977381 0 71.269637019977381 -199.37052119315922 0 0 0 0 648.3676342399649 283.76292826911958 0 283.76292826911958 -895.90059409047535 0 0 0 0 719.92811454648108 -550.28403215547587 0 -550.28403215547587 -320.01180490374099 0 0 0 0 316.42520327359034 -572.56843181405566 0 -572.56843181405566 -153.42573664878728 0 0 0 0 488.68535267761035 -682.42291876845411 0 -682.42291876845411 -148.32640629941307 0 0 0 0 660.87860607021685 -396.0459334224106 0 -396.0459334224106 -152.60858225067204 0 0 0 0 -202.88171184191742 -156.51772483345849 0 -156.51772483345849 -0.17688200536940712 0 0 0 0 -88.9306958951056 -109.5547477533255 0 -109.5547477533255 -534.79061048933363 0 0 0 0 -712.93983192057203 30.430610997420445 0 30.430610997420445 64.759724950694363 0 0 0 0 -594.81561477565265 -395.08102925400817 0 -395.08102925400817 -179.9037813731411 0 0 0 0 -0.39204859647197488 -0.3042272898970193 0 -0.3042272898970193 0.18456422642957193 0 0 0 0 -0.99954282904082792 -0.38423733341608468 0 -0.38423733341608468 -0.17668684417395042 0 0 0 0 -261.89700075587098 -109.07577754371596 0 -109.07577754371596 -0.18857911076338496 0 0 0 0 -72.218198487491463 55.239090892478998 0 55.239090892478998 -47.044554938136571 0 0 0 0 2.3987498086239363 -1.6626808363877359 0 -1.6626808363877359 -0.29843171903437682 0 0 0 0 141.10509952261054 154.02120577727328 0 154.02120577727328 175.1488051507331 0 0 0 0 194.79046869044032 163.5428592338576 0 163.5428592338576 5.0306087852950441 0 0 0 0 177.41817897374858 160.90645983377181 0 160.90645983377181 99.808744363306687 0 0 0 0 76.069775406722329 83.894443767996563 0 83.894443767996563 115.9295658350311 0 0 0 0 -1.210055688264247 -2.3959840923999796 0 -2.3959840923999796 0.49320095132224751 0 0 0 0 -685.7095208953142 -158.85953013762628 0 -158.85953013762628 193.77491663009278 0 0 0 0 -377.17036840118089 154.42727344611194 0 154.42727344611194 -59.277574620879022 0 0 0 0 525.12867074061069 -406.56123994692462 0 -406.56123994692462 -1400.5502957594581 0 0 0 0 -0.95854896491642627 -3.1664504407241107 0 -3.1664504407241107 0.4045902120147602 0 0 0 0 190.75600149215097 162.94643826056927 0 162.94643826056927 74.555044977721991 0 0 0 0 -306.92282871212228 -618.4831308676512 0 -618.4831308676512 295.35753530720831 0 0 0 0 0.44756600833260762 -0.55173680320603413 0 -0.55173680320603413 -0.93830249723339421 0 0 0 0 -317.33775381433588 -689.9905905806163 0 -689.9905905806163 689.59775866719428 0 0 0 0 -173.65732553975977 -151.40557992401955 0 -151.40557992401955 616.18863049009815 0 0 0 0 -388.20113595850853 -546.71847362381232 0 -546.71847362381232 77.228922330599744 0 0 0 0 385.51135574404952 6.220406307787016 0 6.220406307787016 -3.7623173761821818 0 0 0 0 -0.4964519806301313 -4.3247606410396457 0 -4.3247606410396457 0.4745190478519774 0 0 0 0 -688.1406842583674 407.80356581196247 0 407.80356581196247 907.00471833390475 0 0 0 0 179.10515313302312 158.8453017780339 0 158.8453017780339 75.018576241549454 0 0 0 0 361.51474987447 325.47668448493641 0 325.47668448493641 170.22350255740457 0 0 0 0 83.978043874540845 23.771610709539345 0 23.771610709539345 23.612784776254557 0 0 0 0 95.153867359433207 181.62580629982403 0 181.62580629982403 169.89720150690118 0 0 0 0 218.77473285155429 98.531263721684809 0 98.531263721684809 43.320159376657102 0 0 0 0 20.577318479037785 1.0410883267759345 0 1.0410883267759345 60.992030840890948 0 0 0 0 135.42584574389184 -127.32817855048052 0 -127.32817855048052 -261.91031654903782 0 0 0 0 3.6472222511911241 -199.01731106403895 0 -199.01731106403895 -261.35677035956178 0 0 0 0 98.651030932327558 -306.3838119063148 0 -306.3838119063148 -716.03724737250013 0 0 0 0 -81.130719024738937 -234.6948257964832 0 -234.6948257964832 -425.45459272618609 0 0 0 0 58.692385942118563 -146.95964864604321 0 -146.95964864604321 -400.01553060475271 0 0 0 0 -7.495121784053481 -235.03406528251799 0 -235.03406528251799 -775.59556353278458 0 0 0 0 -69.32410743800574 -273.24105142007465 0 -273.24105142007465 -307.40875676902942 0 0 0 0 -158.0755548471825 -140.92463632452564 0 -140.92463632452564 -390.68512267840561 0 0 0 0 -70.778430593549274 -188.02535427437397 0 -188.02535427437397 -216.11412199409097 0 0 0 0 -61.638996837891 -12.465003424407769 0 -12.465003424407769 41.307482685282594 0 0 0 0 -43.025499813818897 -34.397749844400096 0 -34.397749844400096 64.412099749628396 0 0 0 0 36.752280447493831 181.79000813524181 0 181.79000813524181 178.77748242014786 0 0 0 0 80.471004040729895 51.26060394027445 0 51.26060394027445 510.82329254999058 0 0 0 0 283.92537715638173 -178.61700459866552 0 -178.61700459866552 86.62467510632996 0 0 0 0 -96.397197101553502 46.027525143540515 0 46.027525143540515 -45.969189382594777 0 0 0 0 -132.44603455523611 -388.75735274734325 0 -388.75735274734325 -721.74939536562306 0 0 0 0 -199.52559189269959 -74.259751598408911 0 -74.259751598408911 -561.10786999910488 0 0 0 0 -101.93734280692297 -295.54386090706976 0 -295.54386090706976 -369.93546967764269 0 0 0 0 -2.390845604129936 199.11923096825922 0 199.11923096825922 -106.83881689549889 0 0 0 0 300.95181665844575 84.031216611532727 0 84.031216611532727 -66.807843034475809 0 0 0 0 49.95663376225275 -152.31633023457834 0 -152.31633023457834 -555.01200942412834 0 0 0 0 164.55402687006244 393.28681730897551 0 393.28681730897551 -337.12099558551563 0 0 0 0 203.25967296032832 490.98538124034712 0 490.98538124034712 372.02015800520894 0 0 0 0 418.98872178042802 482.72581418108894 0 482.72581418108894 334.80685014629853 0 0 0 0 -33.417066854399309 183.87035148402356 0 183.87035148402356 248.38699299504515 0 0 0 0 815.16868125516339 243.17839983597514 0 243.17839983597514 183.7655025539716 0 0 0 0 242.57254867277516 464.02578715198615 0 464.02578715198615 836.12316885628388 0 0 0 0 0.25392773467813257 -0.46702716394874599 0 -0.46702716394874599 -0.21917001190526264 0 0 0 0 122.34659356817792 -255.07598894614785 0 -255.07598894614785 51.307293034216855 0 0 0 0 195.78255783703025 -216.62041876315925 0 -216.62041876315925 -823.44088636018569 0 0 0 0 477.72305705186591 -475.17006054161175 0 -475.17006054161175 -125.49830034919796 0 0 0 0 0.1131410697880959 -0.29794378474829131 0 -0.29794378474829131 -0.27900377914587438 0 0 0 0 525.60425888058126 -393.21648689963877 0 -393.21648689963877 -429.64779311156599 0 0 0 0 0.11918641253181406 -0.11982730481025428 0 -0.11982730481025428 -0.12851008154397014 0 0 0 0 254.97056743474241 -404.36887858315458 0 -404.36887858315458 450.4117217019666 0 0 0 0 458.96730772133014 -115.59915463335346 0 -115.59915463335346 -82.519663611223223 0 0 0 0 107.95603242540528 -114.08846470038407 0 -114.08846470038407 -80.308163813955616 0 0 0 0 144.89078708137822 -81.216108113156224 0 -81.216108113156224 -84.990408070691046 0 0 0 0 233.50328673941294 -277.49115029304266 0 -277.49115029304266 -412.48124786184053 0 0 0 0 263.33767271458782 -119.28573297303956 0 -119.28573297303956 -364.43810519968974 0 0 0 0 134.28809096553596 -167.13669627150375 0 -167.13669627150375 -511.18177444738103 0 0 0 0 116.5151158282024 -264.36337127415936 0 -264.36337127415936 -474.19265209150035 0 0 0 0 168.08296285917459 -216.50415898404754 0 -216.50415898404754 -464.34797627650551 0 0 0 0 217.25456626674713 -242.48010749854438 0 -242.48010749854438 -663.12975985420144 0 0 0 0 135.74139314688546 -137.98720238242095 0 -137.98720238242095 -595.8337312626245 0 0 0 0 -133.91970621716973 -407.80659840131557 0 -407.80659840131557 -468.40462755572844 0 0 0 0 116.19186171826004 22.772432593410485 0 22.772432593410485 -410.33500625702436 0 0 0 0 -200.2548539949421 -370.75718274989049 0 -370.75718274989049 -616.55664073405205 0 0 0 0 -0.021838551680311902 -0.30945797772314165 0 -0.30945797772314165 0.32835361356594461 0 0 0 0 -53.526435142735863 -499.03243965764705 0 -499.03243965764705 -788.27994013661373 0 0 0 0 -223.04666744955102 -347.25441341912665 0 -347.25441341912665 -457.80847496636852 0 0 0 0 -95.460997785208747 -114.85032763737399 0 -114.85032763737399 -328.80912481693667 0 0 0 0 -78.54286509990925 -120.17307632489246 0 -120.17307632489246 -327.47439418364957 0 0 0 0 -18.131693030646602 -28.514020223652551 0 -28.514020223652551 -14.495321203037747 0 0 0 0 -24.073685242932697 60.224240582290804 0 60.224240582290804 -141.19758330011973 0 0 0 0 64.258347807966857 -115.68858919774721 0 -115.68858919774721 -442.89267738652416 0 0 0 0 -19.480287535989191 -28.990924769255798 0 -28.990924769255798 -9.1770497862671618 0 0 0 0 -1.7608890282905758 -2.1252322644071526 0 -2.1252322644071526 -3.3492013443298427 0 0 0 0 -135.4664442643043 -251.29470997590397 0 -251.29470997590397 -522.41465016607253 0 0 0 0 8.0443683385383338 29.680667865788564 0 29.680667865788564 -16.495205944262125 0 0 0 0 -306.87172987776285 -303.88567463260551 0 -303.88567463260551 -385.65110476134578 0 0 0 0 -0.024608244363889753 -0.15704773695271435 0 -0.15704773695271435 0.17192946337370785 0 0 0 0 -191.68038819113644 -423.21513117423819 0 -423.21513117423819 -598.68844652170083 0 0 0 0 266.83733092396869 -143.80412221308507 0 -143.80412221308507 -597.40340164160807 0 0 0 0 313.43160394103325 -193.95621161704184 0 -193.95621161704184 -737.43124511177302 0 0 0 0 192.17986457423831 -200.63198620267212 0 -200.63198620267212 -661.96343070504645 0 0 0 0 146.33772919325929 -189.27137206710904 0 -189.27137206710904 -916.09307077361154 0 0 0 0 113.05126895851572 -242.71376006140781 0 -242.71376006140781 -673.97666896216106 0 0 0 0 232.74361233897071 -269.56888558717037 0 -269.56888558717037 -779.42453356651822 0 0 0 0 -5.3725626497383114 0.98473241121194555 0 0.98473241121194555 6.6348077450010274 0 0 0 0 121.47013655256887 -3.6609182146494277 0 -3.6609182146494277 -701.07270143822825 0 0 0 0 -2.1843673229889937 -2.0505997519726602 0 -2.0505997519726602 -4.2433422617786318 0 0 0 0 199.11567172320065 -8.8219032334745862 0 -8.8219032334745862 -1092.966798639638 0 0 0 0 7.1432812184102659 30.399888843146982 0 30.399888843146982 -9.4147718826425262 0 0 0 0 -25.108327363137505 -242.89487403005478 0 -242.89487403005478 -580.66461573865308 0 0 0 0 168.2111864482722 228.79651072862907 0 228.79651072862907 -658.51544532422849 0 0 0 0 -133.8595815289882 351.83469344177865 0 351.83469344177865 -611.28265561052831 0 0 0 0 -482.50065706283203 166.37415155788767 0 166.37415155788767 -345.81983360677259 0 0 0 0 -262.79251856778137 -167.98008179030876 0 -167.98008179030876 -428.05723693961045 0 0 0 0 34.708490915956645 -165.37569147273462 0 -165.37569147273462 -436.66305657016346 0 0 0 0 -74.608577461563982 176.45976810797583 0 176.45976810797583 -350.67331829852628 0 0 0 0 -162.29716801430914 79.635915320424829 0 79.635915320424829 -152.8140680846991 0 0 0 0 33.872318794878083 108.7630946336576 0 108.7630946336576 -30.001109085274948 0 0 0 0 96.892989924148424 140.59325290397101 0 140.59325290397101 -539.14442929210782 0 0 0 0 -80.015542528824881 -106.61005974379077 0 -106.61005974379077 -112.25310126456316 0 0 0 0 344.93365372125118 157.29365096987749 0 157.29365096987749 -122.94292710281297 0 0 0 0 0.48671098911058408 1.7594199932144505 0 1.7594199932144505 0.28090446835368166 0 0 0 0 -108.75341353059048 -207.42547575516801 0 -207.42547575516801 414.91834547602048 0 0 0 0 146.93441178773355 108.96266623981865 0 108.96266623981865 -150.65903519737185 0 0 0 0 0.13414449611183343 0.84511826082642472 0 0.84511826082642472 0.13549307933709298 0 0 0 0 -87.118075961829163 -111.45178434975969 0 -111.45178434975969 595.47191908070454 0 0 0 0 339.79268341589705 -179.74930588555435 0 -179.74930588555435 -240.67726880410919 0 0 0 0 -44.831183881615289 0.99480286297330167 0 0.99480286297330167 426.16865499717824 0 0 0 0 261.92121509615481 453.56866936516781 0 453.56866936516781 63.213345366559224 0 0 0 0 12.982066091324668 128.59253818917205 0 128.59253818917205 -172.92186587592732 0 0 0 0 79.516046398843173 -241.77457325855357 0 -241.77457325855357 -614.65919333265629 0 0 0 0 -361.78235991230031 318.48342964716358 0 318.48342964716358 -225.1799341707374 0 0 0 0 -9.12997232756336 -0.98291525363412369 0 -0.98291525363412369 6.8873219119363283 0 0 0 0 283.95454402535688 -125.13398071174743 0 -125.13398071174743 -839.88106589259405 0 0 0 0 280.79911653534509 173.25307625744608 0 173.25307625744608 -946.62075906709651 0 0 0 0 279.51965673506493 44.700492533069337 0 44.700492533069337 -596.0520800186041 0 0 0 0 257.81514122635053 161.09150576142565 0 161.09150576142565 -588.57053666433785 0 0 0 0 63.220977252873126 -91.506489020306617 0 -91.506489020306617 -209.57464201623225 0 0 0 0 9.5851933372832718 -303.47166895029659 0 -303.47166895029659 311.05437636497663 0 0 0 0 -86.25928797499364 36.74352270286181 0 36.74352270286181 -122.53248248607269 0 0 0 0 66.402620371925877 -1.1976856914407108 0 -1.1976856914407108 -2020.845874352337 0 0 0 0 50.333371669898042 -462.89243293575419 0 -462.89243293575419 -1175.0361736759369 0 0 0 0 -398.81088131846627 158.40534154005582 0 158.40534154005582 -1919.2664199376304 0 0 0 0 0.081856354838237166 178.24754938071419 0 178.24754938071419 -1117.694836924813 0 0 0 0 -327.51324326853501 -210.92135023864103 0 -210.92135023864103 -509.30936857395864 0 0 0 0 -91.487089949070651 -161.0174532772362 0 -161.0174532772362 -1239.6661127283005 0 0 0 0 -546.48787187569542 -275.71952536300523 0 -275.71952536300523 -1181.3600490863901 0 0 0 0 -397.55817580792063 -786.88686645423877 0 -786.88686645423877 -2004.215236106189 0 0 0 0 -679.07276271973387 -677.75495968021278 0 -677.75495968021278 -1562.9097097976482 0 0 0 0 9.6827367296791635 -608.82252157188486 0 -608.82252157188486 -2497.966391664464 0 0 0 0 -145.5536193804819 -432.01063303842784 0 -432.01063303842784 -1571.001132096455 0 0 0 0 -126.76590933414991 -253.70498823106755 0 -253.70498823106755 -1833.5649807758455 0 0 0 0 -268.30580315086991 -459.48762027719931 0 -459.48762027719931 -866.99878978548804 0 0 0 0 -127.39945136223105 -116.59449562616646 0 -116.59449562616646 -1354.1839973752794 0 0 0 0 -109.79980357054228 -350.37676906874276 0 -350.37676906874276 -1226.0248780664406 0 0 0 0 -78.381932133401278 -17.154863241245039 0 -17.154863241245039 -1878.2565043273207 0 0 0 0 16.218627566107898 -135.23052877548616 0 -135.23052877548616 -1843.9591806605458 0 0 0 0 50.251335433087661 -92.013190435347497 0 -92.013190435347497 -1850.3537136039231 0 0 0 0 245.68993156671058 60.514119368977845 0 60.514119368977845 -2779.2784983648235 0 0 0 0 -69.754082306331838 416.18829442831338 0 416.18829442831338 -2297.8573259666737 0 0 0 0 -0.4745651595324567 0.024788194436816013 0 0.024788194436816013 0.30579099835995649 0 0 0 0 243.54724420321872 -44.705884927461739 0 -44.705884927461739 -459.25926344218897 0 0 0 0 241.51702768477844 -141.44858446152648 0 -141.44858446152648 -392.47124495862226 0 0 0 0 -1.0014479768927025 1.6525665037892328 0 1.6525665037892328 0.25827158801759942 0 0 0 0 -29.953907184535637 47.387972816475667 0 47.387972816475667 -76.235726401791908 0 0 0 0 -451.71991843062642 -484.43273173773196 0 -484.43273173773196 -353.89953460087418 0 0 0 0 136.85478710051393 -140.54705232102424 0 -140.54705232102424 -2752.013833090663 0 0 0 0 -2.3502639480939482 0.83208325991731336 0 0.83208325991731336 0.32051637605656302 0 0 0 0 29.491228296457848 61.606306345129269 0 61.606306345129269 -1419.3581891985668 0 0 0 0 13.287036940782855 -15.808258173638023 0 -15.808258173638023 10.125444166755187 0 0 0 0 -1.4953894952752869 -0.0077461720279927704 0 -0.0077461720279927704 0.9462430068731873 0 0 0 0 102.86515097651863 66.716442368080607 0 66.716442368080607 -602.05769249937657 0 0 0 0 -69.243387539230753 180.00655165209901 0 180.00655165209901 -395.92966148079722 0 0 0 0 -196.44459101976827 94.371861090927268 0 94.371861090927268 -176.89821157744154 0 0 0 0 -247.5622107652307 174.66213114760467 0 174.66213114760467 -1419.1840154948877 0 0 0 0 -192.15098951765685 3.3859785446547903 0 3.3859785446547903 -1430.1530934884213 0 0 0 0 -17.672081201184483 -233.10448483099026 0 -233.10448483099026 -1413.5484299724631 0 0 0 0 -178.42482116814062 -145.67928128337371 0 -145.67928128337371 -909.32870849061874 0 0 0 0 -77.264038631970834 -358.52127012564961 0 -358.52127012564961 -852.9810163693619 0 0 0 0 -52.233434612688143 -51.413585698261159 0 -51.413585698261159 -1104.5575283073413 0 0 0 0 -27.128771400603 -142.08070532639977 0 -142.08070532639977 -761.22354934053146 0 0 0 0 65.475722959166887 -224.30673993087839 0 -224.30673993087839 -1037.475687672646 0 0 0 0 -68.780461301241303 -65.366059518346447 0 -65.366059518346447 -824.08204702333023 0 0 0 0 -75.685297280993836 143.20855123685033 0 143.20855123685033 -1196.6200922143107 0 0 0 0 -116.5148159581222 96.720943674336013 0 96.720943674336013 -197.01121416347451 0 0 0 0 -15.046436154036201 -119.22586443413093 0 -119.22586443413093 -393.54503892108914 0 0 0 0 -28.243582806157065 9.1962233710946748 0 9.1962233710946748 -36.740967327667022 0 0 0 0 165.46486285855644 -138.55145547081338 0 -138.55145547081338 -117.42215661794762 0 0 0 0 -104.0023038183499 -87.943815362872556 0 -87.943815362872556 329.38768840811099 0 0 0 0 1493.3777982194588 208.93761438503861 0 208.93761438503861 95.991223030485344 0 0 0 0 0.62515288882790365 1.6531705917735486 0 1.6531705917735486 0.26777875832951414 0 0 0 0 -507.65386954750284 -443.35080210155866 0 -443.35080210155866 1149.3680344985332 0 0 0 0 -468.45792822588555 -624.01873303052707 0 -624.01873303052707 1840.2069148989685 0 0 0 0 -14.622601009483333 -132.9248327710302 0 -132.9248327710302 29.948344235133845 0 0 0 0 -89.606231668032706 -28.921142582839821 0 -28.921142582839821 -31.031113846489461 0 0 0 0 54.447482366842451 62.80006741861871 0 62.80006741861871 -29.572083259583451 0 0 0 0 89.207889213226736 -50.955822270800127 0 -50.955822270800127 -60.179351055878215 0 0 0 0 -6.8899566738582507 -56.938377596110513 0 -56.938377596110513 -273.77281535911607 0 0 0 0 -47.07934008599841 -87.34477262263681 0 -87.34477262263681 -151.63810833747266 0 0 0 0 415.84239941832493 -136.37095575002604 0 -136.37095575002604 -166.69205217721174 0 0 0 0 271.55483186963829 -194.73102839640342 0 -194.73102839640342 -154.13868691418611 0 0 0 0 -49.834474817107548 -12.569825138984015 0 -12.569825138984015 20.727728713478427 0 0 0 0 -77.026803890141309 -140.80516351733604 0 -140.80516351733604 -160.66175453740289 0 0 0 0 141.78779283374752 7.6328855001193006 0 7.6328855001193006 154.64629512109968 0 0 0 0 0.27619350354195937 0.71440701620269031 0 0.71440701620269031 0.12027692010992941 0 0 0 0 48.976161868136842 -770.44717106621829 0 -770.44717106621829 1340.4771154406244 0 0 0 0 471.16268597017188 -295.92641011556407 0 -295.92641011556407 661.73901541763917 0 0 0 0 79.03815888491954 -82.936813927000912 0 -82.936813927000912 845.48145445836417 0 0 0 0 433.64705730574565 -520.5564256313512 0 -520.5564256313512 166.42214406761923 0 0 0 0 -21.105192843642726 -471.90626662547584 0 -471.90626662547584 777.55538396904012 0 0 0 0 27.22271917452963 -158.05799323246174 0 -158.05799323246174 83.472560965572484 0 0 0 0 128.7393974008337 -223.91499268828738 0 -223.91499268828738 342.7592704721028 0 0 0 0 208.29501773612719 -116.99259258834354 0 -116.99259258834354 109.76624304839061 0 0 0 0 235.76783117642844 -235.22693445374898 0 -235.22693445374898 476.82767459671595 0 0 0 0 118.79492296966782 -120.57491114188451 0 -120.57491114188451 604.57953108288348 0 0 0 0 10.048436097131344 -382.70821489649825 0 -382.70821489649825 1156.4675565757789 0 0 0 0 105.64914959901944 -64.141092236051918 0 -64.141092236051918 347.84432294657745 0 0 0 0 195.7713230746449 -167.36126211822557 0 -167.36126211822557 165.37751346165896 0 0 0 0 60.905428323923843 -160.51957402020344 0 -160.51957402020344 145.42015395467024 0 0 0 0 76.271493894335435 -177.98057101777158 0 -177.98057101777158 478.75221005978528 0 0 0 0 -173.21122713258956 100.12510303362797 0 100.12510303362797 184.89052994626763 0 0 0 0 -333.33189720695373 96.93365068102139 0 96.93365068102139 547.87706150882877 0 0 0 0 -585.7344659591472 115.96241975045996 0 115.96241975045996 1520.7080262807431 0 0 0 0 1542.1305642464722 -1718.799358502838 0 -1718.799358502838 1267.3660863115656 0 0 0 0 -1.3691038925289547 -0.342127343162415 0 -0.342127343162415 2.123617084687389 0 0 0 0 -630.08677397177962 -766.72643417373911 0 -766.72643417373911 1852.3353307134821 0 0 0 0 -883.85702299002878 695.58546556079091 0 695.58546556079091 399.0512486173684 0 0 0 0 -221.62543556497258 -91.034050198097248 0 -91.034050198097248 -88.767726335245243 0 0 0 0 -141.56258752374924 173.40072344704822 0 173.40072344704822 -201.89723327127285 0 0 0 0 -175.6992002881143 49.832123559619504 0 49.832123559619504 -55.580985047286958 0 0 0 0 -251.1898706506181 -89.717202696429013 0 -89.717202696429013 131.14924280825653 0 0 0 0 -97.905538724997314 -141.64521566659096 0 -141.64521566659096 104.44602245884016 0 0 0 0 -9.5117201640387066 -129.81319353477738 0 -129.81319353477738 65.081792149561807 0 0 0 0 -1.4922733975945448 -105.40441841920983 0 -105.40441841920983 137.48221863433719 0 0 0 0 186.74180627509486 -176.9886804723792 0 -176.9886804723792 53.177181971695973 0 0 0 0 35.200725740251073 -110.99531958554871 0 -110.99531958554871 109.0940117239079 0 0 0 0 -11.69103029492544 -183.04852531023062 0 -183.04852531023062 47.381789356295485 0 0 0 0 -165.27211755546887 8.500208525772905 0 8.500208525772905 82.226311758975498 0 0 0 0 211.27312257498124 -63.319368686352391 0 -63.319368686352391 120.15037999820197 0 0 0 0 253.99723946904123 -149.6008494677335 0 -149.6008494677335 130.30752273483085 0 0 0 0 38.391309411410475 -212.31551621579274 0 -212.31551621579274 232.71985065197805 0 0 0 0 -0.14476210852802573 -0.12806593171547753 0 -0.12806593171547753 -0.045329414723999761 0 0 0 0 156.85647496773163 -237.26806296440191 0 -237.26806296440191 197.98058523284999 0 0 0 0 418.88869813099154 -131.71461702660599 0 -131.71461702660599 34.586580671719275 0 0 0 0 1.7170504226674481 -0.12760982096095441 0 -0.12760982096095441 -1.3870441535649825 0 0 0 0 196.6835785733856 -122.87527492269874 0 -122.87527492269874 34.553304802830098 0 0 0 0 12.846873646737777 8.2047376036437072 0 8.2047376036437072 -5.2546955023281043 0 0 0 0 12.005170294622076 -4.2267035419208696 0 -4.2267035419208696 3.0522781561303418 0 0 0 0 -5.6823839344671452 -4.3924493367609987 0 -4.3924493367609987 -2.9375812447891079 0 0 0 0 -22.139887244193233 4.1871587233617902 0 4.1871587233617902 6.9186742772290017 0 0 0 0 -52.374031323735835 7.1467679029519786 0 7.1467679029519786 6.6910276996495668 0 0 0 0 -4.5721449887509618 -0.18806982294018848 0 -0.18806982294018848 3.9647801476929132 0 0 0 0 77.769928725712816 -49.341505428230448 0 -49.341505428230448 140.96428558036496 0 0 0 0 293.40088457448292 -246.46108662592451 0 -246.46108662592451 540.80866692933705 0 0 0 0 182.49423329381534 -23.578649797022081 0 -23.578649797022081 289.44817461358616 0 0 0 0 94.062327033563633 -85.744500275592145 0 -85.744500275592145 280.55627180462761 0 0 0 0 32.078582987378468 42.340657980079413 0 42.340657980079413 294.55855812929804 0 0 0 0 264.50943726115474 -34.859460351357939 0 -34.859460351357939 252.1585938083881 0 0 0 0 254.5858912171534 68.874025089739007 0 68.874025089739007 177.85961431015221 0 0 0 0 116.72886165576347 -398.00260592397535 0 -398.00260592397535 747.44987327783019 0 0 0 0 48.330069832452864 90.145710710516141 0 90.145710710516141 417.47643580003933 0 0 0 0 448.3281789152752 -319.84521146866609 0 -319.84521146866609 624.90891856273811 0 0 0 0 797.03771326735296 -757.80510378609324 0 -757.80510378609324 730.82467212225856 0 0 0 0 568.30928269753349 -290.93387530606924 0 -290.93387530606924 328.45230245710991 0 0 0 0 524.58373798385583 -349.22237571998085 0 -349.22237571998085 442.15645589164342 0 0 0 0 -617.49267748423154 136.78206597618919 0 136.78206597618919 38.483624948203214 0 0 0 0 -3.5326738545419012 -0.71393451717093459 0 -0.71393451717093459 5.72580864228091 0 0 0 0 -158.55076336873026 -47.176030151429586 0 -47.176030151429586 27.693537039333023 0 0 0 0 -255.6097838768037 101.23117218742482 0 101.23117218742482 -13.45169435684511 0 0 0 0 -4.9156128691346961 -0.6597988637429868 0 -0.6597988637429868 8.4773648357736775 0 0 0 0 854.75771725217055 -611.42805198121277 0 -611.42805198121277 411.32127644641878 0 0 0 0 762.96756234766508 -332.9915059412815 0 -332.9915059412815 228.11545949507126 0 0 0 0 347.15042553661624 -182.25843279868786 0 -182.25843279868786 373.43535341500683 0 0 0 0 311.58856866521819 -239.79911907273345 0 -239.79911907273345 327.81519239119552 0 0 0 0 147.00048485651496 -54.438761776847969 0 -54.438761776847969 186.28970311848389 0 0 0 0 504.5267384541512 -233.14841745557715 0 -233.14841745557715 41.862469856125244 0 0 0 0 137.08848327005398 -265.08227752859239 0 -265.08227752859239 291.76083252783428 0 0 0 0 46.335328283952549 -119.12393979682383 0 -119.12393979682383 57.688984462634835 0 0 0 0 -132.55442156040226 -163.00091760117357 0 -163.00091760117357 -45.421292163257021 0 0 0 0 -158.75582981839398 -173.45488555466363 0 -173.45488555466363 170.59194691957964 0 0 0 0 -160.32575859948702 -99.398669399412029 0 -99.398669399412029 129.68057845169096 0 0 0 0 -92.912784873158671 -25.127361152386584 0 -25.127361152386584 121.44281100239095 0 0 0 0 -13.26277134459815 -132.66681216294819 0 -132.66681216294819 261.71852406536345 0 0 0 0 -5.0713935885069077 25.811133348677686 0 25.811133348677686 204.7887953021127 0 0 0 0 -130.79416304746701 1.5134958174021449 0 1.5134958174021449 249.37891522570862 0 0 0 0 -144.83134431501821 44.758349466963409 0 44.758349466963409 117.75036372555769 0 0 0 0 -183.75173776809243 23.120189306820976 0 23.120189306820976 168.89272441541834 0 0 0 0 -136.19696385459974 76.740897368719743 0 76.740897368719743 141.39292238380585 0 0 0 0 -129.14836789059336 100.52156401606044 0 100.52156401606044 170.13168495740683 0 0 0 0 -32.869610983791063 -21.689419088361319 0 -21.689419088361319 269.69847853023384 0 0 0 0 -114.14609543804545 31.561341699256445 0 31.561341699256445 59.869728797712014 0 0 0 0 -92.30490856745746 -32.069190855712804 0 -32.069190855712804 13.660674044400366 0 0 0 0 -155.8346302844584 -53.638370568995015 0 -53.638370568995015 28.579407693847315 0 0 0 0 -153.01735810897662 107.01188567619829 0 107.01188567619829 90.902737821248593 0 0 0 0 -159.31278847443173 46.238533812982496 0 46.238533812982496 131.73282150839805 0 0 0 0 -138.21468661732797 46.999059111545648 0 46.999059111545648 81.358167552301893 0 0 0 0 -143.12705755830393 12.190970598472632 0 12.190970598472632 47.69785261945799 0 0 0 0 -176.73188131327333 -10.339823228972818 0 -10.339823228972818 53.475629786364152 0 0 0 0 -191.51339234411716 -12.613018563191872 0 -12.613018563191872 103.42959526482082 0 0 0 0 -159.98845786454331 -72.372568978164054 0 -72.372568978164054 -14.896261279209284 0 0 0 0 -193.38557246408891 -30.078441718047543 0 -30.078441718047543 62.863396088640002 0 0 0 0 -141.30027001845883 -111.11818226028117 0 -111.11818226028117 -91.662287788174581 0 0 0 0 -179.5424692461238 -64.513363117504923 0 -64.513363117504923 -16.228692097443854 0 0 0 0 -221.16612847593206 -103.41423960140673 0 -103.41423960140673 -82.075403323964565 0 0 0 0 -224.1107022343931 -197.03917641154476 0 -197.03917641154476 -93.502139908232493 0 0 0 0 -251.56418177319574 -147.23953715456446 0 -147.23953715456446 -20.344720639302523 0 0 0 0 -7.0943100394270218 -19.114373282005523 0 -19.114373282005523 1.6361188553152268 0 0 0 0 -209.75719525525346 -44.512842025142163 0 -44.512842025142163 70.45733286185714 0 0 0 0 -240.90574245937751 -128.94962975384988 0 -128.94962975384988 33.556491093064324 0 0 0 0 -318.21375388311571 -296.92696749882089 0 -296.92696749882089 -114.0953752366695 0 0 0 0 -277.87580548092956 -139.27397636136811 0 -139.27397636136811 -32.725226649290562 0 0 0 0 -5.8337430142077 -15.944999872541787 0 -15.944999872541787 -0.055554475854113439 0 0 0 0 3.9568272714968771 -84.875689748148716 0 -84.875689748148716 -41.864274850664472 0 0 0 0 72.281171073918813 -174.90364246691706 0 -174.90364246691706 -306.69985633009424 0 0 0 0 117.31629813736799 -20.450305644375248 0 -20.450305644375248 -205.87529548823341 0 0 0 0 31.95879710088775 -12.772674566291244 0 -12.772674566291244 -13.89732845582148 0 0 0 0 92.939934189693304 26.246440348727901 0 26.246440348727901 -46.927725448820581 0 0 0 0 -141.30027001840062 -111.11818226019386 0 -111.11818226019386 -91.66228778826553 0 0 0 0 44.477760347406729 -230.4814817327906 0 -230.4814817327906 -922.66316263139151 0 0 0 0 82.692781224177452 -81.634506185288728 0 -81.634506185288728 -480.52616586823126 0 0 0 0 81.354648631837335 -22.153565968058047 0 -22.153565968058047 -104.63397273279679 0 0 0 0 110.73218329787051 -26.046282187019244 0 -26.046282187019244 -556.93777768980544 0 0 0 0 -48.16657163851778 63.723008796251861 0 63.723008796251861 -119.80708558695528 0 0 0 0 -260.70099766889689 226.50364296765241 0 226.50364296765241 110.24095132727234 0 0 0 0 -2.3113927593512926 189.75107695234328 0 189.75107695234328 -147.53398385584956 0 0 0 0 65.848931985106901 77.752915105371812 0 77.752915105371812 15.928731815312858 0 0 0 0 58.001287609057272 231.59414639038383 0 231.59414639038383 219.07011581597453 0 0 0 0 -15.84691857624971 -10.200318916999256 0 -10.200318916999256 6.5291494060495312 0 0 0 0 -7.2149702446913579 -8.9257161230343627 0 -8.9257161230343627 -5.1010987437330186 0 0 0 0 2.62639812314141 -17.772570684722275 0 -17.772570684722275 -0.94317214367206503 0 0 0 0 -16.39054917585068 -11.533585548146018 0 -11.533585548146018 4.9075824918737219 0 0 0 0 -31.772686019350658 146.20905860334278 0 146.20905860334278 333.34336253031961 0 0 0 0 -131.15715996261861 59.164126230879447 0 59.164126230879447 296.42018406180887 0 0 0 0 6.181112000874089 -15.644159143039602 0 -15.644159143039602 -6.2192919448419417 0 0 0 0 -111.54203873391089 -69.767267852846999 0 -69.767267852846999 -34.546881424961612 0 0 0 0 -15.471403652260658 -9.0964977668315967 0 -9.0964977668315967 8.16582458664063 0 0 0 0 -108.33847719978075 -104.87459707455855 0 -104.87459707455855 -30.569557393435389 0 0 0 0 -141.30027001851704 -111.11818226036849 0 -111.11818226036849 -91.662287788465619 0 0 0 0 -12.698257769443444 -14.495446245608036 0 -14.495446245608036 -10.607289318577386 0 0 0 0 131.66039235920471 29.714332594059215 0 29.714332594059215 -144.40369662809758 0 0 0 0 141.99771816426073 159.14850811379483 0 159.14850811379483 83.840304075161839 0 0 0 0 -11.15982496565266 -7.485835971776396 0 -7.485835971776396 -5.5846932328131516 0 0 0 0 -35.990154263956356 -57.615676763831289 0 -57.615676763831289 -20.620625261757596 0 0 0 0 -60.89309928014336 11.828828546265868 0 11.828828546265868 73.506759458978195 0 0 0 0 -25.717219032942637 -13.708544851858429 0 -13.708544851858429 10.025248609215515 0 0 0 0 -53.88726537131879 -62.56140953164504 0 -62.56140953164504 41.661288103714469 0 0 0 0 -148.85258153228642 -149.38497639460547 0 -149.38497639460547 86.84309463466343 0 0 0 0 -0.12720335384887971 -0.49966620788088179 0 -0.49966620788088179 -0.36428079257121126 0 0 0 0 69.816116958201746 59.418190417181904 0 59.418190417181904 -235.14946023951052 0 0 0 0 -22.843863625939775 -118.44332456241682 0 -118.44332456241682 23.140438813599758 0 0 0 0 -6.475283626896271 -5.5660979734238936 0 -5.5660979734238936 -2.8721668605576269 0 0 0 0 -5.425836431379139 -5.4426064202634734 0 -5.4426064202634734 -1.8101638518201071 0 0 0 0 -2.7968968249329427 -6.2168263838769446 0 -6.2168263838769446 8.3950638131296564 0 0 0 0 -12.507619445897298 -12.416294044942838 0 -12.416294044942838 1.1274886332060134 0 0 0 0 26.692988766856615 233.85587627822315 0 233.85587627822315 10.651586525258608 0 0 0 0 -12.932663397260423 -11.62279664661269 0 -11.62279664661269 2.322713115493297 0 0 0 0 112.70859904553799 19.57051834766753 0 19.57051834766753 2.8397634503198788 0 0 0 0 -117.61600982610616 -84.133140085730702 0 -84.133140085730702 20.211419334402308 0 0 0 0 54.248101271547057 -126.69786284894508 0 -126.69786284894508 -121.38450230356466 0 0 0 0 -14.248118450461334 -62.26140684040729 0 -62.26140684040729 23.697448701743269 0 0 0 0 -43.496321573742534 -55.92941783858987 0 -55.92941783858987 48.613678152672946 0 0 0 0 0.19573385535477428 -39.997031031511142 0 -39.997031031511142 -12.464025500688876 0 0 0 0 -8.2497021376157136 -50.896142811794562 0 -50.896142811794562 27.296341692010174 0 0 0 0 -62.910805093742965 -6.4694008697115351 0 -6.4694008697115351 -29.94985575597093 0 0 0 0 -431.51808763838562 -129.43880984732823 0 -129.43880984732823 13.895949070545612 0 0 0 0 11.394719651249943 -156.96541011146837 0 -156.96541011146837 -55.151293919305317 0 0 0 0 -85.113764271651235 92.816992158444918 0 92.816992158444918 -2.3144240034744143 0 0 0 0 -97.230242696907681 0.63606928843364585 0 0.63606928843364585 31.055185604753206 0 0 0 0 -105.82857427198178 41.385219380434137 0 41.385219380434137 98.871967719707754 0 0 0 0 -63.199848297877907 3.52142998240015 0 3.52142998240015 13.665598560968647 0 0 0 0 -12.90224469039822 -18.190165039428393 0 -18.190165039428393 0.96761336535564624 0 0 0 0 -57.11404819998279 -37.841018374441774 0 -37.841018374441774 79.850408527492618 0 0 0 0 -45.904118759180164 55.922548336915497 0 55.922548336915497 38.805737327144016 0 0 0 0 -88.344860698569391 31.123109401378315 0 31.123109401378315 -47.279583625262603 0 0 0 0 -262.89561964361928 -38.126068920420948 0 -38.126068920420948 3.1641357907792553 0 0 0 0 716.75862593770944 -203.65748934850126 0 -203.65748934850126 -118.09266724585905 0 0 0 0 -207.21858156517555 -190.87322906166082 0 -190.87322906166082 -132.33965044014622 0 0 0 0 0.031241915999036696 0.10167640907816589 0 0.10167640907816589 -0.024863710207991829 0 0 0 0 -292.66131934956411 170.82135986926733 0 170.82135986926733 -81.899267458415125 0 0 0 0 -665.42658041615141 97.26989881080226 0 97.26989881080226 97.912161246320466 0 0 0 0 450.60079002131897 54.681166533853684 0 54.681166533853684 72.207392731594155 0 0 0 0 232.73993974636687 -196.76456848751695 0 -196.76456848751695 147.96208345019841 0 0 0 0 17.689370080915978 -61.046783383470029 0 -61.046783383470029 24.809657506499207 0 0 0 0 467.94027921928046 -336.38582144828251 0 -336.38582144828251 -1.4975839793914929 0 0 0 0 193.59924911734561 -291.61382383554883 0 -291.61382383554883 122.70733144562109 0 0 0 0 20.479785278577765 111.48183816831443 0 111.48183816831443 -68.614858676650329 0 0 0 0 -78.179280286225548 -17.829196867067367 0 -17.829196867067367 74.469878515801611 0 0 0 0 219.83841500482231 -133.09891989262542 0 -133.09891989262542 67.991726775948337 0 0 0 0 59.336691494070692 19.665342440814129 0 19.665342440814129 16.792850794736296 0 0 0 0 362.55868617856322 -33.332081452630518 0 -33.332081452630518 26.800258689792827 0 0 0 0 65.169870181325678 12.545199534331914 0 12.545199534331914 -16.430144777725218 0 0 0 0 119.81272637047368 -2.5061818098765798 0 -2.5061818098765798 -31.108603976259474 0 0 0 0 203.28653796539584 -107.8432976215845 0 -107.8432976215845 55.954554022013326 0 0 0 0 207.87251804900734 -101.12462522895657 0 -101.12462522895657 21.008693947679603 0 0 0 0 39.800604782940354 -84.094452211080352 0 -84.094452211080352 44.820241173962131 0 0 0 0 33.165427924970572 -118.90014392182638 0 -118.90014392182638 -117.65595633874182 0 0 0 0 -47.119597269651422 -65.682452290668152 0 -65.682452290668152 -147.08837472271989 0 0 0 0 -45.24562991797211 -48.311213944718475 0 -48.311213944718475 -94.091725741804112 0 0 0 0 54.163028831942938 -51.689468036347535 0 -51.689468036347535 -33.925898595966828 0 0 0 0 -3.410273276422231 -2.4866095552279148 0 -2.4866095552279148 -65.758512316679116 0 0 0 0 -99.263602010356408 -169.5063565064811 0 -169.5063565064811 -197.7750276333536 0 0 0 0 -28.35564015484124 -43.050150151437265 0 -43.050150151437265 -218.49913735126029 0 0 0 0 -69.912779062637128 -3.9796091306779999 0 -3.9796091306779999 -140.81737022349262 0 0 0 0 -1.3487077074073577 -2.0295155251228465 0 -2.0295155251228465 -2.5369727182719544 0 0 0 0 -125.38276278074773 -23.236659842383233 0 -23.236659842383233 -32.670288267894648 0 0 0 0 -129.03631536764078 -77.066755885331077 0 -77.066755885331077 -117.91157181258313 0 0 0 0 44.585005422413815 14.156796134324395 0 14.156796134324395 -119.1904605567106 0 0 0 0 -15.477260200685123 -55.268202392297098 0 -55.268202392297098 -119.05752582744208 0 0 0 0 45.497160367413017 70.247345472424058 0 70.247345472424058 -114.68165700724057 0 0 0 0 -0.80952774957975393 -1.7513899857570614 0 -1.7513899857570614 -1.7896688531981406 0 0 0 0 23.66347704186046 48.3199714551738 0 48.3199714551738 -30.473158186453475 0 0 0 0 15.60745372819656 24.600890909292502 0 24.600890909292502 -98.300384410395054 0 0 0 0 -0.77067828160943463 30.940780998149421 0 30.940780998149421 -92.27854903273419 0 0 0 0 -45.645068383833859 -24.603668419353198 0 -24.603668419353198 -124.0763592053554 0 0 0 0 5.6018317750276765 39.404895815823693 0 39.404895815823693 -87.286741385527421 0 0 0 0 -85.133888710348401 110.68447912565898 0 110.68447912565898 -55.391308675927576 0 0 0 0 2.5769687988931764 -3.9213655763778661 0 -3.9213655763778661 -48.303376902695163 0 0 0 0 79.556907590245828 289.90443948254688 0 289.90443948254688 -557.15258725667081 0 0 0 0 10.846331752371043 97.047466569871176 0 97.047466569871176 -452.15997305992641 0 0 0 0 -13.378615554323005 -3.1240317812252716 0 -3.1240317812252716 7.4233246159833346 0 0 0 0 3.2283547981642187 0.068931425310438499 0 0.068931425310438499 -25.659401817007165 0 0 0 0 -142.13062045915285 28.606379934601136 0 28.606379934601136 -207.2877843476017 0 0 0 0 -96.180247745767701 112.45850368367974 0 112.45850368367974 38.526112604013178 0 0 0 0 -174.30282514597639 191.56897745846072 0 191.56897745846072 38.014706588903209 0 0 0 0 2.2266787105154435 345.04718149315249 0 345.04718149315249 -245.35614360979525 0 0 0 0 -123.04773451352958 182.93348318334029 0 182.93348318334029 196.19707751838723 0 0 0 0 -170.14639734476805 181.14985687362787 0 181.14985687362787 83.10232723900117 0 0 0 0 -113.05935369915096 100.38427846542618 0 100.38427846542618 -6.5426494949497283 0 0 0 0 -152.7350565464294 111.11468265148869 0 111.11468265148869 -9.0971593534486601 0 0 0 0 -51.854767459211871 73.388895497584599 0 73.388895497584599 -38.085192559461575 0 0 0 0 -106.99141648155637 82.840254958660807 0 82.840254958660807 55.576349357696017 0 0 0 0 -112.36469011197278 114.17047655610531 0 114.17047655610531 28.196268342755502 0 0 0 0 -20.839899913204135 29.918913598216022 0 29.918913598216022 22.82626507783425 0 0 0 0 -113.68815002143674 69.384751980920555 0 69.384751980920555 36.199037746817339 0 0 0 0 -76.676244873888209 17.291832428069029 0 17.291832428069029 64.999614628584823 0 0 0 0 -90.135182094367337 -21.802810084394878 0 -21.802810084394878 121.58327219008788 0 0 0 0 -23.998806310090004 -17.257952213112731 0 -17.257952213112731 48.404731557609921 0 0 0 0 -22.052078627781338 -9.1549375300087572 0 -9.1549375300087572 9.0568575697508553 0 0 0 0 -0.39189105408966185 -1.2710352050741811 0 -1.2710352050741811 -1.0768907214567052 0 0 0 0 35.878376903674507 30.947428114159266 0 30.947428114159266 -121.826722637692 0 0 0 0 -7.476656894745247 -53.97997740007122 0 -53.97997740007122 -16.213818174903281 0 0 0 0 -17.833176996165683 -5.7547728591652909 0 -5.7547728591652909 8.1671373590999821 0 0 0 0 87.523262724716915 -90.141234446091403 0 -90.141234446091403 -652.24352299949533 0 0 0 0 106.32081523856323 497.00941458073066 0 497.00941458073066 1056.5010245290032 0 0 0 0 1.5009756830550032 -365.67575140126428 0 -365.67575140126428 -435.73110793884553 0 0 0 0 0.73118009014159213 -0.50890650348083 0 -0.50890650348083 -1.0077490910480407 0 0 0 0 -747.13137755217031 -671.35433607571031 0 -671.35433607571031 -11.799309689413349 0 0 0 0 40.519396257906919 50.948359630958294 0 50.948359630958294 -459.22791239370054 0 0 0 0 -57.64759307919303 93.066961403437745 0 93.066961403437745 -64.921437480006716 0 0 0 0 27.960950928623788 -5.452943116237293 0 -5.452943116237293 -63.376110318800784 0 0 0 0 76.663608508679317 -199.02652109555856 0 -199.02652109555856 -172.58308657664747 0 0 0 0 57.825534860356129 -291.23434440530764 0 -291.23434440530764 -600.21963674096332 0 0 0 0 -444.86520293875947 -492.11891277410905 0 -492.11891277410905 -72.530285961664049 0 0 0 0 29.840251198205806 -122.96246937666911 0 -122.96246937666911 -111.67779883932963 0 0 0 0 -131.24924609443406 31.055599142491701 0 31.055599142491701 460.28471816244564 0 0 0 0 -181.71758117325953 -1027.2151749718905 0 -1027.2151749718905 -4157.1920736760658 0 0 0 0 -2.2802971103507303 -6.7457161879148781 0 -6.7457161879148781 -1.6844961623387924 0 0 0 0 -233.07715160527732 846.33057811408071 0 846.33057811408071 -3126.3860002107394 0 0 0 0 -170.09876438631909 -58.723395595996408 0 -58.723395595996408 592.58326410975133 0 0 0 0 0.032181945613540819 0.00065333162244129994 0 0.00065333162244129994 -0.19244699577313185 0 0 0 0 1301.9454789809824 -484.8108776655863 0 -484.8108776655863 -9660.1610688089531 0 0 0 0 -1.4336547678777514 -3.4957762558855343 0 -3.4957762558855343 -3.8409811323943046 0 0 0 0 -2.8234605719044339 -4.5574592544435291 0 -4.5574592544435291 2.0946789444424212 0 0 0 0 -1293.6571916711691 -1607.0991349348769 0 -1607.0991349348769 -6964.4405204107461 0 0 0 0 -489.50672449623653 83.757872379380842 0 83.757872379380842 575.59824658140133 0 0 0 0 106.64165148425673 452.53039233573327 0 452.53039233573327 638.83636646348168 0 0 0 0 -1.3184797548382434 -3.1734407253524211 0 -3.1734407253524211 -4.3208357687177212 0 0 0 0 -0.0097799799405038357 -7.2208687570237089 0 -7.2208687570237089 -6.4789706747105811 0 0 0 0 -1.1081121829920448 -3.8862387023254996 0 -3.8862387023254996 -5.7025141351332422 0 0 0 0 0.0079643223723015969 -7.656770245225732 0 -7.656770245225732 -0.96695728512713686 0 0 0 0 -0.86924591982408117 -2.5020696326555676 0 -2.5020696326555676 3.2797405069244463 0 0 0 0 -3.5725504265283234 -6.7371839594561607 0 -6.7371839594561607 3.8331465399205626 0 0 0 0 0.74867675217683427 -3672.9848832355565 0 -3672.9848832355565 -6154.6562100042283 0 0 0 0 -1725.5793602180493 -2837.2598278144869 0 -2837.2598278144869 -2.9670812243493856 0 0 0 0 -574.66018172213808 -742.2910583303601 0 -742.2910583303601 -6024.4081102466589 0 0 0 0 185.3893810689915 -1682.3022559866367 0 -1682.3022559866367 -5587.1883702521736 0 0 0 0 -1093.5247425616544 -718.63630260995706 0 -718.63630260995706 -1406.1639999433974 0 0 0 0 -0.1728498757316892 -0.87697184056261968 0 -0.87697184056261968 -0.41576911062455268 0 0 0 0 6.5450143354246393 -4620.9974604569252 0 -4620.9974604569252 -5851.4033262825142 0 0 0 0 -882.95012192539434 -3662.6216350264149 0 -3662.6216350264149 -933.2464116596384 0 0 0 0 -541.29167215031339 -3270.3308824712585 0 -3270.3308824712585 -1316.5466407365748 0 0 0 0 -585.45477446488985 -2007.3954388950269 0 -2007.3954388950269 -2114.1748210876249 0 0 0 0 -769.93380119666108 -2727.4423360210931 0 -2727.4423360210931 -2603.8367680191004 0 0 0 0 -34.687021811812883 -2017.6738737561973 0 -2017.6738737561973 -6050.1141353387147 0 0 0 0 -0.15085898816241183 -0.44143400487003248 0 -0.44143400487003248 -0.1881016747400921 0 0 0 0 -550.68131745167193 -1067.6961636577798 0 -1067.6961636577798 -4013.952802119049 0 0 0 0 316.9519950956601 -46.345298623320559 0 -46.345298623320559 -2569.5414368336205 0 0 0 0 -512.88115834299242 -2600.8572975536081 0 -2600.8572975536081 -4917.5216420451616 0 0 0 0 -319.14956645478378 -1636.0006929004594 0 -1636.0006929004594 -2848.7880340304364 0 0 0 0 -224.80829644411278 -1213.5450447968833 0 -1213.5450447968833 -1565.3067396348342 0 0 0 0 -864.85295897512697 -860.63054847688909 0 -860.63054847688909 -822.426097669726 0 0 0 0 -47.054660246169078 96.658245881495532 0 96.658245881495532 -1117.364383126358 0 0 0 0 -1969.3208949677501 -1462.9519934285508 0 -1462.9519934285508 -169.00144412870577 0 0 0 0 -991.63369440476163 -1152.6346159711502 0 -1152.6346159711502 -1026.9075845596089 0 0 0 0 -848.52552665636176 -2454.6516328896832 0 -2454.6516328896832 -1091.9238195175276 0 0 0 0 -848.33936540369177 -1750.79480113319 0 -1750.79480113319 -1855.8078748130065 0 0 0 0 -1185.8658083309128 -2719.4060901815974 0 -2719.4060901815974 -1267.7077307201544 0 0 0 0 -2414.3547201773472 -1627.3071970216333 0 -1627.3071970216333 -1277.1419866797296 0 0 0 0 -1004.0618888402605 -2112.3840300769079 0 -2112.3840300769079 -3219.5898364048917 0 0 0 0 -0.76721493147376663 -0.70477393484744688 0 -0.70477393484744688 0.019658229271676042 0 0 0 0 -106.69908673333703 617.44089920446277 0 617.44089920446277 1134.1002745621663 0 0 0 0 -541.14327582534315 -967.35142657277538 0 -967.35142657277538 -861.9564947924373 0 0 0 0 -1.8173802459502966 -1.857646788185729 0 -1.857646788185729 0.046411362551300517 0 0 0 0 -445.74572981208985 -471.26917174236769 0 -471.26917174236769 1229.6169286810182 0 0 0 0 -68.162781781051308 -180.81406105514179 0 -180.81406105514179 201.70040048030205 0 0 0 0 201.50796912511578 -357.31171473338327 0 -357.31171473338327 -244.60166033756104 0 0 0 0 0.22008521974747808 -1.1241729830554643 0 -1.1241729830554643 0.073728226864861579 0 0 0 0 0.083787551141703887 -0.46731843286907093 0 -0.46731843286907093 0.031966697351602957 0 0 0 0 -459.53487275418593 -141.05620546644786 0 -141.05620546644786 617.29530923989478 0 0 0 0 233.74020577210467 -115.00425487715984 0 -115.00425487715984 -600.97875711979577 0 0 0 0 -1.1160944508446846 96.161691260072985 0 96.161691260072985 -660.6025677873331 0 0 0 0 58.859203712519957 -26.571589260813198 0 -26.571589260813198 -479.85541921835102 0 0 0 0 155.54035400392604 -114.0189323406521 0 -114.0189323406521 -655.83029873782652 0 0 0 0 -83.320161804345844 106.31000032162774 0 106.31000032162774 -762.80360352096613 0 0 0 0 54.902670245406625 -131.61988744026166 0 -131.61988744026166 -729.59874769404996 0 0 0 0 21.809499647093617 -60.391501607300142 0 -60.391501607300142 39.722274840067257 0 0 0 0 -6.0649092681123875 -133.71819093016529 0 -133.71819093016529 214.8948232015664 0 0 0 0 11.385618049680488 -22.047068195832253 0 -22.047068195832253 -891.79800317734771 0 0 0 0 -5.3990970320551774 -8.878892485257067 0 -8.878892485257067 -0.96816436676157203 0 0 0 0 111.50251714736078 138.87940022091789 0 138.87940022091789 -1125.5933945757424 0 0 0 0 -64.679259975964669 -160.86991326472344 0 -160.86991326472344 344.05789760089374 0 0 0 0 -377.29347164557839 -268.83218886156101 0 -268.83218886156101 -1492.2326121641672 0 0 0 0 -4.1555765920687726 -7.6154278291053323 0 -7.6154278291053323 -1.3115363992123319 0 0 0 0 71.587363877682947 -148.42874850738372 0 -148.42874850738372 -126.42432448500767 0 0 0 0 5.7996917605632916 77.098636913164228 0 77.098636913164228 -238.3444232757538 0 0 0 0 75.885988220950821 -133.81099781423836 0 -133.81099781423836 46.099430873800884 0 0 0 0 68.243728584027849 -83.24606078270881 0 -83.24606078270881 -287.38436065561837 0 0 0 0 1.1401284768429818 -0.60145447326782797 0 -0.60145447326782797 -0.63975596940186286 0 0 0 0 30.761185613984708 10.371464830386685 0 10.371464830386685 -88.39100740563299 0 0 0 0 40.883702473038284 -15.123844495446974 0 -15.123844495446974 -27.910129242867697 0 0 0 0 26.351154521300487 -38.694949136014657 0 -38.694949136014657 -27.107330429003923 0 0 0 0 71.766343583905837 -46.944350199279143 0 -46.944350199279143 -47.782831427219207 0 0 0 0 4.6013192042591982 -23.366881484696933 0 -23.366881484696933 -17.048075144046379 0 0 0 0 5.0261276878154604 -25.189920241435175 0 -25.189920241435175 -13.287313220256692 0 0 0 0 24.004046840505907 -32.399083039679681 0 -32.399083039679681 -14.914133809230407 0 0 0 0 4.1199313717006589 -17.833044140012134 0 -17.833044140012134 -13.49412576170289 0 0 0 0 12.550837439478943 -14.363605263112868 0 -14.363605263112868 -10.030254714746672 0 0 0 0 -1.1510855625383556 -31.738404025687487 0 -31.738404025687487 -13.750795698542788 0 0 0 0 394.0154729556541 218.47019079682286 0 218.47019079682286 -464.02961658054846 0 0 0 0 200.61432369492468 -201.51301106328901 0 -201.51301106328901 -550.69175514868402 0 0 0 0 -164.67565358254933 256.69635693703276 0 256.69635693703276 74.088358016349957 0 0 0 0 219.96332114881807 177.74667815244175 0 177.74667815244175 89.831903288635658 0 0 0 0 12.372675181295882 -12.487098114195845 0 -12.487098114195845 -10.960756926682908 0 0 0 0 -7.5951315869404716 -13.361579200066506 0 -13.361579200066506 -0.47316846526294043 0 0 0 0 -13.565416595840361 -31.950646567416698 0 -31.950646567416698 7.6719427610078128 0 0 0 0 -1.3951240531896474 -131.23968935362063 0 -131.23968935362063 -526.47131929350144 0 0 0 0 -17.354907506138261 29.287011011168943 0 29.287011011168943 -76.036797875363845 0 0 0 0 18.174471161302826 -7.7962439204186289 0 -7.7962439204186289 -11.125095393986218 0 0 0 0 -175.29960898018544 52.292623017143342 0 52.292623017143342 401.09215721391956 0 0 0 0 1.4247671088736986 -0.7210656110804301 0 -0.7210656110804301 -3.0071281508709511 0 0 0 0 0.38982834409727118 -0.1994225802258569 0 -0.1994225802258569 -0.94467382890287155 0 0 0 0 -61.282840814252268 -179.05888969978696 0 -179.05888969978696 -522.29300784083898 0 0 0 0 20.275492839704384 -195.53243670778465 0 -195.53243670778465 -524.24608790397724 0 0 0 0 13.525799403476412 -173.04871558025479 0 -173.04871558025479 -593.33092475804733 0 0 0 0 67.017388929598383 -125.67220181201992 0 -125.67220181201992 -552.13407659746008 0 0 0 0 -10.741480553653673 -2.4168890502623981 0 -2.4168890502623981 -637.125374767842 0 0 0 0 -6.5149297956728489 -10.727198738331866 0 -10.727198738331866 -0.68176160368534156 0 0 0 0 134.63323115938692 3.0152725676744012 0 3.0152725676744012 -942.69327079981304 0 0 0 0 55.895974149621907 1.1143084168870701 0 1.1143084168870701 -578.41594515554607 0 0 0 0 -341.9345251376144 -307.66468380311926 0 -307.66468380311926 -1.7759975105363992 0 0 0 0 112.45324691608403 -153.12238939736926 0 -153.12238939736926 -560.41781967767747 0 0 0 0 115.19883651544296 -214.23178155634923 0 -214.23178155634923 -370.13350138103124 0 0 0 0 94.221006197854877 -24.213385470007779 0 -24.213385470007779 -377.58183957693836 0 0 0 0 0.17592094263872227 -1.2256695224559362 0 -1.2256695224559362 0.07747178416818179 0 0 0 0 -15.072501991453464 1.3042236637993483 0 1.3042236637993483 -83.08868013387837 0 0 0 0 102.06568572955439 -100.4145656395558 0 -100.4145656395558 -342.13872897041438 0 0 0 0 71.11150167764572 27.620870679718792 0 27.620870679718792 -194.00286119120574 0 0 0 0 295.92963059031172 178.0734933760541 0 178.0734933760541 169.73393270875476 0 0 0 0 16.724131019538618 -86.771029879746493 0 -86.771029879746493 -332.55161965200932 0 0 0 0 -295.21745895164349 -191.42967994559513 0 -191.42967994559513 1032.1751060115785 0 0 0 0 202.74193632001698 23.461097818857525 0 23.461097818857525 321.96772348850209 0 0 0 0 -2.1792281155193436 -2.6506982388748437 0 -2.6506982388748437 0.010834609374516635 0 0 0 0 -29.127540252909967 -100.50014028065925 0 -100.50014028065925 96.165128327877028 0 0 0 0 -30.283156804958708 -135.47027463102859 0 -135.47027463102859 -172.89864449005108 0 0 0 0 -2.1843443289558593 -3.0476912926793567 0 -3.0476912926793567 -0.11703096043701811 0 0 0 0 -158.77533697173931 -27.275916525773937 0 -27.275916525773937 770.98522511577175 0 0 0 0 59.764017685432918 -33.468851964687929 0 -33.468851964687929 450.96732654595689 0 0 0 0 0.038063374789320648 -0.60402596014369436 0 -0.60402596014369436 0.037949972601566739 0 0 0 0 50.756361547639244 -141.19009834283497 0 -141.19009834283497 -423.85284730313288 0 0 0 0 -444.56067263802106 28.21088955939922 0 28.21088955939922 -6.8293951785890386 0 0 0 0 135.25625138664327 119.62040757709474 0 119.62040757709474 -417.42579329854925 0 0 0 0 120.01014715148813 -132.58753817045454 0 -132.58753817045454 -630.80972064030357 0 0 0 0 -258.10542857926339 321.11899970352533 0 321.11899970352533 -860.09480422697379 0 0 0 0 -198.07096136607288 -585.71388967063831 0 -585.71388967063831 -1209.7871111170389 0 0 0 0 -709.24145879966818 -192.10583738446076 0 -192.10583738446076 -327.90511404856807 0 0 0 0 180.62655998562695 -21.807670416135807 0 -21.807670416135807 -1216.8384274088166 0 0 0 0 182.5727068563865 -62.016072035170509 0 -62.016072035170509 -388.11763772116683 0 0 0 0 -30.284689255127887 -335.43254541314309 0 -335.43254541314309 206.58998962579062 0 0 0 0 214.38746192751569 -34.754481761898205 0 -34.754481761898205 -366.5406886706769 0 0 0 0 121.45203746750485 -170.98134617661708 0 -170.98134617661708 -328.80164963943025 0 0 0 0 -89.192787221923936 -196.47706110013678 0 -196.47706110013678 194.44989771724795 0 0 0 0 -129.73904787324136 -96.189231432901579 0 -96.189231432901579 507.24717731628334 0 0 0 0 -1.9682626735933155 -3.014732504806684 0 -3.014732504806684 -0.34827728489727683 0 0 0 0 -2.596527166897431 7.523227124940604 0 7.523227124940604 62.270428445583093 0 0 0 0 -56.699489299411653 -21.862986049702158 0 -21.862986049702158 551.33320964226732 0 0 0 0 206.52924065179104 -114.2102634927578 0 -114.2102634927578 0.5476905079340213 0 0 0 0 -0.034825232831199315 0.011334292377191524 0 0.011334292377191524 0.020663122246556753 0 0 0 0 160.8960948989552 -127.90999786382599 0 -127.90999786382599 325.03486486928887 0 0 0 0 11.211428997783514 -258.00817195641866 0 -258.00817195641866 220.5651543471613 0 0 0 0 1.472751494855947 -2.0239631836537084 0 -2.0239631836537084 -2.8549200624459772 0 0 0 0 493.17748362054408 -392.0679557780677 0 -392.0679557780677 141.62269193187785 0 0 0 0 84.709223994708736 -302.5046575619308 0 -302.5046575619308 214.33737483320874 0 0 0 0 456.30760766548337 -361.59085335570853 0 -361.59085335570853 279.44317164886888 0 0 0 0 0.61091634992044419 -29.079167961608618 0 -29.079167961608618 189.93448939426162 0 0 0 0 -0.013243727050539889 -0.11241517905381038 0 -0.11241517905381038 0.015877646915245958 0 0 0 0 426.67273298453074 -270.97306371849845 0 -270.97306371849845 106.32802411576995 0 0 0 0 287.68376415072998 -144.18118130165385 0 -144.18118130165385 -172.60771494907385 0 0 0 0 300.0510660026921 -248.89447719178861 0 -248.89447719178861 150.88017026946181 0 0 0 0 245.73442070874444 -123.95404109496303 0 -123.95404109496303 93.602741551439976 0 0 0 0 425.60748398998112 -227.55533824453596 0 -227.55533824453596 -4.6773010932447505 0 0 0 0 -75.120387163947271 -331.00502316185202 0 -331.00502316185202 170.02816566627007 0 0 0 0 396.75794251322077 -274.869265737354 0 -274.869265737354 -99.369877816847293 0 0 0 0 389.32971850527974 -586.64693207500386 0 -586.64693207500386 439.29397490596602 0 0 0 0 1.111001177888987 -1.4506252683553331 0 -1.4506252683553331 -2.287105397685373 0 0 0 0 229.01906798764276 -174.93826619032279 0 -174.93826619032279 -168.22373985964805 0 0 0 0 138.71870570065221 46.910355163781787 0 46.910355163781787 -338.35253587264742 0 0 0 0 122.60991897576605 134.888577267644 0 134.888577267644 -817.63391560652235 0 0 0 0 -103.14446781733568 -357.04553283279529 0 -357.04553283279529 -552.71134948835243 0 0 0 0 8.4067629287287389 -4.5659295184255626 0 -4.5659295184255626 -7.061935241335906 0 0 0 0 -15.429941702524957 -114.53809495371388 0 -114.53809495371388 -44.253603983888752 0 0 0 0 88.414231692782778 -59.297416088593309 0 -59.297416088593309 -474.11543117009569 0 0 0 0 229.10205640790809 -2.2421239669347415 0 -2.2421239669347415 -494.93643581180368 0 0 0 0 198.78645766495902 63.632350329382461 0 63.632350329382461 -527.55245569645194 0 0 0 0 -49.451671654111124 171.74350032808434 0 171.74350032808434 -365.27506829790946 0 0 0 0 -345.173806082792 406.56989972454176 0 406.56989972454176 -243.18493975454476 0 0 0 0 5.2005399456247687 6.7651384702330688 0 6.7651384702330688 -134.29109185732523 0 0 0 0 43.754744954960188 -11.642582874403161 0 -11.642582874403161 -163.12399985892989 0 0 0 0 13.0223837726067 -5.6155078833428114 0 -5.6155078833428114 -8.8217569281177148 0 0 0 0 -182.42415764016914 -195.57776106761594 0 -195.57776106761594 365.17821575313064 0 0 0 0 93.360795249835064 -74.420185258160927 0 -74.420185258160927 -90.110202795884106 0 0 0 0 32.384120284656092 186.04406452427793 0 186.04406452427793 72.449911860312568 0 0 0 0 -351.45004407893066 216.35199488190119 0 216.35199488190119 -423.80818489874946 0 0 0 0 -53.886407477629291 -120.02109079947695 0 -120.02109079947695 -220.36872113947175 0 0 0 0 -332.78373924434709 -3.383180344448192 0 -3.383180344448192 -76.459798307940218 0 0 0 0 -36.249136024791369 -57.825415531893668 0 -57.825415531893668 -893.27379787308746 0 0 0 0 138.31303643199499 -336.57471839132631 0 -336.57471839132631 -469.89759447265533 0 0 0 0 541.57627671352384 110.96711287775543 0 110.96711287775543 -106.24718969589594 0 0 0 0 0.52038497537765327 -0.030990699597076343 0 -0.030990699597076343 0.47979244084708839 0 0 0 0 895.19926603896238 699.46228235593298 0 699.46228235593298 -270.11548939571367 0 0 0 0 518.56040752483386 25.767118580188253 0 25.767118580188253 21.78481808793731 0 0 0 0 118.3712166409241 -90.836472584996955 0 -90.836472584996955 88.325977160471666 0 0 0 0 1.3918585398816301 -0.0308105642469787 0 -0.0308105642469787 1.7745545745128304 0 0 0 0 92.75607282739486 -174.93023339819854 0 -174.93023339819854 -65.288982312893495 0 0 0 0 -27.016973924502963 -160.6657012328069 0 -160.6657012328069 716.00943174467648 0 0 0 0 0.66857768564329767 2.3428736031847173 0 2.3428736031847173 0.17524579894887626 0 0 0 0 613.01845951742143 40.387078694373486 0 40.387078694373486 -2810.2128142066358 0 0 0 0 49.919128929512226 -231.75484145189694 0 -231.75484145189694 161.57236663750336 0 0 0 0 0.14659545790992912 2.1515895646108998 0 2.1515895646108998 0.19805985812979277 0 0 0 0 -22.10451898039446 -159.05345839697839 0 -159.05345839697839 366.31795684812823 0 0 0 0 359.32430092751747 -915.2879112274677 0 -915.2879112274677 -1191.5389223501261 0 0 0 0 703.12882252734562 -277.76826010149671 0 -277.76826010149671 -2629.5201549690973 0 0 0 0 18.407371819121181 -214.37606158413109 0 -214.37606158413109 -472.76484461861401 0 0 0 0 169.54658221346563 524.52846300780584 0 524.52846300780584 -40.591955857758876 0 0 0 0 -76.535338563726782 917.04907622814972 0 917.04907622814972 -616.55522585537983 0 0 0 0 -332.63083645402367 324.55881711668917 0 324.55881711668917 -941.82239237339309 0 0 0 0 227.93709286104422 265.73681000777287 0 265.73681000777287 -2460.7641199478967 0 0 0 0 84.990445212186387 169.651637944713 0 169.651637944713 -2136.600354824739 0 0 0 0 0.52618332195810957 1.9975141015281608 0 1.9975141015281608 0.15125153223205334 0 0 0 0 12.650686028254313 -223.14452261606493 0 -223.14452261606493 1147.7477314700809 0 0 0 0 -5.872627438580821 -254.10269762673488 0 -254.10269762673488 568.88582523301011 0 0 0 0 50.373225515095328 -159.54037411625904 0 -159.54037411625904 671.1062343759404 0 0 0 0 81.962325313163547 -193.44752103876999 0 -193.44752103876999 621.74353104725014 0 0 0 0 95.292216729540087 -325.81928784141201 0 -325.81928784141201 503.2730294291905 0 0 0 0 15.978732834431867 -186.94228337056848 0 -186.94228337056848 317.38243768498069 0 0 0 0 -9.5389496518073429 -262.38864053642465 0 -262.38864053642465 511.69355447957059 0 0 0 0 -59.483898814680288 -239.18307125598949 0 -239.18307125598949 569.01959382260975 0 0 0 0 -23.115873532253318 -361.40960468251433 0 -361.40960468251433 466.40897644180222 0 0 0 0 -11.39960933074326 -323.9344472908997 0 -323.9344472908997 299.56773098812118 0 0 0 0 -109.75931297623538 -207.66194990451913 0 -207.66194990451913 545.65033936137479 0 0 0 0 -57.728222492133455 -295.39696191034386 0 -295.39696191034386 590.54636637400836 0 0 0 0 103.48721002545608 -145.6609269639257 0 -145.6609269639257 533.61583397863433 0 0 0 0 -68.077762445522239 -276.33178182167467 0 -276.33178182167467 609.7588795756019 0 0 0 0 -35.996078465066603 -172.78865025498453 0 -172.78865025498453 333.64249275941984 0 0 0 0 -70.736998411670356 -119.13165394225507 0 -119.13165394225507 369.49950155175611 0 0 0 0 -1.6512827996736181 -0.063741542096454218 0 -0.063741542096454218 1.476644220207417 0 0 0 0 -187.98958948969812 74.023925291206979 0 74.023925291206979 51.552692601908348 0 0 0 0 -29.447616529578227 -36.297037126321811 0 -36.297037126321811 34.938936929341253 0 0 0 0 -46.47111268664321 -14.677106348248344 0 -14.677106348248344 11.063125824541203 0 0 0 0 -22.841153054462666 -28.319413104014529 0 -28.319413104014529 -5.1134404958138475 0 0 0 0 -16.218303535984887 -20.933147269293841 0 -20.933147269293841 -4.7027393388873406 0 0 0 0 -17.94787661538976 -18.172034162140335 0 -18.172034162140335 -8.8594955194712384 0 0 0 0 -23.967004573307349 -21.291121012764052 0 -21.291121012764052 9.9473105941187896 0 0 0 0 -30.739433252943854 -12.343148947475129 0 -12.343148947475129 -1.8668597102951026 0 0 0 0 0.58581048390260548 1.7283833714900538 0 1.7283833714900538 -63.231803599657724 0 0 0 0 0.60301224491195171 -79.057129373843054 0 -79.057129373843054 86.839217313288827 0 0 0 0 45.46833107396742 -21.128650887061667 0 -21.128650887061667 -29.507524613261921 0 0 0 0 -8.8093888861817504 61.1967706989617 0 61.1967706989617 -90.69873427991115 0 0 0 0 -35.056452002194419 -20.720072291325778 0 -20.720072291325778 -14.844928073725896 0 0 0 0 -4.8548907724252786 -19.440484944549098 0 -19.440484944549098 51.997564506003982 0 0 0 0 10.649543245845052 -79.12118376455328 0 -79.12118376455328 86.396551593075856 0 0 0 0 35.112066296176636 -179.95408894956927 0 -179.95408894956927 319.84783781255828 0 0 0 0 130.95349016170258 -102.8209213827613 0 -102.8209213827613 38.741875673556933 0 0 0 0 51.622392033372307 -51.464055592266959 0 -51.464055592266959 126.15129686484033 0 0 0 0 109.57892874886011 -66.211853233478905 0 -66.211853233478905 -33.032806490329676 0 0 0 0 -249.24660866988859 -128.56002841400914 0 -128.56002841400914 55.761383881676011 0 0 0 0 59.590048799935232 71.899493056256688 0 71.899493056256688 -275.93777172965929 0 0 0 0 -190.62891460853893 153.02285723249952 0 153.02285723249952 -25.502746885489614 0 0 0 0 -65.301084451699936 67.251909053742565 0 67.251909053742565 25.69396237192268 0 0 0 0 -60.388498921598512 65.867057912539167 0 65.867057912539167 -32.833847167690948 0 0 0 0 30.186564659915348 -15.065615120493021 0 -15.065615120493021 -58.204760251494008 0 0 0 0 -146.97859818616416 975.85662545919695 0 975.85662545919695 -380.07325121467511 0 0 0 0 -16.23964263388234 -15.609915813908493 0 -15.609915813908493 -0.83007649444622444 0 0 0 0 -163.65486662909825 -179.76365824063396 0 -179.76365824063396 335.20377259411907 0 0 0 0 -15.811277025596464 -13.537823850160603 0 -13.537823850160603 -0.054408533295934092 0 0 0 0 -520.45125419934629 369.99086057682871 0 369.99086057682871 138.99507715579966 0 0 0 0 292.07461028455873 161.55978319252608 0 161.55978319252608 267.27659007839429 0 0 0 0 2061.6568513526581 -418.7220813410313 0 -418.7220813410313 438.90870508567423 0 0 0 0 338.94975325143605 10.739703576560714 0 10.739703576560714 -978.82825969367696 0 0 0 0 56.10596071225882 -198.95255977545457 0 -198.95255977545457 -32.869723775875173 0 0 0 0 197.14245055156061 -184.53951139380843 0 -184.53951139380843 -485.41312545443361 0 0 0 0 180.16335337754572 237.68052260739205 0 237.68052260739205 -305.43453462111574 0 0 0 0 589.18444319075206 -266.10310523645967 0 -266.10310523645967 -449.86611236564204 0 0 0 0 199.79213407676434 525.71295087513499 0 525.71295087513499 -1063.3715136653836 0 0 0 0 -192.72118236772076 24.239759677913753 0 24.239759677913753 -485.45109737450548 0 0 0 0 -16.310707221032601 -18.41540359687432 0 -18.41540359687432 -2.1702624596080557 0 0 0 0 -75.322765250319662 -137.08287374788961 0 -137.08287374788961 -47.194381486289785 0 0 0 0 -70.414805832107959 106.72192241905577 0 106.72192241905577 -203.62625523921452 0 0 0 0 -1.0041900081611215 -5.0023673482369162 0 -5.0023673482369162 0.19841887878039044 0 0 0 0 -191.97056371714791 216.6961048963567 0 216.6961048963567 -24.195351556845708 0 0 0 0 -71.45298658241154 21.88731934329553 0 21.88731934329553 -44.401411705854116 0 0 0 0 -70.42260793255565 -13.06699594505244 0 -13.06699594505244 23.329237038822612 0 0 0 0 -117.351632826696 34.885603398070089 0 34.885603398070089 70.683391421596752 0 0 0 0 -163.05635314173196 94.961789439199492 0 94.961789439199492 -6.2643128040726879 0 0 0 0 -274.22592442276255 -14.78543807855749 0 -14.78543807855749 72.397248437162489 0 0 0 0 -102.08914263627321 -88.987126878422714 0 -88.987126878422714 -38.438311605743365 0 0 0 0 -207.52038317271717 88.045380706797005 0 88.045380706797005 211.70185423447401 0 0 0 0 -562.62923743756255 -57.304284131794702 0 -57.304284131794702 179.30721711125807 0 0 0 0 -138.01530384546254 190.79457237519819 0 190.79457237519819 30.631591129873414 0 0 0 0 172.53235110318769 -144.36344361210649 0 -144.36344361210649 164.90327749509743 0 0 0 0 -126.88136612596884 62.821726643414877 0 62.821726643414877 77.844536775213783 0 0 0 0 -180.0507340126394 79.74042347858267 0 79.74042347858267 95.654504859645385 0 0 0 0 -113.4577354206217 130.44686716169235 0 130.44686716169235 290.45543762503075 0 0 0 0 60.523415935623007 -102.67053164463869 0 -102.67053164463869 371.36182061636646 0 0 0 0 162.15362073386586 -125.66354748417507 0 -125.66354748417507 28.511506221359014 0 0 0 0 245.558590286053 -287.1700399411784 0 -287.1700399411784 179.99394443235906 0 0 0 0 183.4053769343227 -348.82252990279812 0 -348.82252990279812 707.78699014479207 0 0 0 0 461.10087905835098 -448.95246631292684 0 -448.95246631292684 449.6209165421169 0 0 0 0 145.33261144503456 -37.514942066234653 0 -37.514942066234653 548.25560276594479 0 0 0 0 736.76345286409764 -959.78132793041004 0 -959.78132793041004 600.24240436193577 0 0 0 0 0.18875736513257113 0.88806420735536662 0 0.88806420735536662 0.073481226572031266 0 0 0 0 -4.0884596328855878 -777.35848899600387 0 -777.35848899600387 2173.463765876746 0 0 0 0 190.63820664360355 -142.51827642059652 0 -142.51827642059652 1112.1709493714443 0 0 0 0 -194.70555340871397 -213.48442183561565 0 -213.48442183561565 -1126.1167345907015 0 0 0 0 -153.24556820415637 233.6759274376891 0 233.6759274376891 -767.01855854626046 0 0 0 0 398.97940785752462 -207.48214070045651 0 -207.48214070045651 -2135.9454588705266 0 0 0 0 344.72600025647307 -368.60556021933735 0 -368.60556021933735 -298.8480205475571 0 0 0 0 -120.98797715187357 -474.46814110268315 0 -474.46814110268315 68.945445660094265 0 0 0 0 -125.3734769400462 -303.28535542609461 0 -303.28535542609461 20.095170882850653 0 0 0 0 19.914175449550385 -12.74894503717951 0 -12.74894503717951 -14.786048311871127 0 0 0 0 11.983501810492294 -16.205290864902217 0 -16.205290864902217 -8.4425787123659504 0 0 0 0 -184.98505251815186 -333.4704346329745 0 -333.4704346329745 -297.07939557731152 0 0 0 0 2.2101247876994394 -0.92278755359383524 0 -0.92278755359383524 -1.8083312402915102 0 0 0 0 -771.86856015362446 -23.685987324119196 0 -23.685987324119196 -75.743045546114445 0 0 0 0 -129.41169456496937 -556.4445669096458 0 -556.4445669096458 -101.68391043090378 0 0 0 0 299.12752672444503 -256.10836704845133 0 -256.10836704845133 -7.0502223169023637 0 0 0 0 21.158654047263553 -12.257501580301323 0 -12.257501580301323 -4.8441031558522809 0 0 0 0 21.065454918512842 -11.494379633964854 0 -11.494379633964854 -4.6850188718908612 0 0 0 0 6.5981318048434332 -18.567535523077822 0 -18.567535523077822 -0.69608904966298724 0 0 0 0 18.629345571098384 -20.004295249062125 0 -20.004295249062125 -0.61532371808789321 0 0 0 0 6.685020640917525 -3.2956167804419696 0 -3.2956167804419696 -4.0587103627728887 0 0 0 0 21.546128112777296 -5.2225574450658314 0 -5.2225574450658314 -31.754547384582111 0 0 0 0 3.6444428083047526 -1.8671371784346524 0 -1.8671371784346524 -2.1141136791924833 0 0 0 0 25.75878055805515 -16.007076716661686 0 -16.007076716661686 -0.69568928371882066 0 0 0 0 72.145551074791001 -48.129593753314111 0 -48.129593753314111 7.2383647253154777 0 0 0 0 49.875953566785029 -4.2191808832412789 0 -4.2191808832412789 -35.553418230003444 0 0 0 0 31.811764098587446 5.5973799303174019 0 5.5973799303174019 -17.22762116244121 0 0 0 0 36.300346024625469 7.3000655559881125 0 7.3000655559881125 -18.357771272014361 0 0 0 0 10.462681326411257 8.5180014539037074 0 8.5180014539037074 12.735235402840772 0 0 0 0 14.197831985205994 7.45322640586528 0 7.45322640586528 -12.719966136355652 0 0 0 0 42.960772856022231 -11.645112765647355 0 -11.645112765647355 -13.439503435714869 0 0 0 0 31.490843266132288 2.4629402247810503 0 2.4629402247810503 -13.127282293338794 0 0 0 0 26.358790335740196 -5.891911333455937 0 -5.891911333455937 -12.12216941940278 0 0 0 0 25.273978720069863 -6.282654359281878 0 -6.282654359281878 -9.9832449925888795 0 0 0 0 10.913429267884521 -2.5894451013908406 0 -2.5894451013908406 -7.7882509576774517 0 0 0 0 22.182393371040234 -1.2967621419666102 0 -1.2967621419666102 -8.1964816563486238 0 0 0 0 20.83240592887887 -4.9555540625733556 0 -4.9555540625733556 -8.8853516078961547 0 0 0 0 17.500253401783993 -12.547343877551612 0 -12.547343877551612 5.7200888059742283 0 0 0 0 13.865749073927873 -7.6448682603740963 0 -7.6448682603740963 7.3936103282176191 0 0 0 0 0.26080031399082237 -0.26204663465454558 0 -0.26204663465454558 0.033495317509316891 0 0 0 0 16.254141357261688 2.0282966796221444 0 2.0282966796221444 -9.9394255617371527 0 0 0 0 -0.89096558783048008 -6.9814455571645002 0 -6.9814455571645002 0.19147649931868216 0 0 0 0 26.107594588396751 -13.487356798734254 0 -13.487356798734254 -7.8073776464734692 0 0 0 0 18.653040639939718 -11.776550765323918 0 -11.776550765323918 2.1528838717204053 0 0 0 0 5.6594174548226874 -13.200499325423152 0 -13.200499325423152 7.9780171803868143 0 0 0 0 5.1953494769404642 -5.1619112511980347 0 -5.1619112511980347 -0.2034559708845336 0 0 0 0 4.9519798983965302 -7.261458601371487 0 -7.261458601371487 3.1895735243015224 0 0 0 0 18.241149945068173 -6.1960809506490477 0 -6.1960809506490477 -4.5529783729143674 0 0 0 0 12.067921727091576 -3.117956805499952 0 -3.117956805499952 -8.3425615572736653 0 0 0 0 13.722933717566775 -7.5052955621285946 0 -7.5052955621285946 -5.9097067761758808 0 0 0 0 17.285029145765293 -9.1707659591666015 0 -9.1707659591666015 -6.2821956792322453 0 0 0 0 15.174201717121278 -16.866670143387843 0 -16.866670143387843 -7.9551836598036729 0 0 0 0 -117.93812559513754 -105.60590882546967 0 -105.60590882546967 -35.907146046740309 0 0 0 0 -39.920490842501749 -55.854306038920186 0 -55.854306038920186 -5.2695971900539007 0 0 0 0 13.322426355980852 -18.006127492742671 0 -18.006127492742671 -6.1713064816668677 0 0 0 0 -55.984708005385983 -39.925250165448233 0 -39.925250165448233 -12.664026817015838 0 0 0 0 -104.30110176453672 14.79396845370502 0 14.79396845370502 7.3919554784370121 0 0 0 0 7.1322811515128706 -13.355496665542887 0 -13.355496665542887 -0.43031960006919689 0 0 0 0 -4.2408477780328191 -14.048332250800653 0 -14.048332250800653 -4.9985255089599523 0 0 0 0 -14.6281602494807 -18.419759728967502 0 -18.419759728967502 3.7817599556410073 0 0 0 0 -16.670261165867956 -16.074135688228122 0 -16.074135688228122 6.4405000940707566 0 0 0 0 5.7485150422726292 -9.538651754060993 0 -9.538651754060993 -8.454173614634783 0 0 0 0 5.2436499088107666 -6.3757222013437058 0 -6.3757222013437058 -4.5060102783318143 0 0 0 0 3.5902389247494284 -17.3333704865654 0 -17.3333704865654 9.16320112800895 0 0 0 0 2.8489206570957322 -6.3420166082796641 0 -6.3420166082796641 1.8447031949763186 0 0 0 0 -103.59110755444271 -129.82030858891812 0 -129.82030858891812 -223.93229514865379 0 0 0 0 191.5520374084299 -171.68268516741227 0 -171.68268516741227 -696.60119412424228 0 0 0 0 62.983821082918439 -185.84576668634691 0 -185.84576668634691 34.913447264567367 0 0 0 0 -175.63957863830728 -259.97168650864478 0 -259.97168650864478 663.85423731296032 0 0 0 0 247.3824686606531 -375.43483773739354 0 -375.43483773739354 -148.26102688051105 0 0 0 0 -324.57994153996697 -53.749982348337653 0 -53.749982348337653 601.05366850785867 0 0 0 0 -255.74665084690787 -223.1138796281848 0 -223.1138796281848 1147.303635283628 0 0 0 0 948.34829360975709 -877.24784936725518 0 -877.24784936725518 456.24942958335305 0 0 0 0 48.783735235308995 -364.15218955922319 0 -364.15218955922319 1089.0216171128341 0 0 0 0 -0.65906953166135374 -1.1939720861342522 0 -1.1939720861342522 0.53997920513533515 0 0 0 0 -532.39745859745017 -137.38050109424876 0 -137.38050109424876 1377.2085866928319 0 0 0 0 -666.06123687712534 257.02171166834887 0 257.02171166834887 671.76340823489591 0 0 0 0 -175.02816489440738 -175.32895257480413 0 -175.32895257480413 -100.80967899414827 0 0 0 0 -289.38873351507937 -235.309358859442 0 -235.309358859442 -26.840131159473458 0 0 0 0 200.65069583315926 30.733090575573442 0 30.733090575573442 -108.52884913484741 0 0 0 0 6.1475539871607907 -1.9857165853027254 0 -1.9857165853027254 -112.98327566352964 0 0 0 0 -29.783925679541426 -4.1617680112940434 0 -4.1617680112940434 8.9588702819746686 0 0 0 0 -1.1096902266012165 -8.1776507514677359 0 -8.1776507514677359 -2.9562754568070391 0 0 0 0 -17.622707536953385 7.6663663568797347 0 7.6663663568797347 -52.850535223253246 0 0 0 0 -2.0764707271403724 -4.2085433435892838 0 -4.2085433435892838 1.4210313324532677 0 0 0 0 -316.82114915639249 -17.81641096295607 0 -17.81641096295607 17.32603704201756 0 0 0 0 -6.0918137178517604 -11.622630343602669 0 -11.622630343602669 -3.5433530733860117 0 0 0 0 -0.25412789406254888 -11.249519210658036 0 -11.249519210658036 -8.339677753043361 0 0 0 0 -8.5190457345961477 -232.04977693751516 0 -232.04977693751516 -278.77271153937909 0 0 0 0 -5.3686931470850396 -12.328419717664026 0 -12.328419717664026 -4.012031777252469 0 0 0 0 -0.0043940281256027447 -0.011985910888137496 0 -0.011985910888137496 -0.02514491722185852 0 0 0 0 -0.079904020458343439 -5.499034006446891 0 -5.499034006446891 0.79380752466386184 0 0 0 0 1.6419896007864736 -11.102344459854066 0 -11.102344459854066 -4.540023896144703 0 0 0 0 -0.45054470477043651 -4.7940379587380448 0 -4.7940379587380448 -0.50371829184587114 0 0 0 0 0.58121507886244217 -4.3685243502513913 0 -4.3685243502513913 -1.3820551970275119 0 0 0 0 20.038691697072863 -5.0944242671284883 0 -5.0944242671284883 -6.8729582889645826 0 0 0 0 10.821819149015937 -3.4129538790075458 0 -3.4129538790075458 1.6427665511728264 0 0 0 0 -0.29148165413584737 -6.9409741012718236 0 -6.9409741012718236 -0.69558536563286921 0 0 0 0 11.126723863009829 -10.579358493618201 0 -10.579358493618201 -17.105935283208964 0 0 0 0 4.2586752394854557 6.3706527283138712 0 6.3706527283138712 -7.6860374113603029 0 0 0 0 10.440115821897052 -2.3153958915063413 0 -2.3153958915063413 0.46529240683594253 0 0 0 0 21.648299965483602 9.0897546890264493 0 9.0897546890264493 -41.384297337848693 0 0 0 0 0.25471011228630402 -0.072208541390772041 0 -0.072208541390772041 -0.057961142248991848 0 0 0 0 -0.21098561515827896 -5.5785580297597335 0 -5.5785580297597335 5.548775314091472 0 0 0 0 -0.43717139095833701 -1.1960742625974952 0 -1.1960742625974952 0.17272071202181127 0 0 0 0 -96.533655857594567 -39.360105768642825 0 -39.360105768642825 34.050784473685781 0 0 0 0 0.86149636568152488 -0.089678745359261569 0 -0.089678745359261569 -0.26513558342412757 0 0 0 0 14.601343293848913 -6.8713830751075875 0 -6.8713830751075875 2.8540386868480709 0 0 0 0 -1.8987620439739707 -6.3500697487627455 0 -6.3500697487627455 -2.9668831352455207 0 0 0 0 -3.7351735782285687 -18.641864410827111 0 -18.641864410827111 -3.1062071297710645 0 0 0 0 6.0056251146888826 -0.32422913262780639 0 -0.32422913262780639 5.0311318933818256 0 0 0 0 -4.7550471865979489 -27.374595689994749 0 -27.374595689994749 -51.787384385017504 0 0 0 0 -131.36407698033145 -73.198371792728722 0 -73.198371792728722 -19.113808117173903 0 0 0 0 -2.5041670268686147 -0.91424220198006978 0 -0.91424220198006978 6.1801721771746454 0 0 0 0 201.29958951570006 -216.46601635137995 0 -216.46601635137995 56.022182871820405 0 0 0 0 74.553130933192733 -85.753521999602526 0 -85.753521999602526 368.5595953338343 0 0 0 0 752.148823703581 -362.46618363230664 0 -362.46618363230664 -127.62961561763223 0 0 0 0 200.5784536374631 -737.69546515879301 0 -737.69546515879301 1429.3219252077542 0 0 0 0 483.18227192835184 670.17189008503192 0 670.17189008503192 712.3063445822263 0 0 0 0 -0.79611868037574141 -0.25612586806811599 0 -0.25612586806811599 2.1457331892777383 0 0 0 0 1130.6759722607239 -1157.9616632475518 0 -1157.9616632475518 1369.8884836094512 0 0 0 0 115.79792136484321 -156.04500037467733 0 -156.04500037467733 -122.57599893082806 0 0 0 0 15.591422271798365 -443.57214954839583 0 -443.57214954839583 822.88835981589 0 0 0 0 6.7734399134642445 -489.75474406527064 0 -489.75474406527064 1215.2778942938166 0 0 0 0 137.97527755355986 -521.00495823973324 0 -521.00495823973324 730.43349398921055 0 0 0 0 -55.334182531019906 -170.61468745617458 0 -170.61468745617458 552.3974982384716 0 0 0 0 57.471482108318014 -372.80916404526943 0 -372.80916404526943 793.21548853776767 0 0 0 0 62.631963616091525 -367.49089761311188 0 -367.49089761311188 797.92382372529028 0 0 0 0 0.1340204263542546 -246.6421559020564 0 -246.6421559020564 569.13275476668787 0 0 0 0 138.84882779642066 -321.57616932635938 0 -321.57616932635938 170.27609596139519 0 0 0 0 121.15300855063833 -125.59562490852841 0 -125.59562490852841 56.822372384071059 0 0 0 0 -82.986601071781479 -89.534002486907411 0 -89.534002486907411 79.272405686759157 0 0 0 0 86.298798927746248 -152.00179000315256 0 -152.00179000315256 -289.05821630604623 0 0 0 0 -84.835805288283154 -73.339085985899146 0 -73.339085985899146 -33.811520071238192 0 0 0 0 -0.087934090917435981 -0.3384093941510038 0 -0.3384093941510038 0.030940013283260903 0 0 0 0 -256.25754584354581 27.003525990156049 0 27.003525990156049 17.319133127573878 0 0 0 0 -173.72750290810654 -99.936792529835657 0 -99.936792529835657 49.945484863055754 0 0 0 0 -26.484928039775696 -35.579796565536526 0 -35.579796565536526 -1.1149956276058219 0 0 0 0 0.20283979635860305 -20.915550038815127 0 -20.915550038815127 204.58251287735766 0 0 0 0 163.73950439324835 73.235792611994839 0 73.235792611994839 9.7414929667502292 0 0 0 0 -0.078582348582310502 -0.27527293379884199 0 -0.27527293379884199 -0.08430582070444359 0 0 0 0 -34.819146622896369 -43.348849148218505 0 -43.348849148218505 215.83486102937604 0 0 0 0 9.1713606469711522 -35.19173093180143 0 -35.19173093180143 2.7168300027551595 0 0 0 0 -48.292639475344913 -7.0770902599033434 0 -7.0770902599033434 -10.915347730471694 0 0 0 0 -0.43049589154652601 -0.57020945232354237 0 -0.57020945232354237 -0.029293691452402015 0 0 0 0 -80.688690133873024 -65.336919791105174 0 -65.336919791105174 -45.87183836690383 0 0 0 0 -39.440822136908537 -70.216996460803784 0 -70.216996460803784 -78.312155963853002 0 0 0 0 -0.05775375738448929 -40.230207113265351 0 -40.230207113265351 -68.147079842659878 0 0 0 0 74.324846667281236 85.893698798903642 0 85.893698798903642 -3.9575385904463474 0 0 0 0 -11.784893939780886 3.8903500771994004 0 3.8903500771994004 33.322799833404133 0 0 0 0 -37.345860800473019 94.587584713517572 0 94.587584713517572 -71.334690935560502 0 0 0 0 -27.897024972829968 58.226859857459203 0 58.226859857459203 65.009815927201998 0 0 0 0 36.394830296427244 -54.976547250662406 0 -54.976547250662406 -18.73692155093886 0 0 0 0 30.414839710429078 -30.137851079980464 0 -30.137851079980464 -119.95071906395606 0 0 0 0 -68.454299914970761 -77.056652117564227 0 -77.056652117564227 -31.593494918764918 0 0 0 0 -151.99555796044297 8.531379397976707 0 8.531379397976707 37.319402802328113 0 0 0 0 -2.7462180262373295 -42.818221418885514 0 -42.818221418885514 -82.645020646072226 0 0 0 0 16.642977847892325 -5.1952448170050047 0 -5.1952448170050047 -15.773146681225626 0 0 0 0 6.8355240206583403 -6.4697800583089702 0 -6.4697800583089702 -21.040034169505816 0 0 0 0 7.4174119641538709 -26.682418887648964 0 -26.682418887648964 -35.033580883180548 0 0 0 0 7.8264443530642893 -21.266324088559486 0 -21.266324088559486 -1.3803540191365755 0 0 0 0 2.2489189474727027 -25.78765324732376 0 -25.78765324732376 5.9095660202947329 0 0 0 0 2.7985858318610468 -4.3695633304823591 0 -4.3695633304823591 -1.0035953322557667 0 0 0 0 -2.7680926300818101 -34.562001414255064 0 -34.562001414255064 15.511116096808109 0 0 0 0 -37.174719045928214 -37.071285821926722 0 -37.071285821926722 3.0760018930450315 0 0 0 0 -35.849845547811128 -6.9111500654435076 0 -6.9111500654435076 33.19517153169727 0 0 0 0 -15.9311613724567 10.147001947079843 0 10.147001947079843 26.814535337107372 0 0 0 0 1.7251131355058966 -2.8792353450913217 0 -2.8792353450913217 -0.041290766004456358 0 0 0 0 -10.010028813616373 -1.0475858590507414 0 -1.0475858590507414 29.68477895484466 0 0 0 0 31.94805661670307 6.9311809666696718 0 6.9311809666696718 -68.484492602627142 0 0 0 0 -1.49165826337412 41.507218351354823 0 41.507218351354823 -19.062289401197631 0 0 0 0 -18.646661835879058 -48.896191239326981 0 -48.896191239326981 -0.039375955908326432 0 0 0 0 -956.11792128207162 -377.7511462168477 0 -377.7511462168477 -142.68888988997787 0 0 0 0 -260.83143159517203 -217.0106044899585 0 -217.0106044899585 -359.43364226518315 0 0 0 0 0.024868569106864413 -0.028201567079427114 0 -0.028201567079427114 -0.010533008757143136 0 0 0 0 -208.67527935173712 -268.77455009838741 0 -268.77455009838741 -394.20460572154843 0 0 0 0 -801.24385847261874 -295.03958067466738 0 -295.03958067466738 209.54143406849471 0 0 0 0 -220.72945522919326 -305.15092229768197 0 -305.15092229768197 -377.59989630922792 0 0 0 0 -106.47784146221238 -293.35469709330937 0 -293.35469709330937 -376.67764108202391 0 0 0 0 -158.28954561287537 -178.82959163963824 0 -178.82959163963824 -235.83947331464151 0 0 0 0 -240.19652330382269 -232.15108278865591 0 -232.15108278865591 -189.46558782283682 0 0 0 0 -0.56990958690585103 -188.87649395275366 0 -188.87649395275366 -294.62302867700055 0 0 0 0 -173.3266927353252 -145.564799608881 0 -145.564799608881 -82.73210633159033 0 0 0 0 -236.22237903947826 -178.20792908535077 0 -178.20792908535077 -165.11332998925354 0 0 0 0 0.53782588453032076 14.14050392495119 0 14.14050392495119 28.835004992448376 0 0 0 0 -1.0701330931642019 -0.49744320432518663 0 -0.49744320432518663 0.359248856525614 0 0 0 0 40.336162766499911 -65.894687972246174 0 -65.894687972246174 -219.06379631905293 0 0 0 0 32.924919897428481 21.98624248440683 0 21.98624248440683 -164.67461030066625 0 0 0 0 -3.4460500306552433 -0.70552081511113052 0 -0.70552081511113052 4.1040521906548566 0 0 0 0 164.51318694779184 -103.33636509463395 0 -103.33636509463395 64.687788979382049 0 0 0 0 0.0080990266211671269 -0.010113165852427386 0 -0.010113165852427386 -0.0057571911881770105 0 0 0 0 0.31535890212398954 -80.706447122433019 0 -80.706447122433019 123.81218123078725 0 0 0 0 59.004427690349985 -117.55926793487015 0 -117.55926793487015 142.4156874432083 0 0 0 0 68.994179085362703 -150.08881770823427 0 -150.08881770823427 175.37583818193525 0 0 0 0 -0.58524468709947541 -119.60524903402802 0 -119.60524903402802 53.325394025763671 0 0 0 0 101.45353132794844 -123.03831528655792 0 -123.03831528655792 -115.05152707180969 0 0 0 0 114.19024731998798 -51.117299202673166 0 -51.117299202673166 3.773040338382998 0 0 0 0 24.298999211518094 -104.93680333414522 0 -104.93680333414522 185.63848246725138 0 0 0 0 17.358413475390989 -71.884564429085003 0 -71.884564429085003 147.97842270040019 0 0 0 0 95.771636435936671 -120.50111004213977 0 -120.50111004213977 185.0152561606161 0 0 0 0 102.55873658589553 -149.75292579428606 0 -149.75292579428606 19.492300584792247 0 0 0 0 1.7624756190925837 -3.368360870063043 0 -3.368360870063043 2.1996393715155591 0 0 0 0 -2.3506953686364547 -1.7311646784268211 0 -1.7311646784268211 4.0063210688289779 0 0 0 0 1.7519499297777656 1.0425139536127972 0 1.0425139536127972 0.51845958828926086 0 0 0 0 0.73434594456193736 -1.324848425178061 0 -1.324848425178061 -3.20701300183282 0 0 0 0 -718.44995691312943 375.98060390129103 0 375.98060390129103 -199.80605137650855 0 0 0 0 -1084.4599341976282 103.72458567083231 0 103.72458567083231 99.088359598041279 0 0 0 0 -298.5437454325438 429.036430053613 0 429.036430053613 -333.3775907721938 0 0 0 0 110.87883866566699 23.188828296850261 0 23.188828296850261 -1.7523540965776192 0 0 0 0 -0.032239769547253161 -0.30998646450249545 0 -0.30998646450249545 0.34671750714032257 0 0 0 0 23.462643338658381 40.400314747483208 0 40.400314747483208 61.202895374131913 0 0 0 0 -0.13594674292679088 -1.118548224828313 0 -1.118548224828313 -1.1127038436749839 0 0 0 0 1.672494955953816 1.112662507878948 0 1.112662507878948 -0.87750636510129643 0 0 0 0 72.410088363103569 80.132646529011254 0 80.132646529011254 -37.287278608891938 0 0 0 0 0.84826693065899761 1.3132773449594621 0 1.3132773449594621 -0.82398982476249916 0 0 0 0 -101.13864041131455 -36.521634179727698 0 -36.521634179727698 75.054049623350011 0 0 0 0 -55.93572910130024 84.270046982237545 0 84.270046982237545 41.441964555117011 0 0 0 0 -11.726644050668256 -89.807365687966012 0 -89.807365687966012 -128.48256564323674 0 0 0 0 -58.823678870190633 -105.71908708687988 0 -105.71908708687988 -114.52106584185822 0 0 0 0 -217.78571149904747 -368.13043147732969 0 -368.13043147732969 -469.64256128677516 0 0 0 0 112.7383463351689 -296.22128866753428 0 -296.22128866753428 -901.37872061223607 0 0 0 0 84.24850077368319 -215.41377547501179 0 -215.41377547501179 -552.90509050397668 0 0 0 0 -0.084384137272135007 -0.41250725672158239 0 -0.41250725672158239 -0.36671175209955464 0 0 0 0 -463.60277142550331 1030.9013414868241 0 1030.9013414868241 -784.27469497523271 0 0 0 0 -448.99986772047123 -420.0690463826686 0 -420.0690463826686 -314.45208522743633 0 0 0 0 -187.97156993090175 410.93716370232141 0 410.93716370232141 -434.93540817145549 0 0 0 0 -213.56256397192669 -15.288816834819102 0 -15.288816834819102 65.386882625214639 0 0 0 0 -252.29915423068451 345.68086109587603 0 345.68086109587603 -440.99101854886976 0 0 0 0 11.773469292529626 47.514282725562225 0 47.514282725562225 -1347.45097983921 0 0 0 0 -616.61664264684077 816.26444148370501 0 816.26444148370501 -1011.7432887760515 0 0 0 0 237.06446103894632 90.3819286435496 0 90.3819286435496 -860.19159720517928 0 0 0 0 234.97072646141169 53.356071116817475 0 53.356071116817475 -1476.6560169569457 0 0 0 0 -74.848069559549913 -614.60343483759425 0 -614.60343483759425 -1255.1476670885895 0 0 0 0 189.3250373385381 -20.441060138553439 0 -20.441060138553439 -652.48499170268769 0 0 0 0 177.00643940496957 -32.744023288487369 0 -32.744023288487369 -511.2375344762404 0 0 0 0 146.09542204908212 -139.03268353935709 0 -139.03268353935709 -692.42214668054658 0 0 0 0 179.86422526283786 -96.209590825652413 0 -96.209590825652413 -796.6719084722572 0 0 0 0 181.45596214945544 -114.81476136198762 0 -114.81476136198762 -584.61388535557489 0 0 0 0 -11.253147330477077 -207.99685718355886 0 -207.99685718355886 -465.64685534700402 0 0 0 0 -3.4313486379790703 -0.62602611992109747 0 -0.62602611992109747 4.2195613325554033 0 0 0 0 72.771670377958799 83.346993081788241 0 83.346993081788241 -390.37458928010165 0 0 0 0 35.598970382503467 239.8342599971038 0 239.8342599971038 -1038.5344425640578 0 0 0 0 151.44694725523004 -144.79812381844386 0 -144.79812381844386 -889.93559497128808 0 0 0 0 -0.24609077961749823 -157.77366410651177 0 -157.77366410651177 -626.44669444777537 0 0 0 0 66.888987643804285 38.993774277732882 0 38.993774277732882 -332.63375217450084 0 0 0 0 0.15140218389569782 -116.19045092349552 0 -116.19045092349552 -201.66317424451699 0 0 0 0 32.692046336016574 -227.27060963275608 0 -227.27060963275608 322.83386260152474 0 0 0 0 -25.44550141383661 52.803654978368286 0 52.803654978368286 102.6060689337537 0 0 0 0 -0.070714463217882439 -131.52108296462029 0 -131.52108296462029 230.2123192147701 0 0 0 0 -80.779543301774538 -298.02129375462391 0 -298.02129375462391 1168.9410874109162 0 0 0 0 -1.9372561423024557 0.5888466339066456 0 0.5888466339066456 2.1149889232373207 0 0 0 0 -94.148974635492777 -303.33541274553681 0 -303.33541274553681 1251.9077341955999 0 0 0 0 0.28892176621593535 -321.98477233307858 0 -321.98477233307858 1141.8227740226939 0 0 0 0 308.23675594269298 -296.1968966839886 0 -296.1968966839886 3234.7066010409399 0 0 0 0 335.07005791942356 -241.63382838457255 0 -241.63382838457255 1202.0542481607336 0 0 0 0 25.185670633931295 -482.36944674136339 0 -482.36944674136339 1050.3101204455452 0 0 0 0 2375.9627111211303 14.182786739635048 0 14.182786739635048 538.76483892938995 0 0 0 0 57.881973932875553 -522.80830071041419 0 -522.80830071041419 487.74680323120765 0 0 0 0 55.654791321925586 -2168.18593559078 0 -2168.18593559078 1590.3975627989275 0 0 0 0 448.35863635246642 -455.95312198341344 0 -455.95312198341344 174.77096602268284 0 0 0 0 349.51673421499436 339.19530272849443 0 339.19530272849443 417.5571536366333 0 0 0 0 -1.5043681207090671 0.4152330376121256 0 0.4152330376121256 1.5677828100747941 0 0 0 0 -135.53426206301083 360.60278679733165 0 360.60278679733165 -44.292247995017533 0 0 0 0 -40.236114217783324 465.14950163800313 0 465.14950163800313 -652.21640797839791 0 0 0 0 -458.73223507041985 -832.43641585163641 0 -832.43641585163641 -189.46737142165512 0 0 0 0 -120.98346072147251 -166.09607781670275 0 -166.09607781670275 29.580735146308143 0 0 0 0 -0.62191187107449863 0.13104725628230973 0 0.13104725628230973 0.58376601240394344 0 0 0 0 -305.04717948572943 -587.38084339502166 0 -587.38084339502166 342.82428803348012 0 0 0 0 82.470306560178869 -800.64552938021006 0 -800.64552938021006 263.35448353080574 0 0 0 0 755.07853741646977 -544.76215789840717 0 -544.76215789840717 101.1630771840646 0 0 0 0 51.104510437493445 -488.31660993136029 0 -488.31660993136029 103.61510066919618 0 0 0 0 -28.513418856193312 67.71329074777168 0 67.71329074777168 300.42131177140982 0 0 0 0 -0.43163321592932391 -1.5915891475964639 0 -1.5915891475964639 -1.5633695606728928 0 0 0 0 61.18590506768669 -532.83735532431456 0 -532.83735532431456 252.58324209332204 0 0 0 0 -2007.4642495605804 -7.8223466366544017 0 -7.8223466366544017 912.87842792570882 0 0 0 0 57.061941697080329 -508.16385701983381 0 -508.16385701983381 228.69027498023934 0 0 0 0 147.67433469392972 -577.65637327345348 0 -577.65637327345348 1095.8325524481188 0 0 0 0 -0.11299091455699539 -0.50783050147233588 0 -0.50783050147233588 -0.51922266433470732 0 0 0 0 -17.466006906644907 -97.701157871539181 0 -97.701157871539181 243.40569962433074 0 0 0 0 147.43722158297896 -504.66744204606948 0 -504.66744204606948 840.12525130722497 0 0 0 0 -289.72817213859526 -242.33351878015674 0 -242.33351878015674 1360.6561576999593 0 0 0 0 12.54278574383352 -247.40284598806466 0 -247.40284598806466 947.79121981653952 0 0 0 0 -1370.3272387084144 -130.79986066395941 0 -130.79986066395941 1726.9122271336673 0 0 0 0 -823.32343169915839 1412.9624191508046 0 1412.9624191508046 2672.4149234132638 0 0 0 0 4.9188447227497818 -319.95116116754252 0 -319.95116116754252 1255.9010957446881 0 0 0 0 -297.00010590794409 -265.92726591173778 0 -265.92726591173778 1264.4903268694616 0 0 0 0 -273.02301782733412 201.73482196433179 0 201.73482196433179 1457.1476046088101 0 0 0 0 -376.24106608098373 -39.22999832752248 0 -39.22999832752248 902.56274094927358 0 0 0 0 -58.301257396611618 -180.48636752682796 0 -180.48636752682796 768.48441498068132 0 0 0 0 83.369844275803189 289.01665877342748 0 289.01665877342748 635.96127902883745 0 0 0 0 55.345441628114713 96.003163797499383 0 96.003163797499383 227.56162891496206 0 0 0 0 54.273802219206118 17.374289606283128 0 17.374289606283128 6.7501071570586646 0 0 0 0 19.788243675255217 -34.829097932750301 0 -34.829097932750301 243.77738653712731 0 0 0 0 73.089658225420862 93.521633451915477 0 93.521633451915477 297.48148836051405 0 0 0 0 24.612212066538632 -104.12738140180591 0 -104.12738140180591 27.059900888851189 0 0 0 0 0.046469022141536698 57.544749454216799 0 57.544749454216799 -10.391251492816082 0 0 0 0 -0.91280445363750573 -2.7945799051286535 0 -2.7945799051286535 -2.6111858958850274 0 0 0 0 430.78597391413496 97.189357243713857 0 97.189357243713857 21.532321095932275 0 0 0 0 54.143582792632515 -22.681312536173209 0 -22.681312536173209 -49.489467602150398 0 0 0 0 1.4008621893735835 -56.557783474909229 0 -56.557783474909229 -2.330624887268641 0 0 0 0 9.5327640344985412 -6.496784907676556 0 -6.496784907676556 -54.476510127162328 0 0 0 0 0.48515950426008203 -0.65599472606481868 0 -0.65599472606481868 1.1754385456588352 0 0 0 0 1.546406289562583 -0.21255269998800941 0 -0.21255269998800941 -0.2348401888157241 0 0 0 0 -2.4719336310226936 -21.904903248050687 0 -21.904903248050687 -14.823870550142601 0 0 0 0 0.2585194026469253 -0.62210832373784797 0 -0.62210832373784797 1.340136291764793 0 0 0 0 -1.6154388059679476 -1.3052995830952785 0 -1.3052995830952785 -0.2781523969787365 0 0 0 0 0.4487882965040626 -0.13887287401303183 0 -0.13887287401303183 0.87597006220312323 0 0 0 0 -0.4089327239015077 -2.7806879266829991 0 -2.7806879266829991 -0.503675987155773 0 0 0 0 -1.0422405438248461e-05 0.0052721140373099828 0 0.0052721140373099828 -0.0034100923849406384 0 0 0 0 2.2287266086786985 -1.6911340651568025 0 -1.6911340651568025 -2.0864278041553916 0 0 0 0 313.66719792623189 -39.3402849139311 0 -39.3402849139311 123.82052646383488 0 0 0 0 342.21366717107594 -457.70860694898874 0 -457.70860694898874 133.85642587206064 0 0 0 0 1.1295145948315621 -3.0273838684715884 0 -3.0273838684715884 -3.0920806515205186 0 0 0 0 642.27206964010838 -153.93330690773291 0 -153.93330690773291 -231.98710808750184 0 0 0 0 0.45698352780790685 -0.39280799054770466 0 -0.39280799054770466 -0.12733151822655442 0 0 0 0 447.06614901358262 -663.63603764073923 0 -663.63603764073923 894.66466624858731 0 0 0 0 309.464830061057 -325.73840545162602 0 -325.73840545162602 385.98479753709398 0 0 0 0 843.84113603064907 -549.04089470549661 0 -549.04089470549661 209.4089697279851 0 0 0 0 690.99523560563102 15.695825953611347 0 15.695825953611347 -282.71085935315932 0 0 0 0 177.85995911216014 41.575837462572963 0 41.575837462572963 127.57114059952437 0 0 0 0 95.393671353493119 -225.81134114091765 0 -225.81134114091765 -523.19800043119176 0 0 0 0 -90.894574044272304 453.27218922417524 0 453.27218922417524 -578.76209181627291 0 0 0 0 161.71201790068881 288.28122617953704 0 288.28122617953704 -505.07124916494649 0 0 0 0 -218.71205544099212 339.48101515061717 0 339.48101515061717 -361.71058203180291 0 0 0 0 180.81417085672729 -115.75840620425879 0 -115.75840620425879 -106.78672388157429 0 0 0 0 127.9355441011212 183.55453302268234 0 183.55453302268234 -147.57777384805377 0 0 0 0 348.17415531651932 225.38031426864472 0 225.38031426864472 -441.83576779192663 0 0 0 0 204.91319637399283 -0.34202541298873257 0 -0.34202541298873257 -875.80254971506656 0 0 0 0 3.4644202707277145 199.76932959248734 0 199.76932959248734 -415.21801280955697 0 0 0 0 -1.1266980012591503 0.98080287599619798 0 0.98080287599619798 -0.65226050895171217 0 0 0 0 89.252325055233086 283.6416280232479 0 283.6416280232479 -446.72980929179175 0 0 0 0 -181.69887282006675 189.59811649237599 0 189.59811649237599 -432.23656174847565 0 0 0 0 1.6548484583239826 0.41784871786664679 0 0.41784871786664679 -0.90887904775863926 0 0 0 0 -6.710773125581909 1.4181312928449188 0 1.4181312928449188 -0.42240902335277042 0 0 0 0 -0.31203614460140017 -0.5153518197284459 0 -0.5153518197284459 0.40578842445925112 0 0 0 0 0.7279198389221655 -1.5156086700899003 0 -1.5156086700899003 -0.93387456641117517 0 0 0 0 -96.018132618337404 -41.574361819701153 0 -41.574361819701153 -26.167311297282708 0 0 0 0 -9.932569254306145 0.59082329079683404 0 0.59082329079683404 7.0425199785386212 0 0 0 0 -1.800418806153175 2.7265839613019125 0 2.7265839613019125 2.7552094478232902 0 0 0 0 -72.337133612687467 -100.22951555446343 0 -100.22951555446343 114.93227313402895 0 0 0 0 127.85094369534636 -50.018052851983157 0 -50.018052851983157 -307.31840076715889 0 0 0 0 244.67924852846772 -290.53018415431507 0 -290.53018415431507 100.27385029004654 0 0 0 0 -0.13704412346282169 -0.31815821466060079 0 -0.31815821466060079 0.29542028904836126 0 0 0 0 364.21973312244518 844.15550256161077 0 844.15550256161077 373.45362774647947 0 0 0 0 478.94530497294909 10.187472492581946 0 10.187472492581946 -635.12636895207106 0 0 0 0 151.58166115279892 190.15963176467631 0 190.15963176467631 -486.39495066397285 0 0 0 0 38.704543569125235 -310.8263417856142 0 -310.8263417856142 -144.12125627655041 0 0 0 0 -0.3484407548508095 0.28903187587964752 0 0.28903187587964752 -0.21964453820212931 0 0 0 0 -0.67288364914566046 -1.8468178615530633 0 -1.8468178615530633 -0.088330448539636564 0 0 0 0 -1.6114934434987696 -0.73125430346750697 0 -0.73125430346750697 1.1365042749157066 0 0 0 0 -136.89292083110195 -271.46885402074622 0 -271.46885402074622 -357.61813242215248 0 0 0 0 -262.77383341242239 -259.08213178425103 0 -259.08213178425103 -255.65519186584788 0 0 0 0 -0.95900583983483401 -1.1872770595653561 0 -1.1872770595653561 -0.57448837592254698 0 0 0 0 508.91525909127813 158.16460468150126 0 158.16460468150126 71.757661672949325 0 0 0 0 1.6058143865084276 0.96248890596325509 0 0.96248890596325509 3.0163902826607227 0 0 0 0 416.50760441730381 -219.32125205549437 0 -219.32125205549437 -174.96811387054186 0 0 0 0 -0.88907884928630665 -1.7422163795145025 0 -1.7422163795145025 1.3009449601377128 0 0 0 0 -46.721014215465402 -208.89021757350565 0 -208.89021757350565 -566.21743031330698 0 0 0 0 -50.573171655938495 -135.45508771688765 0 -135.45508771688765 -302.65354881289386 0 0 0 0 -0.06969155587783149 -0.023745774876703152 0 -0.023745774876703152 0.028452253462736721 0 0 0 0 -0.27740743075911567 -0.92579180424480434 0 -0.92579180424480434 0.78525311766893413 0 0 0 0 -75.093851911136881 -201.50051921186241 0 -201.50051921186241 -342.15447357973608 0 0 0 0 -300.22191928583197 -207.50701776358619 0 -207.50701776358619 -226.04115093086148 0 0 0 0 -178.8503998676897 -212.66003618833201 0 -212.66003618833201 -229.12843607211471 0 0 0 0 -138.5015315382625 -90.615863278057077 0 -90.615863278057077 -263.15752975505893 0 0 0 0 -159.88371089939028 -147.06324991169822 0 -147.06324991169822 -76.554267146450002 0 0 0 0 -221.9963392730715 -85.643802988255629 0 -85.643802988255629 -256.66346032764704 0 0 0 0 -99.347519195594941 -167.4423278276663 0 -167.4423278276663 -18.715975087397965 0 0 0 0 -77.886717977846274 -114.6474614744875 0 -114.6474614744875 -221.45529923080176 0 0 0 0 -80.941056368174031 -77.829772918412345 0 -77.829772918412345 147.51378494867822 0 0 0 0 98.137418257450918 -211.03901600856261 0 -211.03901600856261 -167.57426028664486 0 0 0 0 -122.27160847099731 -159.44674716759164 0 -159.44674716759164 -179.43585332891962 0 0 0 0 -172.6752265887626 -222.29024666563419 0 -222.29024666563419 -168.43051415095761 0 0 0 0 -66.760751088644611 -244.15096237596117 0 -244.15096237596117 -389.03256180054814 0 0 0 0 -1.6598129650810733 -1.486252181504824 0 -1.486252181504824 -0.50663195208471734 0 0 0 0 1.1779581345617771 -2.0687269649934024 0 -2.0687269649934024 -3.8660339426860446 0 0 0 0 -0.98197386410265963 -1.191464977554757 0 -1.191464977554757 1.2926816822295404 0 0 0 0 -1.4194210110290442 -1.3702515124859929 0 -1.3702515124859929 -1.4837981786404271 0 0 0 0 -0.78666593926027417 -0.69469287159154192 0 -0.69469287159154192 -1.0325403915753668 0 0 0 0 -0.49372899570153095 -1.100215234393545 0 -1.100215234393545 -0.62569779048499186 0 0 0 0 7.7276191366836429 -7.4552657351450762 0 -7.4552657351450762 -1.127155849778319 0 0 0 0 1.8587015229859389 1.6563858344106848 0 1.6563858344106848 5.029258595284773 0 0 0 0 -6.5129352066142019 -4.1045418869452988 0 -4.1045418869452988 6.3015160780705628 0 0 0 0 -1.699801780981943 -2.0719648935919395 0 -2.0719648935919395 6.9582396708137821 0 0 0 0 0.0035581815291116925 -0.025716359750334039 0 -0.025716359750334039 -0.00072627867640284727 0 0 0 0 1.0299934525392018 -0.7959649996337248 0 -0.7959649996337248 -4.0533675203187158 0 0 0 0 -2.2751019313700844 -0.39992113940284391 0 -0.39992113940284391 0.67904153793698663 0 0 0 0 -0.43463313241954893 0.12219767976785079 0 0.12219767976785079 -1.0444611464918125 0 0 0 0 -0.319979735679226 -0.072953052542288788 0 -0.072953052542288788 0.37904925085240393 0 0 0 0 0.2972777263057651 -0.46349932356861245 0 -0.46349932356861245 6.5613379154092399 0 0 0 0 0.011939616733641856 -0.064110182308056984 0 -0.064110182308056984 -0.001317252155234705 0 0 0 0 53.946811302186688 -33.739561895279621 0 -33.739561895279621 17.039159576544762 0 0 0 0 -2.3566086095251499 -0.84934868207173864 0 -0.84934868207173864 0.79215723694745532 0 0 0 0 -0.68971240695100278 0.32685948978178203 0 0.32685948978178203 0.02545076358364895 0 0 0 0 -0.58377613662742078 -0.37706004910432966 0 -0.37706004910432966 -0.2232375242310809 0 0 0 0 -0.73071696044644341 -0.78549094880145276 0 -0.78549094880145276 -0.11573703432554794 0 0 0 0 -0.7948965101968497 -0.32003624048957136 0 -0.32003624048957136 -0.0085423646369235939 0 0 0 0 -0.62324401008663699 -0.25665009472868405 0 -0.25665009472868405 0.45316430815728381 0 0 0 0 -0.13988109072670341 0.12437964635319076 0 0.12437964635319076 0.72124282820732333 0 0 0 0 -0.87259969054139219 -0.96427029237383977 0 -0.96427029237383977 0.86757150886114687 0 0 0 0 -1.2563426102424273 -0.75390133756809519 0 -0.75390133756809519 0.19039649126352742 0 0 0 0 0.0055079945964431332 -0.0060668757315642807 0 -0.0060668757315642807 0.0003075265273011496 0 0 0 0 0.5770102413080167 0.41248090857334319 0 0.41248090857334319 0.75263609788817121 0 0 0 0 -0.53761533694341779 -0.35775903970352374 0 -0.35775903970352374 1.9377910527691711 0 0 0 0 0.21169000864028931 -0.10358998348965542 0 -0.10358998348965542 0.13651906940503977 0 0 0 0 0.38302986850612797 0.0074614556069718674 0 0.0074614556069718674 0.1481993296474684 0 0 0 0 2.454478907660814 -0.72004997838666895 0 -0.72004997838666895 -0.62645236124808434 0 0 0 0 -1.4191731448260008 -2.525883930281581 0 -2.525883930281581 0.1555068948630996 0 0 0 0 -47.160419974956312 -33.748444729844778 0 -33.748444729844778 -6.7524180155523936 0 0 0 0 -0.97894663742818233 -0.75028225510106061 0 -0.75028225510106061 4.6001885993267297 0 0 0 0 4.1184115168871358 -45.883664890068758 0 -45.883664890068758 72.535001524578547 0 0 0 0 21.845365677654627 -8.7114190307329409 0 -8.7114190307329409 127.10508135494456 0 0 0 0 64.340329371480038 -4.891310256854922 0 -4.891310256854922 62.166569559871277 0 0 0 0 264.03066625348583 -321.828511351825 0 -321.828511351825 248.04154553266017 0 0 0 0 -0.59776501133755966 -0.29174376570020222 0 -0.29174376570020222 3.081808581749689 0 0 0 0 -108.57890479192429 54.221609054784494 0 54.221609054784494 300.62476596164197 0 0 0 0 220.91018142950634 -839.49741723064471 0 -839.49741723064471 1063.7348355033901 0 0 0 0 560.31196911279403 -327.82718606534399 0 -327.82718606534399 93.742664434372273 0 0 0 0 30.536745746285305 74.942864425294829 0 74.942864425294829 586.41069100271852 0 0 0 0 40.55009603289318 -188.83385784279915 0 -188.83385784279915 3059.0663678927376 0 0 0 0 -0.19947940248462981 -0.047485413522817765 0 -0.047485413522817765 1.1341161417840357 0 0 0 0 324.2875607656315 995.03729529274278 0 995.03729529274278 1797.9749762100619 0 0 0 0 1783.4140932410955 -1152.5196954428939 0 -1152.5196954428939 649.641494516276 0 0 0 0 37.206558777019382 -902.54336818058437 0 -902.54336818058437 2695.3616293676168 0 0 0 0 -167.73647452061414 -171.60478394355596 0 -171.60478394355596 348.17311701346807 0 0 0 0 -311.03699795369175 -270.48994093290094 0 -270.48994093290094 1337.2496959837154 0 0 0 0 -375.48154183434963 -52.879658087872485 0 -52.879658087872485 839.25549112170847 0 0 0 0 30.352086339087691 -508.95532276352606 0 -508.95532276352606 591.48064141297073 0 0 0 0 -255.20788194614579 -368.19226557050024 0 -368.19226557050024 737.8033449930299 0 0 0 0 -168.62839745508973 -509.56551627440058 0 -509.56551627440058 968.38333980320931 0 0 0 0 -57.832247133754208 -376.05197488070326 0 -376.05197488070326 731.63622179230151 0 0 0 0 -167.82652092212811 -266.85928810581026 0 -266.85928810581026 625.77956240294225 0 0 0 0 -49.462207689735806 -314.63615860539721 0 -314.63615860539721 411.65170116109221 0 0 0 0 99.674133778817122 -272.85114475313935 0 -272.85114475313935 422.52492176904343 0 0 0 0 -5.9766603509197012 -113.23545175238178 0 -113.23545175238178 221.82127062035147 0 0 0 0 -27.358053531694168 -165.22267364916343 0 -165.22267364916343 666.68771833062783 0 0 0 0 -24.733775689615868 73.891276378075418 0 73.891276378075418 933.70797783897433 0 0 0 0 -41.114138771343278 -39.661849351417914 0 -39.661849351417914 473.55409662370221 0 0 0 0 -77.986102593742544 -90.596465314785746 0 -90.596465314785746 823.97372778205317 0 0 0 0 -69.448403179889283 -26.866237965492928 0 -26.866237965492928 950.96980850768159 0 0 0 0 -145.63850741792703 -176.4680479800918 0 -176.4680479800918 971.97597363236491 0 0 0 0 -175.67405252737808 -412.06523342583023 0 -412.06523342583023 815.836902488958 0 0 0 0 -160.28941127847065 -305.21220842146613 0 -305.21220842146613 564.31098843829386 0 0 0 0 -82.869825541762111 -328.39615985390446 0 -328.39615985390446 610.69444418145576 0 0 0 0 60.606421088581556 -414.4683251093702 0 -414.4683251093702 525.71672291636787 0 0 0 0 -14.91372777321166 -12.066274960170151 0 -12.066274960170151 0.191396889408459 0 0 0 0 -113.26628621126292 -48.619082282358249 0 -48.619082282358249 84.475801431995933 0 0 0 0 -226.05713894487417 -211.93452653039458 0 -211.93452653039458 601.08084660900931 0 0 0 0 -18.664953832194442 -6.7855928343997221 0 -6.7855928343997221 -17.447435391186445 0 0 0 0 -7.6912643541418753 -4.6592294028875791 0 -4.6592294028875791 -2.4288203563154891 0 0 0 0 -19.137317426031586 -7.4279492105179088 0 -7.4279492105179088 -0.64035944316128734 0 0 0 0 -13.436764805633501 -11.091230666873821 0 -11.091230666873821 -0.074071621001666088 0 0 0 0 140.46940832642758 61.372515936723175 0 61.372515936723175 6.8320460359609569 0 0 0 0 618.17933009003173 -462.04202562309729 0 -462.04202562309729 194.46908031546445 0 0 0 0 -222.14040171585657 -376.19901011164438 0 -376.19901011164438 1459.4124135563761 0 0 0 0 -0.85638081090989004 -0.83054952197574927 0 -0.83054952197574927 0.10956228829565351 0 0 0 0 -428.42134841304505 -776.14417003433482 0 -776.14417003433482 1648.373888465394 0 0 0 0 -408.45287253355491 -947.64364537483198 0 -947.64364537483198 2174.1210773277417 0 0 0 0 33.479512803998659 -698.22021863704867 0 -698.22021863704867 1461.1814635794362 0 0 0 0 -84.1417794059671 243.44268138784537 0 243.44268138784537 1480.9289394824068 0 0 0 0 -549.4132329589338 -699.34205452490278 0 -699.34205452490278 401.31431217517456 0 0 0 0 437.70719588569045 -781.12222966944682 0 -781.12222966944682 1329.7998957245145 0 0 0 0 -144.99066250317264 308.77414796366429 0 308.77414796366429 701.69113101000767 0 0 0 0 -173.49678519627196 -84.301199856057792 0 -84.301199856057792 783.907468238398 0 0 0 0 -441.17038496647001 -323.56954073979796 0 -323.56954073979796 1993.9116388220427 0 0 0 0 97.701743185767555 -253.85118083713041 0 -253.85118083713041 -12.905342994803505 0 0 0 0 8.5640846621827222 -8.193183181605491 0 -8.193183181605491 -372.1293220459047 0 0 0 0 -59.677456602890743 -27.773331054646405 0 -27.773331054646405 -105.02644119430624 0 0 0 0 -85.78796015563421 -72.174711813458998 0 -72.174711813458998 -93.941856288489362 0 0 0 0 -289.43812754116288 -353.72980110903183 0 -353.72980110903183 -394.82875819414039 0 0 0 0 -295.56158447549387 81.153051038105332 0 81.153051038105332 -153.0915481875054 0 0 0 0 46.583833366603358 -103.06653076939619 0 -103.06653076939619 197.00260055432591 0 0 0 0 -34.980623708397616 -264.35107385268202 0 -264.35107385268202 -718.2171271113059 0 0 0 0 -0.49297023600579593 -0.42356843598768368 0 -0.42356843598768368 0.17254023656032103 0 0 0 0 -0.2424468180566528 -0.15348238175150719 0 -0.15348238175150719 0.30070007663979048 0 0 0 0 -2.2539705938325945 -0.056018993369392867 0 -0.056018993369392867 0.5757834964033044 0 0 0 0 -0.30395140733920201 -1.5734547542400836 0 -1.5734547542400836 1.3331811509335951 0 0 0 0 -8.4012242489552591 2.8266049610829214 0 2.8266049610829214 -0.045788254370563664 0 0 0 0 -81.68227257556282 -165.15488611103865 0 -165.15488611103865 -319.13856373518684 0 0 0 0 -61.44217312928231 -220.72535088643417 0 -220.72535088643417 -357.6468316027167 0 0 0 0 -18.0606244969822 -119.52015540708453 0 -119.52015540708453 -511.66210759818932 0 0 0 0 -254.56715769687435 -195.50555241263282 0 -195.50555241263282 -141.85312045324099 0 0 0 0 192.94748566953058 -146.4771169610467 0 -146.4771169610467 -138.99493626754065 0 0 0 0 -0.63207194146567147 -0.63336952316679707 0 -0.63336952316679707 0.56523421195667467 0 0 0 0 -321.98971306509338 -30.139416684443859 0 -30.139416684443859 -74.074505766642687 0 0 0 0 27.334423391279415 139.14289014350288 0 139.14289014350288 31.586410557240015 0 0 0 0 -93.653178806649521 22.444905369484331 0 22.444905369484331 -64.050382527084366 0 0 0 0 -2.0632746987606261 -2.0863787558508715 0 -2.0863787558508715 1.8993866031244302 0 0 0 0 -189.80001990922028 88.962884772881807 0 88.962884772881807 149.16567725277855 0 0 0 0 122.52905384998303 -79.979730537190335 0 -79.979730537190335 18.322387953397993 0 0 0 0 -3.0183040169067681 -99.332843208096165 0 -99.332843208096165 59.674874020436619 0 0 0 0 -44.262123735403293 -16.19328087581016 0 -16.19328087581016 31.417192807188258 0 0 0 0 -68.861251698574051 -13.019633315969259 0 -13.019633315969259 35.808855314891844 0 0 0 0 -57.35822208141326 -22.405161222926836 0 -22.405161222926836 58.340648193232482 0 0 0 0 -44.274570921290433 -16.835166571465379 0 -16.835166571465379 32.587193015351659 0 0 0 0 -72.797936191258486 29.073359553394766 0 29.073359553394766 -20.638906100342865 0 0 0 0 -120.58218271360965 -52.846044827849255 0 -52.846044827849255 71.274170353754016 0 0 0 0 -16.881124278763309 0.22555208653648151 0 0.22555208653648151 13.593459309078753 0 0 0 0 -0.091568608577585309 -6.0612016223400396 0 -6.0612016223400396 -3.9449440275005383 0 0 0 0 -2.6226324962767471 -2.6405073205524587 0 -2.6405073205524587 2.4567931424868457 0 0 0 0 -0.11051869591998909 -0.2708941951069388 0 -0.2708941951069388 -0.56561199698009013 0 0 0 0 -15.32745475685806 -21.072959345850904 0 -21.072959345850904 -32.782460764174175 0 0 0 0 -0.26570421387441456 -0.88807721430930542 0 -0.88807721430930542 -0.66277906428331335 0 0 0 0 0.12713538142102188 -6.010371258722822 0 -6.010371258722822 -4.4168604739048023 0 0 0 0 -0.71465881883533378 -0.81153797877016309 0 -0.81153797877016309 0.64159126767182428 0 0 0 0 -11.128323991651996 -14.150840077065368 0 -14.150840077065368 38.138607285174658 0 0 0 0 4.7741361030639382 -30.474805198071408 0 -30.474805198071408 23.647908160695806 0 0 0 0 -18.403593270239071 -23.939901001282124 0 -23.939901001282124 25.776104156262591 0 0 0 0 -38.773326238995651 -49.25268663730094 0 -49.25268663730094 46.246332090857322 0 0 0 0 -33.668878167518415 -43.398425851308275 0 -43.398425851308275 21.039594431786099 0 0 0 0 -23.243456903990591 -33.502024222161708 0 -33.502024222161708 21.135391279880423 0 0 0 0 3.5665949243848445 -41.702314920694334 0 -41.702314920694334 15.622255688416772 0 0 0 0 2.0772748270210286 -50.199624798340665 0 -50.199624798340665 19.040793219959596 0 0 0 0 -17.366112123214407 -43.259077040540433 0 -43.259077040540433 26.45550950874167 0 0 0 0 -2.8979128551701052 -3.0329217046553456 0 -3.0329217046553456 3.6319157544169371 0 0 0 0 -113.78971555887256 -88.379225952408888 0 -88.379225952408888 -43.968705836643494 0 0 0 0 -109.93588894276763 -124.72854999490664 0 -124.72854999490664 228.85836012694017 0 0 0 0 55.006408684334019 -56.781992248470488 0 -56.781992248470488 -102.01500140833014 0 0 0 0 94.09468369588285 2.8874454128381331 0 2.8874454128381331 -69.448444829991786 0 0 0 0 -1.7050731333874865 -2.8073662112510647 0 -2.8073662112510647 -0.92113154119215324 0 0 0 0 33.878285873899586 -10.518338741852403 0 -10.518338741852403 -27.78815707276317 0 0 0 0 -1.314436880958965 -2.4664512588697107 0 -2.4664512588697107 -0.8228156730729097 0 0 0 0 -54.843501407391159 -91.224282671642868 0 -91.224282671642868 -65.673501045297598 0 0 0 0 -2.4508175969274184 -3.7999600210026614 0 -3.7999600210026614 2.7967682041935489 0 0 0 0 -2.1446535875229635 -3.8427841314024924 0 -3.8427841314024924 1.8823489457465847 0 0 0 0 -1.1685320830365526 -2.3844893348300502 0 -2.3844893348300502 -2.7330566831842589 0 0 0 0 9.028591567708645 -7.7543833888439622 0 -7.7543833888439622 -37.11079230800533 0 0 0 0 -37.277568363759201 -13.631370488477842 0 -13.631370488477842 150.82673631436137 0 0 0 0 0.093857178144212128 -0.15381010844249943 0 -0.15381010844249943 -0.68626515740881977 0 0 0 0 -38.430139724747278 47.379278222228095 0 47.379278222228095 143.29540121397986 0 0 0 0 7.5526364881661721 51.815594087586305 0 51.815594087586305 129.81240109012333 0 0 0 0 -44.403669282706687 -27.449985821658402 0 -27.449985821658402 239.06824953070009 0 0 0 0 -12.716888107766863 75.782248982229248 0 75.782248982229248 224.04356544629729 0 0 0 0 -33.2553434818401 36.390835910074202 0 36.390835910074202 165.29028405056215 0 0 0 0 98.086776339390781 -19.874425620408601 0 -19.874425620408601 175.45867669119252 0 0 0 0 -35.485898383485619 -37.935264071525125 0 -37.935264071525125 182.86071810813792 0 0 0 0 -54.475563830812462 -81.358118453850011 0 -81.358118453850011 172.40803620663752 0 0 0 0 -37.467593825829681 -46.391615688316506 0 -46.391615688316506 161.46575386243603 0 0 0 0 -29.412055369873997 5.5428108002570298 0 5.5428108002570298 168.78063134256354 0 0 0 0 -58.45553987508174 -33.272938314768908 0 -33.272938314768908 245.88833919420085 0 0 0 0 -2.3680637900694919 -3.7420359998925612 0 -3.7420359998925612 1.1077353373710717 0 0 0 0 -6.146873923484236 -16.997557695741307 0 -16.997557695741307 -21.316756950503986 0 0 0 0 0.38855821937324464 -0.29699800456369019 0 -0.29699800456369019 -0.92015555708958641 0 0 0 0 -8.0599542034324259 41.398066363612088 0 41.398066363612088 195.99158509491008 0 0 0 0 -36.11370711462223 -2.6757612470278218 0 -2.6757612470278218 158.77283607881509 0 0 0 0 31.801878968894016 26.79339563355461 0 26.79339563355461 92.887221672930536 0 0 0 0 40.539525504515041 -26.47565003294585 0 -26.47565003294585 -76.636340571785695 0 0 0 0 -0.36997133423574269 -1.1728637383057503 0 -1.1728637383057503 -0.57779827730337274 0 0 0 0 -0.14145248353364437 -0.19604575372300737 0 -0.19604575372300737 0.15777757367741474 0 0 0 0 0.91142676586324711 -4.6091805674896644 0 -4.6091805674896644 -4.0273436428764926 0 0 0 0 124.752336431804 -49.598527854554959 0 -49.598527854554959 -41.609519693514812 0 0 0 0 27.355817654359271 -46.781299276427717 0 -46.781299276427717 35.870247103575821 0 0 0 0 -1.7430733465566988 -4.0835957810750507 0 -4.0835957810750507 -0.51795185626662299 0 0 0 0 -0.65662825287292748 -2.7645965453856221 0 -2.7645965453856221 2.8533223292214691 0 0 0 0 -10.337904148502275 -7.699880088250211 0 -7.699880088250211 6.7326692617425579 0 0 0 0 -36.581477745901793 -8.3189650671456548 0 -8.3189650671456548 116.04867685174031 0 0 0 0 -40.921085853478871 -70.344880376655851 0 -70.344880376655851 141.3818437023312 0 0 0 0 -33.674084632541053 -42.498912647954967 0 -42.498912647954967 111.89998676635423 0 0 0 0 137.71634017524775 -287.48747931478476 0 -287.48747931478476 171.06745480072334 0 0 0 0 -41.394989130974864 -68.368653803850407 0 -68.368653803850407 150.46475726182575 0 0 0 0 -131.15547564375447 -81.87371423847128 0 -81.87371423847128 150.69501914573232 0 0 0 0 -285.30393142996763 47.340153275198958 0 47.340153275198958 69.161933685853228 0 0 0 0 -139.77174817855121 -47.503829402829808 0 -47.503829402829808 -135.53966163155854 0 0 0 0 -78.870085180518799 -106.43163818467406 0 -106.43163818467406 -206.70939234085381 0 0 0 0 -86.854174785948999 -55.337196740504254 0 -55.337196740504254 179.39484960265872 0 0 0 0 -367.42743714392418 -115.59103903324512 0 -115.59103903324512 -670.63000070787621 0 0 0 0 -438.80278147378704 -348.37766480890969 0 -348.37766480890969 -283.51763607199587 0 0 0 0 -549.27296707374626 -443.12538701802021 0 -443.12538701802021 -451.30344752406882 0 0 0 0 -375.39920378349234 12.05093515748419 0 12.05093515748419 -142.8317371910789 0 0 0 0 -194.03003150115546 -468.32121413185018 0 -468.32121413185018 -1285.7242528044853 0 0 0 0 -831.63318967667874 -1227.3434742837289 0 -1227.3434742837289 -1024.1203213355702 0 0 0 0 -2.3680859896412585 -55.479463068620589 0 -55.479463068620589 -8.7041837306887828 0 0 0 0 -11.816510067932541 -70.358182067786402 0 -70.358182067786402 -31.509626594057409 0 0 0 0 12.414262023434276 -40.928467813418138 0 -40.928467813418138 -67.836426843631216 0 0 0 0 -320.27764521935023 -37.467654163431462 0 -37.467654163431462 28.716767553832597 0 0 0 0 -86.787141216627788 48.221689505858194 0 48.221689505858194 59.74894953426292 0 0 0 0 -36.340559908101568 -60.183265221425472 0 -60.183265221425472 -163.90031888374642 0 0 0 0 -14.615306242994848 -4.58422907236627 0 -4.58422907236627 -25.074786468612729 0 0 0 0 32.296273334533907 -7.8103730363591239 0 -7.8103730363591239 -53.10980673871245 0 0 0 0 -16.657887102497625 34.440623525181621 0 34.440623525181621 -4.9199281803182657 0 0 0 0 6.4219134785234928 74.468864332596922 0 74.468864332596922 23.685540074414348 0 0 0 0 -57.925648045929847 100.84472440792126 0 100.84472440792126 -107.84011749328192 0 0 0 0 -190.49563907136326 59.433536300491198 0 59.433536300491198 9.7195790733654803 0 0 0 0 -57.020501751714619 52.148841480547276 0 52.148841480547276 9.6573000706378309 0 0 0 0 -145.69204323532904 76.764224186307771 0 76.764224186307771 125.94132447811739 0 0 0 0 3.29161169580766 30.797084823412774 0 30.797084823412774 132.58445700328093 0 0 0 0 -67.101580501010176 64.896233276085468 0 64.896233276085468 164.83441351561703 0 0 0 0 -82.576366060995497 19.119513990062842 0 19.119513990062842 167.10550290107687 0 0 0 0 6.2158160963736009 76.225115202184725 0 76.225115202184725 96.381740622034158 0 0 0 0 -47.88587405110593 114.97233469556068 0 114.97233469556068 68.714505155891857 0 0 0 0 -35.0942106982111 84.179001065441867 0 84.179001065441867 105.49865373162993 0 0 0 0 93.241555134154623 101.82792204215309 0 101.82792204215309 62.653465879320038 0 0 0 0 96.243399275903357 153.00787909515645 0 153.00787909515645 143.07351843376478 0 0 0 0 6.9217451414333482 72.291297777116867 0 72.291297777116867 97.296452893207061 0 0 0 0 38.935436154919444 0.7833057922080684 0 0.7833057922080684 -13.002656292978656 0 0 0 0 -38.71098005521344 -55.940819857449924 0 -55.940819857449924 2.6047649823476604 0 0 0 0 -0.09875563825328193 -3.110321315842107 0 -3.110321315842107 -0.11154856984777495 0 0 0 0 0.13599140216094696 -0.40345496098900746 0 -0.40345496098900746 -0.50791036472428253 0 0 0 0 -20.476166902342811 -5.7395861356126261 0 -5.7395861356126261 -4.6150924848327577 0 0 0 0 48.787488583941013 -82.796121072202823 0 -82.796121072202823 -20.697785854099607 0 0 0 0 9.832864323630929 130.23075113203592 0 130.23075113203592 123.72239437848708 0 0 0 0 174.98163693814422 78.963993144317783 0 78.963993144317783 40.84961372280668 0 0 0 0 74.948265209561214 24.547720758750074 0 24.547720758750074 145.87476969278148 0 0 0 0 19.775906669499818 42.342826815550097 0 42.342826815550097 95.214311613699692 0 0 0 0 77.367849346541334 53.628876934458276 0 53.628876934458276 20.525911455692949 0 0 0 0 60.215068265650189 -5.1726926949045264 0 -5.1726926949045264 -17.234304802182578 0 0 0 0 40.707822078315075 25.942195535261305 0 25.942195535261305 38.082026938451236 0 0 0 0 66.385945362300845 57.658708381167344 0 57.658708381167344 36.921135682935528 0 0 0 0 69.111347602884052 57.118334516787399 0 57.118334516787399 33.594658368378077 0 0 0 0 53.929369277902879 48.652064340310744 0 48.652064340310744 33.61046482693564 0 0 0 0 60.587268324103206 56.890441427750829 0 56.890441427750829 36.694497236390589 0 0 0 0 72.517890116258059 53.68477367906371 0 53.68477367906371 31.077847977006968 0 0 0 0 4.9268318144022487 8.2042353557708338 0 8.2042353557708338 34.3761379920943 0 0 0 0 38.852068222593516 36.474869959163698 0 36.474869959163698 56.262933429891319 0 0 0 0 20.369160014321096 -15.736175354954526 0 -15.736175354954526 2.8021912113217695 0 0 0 0 28.93437253733282 -10.779254344403398 0 -10.779254344403398 13.36701971267712 0 0 0 0 3.3195031465147622 -46.941795063614336 0 -46.941795063614336 -21.751911205281885 0 0 0 0 184.20052671115263 -233.21324813984802 0 -233.21324813984802 -557.73982084494128 0 0 0 0 -0.088946502107805969 -0.5096479784787995 0 -0.5096479784787995 0.017940412191022492 0 0 0 0 -166.25451515044188 -4.4114764035534222 0 -4.4114764035534222 2.8660848399813403 0 0 0 0 -164.20301426490187 -48.836274706675795 0 -48.836274706675795 31.665659818298082 0 0 0 0 208.65939895081101 104.07280144228207 0 104.07280144228207 -151.14634827083228 0 0 0 0 193.87358111599315 187.43170249327534 0 187.43170249327534 108.98031801729303 0 0 0 0 46.477312513103243 29.110150555968175 0 29.110150555968175 54.008709784695384 0 0 0 0 35.179488991241669 82.710306834218954 0 82.710306834218954 108.47812639619588 0 0 0 0 153.30164235737175 68.375501771997733 0 68.375501771997733 27.374280584356256 0 0 0 0 78.380469099938637 -67.819838027104197 0 -67.819838027104197 -64.109540164623468 0 0 0 0 70.246853443328291 42.97217290035951 0 42.97217290035951 25.432631431559457 0 0 0 0 59.21497692813864 38.579015774601885 0 38.579015774601885 28.464207030879152 0 0 0 0 3.5141403340967372 -151.27348879122655 0 -151.27348879122655 -28.310597229600717 0 0 0 0 -151.17978755196964 -44.992033068952765 0 -44.992033068952765 5.8477131279250898 0 0 0 0 -119.6217214166827 81.720734384939533 0 81.720734384939533 142.17632213867728 0 0 0 0 -28.111369002581341 7.0719706169559231 0 7.0719706169559231 3.1931099156208802 0 0 0 0 -124.44676139663716 -36.102510726301318 0 -36.102510726301318 14.726289705417003 0 0 0 0 -55.438980493112467 -67.899158637782421 0 -67.899158637782421 -28.793596258967227 0 0 0 0 -0.33675260782979421 -0.03737235017892182 0 -0.03737235017892182 0.30690946568397193 0 0 0 0 -158.71028682461474 26.395836121833781 0 26.395836121833781 -0.64582130753660749 0 0 0 0 0.09059210720683275 0.36047421229080712 0 0.36047421229080712 0.26845505598302388 0 0 0 0 -68.955546326527838 -0.88955296437598008 0 -0.88955296437598008 2.5377752025196969 0 0 0 0 -29.989127162931254 -22.719174815029874 0 -22.719174815029874 12.77489795033398 0 0 0 0 26.526721535585239 12.051727602796745 0 12.051727602796745 7.3124560085925623 0 0 0 0 -10.953208130013081 -34.825680250814003 0 -34.825680250814003 10.643484211828763 0 0 0 0 -18.862357366189826 -65.027840376929817 0 -65.027840376929817 2.7779628858671686 0 0 0 0 -29.06012766470667 -22.967900925887079 0 -22.967900925887079 11.535795368159597 0 0 0 0 -29.919062032946385 51.636885473840238 0 51.636885473840238 95.39506342895794 0 0 0 0 81.925532322386061 -7.6919775831861159 0 -7.6919775831861159 -33.428933916909955 0 0 0 0 -0.17249273351186467 -1.6857090358338205 0 -1.6857090358338205 0.035326668615891954 0 0 0 0 -4.0152301259513479 -9.2786168791453747 0 -9.2786168791453747 10.305090164551075 0 0 0 0 -6.4739661062776577 -36.800664183328081 0 -36.800664183328081 5.7079166169387463 0 0 0 0 -11.083102889882866 -5.5739211390166474 0 -5.5739211390166474 -7.6291072920103034 0 0 0 0 -21.272435639839387 -14.435368493281203 0 -14.435368493281203 9.7396952446315481 0 0 0 0 -21.210427243204322 -15.17462476390665 0 -15.17462476390665 16.773834135927245 0 0 0 0 22.689913119327684 31.481368149215086 0 31.481368149215086 6.0182646224093332 0 0 0 0 -8.5998662259735283 9.6280037108538181 0 9.6280037108538181 4.6062529484552215 0 0 0 0 -29.827215773431817 -20.959656900473419 0 -20.959656900473419 13.483314813396646 0 0 0 0 -27.050226539548021 -21.131975124370001 0 -21.131975124370001 12.518044283831841 0 0 0 0 -6.2352362170931883 46.937765549226242 0 46.937765549226242 20.723910130531294 0 0 0 0 -45.794619591906667 35.556815146876033 0 35.556815146876033 40.365628095476495 0 0 0 0 -0.013133316965834751 -0.013201687252179184 0 -0.013201687252179184 0.10013371823363926 0 0 0 0 -34.684881189605221 -47.480476041237125 0 -47.480476041237125 -69.851944429887226 0 0 0 0 -20.109527645368871 -51.428915077478905 0 -51.428915077478905 -23.52230335247441 0 0 0 0 -4.2262356965724699 -5.3649191562601874 0 -5.3649191562601874 4.656714361976614 0 0 0 0 -17.916389764694031 -26.011633553760475 0 -26.011633553760475 -46.68850690824911 0 0 0 0 -29.383026131319639 -45.086088452327203 0 -45.086088452327203 -27.691883193423564 0 0 0 0 1.7775357025916243 -2.527818688164956 0 -2.527818688164956 -4.5993017416899029 0 0 0 0 61.403179653920233 -19.303077102397765 0 -19.303077102397765 -15.779575734753053 0 0 0 0 -59.593428385589505 -68.147831686947029 0 -68.147831686947029 -14.518854310757888 0 0 0 0 -31.296587750337494 -66.584575625098296 0 -66.584575625098296 -18.773026784539979 0 0 0 0 -24.994946069273283 -28.71718401918406 0 -28.71718401918406 -0.43148853418824729 0 0 0 0 -4.9029288288356376 -5.4295056413074256 0 -5.4295056413074256 5.1329769560979557 0 0 0 0 15.151225348148728 -31.180564970845808 0 -31.180564970845808 -46.407371048611822 0 0 0 0 -2.7666083530057222 -26.295651142267161 0 -26.295651142267161 -39.049531395179656 0 0 0 0 1.9646726788196247 -3.9592475024037412 0 -3.9592475024037412 -32.623577083577402 0 0 0 0 -23.311506395286415 -2.0394824135958061 0 -2.0394824135958061 -9.2109551213179657 0 0 0 0 0.20035899960910974 -0.48838852293697244 0 -0.48838852293697244 -0.41387177064275704 0 0 0 0 -39.504849594784901 -51.433702494578029 0 -51.433702494578029 -39.307154414287652 0 0 0 0 16.89467329370018 49.54137783210777 0 49.54137783210777 120.87113882040876 0 0 0 0 -4.5702009785650546 -7.1362046436582389 0 -7.1362046436582389 3.3573913309917693 0 0 0 0 -2.1221395255997777 -9.6256611139397137 0 -9.6256611139397137 -64.791453569167061 0 0 0 0 0.57565469856355378 -1.2854589129149847 0 -1.2854589129149847 -1.6932362895130484 0 0 0 0 -6.4511563180712983 -3.2199674440937542 0 -3.2199674440937542 -25.267699878492294 0 0 0 0 -0.2238186891481746 -8.5323142906702287 0 -8.5323142906702287 -20.922592880856882 0 0 0 0 13.327565737097757 66.441173396142119 0 66.441173396142119 96.497179944988602 0 0 0 0 23.083314764109673 -33.357733317559905 0 -33.357733317559905 -53.350525806417863 0 0 0 0 11.738489857365494 -20.067560197494458 0 -20.067560197494458 -67.083565146429464 0 0 0 0 0.49036602756210357 -1.4943433659927603 0 -1.4943433659927603 -2.1757669062866789 0 0 0 0 -8.5042714748124126 17.02577483389905 0 17.02577483389905 -3.5515839078070712 0 0 0 0 5.9199667689390481 16.285719664178032 0 16.285719664178032 -49.50510123550248 0 0 0 0 -49.235762919532135 15.48020406850992 0 15.48020406850992 37.69575839866593 0 0 0 0 -91.108304456516635 -18.473993184750725 0 -18.473993184750725 49.80951928003924 0 0 0 0 -7.5389362920977874 -10.990642902455875 0 -10.990642902455875 15.610181000753073 0 0 0 0 62.908777472017391 56.308109363886615 0 56.308109363886615 3.1985793471394572 0 0 0 0 -4.5353939972992521 80.672807866038056 0 80.672807866038056 125.63930904823792 0 0 0 0 0.011807777691533516 -0.49268653357351333 0 -0.49268653357351333 -0.58160690366964118 0 0 0 0 -84.373486258686171 -78.508581613885326 0 -78.508581613885326 -11.430656478638411 0 0 0 0 20.647970432102738 15.464596318362965 0 15.464596318362965 -13.859318281276501 0 0 0 0 -100.18917611800134 -37.864451704343082 0 -37.864451704343082 -66.411704330996145 0 0 0 0 -176.0513743707852 -83.060703584131261 0 -83.060703584131261 -19.370073254001909 0 0 0 0 -134.75702658941736 -108.71007132023078 0 -108.71007132023078 -123.5956921910838 0 0 0 0 -145.05848414533102 -130.9567657382504 0 -130.9567657382504 -84.958088936167769 0 0 0 0 -133.92912671275553 -153.79253663592681 0 -153.79253663592681 -70.063686771783978 0 0 0 0 -115.71791679697344 -135.99877018398547 0 -135.99877018398547 -105.44444319919421 0 0 0 0 -114.76640548635623 -109.7240505998052 0 -109.7240505998052 -15.130298648611642 0 0 0 0 -55.081344185804483 -119.50298174275667 0 -119.50298174275667 -55.240263447543839 0 0 0 0 -47.620627966554935 -123.6854080556036 0 -123.6854080556036 -34.543040769494837 0 0 0 0 -47.866741728193915 -80.536453274157765 0 -80.536453274157765 -3.6775811041297857 0 0 0 0 -115.54639320872957 -68.337979814466962 0 -68.337979814466962 14.53592017936171 0 0 0 0 -93.056107149284799 -76.911107719271968 0 -76.911107719271968 -33.471752385819855 0 0 0 0 128.11449468821229 32.221034027610585 0 32.221034027610585 -106.13691090572684 0 0 0 0 118.74779234823654 24.570579679055299 0 24.570579679055299 -100.08329028070148 0 0 0 0 -4.2693809448101092 -196.0977138195376 0 -196.0977138195376 -93.610014517711534 0 0 0 0 211.83371128581348 -93.662017519574874 0 -93.662017519574874 -101.79188364748552 0 0 0 0 -57.362082216277486 -117.41692080864595 0 -117.41692080864595 -36.747865763521986 0 0 0 0 332.73150986965629 -177.89847973227006 0 -177.89847973227006 -173.2701479814823 0 0 0 0 -95.381443982001656 -293.33404617878296 0 -293.33404617878296 -194.65054716537998 0 0 0 0 -2.9426747799734585 129.02235731953988 0 129.02235731953988 476.71022741038905 0 0 0 0 493.23154983269342 180.05004585943789 0 180.05004585943789 -47.17119835196354 0 0 0 0 -157.00877321595908 125.89244505872193 0 125.89244505872193 89.486930176506576 0 0 0 0 0.50643480526900042 -2.4564039941826259 0 -2.4564039941826259 -1.5314399234709111 0 0 0 0 -17.501382495483995 37.518030201772035 0 37.518030201772035 -4.2855045064570731 0 0 0 0 -9.8040421557743684 4.2226434568428886 0 4.2226434568428886 -11.563055086735403 0 0 0 0 8.2599206334562041 -2.6690946199250902 0 -2.6690946199250902 -7.7971959943060938 0 0 0 0 -0.12902746044171209 -0.19674813356978582 0 -0.19674813356978582 0.1620197928469036 0 0 0 0 -2.1628556742070941 -0.79221152390073257 0 -0.79221152390073257 16.272977315187745 0 0 0 0 -15.467314448091201 9.5753334509572596 0 9.5753334509572596 17.601622136906371 0 0 0 0 -0.026465527980377601 -3.7529971077059514 0 -3.7529971077059514 -1.8364044064638998 0 0 0 0 45.230674452730455 47.064847477602598 0 47.064847477602598 -95.034139818852054 0 0 0 0 -7.9279638498992426 -13.114803646476503 0 -13.114803646476503 -20.44959383951209 0 0 0 0 5.8615970819082577 10.420859178724641 0 10.420859178724641 16.196674466824334 0 0 0 0 -2.7136093268866901 -2.843018520406094 0 -2.843018520406094 2.5298748571579202 0 0 0 0 5.2037707463498464 -26.5552314930043 0 -26.5552314930043 -5.0704095542532741 0 0 0 0 52.476593312574551 -47.091092762215339 0 -47.091092762215339 7.8518250293784604 0 0 0 0 22.622515521739842 1.7757204957379145 0 1.7757204957379145 -18.128487958314508 0 0 0 0 13.020493081872701 -9.3422170337471471 0 -9.3422170337471471 11.45188374288773 0 0 0 0 -2.6646903928464489 -3.440206663736193 0 -3.440206663736193 1.7977302151730186 0 0 0 0 2.3550567720958497 -12.686175136193924 0 -12.686175136193924 16.730007858719659 0 0 0 0 -0.94406852601386859 -5.46589688865404 0 -5.46589688865404 -1.7026747606414734 0 0 0 0 5.6777329415490385 -88.314421260547533 0 -88.314421260547533 -36.947336290184467 0 0 0 0 59.451343824097421 21.004174775094725 0 21.004174775094725 -47.61537547352782 0 0 0 0 7.1234861714765429 -64.927502557766275 0 -64.927502557766275 -73.918259266138193 0 0 0 0 11.048561765695922 -71.54730757031939 0 -71.54730757031939 -64.40431778049242 0 0 0 0 26.117145680444082 -106.05349206086248 0 -106.05349206086248 -45.685683266856358 0 0 0 0 19.605786698171869 -80.012070180935552 0 -80.012070180935552 -93.466857665425778 0 0 0 0 -11.703928054615972 -80.038437254530436 0 -80.038437254530436 -57.52695552467776 0 0 0 0 32.517749783175532 -45.182114194321912 0 -45.182114194321912 -63.634621536097256 0 0 0 0 -0.24331122956456586 -2.5948184708464606 0 -2.5948184708464606 0.40249571430125286 0 0 0 0 -19.190901115438464 -38.794760646672785 0 -38.794760646672785 -46.576886041933903 0 0 0 0 45.090428485083976 -25.541914843433915 0 -25.541914843433915 -35.532145531498827 0 0 0 0 13.5915353630553 -54.279005395976128 0 -54.279005395976128 -65.904454065569553 0 0 0 0 19.000563015695661 -22.071997090097284 0 -22.071997090097284 -40.747383382811677 0 0 0 0 11.78323065902805 -32.832512408189359 0 -32.832512408189359 -45.745628563585342 0 0 0 0 -20.956092892796732 -16.838035765889799 0 -16.838035765889799 -37.132376445515547 0 0 0 0 -26.720531241036952 -26.633764059981331 0 -26.633764059981331 -34.998394095280673 0 0 0 0 26.453165911720134 -26.251272874564165 0 -26.251272874564165 -47.383373495191336 0 0 0 0 10.918829629255924 -23.384010155044962 0 -23.384010155044962 18.899821577826515 0 0 0 0 -40.575668523553759 -19.226593675382901 0 -19.226593675382901 -15.43646355389501 0 0 0 0 -1.6105623813477052 -7.0498049094516073 0 -7.0498049094516073 1.0441222341622987 0 0 0 0 -6.1158725285204127 -40.690705333458027 0 -40.690705333458027 -2.0798305810312741 0 0 0 0 -44.390621550192009 -12.500417386741788 0 -12.500417386741788 8.4533498101918667 0 0 0 0 0.31245893631371402 -0.24107802473861639 0 -0.24107802473861639 -0.45932305939731677 0 0 0 0 20.662286203703843 -47.927750810893485 0 -47.927750810893485 -18.985490616352763 0 0 0 0 20.658443562046159 -0.49571654738247162 0 -0.49571654738247162 10.664103827730287 0 0 0 0 1.2310798845751201 -5.0549064711173379 0 -5.0549064711173379 2.395295564999123 0 0 0 0 1.7023493272718042 -1.2967766906949691 0 -1.2967766906949691 -3.1208964702964295 0 0 0 0 -2.2127125721272023 -1.134188167344405 0 -1.134188167344405 5.851647305626102 0 0 0 0 -1.2189307049480789 -3.2503267122941679 0 -3.2503267122941679 -1.9797000881839826 0 0 0 0 -1.6624381911460802 -2.7782068325132094 0 -2.7782068325132094 4.686457332404097 0 0 0 0 1.7979743813048117 5.1431482298175979 0 5.1431482298175979 -0.56566829434814281 0 0 0 0 16.337077804317232 19.174403409122533 0 19.174403409122533 8.2501946587744897 0 0 0 0 12.237701261299662 2.058875626338704 0 2.058875626338704 4.1635597506283375 0 0 0 0 -1.3636863948777318 6.8272209003225726 0 6.8272209003225726 3.9226396485319128 0 0 0 0 -37.874369628189015 -9.1954649799108665 0 -9.1954649799108665 29.789983193215448 0 0 0 0 -2.7382345286314376 -2.4091498489942751 0 -2.4091498489942751 3.8720595936465543 0 0 0 0 18.999555790767772 -5.3163635430209979 0 -5.3163635430209979 -5.8301578401078586 0 0 0 0 -1.82929541199751 -4.9664686329769561 0 -4.9664686329769561 -1.5098934986782044 0 0 0 0 -2.7083403965886923 -5.9219535697183883 0 -5.9219535697183883 3.1849990231016196 0 0 0 0 15.864907089562621 -1.0649464571670251 0 -1.0649464571670251 -10.840305765777885 0 0 0 0 1.8222949271730613 0.030501954103783646 0 0.030501954103783646 -3.7086818668940396 0 0 0 0 10.752883548819227 1.2175560019768454 0 1.2175560019768454 -3.2891332255767338 0 0 0 0 1.1505670217473387 -2.3234487806386515 0 -2.3234487806386515 -2.49837585410764 0 0 0 0 0.69753164947906043 -4.2549822363384919 0 -4.2549822363384919 -1.3257831570372218 0 0 0 0 2.3957979203114519 -1.1036297016626122 0 -1.1036297016626122 -3.5901535172015429 0 0 0 0 1.0076744539015152 -1.3267732743845482 0 -1.3267732743845482 -3.8531729311502074 0 0 0 0 3.228816402926995 0.83698515908342808 0 0.83698515908342808 -4.8368808499168612 0 0 0 0 3.032850424584467 -1.5417330801838034 0 -1.5417330801838034 -4.7321386860421626 0 0 0 0 -0.7207307789940387 0.41310646574856946 0 0.41310646574856946 0.51382012384419795 0 0 0 0 0.36213668971322477 -0.12266509134497028 0 -0.12266509134497028 -0.65830349858151749 0 0 0 0 0.42183730750467419 1.4356893147725223 0 1.4356893147725223 -0.78737309739746286 0 0 0 0 -1.7398138071862927 -3.0291346000956221 0 -3.0291346000956221 2.5055527308359924 0 0 0 0 0.35716372670140117 -0.16467924813332502 0 -0.16467924813332502 -1.6481590687471908 0 0 0 0 2.8603911710322656 -4.0266856724946614 0 -4.0266856724946614 -7.1519800789249395 0 0 0 0 -1.6617145801428705 1.0755499484075699 0 1.0755499484075699 -0.2661547739648995 0 0 0 0 2.8961356116924435 1.0994530092521018 0 1.0994530092521018 8.5121460316076991 0 0 0 0 0.0067712833217399293 0.16458313454222029 0 0.16458313454222029 0.093718372245822773 0 0 0 0 22.303984658341506 1.0851797840505242 0 1.0851797840505242 10.535705196893105 0 0 0 0 3.7024473402416334 2.4833323868642765 0 2.4833323868642765 3.4056264910759637 0 0 0 0 -1.0434446624713019 -2.7221553065428452 0 -2.7221553065428452 1.1336961123961373 0 0 0 0 -1.1247308081947267 -2.2427088950862526 0 -2.2427088950862526 2.0506360056861013 0 0 0 0 -1.1078500979194743 -0.29810793311327544 0 -0.29810793311327544 6.6901459002852803 0 0 0 0 -0.9001955350395292 -0.98646890056261327 0 -0.98646890056261327 1.5087375891744159 0 0 0 0 -0.43398768907490393 1.2423479432406661 0 1.2423479432406661 -1.6725126271361306 0 0 0 0 0.80362392255617721 -2.8285185709905392 0 -2.8285185709905392 -4.3787522373365828 0 0 0 0 1.022889509331435 -1.0339680006873095 0 -1.0339680006873095 -1.5765172195970081 0 0 0 0 1.5803309675538912 -1.8147145372786326 0 -1.8147145372786326 -0.9873809369164519 0 0 0 0 -0.016964692389592528 -1.4018961216497701 0 -1.4018961216497701 -1.0631029208452674 0 0 0 0 -0.50990054658364858 -3.7353022546432264 0 -3.7353022546432264 -1.6672770350410939 0 0 0 0 0.53135316201951355 -0.73426979978103191 0 -0.73426979978103191 -0.34062331705354154 0 0 0 0 -0.030592451461838976 0.62999362097900402 0 0.62999362097900402 0.22177026650880208 0 0 0 0 1.2774656742706156 -0.95747398679667128 0 -0.95747398679667128 -3.0775272916088898 0 0 0 0 0.46809934126213193 0.81142019538674504 0 0.81142019538674504 -0.4155658088002383 0 0 0 0 -2.2834835006401732 -2.2894696916125987 0 -2.2894696916125987 1.7767314735350572 0 0 0 0 -1.1430171883559153 -2.6884489605738491 0 -2.6884489605738491 1.7522381070079658 0 0 0 0 -1.9850074840531136 -2.2687429592972528 0 -2.2687429592972528 0.28297660989528595 0 0 0 0 -1.2241477110526731 0.60950107953475907 0 0.60950107953475907 4.5705320151526152 0 0 0 0 -1.8430729073588736 -0.82929105735820485 0 -0.82929105735820485 1.6883007447722775 0 0 0 0 -2.1503718954015731 -1.9108903475690866 0 -1.9108903475690866 1.1622802884188967 0 0 0 0 -0.36479445089935325 -3.0051473148032528 0 -3.0051473148032528 0.52998214749823092 0 0 0 0 0.16075264464437566 -1.4792511820954068 0 -1.4792511820954068 1.0157297093614006 0 0 0 0 -1.2346212772536092 -2.6094742128516373 0 -2.6094742128516373 1.2068346116893736 0 0 0 0 -0.82377653694599795 -2.6095343770643389 0 -2.6095343770643389 -0.274651476902942 0 0 0 0 0.3442830083949957 -1.6248961397795938 0 -1.6248961397795938 -1.2282081292296425 0 0 0 0 2.5290457959818013 -4.341460667574438 0 -4.341460667574438 -2.2300883948937553 0 0 0 0 0.17930890180286951 -2.3814287237728422 0 -2.3814287237728422 -0.57029485700240912 0 0 0 0 -1.2465215844494359 -0.86890553768658307 0 -0.86890553768658307 0.58617032014797299 0 0 0 0 -2.8848059811862186 -9.6530285265171187 0 -9.6530285265171187 2.2891574945024331 0 0 0 0 3.5191892836301122 -3.2338705240854324 0 -3.2338705240854324 -0.86938373680823133 0 0 0 0 0.31867617463532127 -1.9997421448213881 0 -1.9997421448213881 0.32140995331082767 0 0 0 0 0.17079043234116398 -2.7279080837652145 0 -2.7279080837652145 0.63795121488419682 0 0 0 0 -0.86747406332216404 -2.4898565894547335 0 -2.4898565894547335 -0.15441283435639841 0 0 0 0 0.18561648999956049 -0.52815736501128896 0 -0.52815736501128896 -1.3452589726392807 0 0 0 0 2.0829513660864905 -0.37585069391752768 0 -0.37585069391752768 -2.1310083651696914 0 0 0 0 -4.226483795009699 -1.4186373210952468 0 -1.4186373210952468 1.4106677453150951 0 0 0 0 -3.9043137541011674 -1.9341206367310519 0 -1.9341206367310519 -2.8502927703650585 0 0 0 0 -0.16166983191214968 -2.8935994201235644 0 -2.8935994201235644 -0.57241457029158482 0 0 0 0 0.90958541548447869 -2.0704389373323178 0 -2.0704389373323178 -2.605594407549582 0 0 0 0 1.5062415105348919 -0.89014147937814414 0 -0.89014147937814414 -2.3655496800074616 0 0 0 0 -2.5430044709709243 -2.9941335166206553 0 -2.9941335166206553 0.081839685849522503 0 0 0 0 1.0089641555119968 -1.3905640013469913 0 -1.3905640013469913 -3.7819859791584212 0 0 0 0 0.33200448751449585 -1.473339227908582 0 -1.473339227908582 -1.7725313525916135 0 0 0 0 1.6149603901139926 -0.56770678944667452 0 -0.56770678944667452 -2.6023203441836813 0 0 0 0 1.7739158745389432 -0.32135137686054804 0 -0.32135137686054804 -2.1395653107483668 0 0 0 0 -0.68488827133424479 -0.3111413365785296 0 -0.3111413365785296 -0.17028408028378594 0 0 0 0 1.2188110565469223 -0.76542407494187614 0 -0.76542407494187614 -2.059295689563081 0 0 0 0 0.54048718259900852 0.35302497459578319 0 0.35302497459578319 -0.77627493402542314 0 0 0 0 0.54206143454712219 0.41431452459478635 0 0.41431452459478635 -1.7848230719100684 0 0 0 0 2.7849771907280783 1.0679905577558153 0 1.0679905577558153 -2.6470949213808534 0 0 0 0 1.068505175606326 -0.65842785358977096 0 -0.65842785358977096 -2.7298043562124512 0 0 0 0 0.97283982986118644 -0.59303019642356958 0 -0.59303019642356958 -2.537290024431968 0 0 0 0 28.471704131152364 -9.541678510411657 0 -9.541678510411657 -16.435186103219166 0 0 0 0 16.121882498438936 -27.098576309999771 0 -27.098576309999771 9.8163720787124475 0 0 0 0 5.6864374673459679 5.2857906461867969 0 5.2857906461867969 -5.5581148895362276 0 0 0 0 0.21075781419989426 0.017877166776766984 0 0.017877166776766984 -0.10478400480395944 0 0 0 0 2.5753332456806675 -7.0584427841931756 0 -7.0584427841931756 -12.775139626533928 0 0 0 0 4.5898070081311744 5.5936396643187436 0 5.5936396643187436 -14.171525272668077 0 0 0 0 11.379718120530015 0.43453918992963736 0 0.43453918992963736 -12.78650938692374 0 0 0 0 5.2082661438616924 8.0161638758054323 0 8.0161638758054323 -4.6948235626769019 0 0 0 0 0.28741742629703992 0.43985997684388778 0 0.43985997684388778 -0.32190766097818391 0 0 0 0 1.6183154743630439 3.3831112161969941 0 3.3831112161969941 2.5593503902873636 0 0 0 0 4.4547693363274448 8.491132874845789 0 8.491132874845789 -28.32230556536706 0 0 0 0 1.4403399662696756 8.1551506188498024 0 8.1551506188498024 3.2339056727105344 0 0 0 0 2.9462817638122942 -4.758316741706949 0 -4.758316741706949 -16.539299172778556 0 0 0 0 0.1463065659398386 -0.25850431514493621 0 -0.25850431514493621 -0.065298361935785643 0 0 0 0 0.083539736253442243 -0.34563095804969635 0 -0.34563095804969635 -0.0065183490863205407 0 0 0 0 0.91774354494866728 1.770743601026888 0 1.770743601026888 -2.7353594932073588 0 0 0 0 3.4900595166254789 2.9880670296406606 0 2.9880670296406606 0.42890446759338374 0 0 0 0 -0.2433637074681867 -0.44574899692134906 0 -0.44574899692134906 -0.64985024373325473 0 0 0 0 0.61882919937488623 1.4411836266025375 0 1.4411836266025375 1.0627523820621718 0 0 0 0 -0.15079935653694676 0.014154397222551296 0 0.014154397222551296 -0.39132221317646376 0 0 0 0 4.6483241574605927 4.8123953115191398 0 4.8123953115191398 -8.320502892613149 0 0 0 0 1.3589037443088401 1.3485168880018998 0 1.3485168880018998 -2.6162904270069198 0 0 0 0 -1.1343647408066317 4.9793205578098423 0 4.9793205578098423 1.6501368401441141 0 0 0 0 0.029543185304614639 -0.0029906325701620773 0 -0.0029906325701620773 -0.015254785129138249 0 0 0 0 0.22799134810338728 0.31648034780755552 0 0.31648034780755552 -1.0745855329769256 0 0 0 0 0.056418986001517624 -0.17947350008034846 0 -0.17947350008034846 -0.67729818921361584 0 0 0 0 1.0951805496879388 0.059551126052610925 0 0.059551126052610925 -1.0704403583561373 0 0 0 0 0.49805314515833743 -0.3638429923212243 0 -0.3638429923212243 -0.85479559900159074 0 0 0 0 0.06260231338092126 -0.54335797875592107 0 -0.54335797875592107 -0.57916611444488808 0 0 0 0 0.5973350616250146 -1.2504731962535711 0 -1.2504731962535711 -0.14153517039700381 0 0 0 0 0.45269526896117895 -0.6700423328143188 0 -0.6700423328143188 -0.69129932740906952 0 0 0 0 -8.2521494869724847 -0.67558434898558062 0 -0.67558434898558062 3.7612838115671821 0 0 0 0 -2.4406497743080422 -0.088951382743514884 0 -0.088951382743514884 -2.4895938582833153 0 0 0 0 -0.032391900735310841 -0.31662021120046191 0 -0.31662021120046191 -0.051780382180716233 0 0 0 0 -0.9573780348636447 -1.2254415897139133 0 -1.2254415897139133 0.8167428474858911 0 0 0 0 0.59916304534999654 -0.9864248668673099 0 -0.9864248668673099 -0.35564178408640146 0 0 0 0 0.68750547547824681 -0.44799400013289414 0 -0.44799400013289414 -0.68059443278252729 0 0 0 0 0.79767324366912051 -2.087798022829114 0 -2.087798022829114 -1.5893400174939283 0 0 0 0 -0.65381129044699193 -0.84472587182468217 0 -0.84472587182468217 -0.15146974223296272 0 0 0 0 -0.42224351561162621 -1.365130818754551 0 -1.365130818754551 0.62426551870885305 0 0 0 0 -2.7720379312201615 0.31612885413655167 0 0.31612885413655167 -0.93301728903995129 0 0 0 0 0.67682238493580371 -0.89316220097862242 0 -0.89316220097862242 -1.0410316833149409 0 0 0 0 2.0001363855844829 -0.18367490364653349 0 -0.18367490364653349 -2.4897013108129613 0 0 0 0 1.2655101076697335 -0.88136236522985634 0 -0.88136236522985634 -1.9944588495495421 0 0 0 0 0.72751799787511118 -0.47701601936387306 0 -0.47701601936387306 -0.86883416775526712 0 0 0 0 11.240471701690694 -21.014180329595092 0 -21.014180329595092 18.207056139048746 0 0 0 0 0.70614552531878871 2.8417760616200098 0 2.8417760616200098 2.0499496949014429 0 0 0 0 11.549992194253718 -16.150601775685118 0 -16.150601775685118 10.557512762604802 0 0 0 0 38.724953911470948 -28.49434340124958 0 -28.49434340124958 9.2189891255197836 0 0 0 0 28.73305188230006 -23.169674535905301 0 -23.169674535905301 13.42063051992551 0 0 0 0 -2.060625576684064 1.949569702375042 0 1.949569702375042 -1.5053036345020701 0 0 0 0 -2.0194293531239964 -5.8236494833681718 0 -5.8236494833681718 -5.8181371062073595 0 0 0 0 6.343808006553445 -2.0909056837308526 0 -2.0909056837308526 -8.7096054308713065 0 0 0 0 -0.99526723084036917 -1.8671586012574153 0 -1.8671586012574153 0.0018602972856625044 0 0 0 0 22.385912280762568 14.489135756368341 0 14.489135756368341 -63.682749899377086 0 0 0 0 -2.3055389587270945 2.0491136403821368 0 2.0491136403821368 -1.1547730434093815 0 0 0 0 -2.7961196179967374 13.106398304315917 0 13.106398304315917 -11.198135430411639 0 0 0 0 0.019081803198787384 -18.644444856661721 0 -18.644444856661721 23.386732815480173 0 0 0 0 3.2443726878263988 1.2881913276523846 0 1.2881913276523846 92.132844287589251 0 0 0 0 0.035292910470161587 -80.178270175221769 0 -80.178270175221769 -37.602324110867357 0 0 0 0 -0.45707329581661327 1.8861388200941653 0 1.8861388200941653 -1.8900483144555096 0 0 0 0 -0.45025476698720013 -25.121177729713168 0 -25.121177729713168 -21.444802957874344 0 0 0 0 1.3652892369637186 1.0993487117233016 0 1.0993487117233016 -3.8476188060250616 0 0 0 0 0.71170202153734863 -3.4499621918657795 0 -3.4499621918657795 -13.917572883928187 0 0 0 0 2.3389956835679833 2.885604188743808 0 2.885604188743808 -6.3852636731648502 0 0 0 0 0.45246920076897368 1.712853189004818 0 1.712853189004818 -0.85591874322744843 0 0 0 0 -0.048576266992313322 -1.4447139284696959 0 -1.4447139284696959 0.21055635177253862 0 0 0 0 -9.0793539405567572 -7.1993253230566552 0 -7.1993253230566552 26.957930087421119 0 0 0 0 -0.36974095666135298 -1.8331976838800834 0 -1.8331976838800834 1.0119811814760746 0 0 0 0 0.075192622723989189 1.0528081774391467 0 1.0528081774391467 -0.15361924159151386 0 0 0 0 0.66396397292919573 0.64469081574532083 0 0.64469081574532083 -0.5490004089406284 0 0 0 0 0.39506817523915672 1.1646238889262124 0 1.1646238889262124 -1.8375065119106406 0 0 0 0 -6.4209797330986476 4.4255825132531754 0 4.4255825132531754 -12.743776447317941 0 0 0 0 -1.4144868779936406 -4.6645960622098013 0 -4.6645960622098013 2.4409442002069195 0 0 0 0 -5.9164248293673154 -0.20793288756794936 0 -0.20793288756794936 10.751169190043584 0 0 0 0 1.4349916725962153 1.0848029881593009 0 1.0848029881593009 -0.6127822391216815 0 0 0 0 0.99224853049963713 -5.3263603669547592 0 -5.3263603669547592 -1.8511701689658366 0 0 0 0 -0.0014542727876687422 -5.9280850273107717 0 -5.9280850273107717 -3.5252283038644237 0 0 0 0 0.92821129300864413 -5.3177716658829013 0 -5.3177716658829013 -1.8281299572126954 0 0 0 0 -0.3083861882914789 -4.4111162277740732 0 -4.4111162277740732 2.4673929390046396 0 0 0 0 0.00025366722547914833 -6.2474705345885013 0 -6.2474705345885013 3.5507647751992408 0 0 0 0 -1.5112750415545406 -4.6210822303440136 0 -4.6210822303440136 2.6190117910543034 0 0 0 0 0.91929485369473696 -5.7049678903713357 0 -5.7049678903713357 3.0661942679580534 0 0 0 0 -33.603483467115439 44.748284104243794 0 44.748284104243794 -17.840623217631219 0 0 0 0 14.50575370065053 22.326969374586042 0 22.326969374586042 -30.784431292264571 0 0 0 0 4.2776476397411898 -0.49530697344744112 0 -0.49530697344744112 -27.669727072607202 0 0 0 0 -13.600158126278984 16.709455841462159 0 16.709455841462159 -23.762954821388121 0 0 0 0 29.70421320994501 5.9831910170796618 0 5.9831910170796618 -34.99279541211763 0 0 0 0 12.686304735019803 19.497256010494311 0 19.497256010494311 -32.902063836423622 0 0 0 0 25.140530756209046 0.087619912808804656 0 0.087619912808804656 6.5820285025984049 0 0 0 0 0.93546704002073966 -19.703086352832543 0 -19.703086352832543 -9.2878170689964463 0 0 0 0 71.338516374991741 -63.485057512049025 0 -63.485057512049025 25.144805558303233 0 0 0 0 -2.5956545262372508 -2.2764496956388021 0 -2.2764496956388021 3.2512539676375347 0 0 0 0 5.6538945820539084 -9.5478512292474988 0 -9.5478512292474988 6.9272815806980361 0 0 0 0 27.755355538938602 7.489571656942644 0 7.489571656942644 43.13075672674313 0 0 0 0 -92.440099208863103 121.41957476948483 0 121.41957476948483 -111.72668261765733 0 0 0 0 0.00062510005522473165 -5.4053136360144691 0 -5.4053136360144691 2.9689597586548189 0 0 0 0 -1.553845088743941 -4.5774834153099473 0 -4.5774834153099473 2.7810448065738491 0 0 0 0 22.944497990240052 -16.447652922750422 0 -16.447652922750422 -28.903889064102259 0 0 0 0 327.86839081362996 -182.56908653998198 0 -182.56908653998198 -739.16475762438358 0 0 0 0 -0.40644207278926814 0.17746378692050158 0 0.17746378692050158 0.49535364895545592 0 0 0 0 -165.086082966096 148.24522718308344 0 148.24522718308344 -336.79273102484376 0 0 0 0 1542.9424005693581 -1245.5741161551705 0 -1245.5741161551705 152.57077779047427 0 0 0 0 692.91609066873207 -2739.069159402954 0 -2739.069159402954 1686.4623760687573 0 0 0 0 -384.43144689898691 -1651.5198325647402 0 -1651.5198325647402 1694.7959632133279 0 0 0 0 -1082.2318043371342 555.7290085075299 0 555.7290085075299 -160.94638072960674 0 0 0 0 -1.4283311265392484 0.352320133321534 0 0.352320133321534 1.6973556092972975 0 0 0 0 -610.16794127263711 168.16683033405843 0 168.16683033405843 1476.9912974048557 0 0 0 0 462.76083244432812 -1718.5589424483251 0 -1718.5589424483251 2222.5584851907965 0 0 0 0 -3.852520966617579 1.5328359635910198 0 1.5328359635910198 5.4757322930150618 0 0 0 0 396.96533397845633 -121.00547374700818 0 -121.00547374700818 1233.0722924246293 0 0 0 0 92.189144586824114 -638.18551092955477 0 -638.18551092955477 517.86947200900067 0 0 0 0 91.924687581398757 331.12841167521765 0 331.12841167521765 -1010.1702131792536 0 0 0 0 -4.9447599874354697 5.5641443284887711 0 5.5641443284887711 13.411042094830878 0 0 0 0 -0.80819685742608272 -4.838175373726699 0 -4.838175373726699 -16.961543754470767 0 0 0 0 0.44388915220953074 0.14076075607534477 0 0.14076075607534477 -0.2626690525163653 0 0 0 0 -50.689975155692082 -4.697548628115328 0 -4.697548628115328 46.692465266838553 0 0 0 0 -5.9890200252993964 -16.95422172981398 0 -16.95422172981398 29.481412808818277 0 0 0 0 166.71284777659457 551.11862980886599 0 551.11862980886599 -544.14123672713208 0 0 0 0 -4.7354640989796515 5.6360691876003957 0 5.6360691876003957 12.577669875902313 0 0 0 0 35.493168350978522 75.595563520008 0 75.595563520008 -34.717379873633035 0 0 0 0 -50.384791676978239 73.084177959699133 0 73.084177959699133 92.878550639973597 0 0 0 0 -90.540508600970497 -85.365235968045909 0 -85.365235968045909 -49.158392475096207 0 0 0 0 170.48415574326646 -53.163150151784066 0 -53.163150151784066 29.434133708709851 0 0 0 0 -5.4873617323431603 -3.3461870523502721 0 -3.3461870523502721 1.1440406283946793 0 0 0 0 -10.829431485275563 22.234702185199353 0 22.234702185199353 12.168624973003716 0 0 0 0 -12.060526223460329 5.0368415513730724 0 5.0368415513730724 2.55954295466654 0 0 0 0 -10.513436321256449 6.4350105425910442 0 6.4350105425910442 -2.3652131894050399 0 0 0 0 -137.13374059600756 46.459750057721976 0 46.459750057721976 35.632641753720236 0 0 0 0 -7.4389781397144716 -2.51995196472663 0 -2.51995196472663 1.4180061629916443 0 0 0 0 -1.562579050916689 0.67005285721960028 0 0.67005285721960028 2.1498036822333111 0 0 0 0 54.154250730003696 -135.36608639988435 0 -135.36608639988435 274.09343787339139 0 0 0 0 1.6084226981474785 -131.80205783444171 0 -131.80205783444171 -494.82391997586637 0 0 0 0 -311.94582781783538 -425.22510890274862 0 -425.22510890274862 -126.80582179575504 0 0 0 0 -794.68209709072835 -1215.6882602231708 0 -1215.6882602231708 -1092.6166526413194 0 0 0 0 139.22892667647102 -213.69533331308367 0 -213.69533331308367 -1157.1519990914212 0 0 0 0 -138.75254170389962 83.374224815046659 0 83.374224815046659 1.2371568337919143 0 0 0 0 -1.1367040140025324 -0.39517106665636703 0 -0.39517106665636703 0.77624967146847335 0 0 0 0 -679.63739509472634 243.5114337180384 0 243.5114337180384 -33.238686733261602 0 0 0 0 -653.23155302985106 -27.652955168265635 0 -27.652955168265635 18.494400882131231 0 0 0 0 -3.4204729438270505 -1.074850769548279 0 -1.074850769548279 2.5627023815578878 0 0 0 0 -35.335592696666936 -139.76406212908341 0 -139.76406212908341 108.23157696914245 0 0 0 0 -1851.2318153765809 521.80454145906378 0 521.80454145906378 -31.329151512733006 0 0 0 0 -1091.2101072580081 -1352.493383020842 0 -1352.493383020842 -600.17227362015365 0 0 0 0 -630.29496104363352 -407.00261893572178 0 -407.00261893572178 -1494.0250296497516 0 0 0 0 -2029.1535686529242 -718.22097852323282 0 -718.22097852323282 -324.62724010316742 0 0 0 0 -1440.9831116381392 94.5115910436989 0 94.5115910436989 -855.69484959514193 0 0 0 0 -687.0114107329573 -129.5346384683362 0 -129.5346384683362 -538.41646912277929 0 0 0 0 -541.1197598829749 -700.90062689741671 0 -700.90062689741671 -591.52763705837503 0 0 0 0 -424.26803695037961 -562.72993206222372 0 -562.72993206222372 -258.79467979800665 0 0 0 0 -236.79268703464186 -322.58014979067411 0 -322.58014979067411 -396.77603934371973 0 0 0 0 -491.00691285585344 -676.16765680143908 0 -676.16765680143908 -88.355565301990396 0 0 0 0 -316.2463572393608 -402.28901891760052 0 -402.28901891760052 -21.226561665003828 0 0 0 0 -443.84591946775618 -510.12868612108207 0 -510.12868612108207 -290.98579519348368 0 0 0 0 -829.5280937958014 -605.34823819173016 0 -605.34823819173016 428.47783874185779 0 0 0 0 -754.52629517063906 -877.71484840947278 0 -877.71484840947278 -147.41119146105905 0 0 0 0 2.406989478316973 -414.43071277676972 0 -414.43071277676972 -30.596781146814465 0 0 0 0 69.35104558369494 -306.41129306277026 0 -306.41129306277026 76.330970586309377 0 0 0 0 -188.08902946079616 -438.19760427743859 0 -438.19760427743859 -240.39187505368682 0 0 0 0 -118.52904698563361 -297.42533101427102 0 -297.42533101427102 25.033500302411994 0 0 0 0 -238.83297376384144 -332.23305364227326 0 -332.23305364227326 -101.8744236971861 0 0 0 0 -122.2725220763823 -543.31545473814504 0 -543.31545473814504 -20.296986647036192 0 0 0 0 -47.947685124992859 -375.94214353108327 0 -375.94214353108327 240.18557478399089 0 0 0 0 160.86530953674082 -488.98311753834946 0 -488.98311753834946 55.508756603462643 0 0 0 0 188.04086724427179 -468.1735573728173 0 -468.1735573728173 143.03560747114807 0 0 0 0 -398.84738935172209 -644.52820069437212 0 -644.52820069437212 195.05439357991418 0 0 0 0 -322.33585629107256 -436.98502788681799 0 -436.98502788681799 198.39100139511356 0 0 0 0 -183.99113062482502 -409.44300951956529 0 -409.44300951956529 375.36115187826726 0 0 0 0 -188.16842462608474 -719.79117883885328 0 -719.79117883885328 353.74854766928314 0 0 0 0 -824.75793582166079 -729.0790981814265 0 -729.0790981814265 221.36183215077284 0 0 0 0 -599.49412856026902 -630.03303428999152 0 -630.03303428999152 241.3416049981729 0 0 0 0 -632.497560479409 -450.50887142627607 0 -450.50887142627607 261.89910057020234 0 0 0 0 -1455.1934501409414 -297.70294337061461 0 -297.70294337061461 375.1371404568813 0 0 0 0 -564.95158906940196 -287.5300553225062 0 -287.5300553225062 220.56432176907055 0 0 0 0 -419.16511416451249 -635.73666726331953 0 -635.73666726331953 145.38465844303488 0 0 0 0 -677.69518779897771 -507.71234752426528 0 -507.71234752426528 206.17457815262833 0 0 0 0 -299.92829400174378 -520.02446524093943 0 -520.02446524093943 156.13426720138077 0 0 0 0 -366.20082780804296 -420.25165124436569 0 -420.25165124436569 27.174456733487403 0 0 0 0 -304.03215084128533 -244.06003739084736 0 -244.06003739084736 121.43868765045738 0 0 0 0 -561.4693762366951 -252.57739885860565 0 -252.57739885860565 146.76515108993885 0 0 0 0 88.655490794702018 -661.55647404022625 0 -661.55647404022625 172.12820925284745 0 0 0 0 -387.1672012709023 -554.87461787044754 0 -554.87461787044754 257.43499227584505 0 0 0 0 -334.14381938657607 -606.29645821916608 0 -606.29645821916608 3.5589422604961669 0 0 0 0 -218.82984012085944 -735.89361093742082 0 -735.89361093742082 148.26752052635408 0 0 0 0 -193.28287614960573 -626.97810250958776 0 -626.97810250958776 278.39098717857195 0 0 0 0 -84.855783834515023 -890.12416202808913 0 -890.12416202808913 -2.6578226185917799 0 0 0 0 -66.181223149600555 -669.0319262865861 0 -669.0319262865861 -435.17717382687351 0 0 0 0 -147.82524391109473 -510.52416023709253 0 -510.52416023709253 -258.22758431068223 0 0 0 0 -80.716645882825105 -656.50923224254666 0 -656.50923224254666 -27.506688963357988 0 0 0 0 66.561122987768613 -438.09219147069268 0 -438.09219147069268 -629.08277124617246 0 0 0 0 63.712268044633674 -375.07759728364579 0 -375.07759728364579 -252.76230674327269 0 0 0 0 48.752798702393193 -551.20446351150713 0 -551.20446351150713 -373.97233804561597 0 0 0 0 -239.2280025996879 -210.45218866930293 0 -210.45218866930293 9.0310450901786794 0 0 0 0 -125.52670765432413 -412.62364819045393 0 -412.62364819045393 2.5301082977120473 0 0 0 0 -20.645483002204855 -288.4371193778955 0 -288.4371193778955 -171.86594870681893 0 0 0 0 -103.06813284590316 -306.8190862580542 0 -306.8190862580542 -148.08446519751976 0 0 0 0 -48.044961848368985 -126.81978983669779 0 -126.81978983669779 -75.69501421401452 0 0 0 0 -117.81551184435921 -173.64186468784911 0 -173.64186468784911 12.041094962986563 0 0 0 0 -26.989752336026868 -25.846035343121883 0 -25.846035343121883 16.370869599081175 0 0 0 0 -5.2723812498466955 -12.903073677574472 0 -12.903073677574472 -1.6252445238625022 0 0 0 0 -49.168038486539444 20.620492675594775 0 20.620492675594775 28.181895907381914 0 0 0 0 -2.0763998686161358 -16.658106240877387 0 -16.658106240877387 5.6977322542312265 0 0 0 0 -72.185854976512928 -70.166164600294536 0 -70.166164600294536 -18.806774752246156 0 0 0 0 -201.26057749269239 -54.678645934994563 0 -54.678645934994563 55.959178687321639 0 0 0 0 -195.24440050811972 -69.654324799266988 0 -69.654324799266988 39.229199430923131 0 0 0 0 -161.26431554153169 23.449785732356219 0 23.449785732356219 33.362833342644535 0 0 0 0 -255.11898444909821 56.102573523195446 0 56.102573523195446 6.2987700115204461 0 0 0 0 2.9564741377253085 39.901071521717824 0 39.901071521717824 -2.7625894018150916 0 0 0 0 -429.30996321737257 40.839092958937613 0 40.839092958937613 83.157964172169841 0 0 0 0 -262.97768252933747 39.484065377316142 0 39.484065377316142 70.432456652053133 0 0 0 0 180.49905061585014 -537.14072360677164 0 -537.14072360677164 2748.5299292345589 0 0 0 0 449.27070525760428 -1221.8049422805027 0 -1221.8049422805027 1035.1225899574783 0 0 0 0 -5.6810326887602223 3.4123609864260729 0 3.4123609864260729 9.8556427880566737 0 0 0 0 -82.618129952970776 -1141.9720909818352 0 -1141.9720909818352 1863.1049674053284 0 0 0 0 -21.791255290503614 -12.465122994380721 0 -12.465122994380721 27.037728771593493 0 0 0 0 -5.3551661138972975 -9.9618420737575164 0 -9.9618420737575164 -3.0397497806900304 0 0 0 0 8.0498941850964911 32.814540811925951 0 32.814540811925951 15.697742185045012 0 0 0 0 82.178713318582595 60.855556836754658 0 60.855556836754658 -771.17434426240652 0 0 0 0 2312.149878944736 -1176.5402105104095 0 -1176.5402105104095 580.68047746531738 0 0 0 0 0.049389813082900247 -0.34420106105771175 0 -0.34420106105771175 0.061859282084573586 0 0 0 0 -52.043329746600648 -105.64604052347931 0 -105.64604052347931 -302.58903723501135 0 0 0 0 -4.9662348688636939 -272.3407724506468 0 -272.3407724506468 -111.41686422169732 0 0 0 0 -118.0510834211309 -234.19188150281116 0 -234.19188150281116 -291.90317715874426 0 0 0 0 -247.19264728276175 -366.67342865527826 0 -366.67342865527826 -151.97879598515283 0 0 0 0 -131.11895484381239 -291.04491551006504 0 -291.04491551006504 -196.8747577009417 0 0 0 0 -28.418749851785833 -301.40064539785089 0 -301.40064539785089 113.22856481618692 0 0 0 0 -4.8099257202993613 -370.52468696205324 0 -370.52468696205324 -132.9767353101488 0 0 0 0 -95.217607134120044 -167.8946684389839 0 -167.8946684389839 -107.80193029521615 0 0 0 0 175.69649166395538 -309.74822490408405 0 -309.74822490408405 -111.19558130623773 0 0 0 0 184.39483421781915 -161.21762493563438 0 -161.21762493563438 197.06256813099753 0 0 0 0 389.92428200729773 -610.96361477317259 0 -610.96361477317259 -114.30273860104353 0 0 0 0 334.94762553628243 -372.44412078684763 0 -372.44412078684763 -714.89418038523581 0 0 0 0 560.70238781824446 -206.36938407278285 0 -206.36938407278285 445.00503252760973 0 0 0 0 -95.473475680191768 51.623582505431841 0 51.623582505431841 -41.468349201015371 0 0 0 0 1074.1183695257278 -665.52627351413503 0 -665.52627351413503 120.66362652787939 0 0 0 0 -5.6220242494080521 -0.19299758998716054 0 -0.19299758998716054 10.58140787662067 0 0 0 0 504.53932182621821 -336.0227921874955 0 -336.0227921874955 368.80460110188142 0 0 0 0 -98.438089471499552 -7.6065519128096639 0 -7.6065519128096639 14.284959319287736 0 0 0 0 -75.741411184590106 14.455289917127629 0 14.455289917127629 29.443119074625429 0 0 0 0 -63.206697911375159 -58.12833708611106 0 -58.12833708611106 54.52550251482171 0 0 0 0 -14.821054089232348 -51.31196750075469 0 -51.31196750075469 39.328804666002725 0 0 0 0 -155.60329169357829 53.19377889415955 0 53.19377889415955 14.175882334326161 0 0 0 0 -149.0677049481892 89.301933057897259 0 89.301933057897259 -11.293601044628303 0 0 0 0 -107.61493869691913 3.6500208346842555 0 3.6500208346842555 37.841816528351046 0 0 0 0 -90.186211794236442 -6.0593552702484885 0 -6.0593552702484885 32.341325724555645 0 0 0 0 -55.469847056258004 0.16468731325585395 0 0.16468731325585395 14.357081060064957 0 0 0 0 -56.847586555537418 -30.091040782921482 0 -30.091040782921482 50.596627537139284 0 0 0 0 -41.866616316343425 -8.3160055550542893 0 -8.3160055550542893 22.449958858342143 0 0 0 0 -67.508620572189102 -5.6654225101665361 0 -5.6654225101665361 33.698199098333134 0 0 0 0 -59.173906016629189 -1.9581867038396013 0 -1.9581867038396013 39.435871339199366 0 0 0 0 12.621831898533856 -31.014790725246712 0 -31.014790725246712 27.767540042652399 0 0 0 0 18.587892199066118 -55.268868145452871 0 -55.268868145452871 38.341731596726277 0 0 0 0 -7.5105708278360606 -2.2076146752585961 0 -2.2076146752585961 5.0611137025888802 0 0 0 0 -11.07105169458373 -36.923147269191759 0 -36.923147269191759 43.50833072149544 0 0 0 0 -8.4920849742775317 -31.533480298689028 0 -31.533480298689028 31.900781253294554 0 0 0 0 -38.851423284228076 -16.799978515860857 0 -16.799978515860857 29.331561062135734 0 0 0 0 -27.285043171985308 -35.54966166914528 0 -35.54966166914528 41.173217968549579 0 0 0 0 -37.00647710494377 -14.235256028452568 0 -14.235256028452568 32.841730058076791 0 0 0 0 -21.262720559141599 -28.075958650399116 0 -28.075958650399116 39.396366737171775 0 0 0 0 -36.243233553454047 -9.1325119442044524 0 -9.1325119442044524 32.318705300414877 0 0 0 0 -51.450401292313472 3.5365544027008582 0 3.5365544027008582 32.096736788764247 0 0 0 0 -61.791945151373511 -0.34735372102295514 0 -0.34735372102295514 28.609070325270295 0 0 0 0 -55.90600676019676 1.7945444183133077 0 1.7945444183133077 28.327832820374169 0 0 0 0 -61.024938388974988 13.119342253361538 0 13.119342253361538 25.316978064583964 0 0 0 0 -55.047394510460435 14.593842420166766 0 14.593842420166766 4.9433473878889345 0 0 0 0 -42.634172327496344 10.850629245789605 0 10.850629245789605 25.505617376618829 0 0 0 0 -5.1864131213726434 1.8917294705240253 0 1.8917294705240253 12.840833987897007 0 0 0 0 -22.616778223993606 1355.5657517488994 0 1355.5657517488994 1191.7566469842714 0 0 0 0 -41.180576049722731 -4.7460815754602663 0 -4.7460815754602663 43.999310776387574 0 0 0 0 -0.95054961777051794 0.098223857398237246 0 0.098223857398237246 0.95940309518540978 0 0 0 0 -32.75930073382915 5.7801447124220431 0 5.7801447124220431 -24.727408906328492 0 0 0 0 546.34104287812079 -1595.7316150476563 0 -1595.7316150476563 914.93212361447877 0 0 0 0 0.78657607624880299 -0.37797350888202086 0 -0.37797350888202086 -0.81744299426156397 0 0 0 0 678.6686945877882 -870.40966783948716 0 -870.40966783948716 421.25859914163004 0 0 0 0 -5.6529196985327737 0.75833212866178812 0 0.75833212866178812 12.211998703845978 0 0 0 0 -99.737068174799788 52.917632005926862 0 52.917632005926862 1.2733412546222098 0 0 0 0 -96.32577816300909 16.342245980806183 0 16.342245980806183 6.2801347056374652 0 0 0 0 -77.87818038246769 26.072895524492196 0 26.072895524492196 10.547582429571776 0 0 0 0 -72.981435007997788 10.262385271431413 0 10.262385271431413 17.630357835718314 0 0 0 0 -59.631149119013571 9.4945858771898202 0 9.4945858771898202 12.438088247115957 0 0 0 0 -54.407508448231965 41.031530591106275 0 41.031530591106275 -23.518243516434268 0 0 0 0 -84.180877597536892 28.925189464396681 0 28.925189464396681 14.209066186391283 0 0 0 0 -19.592789162433707 -6.3196128483237848 0 -6.3196128483237848 6.3378694981962163 0 0 0 0 15.434444510719914 -13.183172057295451 0 -13.183172057295451 7.7329311689140923 0 0 0 0 17.38512494796305 -38.222280425499775 0 -38.222280425499775 9.883288246628581 0 0 0 0 28.531665411021095 -21.372230545712227 0 -21.372230545712227 -3.6457295027066721 0 0 0 0 17.279630226918016 -7.0011002175233443 0 -7.0011002175233443 -21.606945205450756 0 0 0 0 6.3456751644553151 12.326292279729387 0 12.326292279729387 -7.4923739142686827 0 0 0 0 4.2123364844592288 -12.162244836741593 0 -12.162244836741593 -17.790256684966153 0 0 0 0 -9.350682662348845 2.1165998176875291 0 2.1165998176875291 2.2979002004667564 0 0 0 0 -7.3120562722433533 0.81962753219704609 0 0.81962753219704609 -31.717917374509852 0 0 0 0 -4.7895769661699887 -34.271097853867104 0 -34.271097853867104 -35.79158187232315 0 0 0 0 -2.9040851796598872 -26.1004802874304 0 -26.1004802874304 -1.9955130798553 0 0 0 0 -61.716321811189118 0.96327777640544809 0 0.96327777640544809 3.3168867333733942 0 0 0 0 -188.46598265859939 54.948615574312498 0 54.948615574312498 13.131819107336923 0 0 0 0 -1.701855451268961 -0.57948686331747479 0 -0.57948686331747479 1.2155827223519324 0 0 0 0 -130.63995188480476 -63.538560335640796 0 -63.538560335640796 -9.5709391483687796 0 0 0 0 50.697013946657535 -270.16515568556497 0 -270.16515568556497 64.726552193027601 0 0 0 0 -27.305622209514695 -51.691179005294543 0 -51.691179005294543 -71.901857839344302 0 0 0 0 0.45687630251844435 -0.057528093745997655 0 -0.057528093745997655 -0.35817266256266755 0 0 0 0 37.09377335546742 13.203842299961252 0 13.203842299961252 -108.65963934082538 0 0 0 0 11.672527637470921 -6.433533119798085 0 -6.433533119798085 -44.256024388232618 0 0 0 0 27.708392204309348 -206.71768103585055 0 -206.71768103585055 127.16868211057408 0 0 0 0 -127.67577979822818 -27.570939172197541 0 -27.570939172197541 22.928242332447553 0 0 0 0 -11.212365035506082 -133.06824338519073 0 -133.06824338519073 10.735006757407973 0 0 0 0 23.637712186501631 -143.62367742968718 0 -143.62367742968718 12.386488513846416 0 0 0 0 14.5320333809359 -72.849164370287326 0 -72.849164370287326 0.20120137628691737 0 0 0 0 142.26064313945244 -90.444710109622974 0 -90.444710109622974 -9.0856706900522113 0 0 0 0 46.543660656825523 -9.6805431015891372 0 -9.6805431015891372 51.576931912728469 0 0 0 0 -4.7675142367567629 -1.5128201507715422 0 -1.5128201507715422 3.3150306793116417 0 0 0 0 -22.208145804524975 -46.891534522932488 0 -46.891534522932488 85.191296678705839 0 0 0 0 74.700455533253262 -83.279579413116153 0 -83.279579413116153 44.242515782836563 0 0 0 0 -81.733921696451944 51.161485648955932 0 51.161485648955932 26.67664016407798 0 0 0 0 -46.689430235906912 3.7120720264865668 0 3.7120720264865668 31.735471763306123 0 0 0 0 10.43817665874667 9.8372976927275886 0 9.8372976927275886 -28.307657428988023 0 0 0 0 -1.2220823540701531 -446.40562395126108 0 -446.40562395126108 888.7544917002615 0 0 0 0 -17.792814249384012 -5.8666284848343713 0 -5.8666284848343713 5.2972912821823108 0 0 0 0 -35.440621566729533 -38.908965797363635 0 -38.908965797363635 64.156295895721996 0 0 0 0 -28.691127099424193 27.723597693991906 0 27.723597693991906 -18.544731017180311 0 0 0 0 -70.575012643812443 6.0176368357842875 0 6.0176368357842875 57.27558912121458 0 0 0 0 150.33112716933829 393.91591965341286 0 393.91591965341286 348.49680089512185 0 0 0 0 -13.974237727314176 -59.23809403397172 0 -59.23809403397172 8.257064513100886 0 0 0 0 -29.248861000476609 -57.630510885854164 0 -57.630510885854164 77.799604489569901 0 0 0 0 -18.355967545003605 -5.8604490542978454 0 -5.8604490542978454 5.8955697218735637 0 0 0 0 -117.14068976305862 -731.10007481938555 0 -731.10007481938555 1126.9187456459913 0 0 0 0 834.56603137268394 -668.7115899692144 0 -668.7115899692144 750.21250195268658 0 0 0 0 -358.98290699667996 200.97043988594487 0 200.97043988594487 372.51748536251398 0 0 0 0 -0.51994300263828563 0.084311052632525474 0 0.084311052632525474 1.548452784911305 0 0 0 0 1633.1047188902448 -1967.1559945306362 0 -1967.1559945306362 1296.3341532264494 0 0 0 0 1933.3353631977225 -1238.9267222148919 0 -1238.9267222148919 54.662013567212853 0 0 0 0 -1062.9345727719774 -404.68163071596064 0 -404.68163071596064 3046.1733073472496 0 0 0 0 178.02947020946158 573.9409891001369 0 573.9409891001369 -474.404886047123 0 0 0 0 -55.918858215707587 -58.904886518903368 0 -58.904886518903368 -84.247819600059302 0 0 0 0 -54.221104019045015 -42.216014524443381 0 -42.216014524443381 -122.27456776771578 0 0 0 0 171.66469435498584 -462.61141084281553 0 -462.61141084281553 687.0610451605844 0 0 0 0 -1.4966929976287187 0.3750022653238112 0 0.3750022653238112 4.5388526824832649 0 0 0 0 -68.492701315044542 -33.512939485844981 0 -33.512939485844981 20.799554500830709 0 0 0 0 355.55141879472649 -564.27958243614194 0 -564.27958243614194 540.72191018576268 0 0 0 0 153.27415271813516 -291.61140067589804 0 -291.61140067589804 188.10361523022982 0 0 0 0 45.736551298818085 -493.80512475670184 0 -493.80512475670184 358.92922280371931 0 0 0 0 194.92190937977284 -499.80661735391186 0 -499.80661735391186 597.26284100097837 0 0 0 0 -53.236308170249686 -598.24035801459922 0 -598.24035801459922 560.55624661465845 0 0 0 0 166.15105343481537 -598.46596121532843 0 -598.46596121532843 717.50061095051933 0 0 0 0 181.65072940583923 -498.05255638548988 0 -498.05255638548988 899.66837811517053 0 0 0 0 314.63125465306075 -633.57682594955622 0 -633.57682594955622 646.8440488965789 0 0 0 0 339.09415118025208 -593.63834902891722 0 -593.63834902891722 658.52136058706674 0 0 0 0 -17.118305132258751 -6.0052724567040059 0 -6.0052724567040059 4.6076188985849367 0 0 0 0 320.16340529875015 -629.76854182782336 0 -629.76854182782336 475.70196991032935 0 0 0 0 129.07186789845582 -685.67500970083347 0 -685.67500970083347 618.21113735836479 0 0 0 0 26.185237446246902 -762.41553481862502 0 -762.41553481862502 455.59309840666901 0 0 0 0 343.46456275209493 -760.4448770184606 0 -760.4448770184606 379.14504514756845 0 0 0 0 187.79508763251943 -696.48673914944447 0 -696.48673914944447 350.08457814316716 0 0 0 0 148.08580628702475 -825.80053332192892 0 -825.80053332192892 436.26839562489477 0 0 0 0 -207.22485849415898 -747.49842211316013 0 -747.49842211316013 429.67896073232987 0 0 0 0 22.753349568473368 -831.08025929715018 0 -831.08025929715018 474.33358881639288 0 0 0 0 28.542770217958605 -601.14486462127206 0 -601.14486462127206 303.23782154008131 0 0 0 0 -812.121213274193 144.36319928973717 0 144.36319928973717 435.53110245475909 0 0 0 0 -797.7792198350071 -294.43117271880146 0 -294.43117271880146 672.3239805007488 0 0 0 0 -251.10821050370578 -696.85655527900235 0 -696.85655527900235 414.90682748823747 0 0 0 0 -474.39269727340434 -219.57819425986963 0 -219.57819425986963 -154.80499044608496 0 0 0 0 36.018000798227149 -32.818222205558413 0 -32.818222205558413 54.71222070470867 0 0 0 0 -1638.4662483601132 552.20656553304252 0 552.20656553304252 337.38340007567604 0 0 0 0 -1250.3289707319491 428.11471704823362 0 428.11471704823362 -27.185971198850893 0 0 0 0 -0.83099756196676111 -1.8502910817823448 0 -1.8502910817823448 0.28389224598681251 0 0 0 0 -1420.5349755660864 157.37760332153266 0 157.37760332153266 -454.95129137724871 0 0 0 0 -0.11519431912749667 0.011412773249910302 0 0.011412773249910302 0.091885765536001252 0 0 0 0 -246.43639895640081 137.92359271802343 0 137.92359271802343 -74.178173971056822 0 0 0 0 -649.86834791436559 -95.239414817635407 0 -95.239414817635407 313.6083110006366 0 0 0 0 -439.38479862478562 -397.57766705430549 0 -397.57766705430549 52.480311264367629 0 0 0 0 -587.30836570449173 -494.90652011000202 0 -494.90652011000202 369.90256968420908 0 0 0 0 -672.52591445937287 -266.20174191394108 0 -266.20174191394108 245.5642572151919 0 0 0 0 -298.32990154594881 -548.19174960647433 0 -548.19174960647433 413.03732938070243 0 0 0 0 -162.89041055264897 -458.14321225835147 0 -458.14321225835147 292.46742580561113 0 0 0 0 -255.66154459188692 -59.58461377630374 0 -59.58461377630374 194.92899635969434 0 0 0 0 4.5487308667434263 13.178612344894646 0 13.178612344894646 -9.9781730565300677 0 0 0 0 12.358179608170758 -7.4522586935581785 0 -7.4522586935581785 10.73599349410506 0 0 0 0 -2.4124793342783093 0.77661507443999511 0 0.77661507443999511 7.3777404075402764 0 0 0 0 -13.495479289049399 16.146287840525474 0 16.146287840525474 10.299539442599439 0 0 0 0 -1.8736450178140345 -3.2642634636188745 0 -3.2642634636188745 3.0235592206447581 0 0 0 0 -11.087810544297099 12.263639351607708 0 12.263639351607708 12.881145673709398 0 0 0 0 -34.752947457076516 18.941355651135382 0 18.941355651135382 15.552002807395183 0 0 0 0 -31.555948876135517 2.5480664870337932 0 2.5480664870337932 19.910750602699409 0 0 0 0 -32.633532631822163 3.0882530743765528 0 3.0882530743765528 20.491633846279001 0 0 0 0 -54.447562241432024 17.630048822376921 0 17.630048822376921 11.034397615832859 0 0 0 0 -26.279442653321894 37.221445284616493 0 37.221445284616493 -20.880311988948961 0 0 0 0 -33.239770008163759 1.7968750806176104 0 1.7968750806176104 -4.2508415610463999 0 0 0 0 -56.294693778199871 12.86702187753167 0 12.86702187753167 -9.1875257968058577 0 0 0 0 -22.820353015747969 -6.5355682904555579 0 -6.5355682904555579 32.871209099241241 0 0 0 0 -12.134148036071565 -17.44371503975708 0 -17.44371503975708 33.232176801611786 0 0 0 0 -62.37494515212893 -96.378533417318067 0 -96.378533417318067 65.611407426316873 0 0 0 0 -16.340902479830095 -5.3803771027254275 0 -5.3803771027254275 4.1869161031533881 0 0 0 0 -28.308034896734171 4.6440602560542175 0 4.6440602560542175 23.733504903160792 0 0 0 0 -17.819309760612668 -1.687614581809612 0 -1.687614581809612 19.763302181181643 0 0 0 0 -14.984014819554432 6.6335659541491623 0 6.6335659541491623 10.041750368021894 0 0 0 0 -42.211132708281639 9.7800477724129564 0 9.7800477724129564 27.571312681131531 0 0 0 0 -42.006963011575863 31.700217612546112 0 31.700217612546112 4.0787135889404453 0 0 0 0 -43.157391056069173 8.883148332395649 0 8.883148332395649 26.850061291479506 0 0 0 0 -21.759643057273934 -8.6680787142267945 0 -8.6680787142267945 29.211557112561422 0 0 0 0 -29.794613333186135 2.4998121057578828 0 2.4998121057578828 21.9593944197768 0 0 0 0 -23.218351662326313 -10.276600103770761 0 -10.276600103770761 32.855986116905115 0 0 0 0 -27.760943926885375 -4.8948648968653288 0 -4.8948648968653288 29.406160056008957 0 0 0 0 -32.377330840899958 -2.8009052867782884 0 -2.8009052867782884 33.771031825453974 0 0 0 0 -16.915082126783034 -4.9734229888386139 0 -4.9734229888386139 4.9818338174731052 0 0 0 0 -36.458699074282777 -9.578548674529884 0 -9.578548674529884 31.407660930708516 0 0 0 0 -1.7037134524434805 -32.149906685219321 0 -32.149906685219321 38.066961190726033 0 0 0 0 -10.63830629066797 -20.576023776724469 0 -20.576023776724469 33.989914273868635 0 0 0 0 -14.259557565455907 -24.320167805537494 0 -24.320167805537494 38.84661670748028 0 0 0 0 -8.4163780310627772 -20.890564002278552 0 -20.890564002278552 34.679566814898863 0 0 0 0 -4.366746118379524 -11.150409439542273 0 -11.150409439542273 30.487820728340012 0 0 0 0 616.6961920070753 -549.50379355263067 0 -549.50379355263067 524.39780808403157 0 0 0 0 -5.791199685834151 -2.3269613630599508 0 -2.3269613630599508 3.4458049854736199 0 0 0 0 671.5595835467102 -633.33557428652603 0 -633.33557428652603 271.77701855239866 0 0 0 0 844.90910777600948 -627.07206876611599 0 -627.07206876611599 271.56785687531465 0 0 0 0 648.73595783335622 -782.79997708274823 0 -782.79997708274823 196.92380133651022 0 0 0 0 591.68366612773389 -769.24635758100339 0 -769.24635758100339 361.5586487417022 0 0 0 0 -65.917732326954138 8.0669699318386847 0 8.0669699318386847 59.766062215385318 0 0 0 0 26.841392894129967 30.647621492098551 0 30.647621492098551 -49.607236785170244 0 0 0 0 -180.0860310823773 60.571293525235888 0 60.571293525235888 23.932775166562351 0 0 0 0 -2.0048634896122977 -0.82795285914418137 0 -0.82795285914418137 1.2268383426816065 0 0 0 0 887.49387384989677 -225.16893973896504 0 -225.16893973896504 -88.861334401906788 0 0 0 0 1052.0871281700092 -590.94778979897183 0 -590.94778979897183 116.19016299056238 0 0 0 0 1389.1464972668036 -369.8947861965371 0 -369.8947861965371 -309.82793948925973 0 0 0 0 569.7559276506654 -1041.2991743481998 0 -1041.2991743481998 420.90375504682379 0 0 0 0 954.8335371473222 -834.65371289179166 0 -834.65371289179166 202.03305620024184 0 0 0 0 949.68972234093235 -748.41454862009959 0 -748.41454862009959 -108.63438901299378 0 0 0 0 1694.7921116885846 -989.79361912717286 0 -989.79361912717286 -40.745978376833591 0 0 0 0 1485.303574119258 -1760.0893279525235 0 -1760.0893279525235 857.04275484536674 0 0 0 0 -346.06220007347292 -100.62582317541546 0 -100.62582317541546 2324.9002142400532 0 0 0 0 636.98836580946227 -1260.0837618457481 0 -1260.0837618457481 660.40919633341764 0 0 0 0 544.00476137947408 370.80735117046515 0 370.80735117046515 222.58572060722872 0 0 0 0 0.62793805009579273 -1.493436592378762 0 -1.493436592378762 0.10316678716272998 0 0 0 0 2227.3017540264991 -762.56467840429832 0 -762.56467840429832 -155.55611499097449 0 0 0 0 23.774485285161063 -99.844333679931879 0 -99.844333679931879 732.66596824054022 0 0 0 0 -111.0213904644479 49.382938427207591 0 49.382938427207591 3012.0039788183867 0 0 0 0 -147.09232802111001 -88.678608519877343 0 -88.678608519877343 -13.915957384211652 0 0 0 0 21.074268677446526 -25.620173951469042 0 -25.620173951469042 -75.795063104720612 0 0 0 0 -23.852153880434344 3.5837733835942345 0 3.5837733835942345 53.21514791988011 0 0 0 0 -11.70314742391929 1.5125042120016587 0 1.5125042120016587 16.38552917565903 0 0 0 0 20.123530771133119 -16.224443257194309 0 -16.224443257194309 -13.622243826448539 0 0 0 0 -15.440432771744282 -5.9136374429095309 0 -5.9136374429095309 3.192783013634414 0 0 0 0 36.676947293948615 -51.914095835892113 0 -51.914095835892113 -19.022962985494814 0 0 0 0 1.6583798523998325 -4.6534351788725159 0 -4.6534351788725159 0.41760031267710851 0 0 0 0 -123.64319927661563 -40.360876057282439 0 -40.360876057282439 790.39745731951461 0 0 0 0 -149.29186040129935 -244.32133006332015 0 -244.32133006332015 967.43798165294902 0 0 0 0 -49.011593816365348 -545.3780748913814 0 -545.3780748913814 -157.16480838657208 0 0 0 0 416.52455893548904 -1187.7145616266398 0 -1187.7145616266398 361.95622140037722 0 0 0 0 -60.186241805233294 -73.578103024252414 0 -73.578103024252414 136.41135029498946 0 0 0 0 1826.1448405896954 -1774.6156872473384 0 -1774.6156872473384 1424.2189383770692 0 0 0 0 1696.5747173402051 784.06536482375213 0 784.06536482375213 172.11812845804525 0 0 0 0 9.5296330589192522 -16.730005155733839 0 -16.730005155733839 -199.6365657600636 0 0 0 0 158.91047048514883 225.29756443181486 0 225.29756443181486 -599.01029364901297 0 0 0 0 650.01934893458383 -1165.84401460866 0 -1165.84401460866 -1264.1954126909313 0 0 0 0 -0.17401105276761442 0.15967004307771582 0 0.15967004307771582 -0.24039505763884605 0 0 0 0 -689.00341380931786 -688.77856548511136 0 -688.77856548511136 -382.5296526748898 0 0 0 0 433.79623318897211 140.5114897517692 0 140.5114897517692 -56.72439284277516 0 0 0 0 -79.762741806334816 92.244702477488772 0 92.244702477488772 -474.29725827356197 0 0 0 0 -0.36542884086519933 0.39096262359401734 0 0.39096262359401734 -0.65270973629469586 0 0 0 0 238.74421147584508 214.44542158287732 0 214.44542158287732 -348.55327311222482 0 0 0 0 206.4690241812641 -451.78726693115459 0 -451.78726693115459 -1142.3223264768694 0 0 0 0 -307.28296892208164 -840.49442748231104 0 -840.49442748231104 -705.34438157332079 0 0 0 0 -69.087584720349696 -871.59439501251973 0 -871.59439501251973 -705.91965930976767 0 0 0 0 -417.09810413861123 -753.75612751822428 0 -753.75612751822428 -252.61955792125445 0 0 0 0 78.146602414286463 40.664539965579024 0 40.664539965579024 -37.164428849504475 0 0 0 0 19.932294539670693 5.2526458164238647 0 5.2526458164238647 61.251351897883978 0 0 0 0 40.98628099472262 91.179011343118873 0 91.179011343118873 22.647186759566466 0 0 0 0 -28.207556938286871 -32.781909059529426 0 -32.781909059529426 6.1587266140268184 0 0 0 0 -2.2256712915597809 -4.0817842752870526 0 -4.0817842752870526 3.5718046211827925 0 0 0 0 20.120682231528917 22.787399948617349 0 22.787399948617349 -97.992980312836153 0 0 0 0 -46.585455352324061 39.160325298646057 0 39.160325298646057 -6.7973406237888412 0 0 0 0 -22.6801026588073 -26.697244632880029 0 -26.697244632880029 31.728667376271915 0 0 0 0 -20.350426685203274 -24.701042045817303 0 -24.701042045817303 -7.5902806037047412 0 0 0 0 -17.221325126942247 -3.8078335459431401 0 -3.8078335459431401 12.86678595149715 0 0 0 0 7.9690984323970042 -25.650861682606774 0 -25.650861682606774 41.184108007310897 0 0 0 0 -14.571996307466179 26.775258951247451 0 26.775258951247451 80.342771742012701 0 0 0 0 -63.177467487519607 16.212252089664617 0 16.212252089664617 89.757472725174921 0 0 0 0 -24.220620224135928 -13.884351092179713 0 -13.884351092179713 44.446678051066556 0 0 0 0 -146.95425237846212 -24.44792675730605 0 -24.44792675730605 46.473596056228416 0 0 0 0 -108.47900902153924 -1.8154891206704633 0 -1.8154891206704633 -66.900245889662983 0 0 0 0 -60.092570181848714 44.074026073441019 0 44.074026073441019 -30.202437709474907 0 0 0 0 -37.832211601460585 -33.626290326867093 0 -33.626290326867093 -68.161160335069781 0 0 0 0 -355.51209036138607 -313.22089171938569 0 -313.22089171938569 -167.86918209460998 0 0 0 0 9.9491614924627356 -131.35267361103797 0 -131.35267361103797 -145.96084894237174 0 0 0 0 121.46104600426042 -40.478251589053343 0 -40.478251589053343 -73.233621710973239 0 0 0 0 -0.2943781134222867 -0.61123533472984803 0 -0.61123533472984803 0.15419969898185504 0 0 0 0 -73.032324948260793 -49.872897102627576 0 -49.872897102627576 52.053823085903787 0 0 0 0 -1554.4217205357018 -43.108346883573745 0 -43.108346883573745 471.44029181016595 0 0 0 0 -1769.81278218035 897.56773954213622 0 897.56773954213622 -263.6492027032923 0 0 0 0 -192.42301141860662 -242.17234611023559 0 -242.17234611023559 -161.07092979374283 0 0 0 0 -1493.9558355235931 -26.249235818378565 0 -26.249235818378565 786.4547074281154 0 0 0 0 9.4481535907316641 135.37263415142465 0 135.37263415142465 -708.6618977373455 0 0 0 0 -577.2706626188301 448.9842409978437 0 448.9842409978437 -565.17255105799472 0 0 0 0 -359.61242220217537 -268.95498982676622 0 -268.95498982676622 -127.36011488985059 0 0 0 0 -303.36028040348901 -55.62421665100328 0 -55.62421665100328 -497.87552363651889 0 0 0 0 -352.98355202266248 -169.11936377992606 0 -169.11936377992606 -95.688944504182473 0 0 0 0 -382.46079703292344 -227.56165139645736 0 -227.56165139645736 -182.32044772132667 0 0 0 0 -888.83921282658412 -100.54556104453263 0 -100.54556104453263 -110.13239098438862 0 0 0 0 -175.38235363033891 4.0256123395909071 0 4.0256123395909071 36.527642827230011 0 0 0 0 -267.14909526096017 -217.31102734277374 0 -217.31102734277374 -154.43911072549281 0 0 0 0 -75.382587551779579 39.93396272926293 0 39.93396272926293 7.9588790150805835 0 0 0 0 -86.82556596226641 -158.35670796231625 0 -158.35670796231625 -80.66654173599045 0 0 0 0 62.632075267494656 32.258960075770119 0 32.258960075770119 -38.527112640236737 0 0 0 0 -64.82977030807524 -70.373104842169596 0 -70.373104842169596 -39.5284199718335 0 0 0 0 -0.29677845184234641 -0.77535111139846968 0 -0.77535111139846968 -0.34704122855472863 0 0 0 0 571.62926497611625 -446.25513005187679 0 -446.25513005187679 -568.56296504645707 0 0 0 0 -1459.7728418416809 -474.01569732479174 0 -474.01569732479174 -155.03091955568652 0 0 0 0 -0.94073879723770304 -2.3521001845122154 0 -2.3521001845122154 -0.6935780686480022 0 0 0 0 -575.38105822258512 49.218887172301493 0 49.218887172301493 154.51346597366046 0 0 0 0 -533.1747753311538 -455.0561808085863 0 -455.0561808085863 -417.863596154265 0 0 0 0 -0.47408667564600293 0.41989610218710816 0 0.41989610218710816 -0.72868448689189869 0 0 0 0 -538.13174679342774 -864.99674655094714 0 -864.99674655094714 -1182.9464149392843 0 0 0 0 -877.70998077315744 -649.16261508405887 0 -649.16261508405887 -324.67507524551547 0 0 0 0 234.44908633793239 -2731.757503575107 0 -2731.757503575107 -637.30649513375101 0 0 0 0 -464.59032234976257 -942.58512581183368 0 -942.58512581183368 -1180.9771321393746 0 0 0 0 -442.63884302132647 -814.84945328846334 0 -814.84945328846334 -1039.7480157322807 0 0 0 0 -0.40563914766338627 0.4313423347330172 0 0.4313423347330172 -0.80118168678930246 0 0 0 0 -453.57342355184664 -371.92599512746392 0 -371.92599512746392 -208.86280680069967 0 0 0 0 -476.70961373879982 -291.51743793069545 0 -291.51743793069545 -39.152223727551245 0 0 0 0 72.834983247477794 -428.44771465437771 0 -428.44771465437771 -911.86733610442661 0 0 0 0 -34.623889361362671 -752.41489166549945 0 -752.41489166549945 -1079.5020267863274 0 0 0 0 -231.97585773062019 -677.83051502239505 0 -677.83051502239505 -980.38518809441302 0 0 0 0 -106.09704930908629 -661.010027169963 0 -661.010027169963 -1019.1259875613468 0 0 0 0 -140.95746647019405 -703.21096396719986 0 -703.21096396719986 -1057.7415391979739 0 0 0 0 -94.072309261362534 -622.35352979575509 0 -622.35352979575509 -1059.5316870968597 0 0 0 0 -133.35019855352584 -630.02873774991076 0 -630.02873774991076 -870.59257140159389 0 0 0 0 -92.313661023668828 -495.21959264663474 0 -495.21959264663474 -825.26272173418329 0 0 0 0 -121.29200806544395 -527.53458111689179 0 -527.53458111689179 -769.87443799021094 0 0 0 0 -113.96548938407796 -450.07660271505847 0 -450.07660271505847 -717.19626134343343 0 0 0 0 -90.446921830065548 -405.12504102646562 0 -405.12504102646562 -698.09177454506425 0 0 0 0 -100.63967444314767 -503.18689732864595 0 -503.18689732864595 -935.40757071197004 0 0 0 0 -77.249627387616783 -417.07685927039529 0 -417.07685927039529 -801.6439475404768 0 0 0 0 -133.80969704821473 -555.12450308552798 0 -555.12450308552798 -868.57837168331025 0 0 0 0 -156.10381537833018 -631.41729921720435 0 -631.41729921720435 -991.2178534209088 0 0 0 0 -91.898279943998205 -541.38349014081359 0 -541.38349014081359 -1002.9790541200164 0 0 0 0 -140.05428027828748 -647.99554608039352 0 -647.99554608039352 -1140.0572202239819 0 0 0 0 -223.94870899105445 -608.90823059692593 0 -608.90823059692593 -1043.619341850027 0 0 0 0 -122.9731578186038 -551.46092328658051 0 -551.46092328658051 -1081.3969813527674 0 0 0 0 -136.82246070360998 -505.20781128966519 0 -505.20781128966519 -935.17247084989322 0 0 0 0 -147.27329884865321 -528.21836250803972 0 -528.21836250803972 -912.94024619378979 0 0 0 0 -197.1418967989739 -599.62858542570757 0 -599.62858542570757 -1046.0574457843431 0 0 0 0 -104.76204975985456 -387.45196564940852 0 -387.45196564940852 -804.18102746099612 0 0 0 0 -303.87648397535668 -591.47171066434385 0 -591.47171066434385 -1056.6173222788675 0 0 0 0 -164.74021607427858 -541.22811399242164 0 -541.22811399242164 -1136.5051926283718 0 0 0 0 -180.18586957547814 -460.90943865552617 0 -460.90943865552617 -974.96925986704991 0 0 0 0 -297.22060332697583 -641.62993488550819 0 -641.62993488550819 -1119.9805877126782 0 0 0 0 -309.52644640399376 -655.75145058664111 0 -655.75145058664111 -1204.7745384540394 0 0 0 0 -197.39446422021138 -563.4077735075789 0 -563.4077735075789 -1126.3394564862756 0 0 0 0 -256.24278533965116 -699.52901732183818 0 -699.52901732183818 -1170.040712894327 0 0 0 0 -321.60185964053198 -813.56383801336301 0 -813.56383801336301 -1251.5375570313845 0 0 0 0 -309.31922462879447 -693.47193527581658 0 -693.47193527581658 -1077.3532719163604 0 0 0 0 -157.12093488480605 -670.52475477887947 0 -670.52475477887947 -1123.7743825342041 0 0 0 0 -514.24495494010625 -807.64383149847345 0 -807.64383149847345 -1133.0273471041423 0 0 0 0 -791.98253062390722 -777.91368732312185 0 -777.91368732312185 -1196.1204668253813 0 0 0 0 -1286.6931997984502 -1231.4243942976032 0 -1231.4243942976032 -1255.4034550669949 0 0 0 0 -1019.8380237060483 -830.85972129345282 0 -830.85972129345282 -1160.554067083016 0 0 0 0 -589.63640186202247 -785.84738869233843 0 -785.84738869233843 -1331.6590269972307 0 0 0 0 -764.13144383075996 -988.19981474284668 0 -988.19981474284668 -1318.7198866831823 0 0 0 0 -511.92617516755126 -869.06870104985319 0 -869.06870104985319 -1339.6517444420133 0 0 0 0 -474.89455802075099 -753.59576398109493 0 -753.59576398109493 -1204.248989648906 0 0 0 0 -450.89437419560272 -823.83395415123232 0 -823.83395415123232 -1377.3827283180035 0 0 0 0 -288.37475985183846 -617.53255560931211 0 -617.53255560931211 -1240.3363994246247 0 0 0 0 -474.96114829630824 -703.55588147613344 0 -703.55588147613344 -1182.6148506944228 0 0 0 0 -256.65621821489185 -593.45992076228868 0 -593.45992076228868 -1215.331924760887 0 0 0 0 -476.19116642454173 -696.00786122491445 0 -696.00786122491445 -1171.7288909321323 0 0 0 0 -523.65186108087073 -655.81428420333214 0 -655.81428420333214 -1205.3689101593081 0 0 0 0 -644.05985400947247 -1101.0875177421872 0 -1101.0875177421872 -1630.6846211535922 0 0 0 0 -403.77667284570634 -695.95632666969777 0 -695.95632666969777 -1390.5051189799415 0 0 0 0 -735.33817853836808 -851.45196611276151 0 -851.45196611276151 -1284.0996856306519 0 0 0 0 -614.00724545266712 -884.46124507063905 0 -884.46124507063905 -1334.9465401517555 0 0 0 0 -450.4536244168994 -891.01720089607443 0 -891.01720089607443 -1585.9187229795934 0 0 0 0 -733.39471379201859 -921.15242437714551 0 -921.15242437714551 -1427.470213012376 0 0 0 0 -503.11768987146206 -1096.8521235542767 0 -1096.8521235542767 -2150.5911074447895 0 0 0 0 -967.43978462048108 -1584.5780099144395 0 -1584.5780099144395 -1828.0718530160066 0 0 0 0 -441.29380426456555 -747.54266372459335 0 -747.54266372459335 -640.24614423725006 0 0 0 0 -1763.1020798424724 0.46024900845077354 0 0.46024900845077354 -785.53214103895152 0 0 0 0 -0.30796023916070681 0.21185096778888735 0 0.21185096778888735 -0.30297693387498237 0 0 0 0 -1340.9044168155815 -1454.3606603368307 0 -1454.3606603368307 -687.59511200801353 0 0 0 0 -971.92106225911994 -398.37250458713606 0 -398.37250458713606 220.68780858449645 0 0 0 0 0.0033817015746606671 -1.1908499823902075 0 -1.1908499823902075 -0.38077566030837517 0 0 0 0 101.60478479203812 35.986107770525336 0 35.986107770525336 -2941.0876075531014 0 0 0 0 93.757653489832592 -55.121089503602661 0 -55.121089503602661 -803.26680460214629 0 0 0 0 -477.0839250303834 -1354.068273214918 0 -1354.068273214918 -1843.9564458989789 0 0 0 0 -1318.3539468104718 -308.5813213787751 0 -308.5813213787751 -601.31364071892585 0 0 0 0 -503.1941144438606 185.00330482287063 0 185.00330482287063 -1692.2787130191227 0 0 0 0 -20.505964722950011 -645.2872778412293 0 -645.2872778412293 -1270.0063222687977 0 0 0 0 -85.450806127337273 -838.46494550423995 0 -838.46494550423995 -1166.8320964037521 0 0 0 0 37.509587849781383 -761.88591795651973 0 -761.88591795651973 -1128.2925610891352 0 0 0 0 -81.099033251695801 -1155.4663810333977 0 -1155.4663810333977 -2295.4437005854334 0 0 0 0 -398.41679443258909 -999.75855932222794 0 -999.75855932222794 -880.49284867969618 0 0 0 0 -470.53576635210629 -889.35512110974605 0 -889.35512110974605 -604.04063246986334 0 0 0 0 -185.02257967441983 -533.68621323820207 0 -533.68621323820207 -438.61908345242773 0 0 0 0 -251.68964825093281 -688.55031550108288 0 -688.55031550108288 -778.00323291188124 0 0 0 0 -135.01004693753202 -677.33015582665394 0 -677.33015582665394 -998.72990851619215 0 0 0 0 -189.78977077065792 -617.69921400606609 0 -617.69921400606609 -738.32749523458915 0 0 0 0 -253.84330811002292 -599.6715728317613 0 -599.6715728317613 -743.39777960161337 0 0 0 0 -325.00726217302145 -422.76341359364255 0 -422.76341359364255 -359.1434563798648 0 0 0 0 -225.03274060232798 -256.67245760505648 0 -256.67245760505648 -305.7419643081812 0 0 0 0 -272.03638830559794 -394.98313000663438 0 -394.98313000663438 -461.5704648317078 0 0 0 0 -150.01228471490322 -413.37284567575261 0 -413.37284567575261 -548.66569847086612 0 0 0 0 -178.28250029400806 -468.45126552633974 0 -468.45126552633974 -629.11588356640641 0 0 0 0 -535.72433671558974 -658.51516879049905 0 -658.51516879049905 -343.12498641621096 0 0 0 0 -523.30258290233905 -611.45982048327642 0 -611.45982048327642 -535.48076790110281 0 0 0 0 53.010788324492751 16.708907084281236 0 16.708907084281236 -9.45059196343027 0 0 0 0 0.5288695670410366 -0.27830669043282441 0 -0.27830669043282441 -0.46627683512363927 0 0 0 0 0.6072532447235659 0.26234484847854844 0 0.26234484847854844 -0.62341763271599149 0 0 0 0 17.857401232613483 -73.045110317485523 0 -73.045110317485523 123.44688999190384 0 0 0 0 -728.28095589131408 -295.9380268551231 0 -295.9380268551231 0.97554552105793846 0 0 0 0 200.78744728371385 -286.73205284654432 0 -286.73205284654432 -56.549696028992457 0 0 0 0 267.70669863192597 -16.282471174050443 0 -16.282471174050443 -65.62761386459897 0 0 0 0 280.17269677919103 -32.096940812356934 0 -32.096940812356934 -96.218928430476808 0 0 0 0 170.79353176354198 45.670330674327488 0 45.670330674327488 -96.631223024978681 0 0 0 0 186.94070997323979 139.08443081712855 0 139.08443081712855 30.168986423846945 0 0 0 0 169.94565797023824 -104.06200919315233 0 -104.06200919315233 192.01546253686593 0 0 0 0 113.52676387695828 14.320906080931309 0 14.320906080931309 -11.22466698225071 0 0 0 0 -6.5978972705488559 65.194671677818405 0 65.194671677818405 -21.645302827326304 0 0 0 0 -1.2244250752264634 32.469992438040208 0 32.469992438040208 71.007521975654072 0 0 0 0 -36.910799974226393 -8.5762782810706994 0 -8.5762782810706994 67.10553003154223 0 0 0 0 -29.004350092931418 -12.37374274546346 0 -12.37374274546346 46.40233003674075 0 0 0 0 -93.879903934779577 -30.542836693042773 0 -30.542836693042773 58.749646094967829 0 0 0 0 -53.771818116947543 -129.44642356007171 0 -129.44642356007171 96.566651120974711 0 0 0 0 -24.493764430677402 -11.097091440898566 0 -11.097091440898566 -25.601811356986218 0 0 0 0 -2.4895493517446567 -0.89520506300535629 0 -0.89520506300535629 1.8797193285413949 0 0 0 0 -4.8073448835973238 -1.0701415484065038 0 -1.0701415484065038 3.9821052864306759 0 0 0 0 -72.161001497297548 -54.141109710260935 0 -54.141109710260935 19.252261773277496 0 0 0 0 -34.198291041568154 21.877035613591943 0 21.877035613591943 3.4152082886648714 0 0 0 0 -50.900103621475864 -33.906381563695504 0 -33.906381563695504 -9.2390091753659362 0 0 0 0 -61.960193289385643 -34.62412507406043 0 -34.62412507406043 36.73272032267414 0 0 0 0 -36.080215952941217 3.5194289635765017 0 3.5194289635765017 23.708020390222373 0 0 0 0 -29.833862254745327 9.9839093630362186 0 9.9839093630362186 -10.100937399342001 0 0 0 0 -45.066772248741472 -15.849645868664084 0 -15.849645868664084 -18.025453073980316 0 0 0 0 3.1593369295092018 -5.7968273014002438 0 -5.7968273014002438 1.2756258941351977 0 0 0 0 -1.2997928469703766 -2.2378144283339907 0 -2.2378144283339907 -1.2371565677668173 0 0 0 0 -4.4343899170276195 -3.8887313721408443 0 -3.8887313721408443 0.90101755295921993 0 0 0 0 30.103235951624811 -68.371406093676342 0 -68.371406093676342 101.73856390485889 0 0 0 0 180.58264431462158 -85.873558633415996 0 -85.873558633415996 11.652070130385255 0 0 0 0 0.19914542192379869 -3.4497631240338222 0 -3.4497631240338222 -1.0008578372115062 0 0 0 0 -0.12761558799103767 -0.12670042327820674 0 -0.12670042327820674 0.12287486258196512 0 0 0 0 161.2778552270247 18.393447493671374 0 18.393447493671374 0.36243763629317982 0 0 0 0 22.503063134790864 -24.564458096228918 0 -24.564458096228918 0.75803253527192282 0 0 0 0 -32.373983957106248 -6.0972038280669949 0 -6.0972038280669949 44.466089376401214 0 0 0 0 -14.869434699532576 38.616037701134701 0 38.616037701134701 -51.640384800572065 0 0 0 0 -49.395922555762809 39.595261982645752 0 39.595261982645752 36.500968359053786 0 0 0 0 29.531863472890109 -35.660705082835193 0 -35.660705082835193 20.51934486834466 0 0 0 0 -18.114573481259868 -17.839418815926365 0 -17.839418815926365 -17.836075817915116 0 0 0 0 31.374722794360423 15.720398561062666 0 15.720398561062666 -4.1714898110767535 0 0 0 0 31.441023052000673 13.338954066890437 0 13.338954066890437 25.785813427573885 0 0 0 0 -22.930537847947562 -14.236143634811015 0 -14.236143634811015 22.944955885304125 0 0 0 0 18.941259360319236 -11.534016186191366 0 -11.534016186191366 21.300504844582974 0 0 0 0 -0.29949170623634824 0.078555810637027434 0 0.078555810637027434 0.16089190691466482 0 0 0 0 -20.503280131903011 -1.9194847587605182 0 -1.9194847587605182 22.060321224111249 0 0 0 0 -7.9552062982115395 -9.1100645008412791 0 -9.1100645008412791 3.841769935624749 0 0 0 0 -11.802880122959323 -1.863534494968917 0 -1.863534494968917 -13.299578172101974 0 0 0 0 -9.6838164069340564 -18.603663620127008 0 -18.603663620127008 5.7337791875779658 0 0 0 0 -6.6977927906045807 0.64592037141005676 0 0.64592037141005676 5.5854704142439004 0 0 0 0 -6.5969089265585268 -9.7169251916482082 0 -9.7169251916482082 3.4046180799374115 0 0 0 0 -34.005117721499118 9.4209071300047071 0 9.4209071300047071 27.635172560053434 0 0 0 0 -13.156921584290103 -20.998481284229456 0 -20.998481284229456 -3.2322662709379983 0 0 0 0 -0.14355273218825459 -3.8521999465350518 0 -3.8521999465350518 -2.3803963142026987 0 0 0 0 2.2331947303001289 -4.4006010714390271 0 -4.4006010714390271 1.1174934467463675 0 0 0 0 -51.119095136920805 -53.050758896151819 0 -53.050758896151819 -1.3842900863505747 0 0 0 0 -3.8657949777487204 -2.2991797155628739 0 -2.2991797155628739 3.3610425332710232 0 0 0 0 -71.997592956533481 103.484300722439 0 103.484300722439 112.13351459841215 0 0 0 0 -96.558797826000955 -14.454582831057451 0 -14.454582831057451 54.36718790413579 0 0 0 0 18.950638928447006 -34.221073052021438 0 -34.221073052021438 -92.487173006865305 0 0 0 0 -28.547785499293241 -100.78111525215354 0 -100.78111525215354 14.400967433616017 0 0 0 0 5.4257089895327226 18.900487130193142 0 18.900487130193142 -109.33622916284367 0 0 0 0 3.5529617513277323 -4.2899370281847382 0 -4.2899370281847382 0.45121540530221904 0 0 0 0 1.106484953908069 -6.0451230417797142 0 -6.0451230417797142 2.2566164737094629 0 0 0 0 -5.5176978304516524 -3.5387761928905093 0 -3.5387761928905093 -0.34280037639359762 0 0 0 0 16.332223827033886 -265.11011131848409 0 -265.11011131848409 -469.78208250535317 0 0 0 0 -105.27942599784001 -192.67494964810612 0 -192.67494964810612 -179.70105085316209 0 0 0 0 -160.53894976858282 -522.69662588045867 0 -522.69662588045867 -580.10034623505999 0 0 0 0 -108.0045697579626 -440.95104039869466 0 -440.95104039869466 -568.48016081275273 0 0 0 0 -84.970081309613306 -222.31495839490162 0 -222.31495839490162 -264.84112961494975 0 0 0 0 -270.35221136291511 -489.01006910336946 0 -489.01006910336946 -388.14932078471065 0 0 0 0 -425.26751050306484 -258.0537470463405 0 -258.0537470463405 -40.11973562214007 0 0 0 0 -280.9573133487429 -81.749874814326176 0 -81.749874814326176 109.25328617404011 0 0 0 0 -90.541718509164639 -78.115429394762032 0 -78.115429394762032 -153.34639213946139 0 0 0 0 36.371233857847983 -60.034135925386181 0 -60.034135925386181 -672.21574548957142 0 0 0 0 2.3214589289273135 -117.89145996223306 0 -117.89145996223306 -746.92218078000951 0 0 0 0 42.938067598559428 -246.58334047573226 0 -246.58334047573226 -649.82449804351518 0 0 0 0 5.3825381809729151 -299.95846874222116 0 -299.95846874222116 -575.9349190360208 0 0 0 0 -38.418922630837187 -17.700029025621916 0 -17.700029025621916 -216.39415590644239 0 0 0 0 36.407629303255817 -639.02888036539844 0 -639.02888036539844 -747.57689761852589 0 0 0 0 99.994154529325897 -280.6786398703498 0 -280.6786398703498 -924.09274137059037 0 0 0 0 96.075003048783401 -189.44499172317046 0 -189.44499172317046 -1148.9208534827849 0 0 0 0 23.07089597498998 -775.65438109507431 0 -775.65438109507431 -1355.757676508536 0 0 0 0 -182.9344151034893 -782.81744950741449 0 -782.81744950741449 -384.22451086400179 0 0 0 0 -166.17143804625084 -864.98229142641594 0 -864.98229142641594 -476.70468620761676 0 0 0 0 -200.4804726131988 -749.90007944860099 0 -749.90007944860099 -649.69642514941734 0 0 0 0 -34.916468613388133 -625.83474924856637 0 -625.83474924856637 -624.21113339085969 0 0 0 0 -400.18829075995018 -402.06863433085346 0 -402.06863433085346 -465.50936090056166 0 0 0 0 -418.89343828251731 -459.26508532814751 0 -459.26508532814751 -402.21184988633104 0 0 0 0 -328.6829779491527 -391.29693649024375 0 -391.29693649024375 -353.03780751923659 0 0 0 0 -507.3411566695213 -454.27783266255301 0 -454.27783266255301 -273.12821398731103 0 0 0 0 -476.11572026908107 -516.16350149676873 0 -516.16350149676873 -257.06558154977392 0 0 0 0 -380.73725304414984 -517.00361964461536 0 -517.00361964461536 -386.07438199904573 0 0 0 0 -279.7001829102519 -708.89130324721282 0 -708.89130324721282 -363.25442858947099 0 0 0 0 -495.69232278040727 -717.64869132141666 0 -717.64869132141666 -342.53918682582753 0 0 0 0 -493.03933166409843 -691.88234056861302 0 -691.88234056861302 -218.36498677431155 0 0 0 0 -754.8391696671024 -706.698691063566 0 -706.698691063566 -175.15183358436025 0 0 0 0 -560.90885871810315 -480.68821255864623 0 -480.68821255864623 -169.97640416312061 0 0 0 0 -649.36034718572046 -577.14886261679385 0 -577.14886261679385 -261.29381830859074 0 0 0 0 -861.15219288671506 -462.78233673193836 0 -462.78233673193836 -169.37075136608837 0 0 0 0 -691.70840060722549 -385.30257543570588 0 -385.30257543570588 -217.49008871876322 0 0 0 0 -983.68344608454572 -799.87823546822051 0 -799.87823546822051 -323.01240775481529 0 0 0 0 -1184.6339923451415 -260.14564335387308 0 -260.14564335387308 -249.25475687327526 0 0 0 0 -710.49057798023568 -623.78240829762353 0 -623.78240829762353 -240.98977924725068 0 0 0 0 -508.74533195178083 -957.80391254836604 0 -957.80391254836604 -400.09431369949198 0 0 0 0 -170.03701561214984 -661.37769173325205 0 -661.37769173325205 -325.08558914358946 0 0 0 0 -255.52702308428707 -584.61789900701478 0 -584.61789900701478 272.57091202724496 0 0 0 0 -236.18826193182031 -582.93406934219729 0 -582.93406934219729 263.30757061561491 0 0 0 0 -48.735217021374524 -959.3910591120906 0 -959.3910591120906 -259.52666055103327 0 0 0 0 -383.50023204134777 -873.37551504204475 0 -873.37551504204475 -182.0652523560093 0 0 0 0 -63.819575796675053 -99.831794398786769 0 -99.831794398786769 -189.41091695696741 0 0 0 0 -163.81753347682752 -155.17386018694674 0 -155.17386018694674 -192.42213983594047 0 0 0 0 -43.220317271334352 -135.92377562935872 0 -135.92377562935872 -130.97097322745003 0 0 0 0 -19.547687308993773 -98.795033534582672 0 -98.795033534582672 -72.761071861332312 0 0 0 0 51.488105750671821 -283.52106065399357 0 -283.52106065399357 -4.3463154320415924 0 0 0 0 39.631790271247155 -140.79725995159788 0 -140.79725995159788 -107.01218815026732 0 0 0 0 -24.911873564313282 -186.28241467905173 0 -186.28241467905173 -92.508558888725929 0 0 0 0 -56.147608419632888 -247.841332766292 0 -247.841332766292 -186.47860446697814 0 0 0 0 -107.30018356829532 -194.44396938445198 0 -194.44396938445198 -202.31159004245637 0 0 0 0 -144.9456165478914 -230.60642175175963 0 -230.60642175175963 -137.9893402782518 0 0 0 0 -208.99657147430116 -183.32614312375244 0 -183.32614312375244 -149.37062825300382 0 0 0 0 -395.9538408148801 -247.67049427726579 0 -247.67049427726579 -213.79039348187689 0 0 0 0 -222.48231076881711 -246.883403101765 0 -246.883403101765 -319.48612552820487 0 0 0 0 -415.71960808593212 -330.73486164809731 0 -330.73486164809731 -414.19294756577619 0 0 0 0 -779.02836947512696 -354.20788299214746 0 -354.20788299214746 -551.52124171342984 0 0 0 0 -525.49374978686683 -151.43140990154825 0 -151.43140990154825 -299.31267806660981 0 0 0 0 -730.11489308253658 -331.87798615363272 0 -331.87798615363272 -201.6847903064081 0 0 0 0 -453.50050521455705 -286.74900280405018 0 -286.74900280405018 -234.07316713514956 0 0 0 0 -462.79053584957728 -285.53097569694 0 -285.53097569694 -198.04038030919742 0 0 0 0 -610.61634931518347 -410.49711047841174 0 -410.49711047841174 -215.33869014143056 0 0 0 0 -319.39843474561349 -165.52338981420144 0 -165.52338981420144 -217.26093622052576 0 0 0 0 -364.96192364898161 -267.83141152335156 0 -267.83141152335156 -264.6335417402006 0 0 0 0 -276.89050843857694 -188.59624633217936 0 -188.59624633217936 -257.46230718162951 0 0 0 0 -162.32833485159063 -157.87068638944811 0 -157.87068638944811 -254.50960120149466 0 0 0 0 -281.9401885237603 -176.23815783078317 0 -176.23815783078317 -215.91435045864273 0 0 0 0 -133.68833663716214 -148.21168273877993 0 -148.21168273877993 -253.46437166502074 0 0 0 0 -221.67363601258694 -263.89049245732986 0 -263.89049245732986 -281.68781804237369 0 0 0 0 -162.19549547692441 -116.24813653775664 0 -116.24813653775664 -205.65021430017805 0 0 0 0 -55.769038370926864 -77.852630307401341 0 -77.852630307401341 -242.50802523347738 0 0 0 0 -411.01635679666651 -373.41800263367259 0 -373.41800263367259 -219.40537337868568 0 0 0 0 -301.9045851949486 -232.77485861022797 0 -232.77485861022797 -234.61004470469871 0 0 0 0 -411.08455174024857 -357.53003048037317 0 -357.53003048037317 -278.59223884877065 0 0 0 0 -220.05268095144129 -287.20657730572111 0 -287.20657730572111 -339.00856990898683 0 0 0 0 81.055596162797883 -23.645179711475066 0 -23.645179711475066 -314.76518808718924 0 0 0 0 -153.15899683753378 -333.2158637474131 0 -333.2158637474131 -704.58680027152514 0 0 0 0 -286.33756139947218 -275.82779338163164 0 -275.82779338163164 -254.45382342736775 0 0 0 0 52.897568481159396 15.172960465182769 0 15.172960465182769 -144.59722462882564 0 0 0 0 -82.305859964661067 -65.689351784600149 0 -65.689351784600149 -153.89759246365793 0 0 0 0 -65.409879882732639 -50.22883934049969 0 -50.22883934049969 -192.30100874981508 0 0 0 0 -42.694289899227442 -164.36917932744291 0 -164.36917932744291 -282.35015301938165 0 0 0 0 -44.980894038279075 33.896847392281416 0 33.896847392281416 -42.300183804713924 0 0 0 0 -26.130390693724621 -14.770687859284408 0 -14.770687859284408 -154.86580889349716 0 0 0 0 -24.7506819771952 -38.172339811404527 0 -38.172339811404527 -83.596406740034581 0 0 0 0 -65.649724615359446 -81.650800971558056 0 -81.650800971558056 -188.69752172776862 0 0 0 0 -40.408876933623105 -92.716989339041902 0 -92.716989339041902 -197.96903809231299 0 0 0 0 -104.25981518503977 -64.049483909944684 0 -64.049483909944684 -185.39230341641519 0 0 0 0 10.055607346032048 -62.289024744288326 0 -62.289024744288326 -107.18107722631612 0 0 0 0 -23.462174213498656 -39.731136443147989 0 -39.731136443147989 -145.24655719524526 0 0 0 0 7.2048112846387085 -48.357811075986319 0 -48.357811075986319 -171.19568347614404 0 0 0 0 18.025431915244553 -34.796866398613929 0 -34.796866398613929 -167.34398396092365 0 0 0 0 13.889745004096767 -28.048195754719927 0 -28.048195754719927 -153.18417072337616 0 0 0 0 23.300020817769109 -14.824497989652627 0 -14.824497989652627 -137.16144358814199 0 0 0 0 24.221918160823407 -38.602026738295535 0 -38.602026738295535 -147.58799123884455 0 0 0 0 -20.549954087357037 -59.062050018117588 0 -59.062050018117588 -64.194985683549021 0 0 0 0 18.968219020520337 -58.523968285902811 0 -58.523968285902811 -103.41567926640346 0 0 0 0 -7.493177821917925 -18.795060865028063 0 -18.795060865028063 -148.70447385251828 0 0 0 0 11.079635167399374 -16.275386687148981 0 -16.275386687148981 1.7682585055167692 0 0 0 0 -52.676009322924074 26.521289818676678 0 26.521289818676678 40.945943286101965 0 0 0 0 -0.88705049346724962 -0.87295126502043274 0 -0.87295126502043274 0.7207467082531025 0 0 0 0 -0.27674764366044258 -1.1722169033245062 0 -1.1722169033245062 -0.19183139429862039 0 0 0 0 -14.291695654130308 60.877957769302157 0 60.877957769302157 -24.18496582894204 0 0 0 0 8.2284203782106289 -4.0160743295963393 0 -4.0160743295963393 -0.32595965586347458 0 0 0 0 -8.4126436847800505 -33.858594977241694 0 -33.858594977241694 -18.116050515261804 0 0 0 0 1.7523404263324203 -6.7756439671870723 0 -6.7756439671870723 0.1566190454596979 0 0 0 0 -21.759624673908547 -36.192838359094367 0 -36.192838359094367 -87.727112795207177 0 0 0 0 -41.80347737185366 -74.769596380535404 0 -74.769596380535404 -102.40232432536641 0 0 0 0 2.2587792742957014 1.2713407886258112 0 1.2713407886258112 -1.7490971203677743 0 0 0 0 -180.5628468641371 -24.150728319723385 0 -24.150728319723385 8.3253608246782278 0 0 0 0 3.8122818626652588 -50.370271266537202 0 -50.370271266537202 -185.2538577868072 0 0 0 0 -88.545545161774498 -157.60505213495981 0 -157.60505213495981 -148.54218912263696 0 0 0 0 -33.345085097505944 -74.919638725621553 0 -74.919638725621553 -158.85747023873773 0 0 0 0 0.17726784983836552 -0.80308409430190519 0 -0.80308409430190519 0.11674614213587087 0 0 0 0 -184.81814918399323 -41.031953900404915 0 -41.031953900404915 117.84384083130863 0 0 0 0 -126.97910003977449 -13.597013682781835 0 -13.597013682781835 16.49164842616301 0 0 0 0 -52.168828025110997 -64.021818048928253 0 -64.021818048928253 -33.603384864305553 0 0 0 0 56.500900530721992 16.499853126806556 0 16.499853126806556 11.254935328674037 0 0 0 0 -80.368731506750919 -106.09596905781837 0 -106.09596905781837 -33.558182878536172 0 0 0 0 62.793941723764874 -96.963012522954159 0 -96.963012522954159 -199.8906368296266 0 0 0 0 62.251974372949917 -23.490810538946903 0 -23.490810538946903 18.64862532054758 0 0 0 0 5.7812372247626058 -8.3968192996593753 0 -8.3968192996593753 1.2226380277471987 0 0 0 0 0.55740811756308517 -2.2795046655530649 0 -2.2795046655530649 0.41359494418345877 0 0 0 0 0.82223729858815098 0.43604772538359171 0 0.43604772538359171 -0.62118181162449515 0 0 0 0 877.92302810610272 176.55352835379199 0 176.55352835379199 -170.42628896926772 0 0 0 0 312.73257555590681 -78.567508076795548 0 -78.567508076795548 -115.65705877483015 0 0 0 0 -176.98614502635382 45.211433958207351 0 45.211433958207351 153.79403574640855 0 0 0 0 -299.64159814000595 70.240970748096515 0 70.240970748096515 270.07354892590047 0 0 0 0 -110.79504141389043 37.847721099446062 0 37.847721099446062 16.248676514056569 0 0 0 0 6.6395896997395702 -8.9100257071224114 0 -8.9100257071224114 1.0188233417480193 0 0 0 0 -1.1525770011746648 -0.72957154370999922 0 -0.72957154370999922 1.0037257954996441 0 0 0 0 184.12512548646191 -20.705197964614854 0 -20.705197964614854 -47.862382796842212 0 0 0 0 253.88306822908635 -81.103466440112925 0 -81.103466440112925 -25.381717034222675 0 0 0 0 218.47284595786186 124.95249537726068 0 124.95249537726068 -7.2965228085704439 0 0 0 0 97.028348664636724 15.304807833370432 0 15.304807833370432 -6.8451131756646646 0 0 0 0 26.128105590585619 170.11816383931728 0 170.11816383931728 85.540428200514725 0 0 0 0 110.10456358428928 -126.78410825703304 0 -126.78410825703304 23.094356812813203 0 0 0 0 35.624846726786927 -113.18369557828737 0 -113.18369557828737 36.481670516681334 0 0 0 0 1.0752344616048504 -76.137238072213222 0 -76.137238072213222 21.602635112400094 0 0 0 0 -35.196586542981095 -40.866509672138818 0 -40.866509672138818 0.15712884075037437 0 0 0 0 -35.76299130346888 -113.14999866510743 0 -113.14999866510743 -22.302693924653795 0 0 0 0 3.106480654409097 -69.38767361279497 0 -69.38767361279497 12.781145499111517 0 0 0 0 -59.491664817105629 -94.517599596400942 0 -94.517599596400942 17.542711366952972 0 0 0 0 19.96008761957637 -49.575706000699938 0 -49.575706000699938 0.2917549125277219 0 0 0 0 100.07832241900906 -41.128982078207628 0 -41.128982078207628 -27.473536294646692 0 0 0 0 78.377643822488608 -42.055457365315306 0 -42.055457365315306 -22.456249587623461 0 0 0 0 61.450999621883966 1.0201145886767335 0 1.0201145886767335 -2.0000070551068347 0 0 0 0 -89.775260775328206 -169.03717567417243 0 -169.03717567417243 -99.480313071533601 0 0 0 0 -180.67727882610052 -219.07690544760044 0 -219.07690544760044 -79.656963045450993 0 0 0 0 -119.18441266723676 -147.28208570504466 0 -147.28208570504466 -34.277605894271517 0 0 0 0 -50.524116066429997 -92.299316705349156 0 -92.299316705349156 -37.312688489288121 0 0 0 0 -89.904071449702315 -100.97498865167927 0 -100.97498865167927 28.20749308402992 0 0 0 0 -60.069456278099096 -90.912772725961986 0 -90.912772725961986 30.82071141745746 0 0 0 0 -130.67654017325549 -143.29725554149582 0 -143.29725554149582 35.192418576254568 0 0 0 0 -196.66464676894248 -158.15914312312543 0 -158.15914312312543 63.280682506881931 0 0 0 0 -189.40086253538902 -121.73181491601463 0 -121.73181491601463 91.363547512883088 0 0 0 0 -167.33117103465702 -99.64569500631751 0 -99.64569500631751 77.441068052750779 0 0 0 0 -169.95628279811353 -91.225393297811024 0 -91.225393297811024 50.456482727971888 0 0 0 0 -241.97084950872522 -91.273731229986879 0 -91.273731229986879 77.513044923797267 0 0 0 0 -190.34973742422153 -11.927527940208165 0 -11.927527940208165 34.686168605513103 0 0 0 0 7.8174293897209282 -21.629510848705195 0 -21.629510848705195 -11.658049605208362 0 0 0 0 20.678609809860063 -51.454131223909144 0 -51.454131223909144 0.16232282679084165 0 0 0 0 -14.501183013344416 -61.780963668432378 0 -61.780963668432378 5.0590287201043793 0 0 0 0 -63.356301746440295 -28.336261718060996 0 -28.336261718060996 36.132427628952428 0 0 0 0 -36.967644893424222 -33.882771184156809 0 -33.882771184156809 41.961540098302066 0 0 0 0 0.89399499348109401 -2.3633716529218383 0 -2.3633716529218383 -0.20108810599884763 0 0 0 0 -26.458838276605093 1.1530959649450097 0 1.1530959649450097 4.2114950193117693 0 0 0 0 70.379923503380269 5.5677526359104377 0 5.5677526359104377 -624.89104814231359 0 0 0 0 0.21603384758551059 -0.73403653548261261 0 -0.73403653548261261 -0.016303603690966728 0 0 0 0 34.847775135807751 -4.0602575240973238 0 -4.0602575240973238 -255.27500266812422 0 0 0 0 -9.5869398739741882 -65.587928293597543 0 -65.587928293597543 -107.46226003326956 0 0 0 0 -187.43492320641235 -120.75710188452103 0 -120.75710188452103 10.713847112690928 0 0 0 0 -220.4160323548931 -109.98750649091471 0 -109.98750649091471 10.205929708730764 0 0 0 0 -391.94583458926354 -2.7823203622301662 0 -2.7823203622301662 60.480492929033062 0 0 0 0 -337.1437063723024 -292.28421870195302 0 -292.28421870195302 -234.25968834778905 0 0 0 0 -72.596325372011052 -87.261800310528997 0 -87.261800310528997 -497.42260363467358 0 0 0 0 -132.35081472247839 146.71528170348574 0 146.71528170348574 -358.0390792331109 0 0 0 0 -104.74303445609257 68.519597634547608 0 68.519597634547608 -140.81199879807536 0 0 0 0 -181.47059600500916 57.194271097520073 0 57.194271097520073 23.530423615637119 0 0 0 0 -189.26105109728519 -143.65275628585277 0 -143.65275628585277 -32.113006378516729 0 0 0 0 0.022205936171589613 0.088458260132654898 0 0.088458260132654898 -0.045729679858580341 0 0 0 0 -28.24349082793924 -108.02875963753831 0 -108.02875963753831 -299.75484970684647 0 0 0 0 -478.87573200265251 63.132986581304067 0 63.132986581304067 202.61939789901771 0 0 0 0 -1.9320372738002334 -271.36562509456598 0 -271.36562509456598 -449.07738433293525 0 0 0 0 -26.829605998311308 -232.89722369067385 0 -232.89722369067385 -112.39990719523485 0 0 0 0 50.570865854868316 -183.92758430555841 0 -183.92758430555841 -308.34612937298425 0 0 0 0 25.794651713178609 -157.32012835757996 0 -157.32012835757996 -200.90296303087962 0 0 0 0 9.6408958686006372 -94.217636739600493 0 -94.217636739600493 -220.55973006818385 0 0 0 0 0.10828315324695303 0.14985635443757683 0 0.14985635443757683 -0.086340120372295104 0 0 0 0 -46.247474013965984 -107.45732751887135 0 -107.45732751887135 17.155504098507663 0 0 0 0 22.811892690748209 -83.990897276289616 0 -83.990897276289616 -162.96229384032449 0 0 0 0 -66.883598210210039 -85.023957203991813 0 -85.023957203991813 -52.995971138447203 0 0 0 0 -11.55135024341871 -42.266608181157153 0 -42.266608181157153 -43.221177668154269 0 0 0 0 -33.807145465405483 -79.071573503444597 0 -79.071573503444597 21.528756881845766 0 0 0 0 -47.067965523456223 -87.39003571917965 0 -87.39003571917965 12.677522774207318 0 0 0 0 217.56530627676693 -183.8101808447027 0 -183.8101808447027 -18.725476949897711 0 0 0 0 -101.13663988917688 -180.35101543248766 0 -180.35101543248766 87.511928749765502 0 0 0 0 2.0430582636763575 -11.091938437180943 0 -11.091938437180943 -91.151303344027838 0 0 0 0 46.611900895979488 -74.579077863170824 0 -74.579077863170824 19.609777769392167 0 0 0 0 25.194238455049344 -48.117583984421799 0 -48.117583984421799 56.428570035877783 0 0 0 0 73.758452758265776 -37.266515124893886 0 -37.266515124893886 34.478345646515663 0 0 0 0 -17.579201682958228 -40.2015408687339 0 -40.2015408687339 67.984826853476989 0 0 0 0 -12.883182273930288 -41.12720506518599 0 -41.12720506518599 66.93658059790323 0 0 0 0 -2.9226603378338041 -75.223462268582807 0 -75.223462268582807 52.921295294818265 0 0 0 0 6.8713536057184683 18.401678990405344 0 18.401678990405344 87.851981779978814 0 0 0 0 1.5945344783166728 -8.5775411252063289 0 -8.5775411252063289 6.0058030653264494 0 0 0 0 -49.715378366752702 19.944241356395651 0 19.944241356395651 209.80413772594147 0 0 0 0 -4.9454323519603349 -8.4206323625985533 0 -8.4206323625985533 -12.090024058270501 0 0 0 0 2.1782324298387432 -10.133795307745897 0 -10.133795307745897 2.6967543372366727 0 0 0 0 146.58874663434653 88.935916794393052 0 88.935916794393052 96.032287446287228 0 0 0 0 148.92070535581479 47.417657649623834 0 47.417657649623834 95.223651777167106 0 0 0 0 70.896098941748278 107.51849958236426 0 107.51849958236426 109.50238348005223 0 0 0 0 75.358490475569852 17.902186411622097 0 17.902186411622097 85.252356974116992 0 0 0 0 59.759743182337843 -36.515516483843385 0 -36.515516483843385 110.85116565733188 0 0 0 0 -60.425854484812589 -45.304690262208169 0 -45.304690262208169 113.49366943184668 0 0 0 0 21.762125650508096 77.496218327712995 0 77.496218327712995 50.746354493276158 0 0 0 0 -39.356166992685758 54.362971937080147 0 54.362971937080147 89.016079085395177 0 0 0 0 -10.263417980051599 24.40239073072371 0 24.40239073072371 23.565809249241283 0 0 0 0 -25.953999203244166 -24.784328701487539 0 -24.784328701487539 -7.7217140733519045 0 0 0 0 -98.466751589498017 -26.870982083255512 0 -26.870982083255512 105.816395364458 0 0 0 0 -31.254274704244381 -266.40444326529087 0 -266.40444326529087 -118.86700636756723 0 0 0 0 -41.228282188865705 -58.388796187844491 0 -58.388796187844491 -69.109376482359949 0 0 0 0 17.290961489743495 -120.04284137391187 0 -120.04284137391187 -4.1641739365404646 0 0 0 0 -7.6493686288886238 -24.092268836702715 0 -24.092268836702715 27.454418014925977 0 0 0 0 -4.5250169733335497 -149.11203980472646 0 -149.11203980472646 212.0685310944682 0 0 0 0 -28.418567972519668 -49.854572753607499 0 -49.854572753607499 66.600569222597187 0 0 0 0 -29.262426400731783 -46.625379589422664 0 -46.625379589422664 95.368123537316023 0 0 0 0 -81.080577522639942 -14.629583561925756 0 -14.629583561925756 307.9517874618432 0 0 0 0 309.58947401753539 -5.0391679631156876 0 -5.0391679631156876 -162.69555444402795 0 0 0 0 419.97070882639673 -213.1610477265167 0 -213.1610477265167 -218.70332085053815 0 0 0 0 -383.48495034719235 219.35698786032481 0 219.35698786032481 185.03868386092472 0 0 0 0 -75.173328713259252 27.787487766283448 0 27.787487766283448 122.63676813967322 0 0 0 0 -0.080633181812714172 -1.7357777875934417 0 -1.7357777875934417 0.74445654428852404 0 0 0 0 235.64818069836474 -180.3471569284593 0 -180.3471569284593 -285.06141340980685 0 0 0 0 94.463907352124806 25.939473682505195 0 25.939473682505195 -238.31761034596639 0 0 0 0 -0.21959728262113343 -1.4744513432888819 0 -1.4744513432888819 0.81151390687669789 0 0 0 0 -323.6336086727606 -105.34326725147002 0 -105.34326725147002 765.18457829488761 0 0 0 0 201.3879981647915 -47.166023863834198 0 -47.166023863834198 -245.68613346915299 0 0 0 0 0.095048960283410366 0.039102366185429949 0 0.039102366185429949 -0.030273079238087863 0 0 0 0 -18.58268100094574 -135.83146164366917 0 -135.83146164366917 -434.49462546678478 0 0 0 0 -73.320166277204407 -157.1267936646509 0 -157.1267936646509 226.67506516292997 0 0 0 0 -67.2144646604429 -203.75049788134493 0 -203.75049788134493 374.01520469452134 0 0 0 0 -31.522637046895397 -98.674043739654735 0 -98.674043739654735 -274.88151440456568 0 0 0 0 -127.51935886146384 -149.3943751533443 0 -149.3943751533443 -275.72136531403174 0 0 0 0 17.689310847548768 -52.776701421842517 0 -52.776701421842517 -294.3893135010585 0 0 0 0 -59.965580084113753 -89.906184746323561 0 -89.906184746323561 -242.00825771404925 0 0 0 0 0.18480999518576091 0.1086598532101728 0 0.1086598532101728 -0.074791870554150819 0 0 0 0 -51.876903821685119 -95.299003932235792 0 -95.299003932235792 -251.96630266332249 0 0 0 0 14.573496985685779 -100.40469288351233 0 -100.40469288351233 -260.77627434844362 0 0 0 0 -71.199065818524105 -165.78669082300439 0 -165.78669082300439 -148.50248216182445 0 0 0 0 10.257637965751201 -116.9680084685333 0 -116.9680084685333 -249.80340764150969 0 0 0 0 -57.740899759766762 -50.697712747163678 0 -50.697712747163678 57.224627446561499 0 0 0 0 -26.098521987907588 -131.12459769760972 0 -131.12459769760972 -432.03498192892221 0 0 0 0 0.60924266014962569 -0.73419219800578883 0 -0.73419219800578883 -0.19041315194396224 0 0 0 0 16.223100608840468 -31.076661415623676 0 -31.076661415623676 14.726931139301087 0 0 0 0 17.778003045576042 -12.643546981220425 0 -12.643546981220425 -46.546087811144389 0 0 0 0 1.9070276549707135 -2.2455904170041667 0 -2.2455904170041667 -0.61387274438820238 0 0 0 0 5.8998121658951277 -62.80375049835493 0 -62.80375049835493 -11.975995704582601 0 0 0 0 23.853941355158895 -191.03462933283117 0 -191.03462933283117 -328.5969765379632 0 0 0 0 27.653106793703046 -183.63462348526446 0 -183.63462348526446 -386.76891760539729 0 0 0 0 -12.763198392807681 -40.802096301200436 0 -40.802096301200436 52.561418904326274 0 0 0 0 0.10716116781934382 -1.5897345389313478 0 -1.5897345389313478 0.26933247763653501 0 0 0 0 59.706379393304815 -176.55489840962036 0 -176.55489840962036 -357.62895693286555 0 0 0 0 1.3883459995569956 -0.49036370814356367 0 -0.49036370814356367 -0.93524833367542115 0 0 0 0 -135.75948779344617 -141.11056093963998 0 -141.11056093963998 -218.2474842325355 0 0 0 0 3.899024308018852 -14.030975253744941 0 -14.030975253744941 5.681922959941403 0 0 0 0 3.2111107288470224 -9.3286074095644338 0 -9.3286074095644338 4.2072988437782497 0 0 0 0 6.2165932803618489 -10.993216104223393 0 -10.993216104223393 15.629593841124006 0 0 0 0 -2.9144131716020638 -50.547207222245788 0 -50.547207222245788 -43.628373795997504 0 0 0 0 25.239158889940882 -22.836417922896999 0 -22.836417922896999 -107.23205653062723 0 0 0 0 8.5282611819857266 -25.009949577279713 0 -25.009949577279713 11.488248694811546 0 0 0 0 2.835962922957961 -3.081896495405211 0 -3.081896495405211 -1.2737950550018249 0 0 0 0 18.946993787307292 -7.1491176856034144 0 -7.1491176856034144 -3.8682786312856479 0 0 0 0 1.5987787587291287 -9.9738873342320176 0 -9.9738873342320176 4.2695683057785887 0 0 0 0 10.473276553588221 -8.1913925059670873 0 -8.1913925059670873 6.4360154245732701 0 0 0 0 -126.64819051674567 -46.567681018365874 0 -46.567681018365874 -2.4611765032386757 0 0 0 0 1.3549856599145453 -10.069641133512519 0 -10.069641133512519 4.4309566494392003 0 0 0 0 20.01159284314781 6.3900784494962863 0 6.3900784494962863 4.3209205023144932 0 0 0 0 -97.288618103979388 -108.03067577255979 0 -108.03067577255979 4.6553994786881958 0 0 0 0 -18.747039099747781 -52.505725647097279 0 -52.505725647097279 -43.338359294129418 0 0 0 0 54.035838954863721 -66.459870653456392 0 -66.459870653456392 -27.925460228846532 0 0 0 0 98.565980076004053 -67.269211571458527 0 -67.269211571458527 -80.683457910988636 0 0 0 0 11.750707471626811 -81.922214948733199 0 -81.922214948733199 -25.42949361029423 0 0 0 0 20.411051662580576 -21.319415384126842 0 -21.319415384126842 -80.54744575314362 0 0 0 0 -27.220235575703555 -11.960492644516307 0 -11.960492644516307 11.585746631226357 0 0 0 0 15.482426038433914 -25.199699288787087 0 -25.199699288787087 -31.892326848817902 0 0 0 0 2.2595963844942162 7.4147902368058567 0 7.4147902368058567 -23.213975294313968 0 0 0 0 6.3754182989250694 -24.294850717480131 0 -24.294850717480131 13.008882241098036 0 0 0 0 2.4952022098150337 -16.906608828570825 0 -16.906608828570825 11.886273113090283 0 0 0 0 2.0532856398523691 -4.3444164689533418 0 -4.3444164689533418 -0.70810515092561577 0 0 0 0 11.642158208211185 -20.696564274729099 0 -20.696564274729099 -1.7729647583619226 0 0 0 0 10.244530360352655 -15.706888143208744 0 -15.706888143208744 -4.417789853810973 0 0 0 0 8.6548958159255562 -14.569491785026912 0 -14.569491785026912 -1.8451719051914779 0 0 0 0 7.1483020588973556 -10.287020934890208 0 -10.287020934890208 2.5277482976634396 0 0 0 0 -68.451637346937787 -42.035114448480272 0 -42.035114448480272 6.973870840305608 0 0 0 0 3.5988000034703873 -15.287074175594171 0 -15.287074175594171 9.0758036792994972 0 0 0 0 6.6234077702677521 -10.046343332718717 0 -10.046343332718717 2.5584487237797933 0 0 0 0 -24.791759827901842 -13.932040169686843 0 -13.932040169686843 4.6781343730972367 0 0 0 0 -80.228707590547856 -32.274454626332954 0 -32.274454626332954 -0.60788078412406321 0 0 0 0 -52.196358797431458 5.1131902170673129 0 5.1131902170673129 5.1626581162636285 0 0 0 0 -23.848272211667791 -11.473587045127715 0 -11.473587045127715 6.321184078908118 0 0 0 0 1.1286852588604557 -0.85518078437547995 0 -0.85518078437547995 -0.51747244833868189 0 0 0 0 13.9766672964397 -4.7795762815312628 0 -4.7795762815312628 -6.6357835381240875 0 0 0 0 14.900856422260404 -6.3745515162372612 0 -6.3745515162372612 -17.408403556157282 0 0 0 0 212.82636791231926 -208.36470732618545 0 -208.36470732618545 96.892432848564567 0 0 0 0 -72.863068077655043 -8.4860075746164512 0 -8.4860075746164512 85.096191162254513 0 0 0 0 -38.137621528236195 -45.492526321062542 0 -45.492526321062542 124.4054618158716 0 0 0 0 -60.227033716771984 -57.866197228050623 0 -57.866197228050623 281.516906032728 0 0 0 0 -44.379776833462529 -79.547432473309527 0 -79.547432473309527 -55.199089315077799 0 0 0 0 -30.55143465771107 -122.66396159087799 0 -122.66396159087799 79.149533311239793 0 0 0 0 -110.33324676268967 -124.35079432144266 0 -124.35079432144266 -69.570714797046094 0 0 0 0 -150.57183828230336 -14.257084458980898 0 -14.257084458980898 55.969551754176791 0 0 0 0 0.27869124210822704 -0.30463413367925174 0 -0.30463413367925174 -0.1457207169845115 0 0 0 0 -97.042986794549506 -10.034469958931368 0 -10.034469958931368 43.444811014976949 0 0 0 0 -98.402819402894238 -16.242589591616706 0 -16.242589591616706 107.9619111063912 0 0 0 0 -71.86706383904675 77.185462086112238 0 77.185462086112238 21.093097419685364 0 0 0 0 -103.3313008302357 30.151924686055281 0 30.151924686055281 78.092406849356848 0 0 0 0 -83.965182078925864 31.111055488107979 0 31.111055488107979 70.498753440526343 0 0 0 0 -89.461568864353467 1.7178913388224828 0 1.7178913388224828 56.030049804390728 0 0 0 0 -83.508796757307209 22.353510333860072 0 22.353510333860072 24.935972203456913 0 0 0 0 -45.831180083565414 21.543854374274815 0 21.543854374274815 24.287955471995701 0 0 0 0 -56.892472279752837 40.380929351478699 0 40.380929351478699 -5.0495577445853996 0 0 0 0 29.363872856665694 184.19449103988109 0 184.19449103988109 -330.19327505672118 0 0 0 0 -1.5087278609498718 -0.35000194422067743 0 -0.35000194422067743 1.2357375445880632 0 0 0 0 -13.613192977674771 140.78309541420003 0 140.78309541420003 174.1848960569514 0 0 0 0 254.63174622307997 -93.079038823641895 0 -93.079038823641895 -7.5810038830056214 0 0 0 0 -97.526012072601588 94.518795483511894 0 94.518795483511894 136.62330530787403 0 0 0 0 -94.076929980961722 -0.42813364095127326 0 -0.42813364095127326 178.20408547969782 0 0 0 0 291.79708815958293 -126.05442396153603 0 -126.05442396153603 8.2816954825102584 0 0 0 0 273.29618600690083 -149.42289337147588 0 -149.42289337147588 47.752988404377902 0 0 0 0 249.32145302995923 75.590703710048274 0 75.590703710048274 -31.927319431472824 0 0 0 0 68.874484483589185 56.932200584354177 0 56.932200584354177 163.08307543738192 0 0 0 0 67.549223534764678 36.40771054989591 0 36.40771054989591 13.689346803039371 0 0 0 0 0.53049774080864154 52.01416846506072 0 52.01416846506072 57.708054869356602 0 0 0 0 -56.687677961250301 -27.524363092915337 0 -27.524363092915337 88.797723107047204 0 0 0 0 181.62863328610547 21.042441923764272 0 21.042441923764272 -73.207767290597985 0 0 0 0 1.7177482288869115 0.77699301732084614 0 0.77699301732084614 -1.8402828363367414 0 0 0 0 -16.060212816781132 -49.075438021031914 0 -49.075438021031914 -41.537645170854375 0 0 0 0 16.081763625435997 -6.1616717283068283 0 -6.1616717283068283 -21.21397962699848 0 0 0 0 1.5847032487441499 -0.83085562393595502 0 -0.83085562393595502 -1.3765105801935733 0 0 0 0 -19.063205544953234 -0.78410380877721764 0 -0.78410380877721764 -31.418359083680798 0 0 0 0 -34.923436686338391 -50.022099147015979 0 -50.022099147015979 -15.102851411811571 0 0 0 0 -133.37060187302995 -302.28444066431439 0 -302.28444066431439 -369.44089416119095 0 0 0 0 -117.53983302810229 -340.15964305888701 0 -340.15964305888701 -509.12383969482107 0 0 0 0 -125.57179473616998 -346.76181641570247 0 -346.76181641570247 -500.45800688210147 0 0 0 0 -146.68748788020457 -324.10758694318065 0 -324.10758694318065 -326.94950292712747 0 0 0 0 -198.70949635171564 -239.95814925030936 0 -239.95814925030936 -331.01116643183013 0 0 0 0 -199.01800187767367 -233.44269204408647 0 -233.44269204408647 -216.69613360356743 0 0 0 0 -94.778661165561061 -268.21509458323999 0 -268.21509458323999 -401.91291046353217 0 0 0 0 2.9432337681646459 -0.48444742043420774 0 -0.48444742043420774 -1.6496947036591791 0 0 0 0 4.4363851846460562 -0.79695870407239866 0 -0.79695870407239866 -2.0550285273522308 0 0 0 0 -34.808835393749177 -21.814702653464337 0 -21.814702653464337 -9.1823192345545976 0 0 0 0 -158.13620085758157 -170.62500273349178 0 -170.62500273349178 -185.92270450603974 0 0 0 0 -137.08840612717904 -211.07876071957435 0 -211.07876071957435 -280.90838687579526 0 0 0 0 -29.255410798577032 -260.39509146882381 0 -260.39509146882381 -258.79725714472443 0 0 0 0 -103.80917438626057 -256.44588683699294 0 -256.44588683699294 -381.62184171845729 0 0 0 0 3.1512596125246741 -0.36110485710291584 0 -0.36110485710291584 -3.6149740146056013 0 0 0 0 1.0425878559617558 -0.48348650889704459 0 -0.48348650889704459 -1.6528580260019226 0 0 0 0 1.9565503980311867 -1.0824436717629649 0 -1.0824436717629649 -1.2729869096523196 0 0 0 0 2.1002533791199696 0.63130551846035843 0 0.63130551846035843 -4.2011933777889841 0 0 0 0 -32.683487883245107 -4.8548836936279258 0 -4.8548836936279258 -1.9972449160140968 0 0 0 0 -12.358372737391619 4.5979266998247112 0 4.5979266998247112 -2.5596368013837036 0 0 0 0 1.973101820324981 -1.4473035629551685 0 -1.4473035629551685 -1.9296716896605646 0 0 0 0 -32.07887598319212 -7.4304810346102386 0 -7.4304810346102386 34.598722664842171 0 0 0 0 -12.751888741448056 11.125907473031475 0 11.125907473031475 9.7909364906145129 0 0 0 0 -15.422499682317721 22.194222879893459 0 22.194222879893459 20.653586720190106 0 0 0 0 12.517629212990869 42.372136881111601 0 42.372136881111601 -11.634396349552844 0 0 0 0 17.87179613447006 21.273442626961128 0 21.273442626961128 -38.101068027480324 0 0 0 0 3.6773896544982563 -2.2305913430250257 0 -2.2305913430250257 -2.2228454332143883 0 0 0 0 -9.7814771481062053 6.0392458549026742 0 6.0392458549026742 -3.0568743511012144 0 0 0 0 15.329871139867464 7.3996161143222707 0 7.3996161143222707 -7.5544354548533192 0 0 0 0 7.4997280732386571 2.6865281360692848 0 2.6865281360692848 -10.304417906506387 0 0 0 0 -0.25936004524897172 0.33076673655876654 0 0.33076673655876654 -0.1017765345035303 0 0 0 0 3.4289733708820709 -0.79577475949838039 0 -0.79577475949838039 -3.5767330203748124 0 0 0 0 2.9655695750116138 -1.2917488349012274 0 -1.2917488349012274 -1.6262198626282043 0 0 0 0 16.680390898924088 -7.2189187488258995 0 -7.2189187488258995 -3.3870849318457203 0 0 0 0 21.32103085561539 2.9272887398424245 0 2.9272887398424245 -16.352009627342341 0 0 0 0 40.325482749467483 -1.2424114970517621 0 -1.2424114970517621 -30.01349738008139 0 0 0 0 49.30304361024173 -9.6335629857803724 0 -9.6335629857803724 -23.654007843328145 0 0 0 0 39.062408528581727 -55.91404951171944 0 -55.91404951171944 42.497707478906705 0 0 0 0 0.89366061079864778 -0.971303864244911 0 -0.971303864244911 -0.37165402693392313 0 0 0 0 54.822435330588632 81.096887963250481 0 81.096887963250481 -158.48277680185402 0 0 0 0 95.186384150933009 -16.825472986418845 0 -16.825472986418845 -80.781413998845892 0 0 0 0 14.237324916233774 50.876438563571355 0 50.876438563571355 23.943876754743997 0 0 0 0 -222.13902249609237 -475.94608556099774 0 -475.94608556099774 -848.65048643540376 0 0 0 0 -54.997371336465221 -588.24892343571491 0 -588.24892343571491 -774.10586679023254 0 0 0 0 -76.335765289288247 -118.72305707970281 0 -118.72305707970281 -331.98677069592668 0 0 0 0 -835.75823672339902 -680.78016072371702 0 -680.78016072371702 -1543.4589099826435 0 0 0 0 -256.32964861444611 -788.36473315268074 0 -788.36473315268074 -1265.5244169729503 0 0 0 0 -697.7749968884018 -916.62963247766152 0 -916.62963247766152 -1162.2063786798935 0 0 0 0 -525.83400639727188 -543.0048846614136 0 -543.0048846614136 -1355.9400951575626 0 0 0 0 -260.50598515439083 -368.09656885885136 0 -368.09656885885136 -952.08179778728299 0 0 0 0 -419.2252850845689 -706.40373416313651 0 -706.40373416313651 -1129.5404354507646 0 0 0 0 -306.55476741203893 -410.60985672717925 0 -410.60985672717925 -949.69024239405189 0 0 0 0 -246.39177901897347 -576.06505682242278 0 -576.06505682242278 -1195.4974853108727 0 0 0 0 -120.88547291810391 -393.73458309324997 0 -393.73458309324997 -964.13013986020542 0 0 0 0 -234.17896379058948 -340.15063502412158 0 -340.15063502412158 -636.5745828611507 0 0 0 0 -132.5318481256254 -377.17084812371468 0 -377.17084812371468 -625.10091337680751 0 0 0 0 -33.85970051412005 -173.5726318655843 0 -173.5726318655843 -652.08401814259196 0 0 0 0 -237.67360525112599 -279.11480927120465 0 -279.11480927120465 -712.56786826609277 0 0 0 0 -240.33943797001848 -480.79155825984162 0 -480.79155825984162 -731.35444626577009 0 0 0 0 -75.398183757883089 -163.37442443973998 0 -163.37442443973998 -477.37337101249068 0 0 0 0 -101.90217974572442 -343.85512496753108 0 -343.85512496753108 -722.7261961496373 0 0 0 0 138.39289365301374 11.269554626829631 0 11.269554626829631 -384.2308732948859 0 0 0 0 82.438445172796492 -319.94110639394239 0 -319.94110639394239 -334.40599966567788 0 0 0 0 -65.062556906952523 35.302132015804091 0 35.302132015804091 -183.55439090852997 0 0 0 0 -0.49467844717967324 -0.49189150950290195 0 -0.49189150950290195 0.83434950498930105 0 0 0 0 -61.487295421771705 -0.14308320997588453 0 -0.14308320997588453 -227.15424554386482 0 0 0 0 -29.780599332880229 -125.12665428459513 0 -125.12665428459513 -469.2025004001971 0 0 0 0 -154.16039448406082 -109.68068887273694 0 -109.68068887273694 -108.72340697079198 0 0 0 0 -51.081690312421415 -252.09242062548947 0 -252.09242062548947 -601.52709125749789 0 0 0 0 -132.99778182964656 -173.65961804451763 0 -173.65961804451763 -282.83636088838102 0 0 0 0 -43.959480459801853 -270.1542623531459 0 -270.1542623531459 -109.70438364923029 0 0 0 0 -84.370757370954379 -214.36980922095972 0 -214.36980922095972 -160.39065917707921 0 0 0 0 -85.874043379037175 -161.42867339077384 0 -161.42867339077384 -378.91693238986045 0 0 0 0 -93.175534817215521 -250.56914131583471 0 -250.56914131583471 -368.45548030476925 0 0 0 0 -119.17233333375771 -202.56019612149976 0 -202.56019612149976 -422.83019985670762 0 0 0 0 -87.255235281016212 -101.47689565811561 0 -101.47689565811561 -435.6984668954974 0 0 0 0 -148.94881941316999 -288.16748865062982 0 -288.16748865062982 -562.24004588138268 0 0 0 0 -72.113088094018167 -287.70393137899191 0 -287.70393137899191 -806.93746850074604 0 0 0 0 -168.54881681976258 -374.62634356900571 0 -374.62634356900571 -1020.0852030438073 0 0 0 0 -204.04589605395449 -442.42096981412942 0 -442.42096981412942 -786.46128553975018 0 0 0 0 -105.73935735909618 -322.05429372812887 0 -322.05429372812887 -846.71349268509584 0 0 0 0 -116.17700250947382 -388.09517831445919 0 -388.09517831445919 -709.5724537031565 0 0 0 0 -75.700636754219886 -295.79726578160262 0 -295.79726578160262 -681.91974059610948 0 0 0 0 -36.086398813989945 -266.35738170520926 0 -266.35738170520926 -699.9260442801974 0 0 0 0 -77.506474860827439 -298.63200932607106 0 -298.63200932607106 -549.20146146746265 0 0 0 0 -12.52902594790794 -221.41815527748986 0 -221.41815527748986 -527.70008949511248 0 0 0 0 -32.931580332224257 -261.89030831202399 0 -261.89030831202399 -499.89005116659246 0 0 0 0 -18.576941576320678 -157.50685887822692 0 -157.50685887822692 -447.66667104424414 0 0 0 0 -93.275356365717016 -278.18838830193999 0 -278.18838830193999 -516.67618544444849 0 0 0 0 -87.142040076316334 -325.97401804519905 0 -325.97401804519905 -615.43732257734337 0 0 0 0 -46.311727812193567 -226.79102256482474 0 -226.79102256482474 -557.53319677225954 0 0 0 0 -49.299966738966759 -258.95742026853623 0 -258.95742026853623 -610.64272685271862 0 0 0 0 -109.30074802172021 -357.60782698168168 0 -357.60782698168168 -631.01388692692126 0 0 0 0 -69.451319305691868 -398.9013012052128 0 -398.9013012052128 -801.18170818351427 0 0 0 0 -143.02404446096625 -415.45466697244501 0 -415.45466697244501 -593.0944454427954 0 0 0 0 -66.181785458844388 -327.90454809277981 0 -327.90454809277981 -666.81633297632652 0 0 0 0 -121.52616142778425 -349.49892167040889 0 -349.49892167040889 -534.04810009901848 0 0 0 0 -91.849014456092846 -303.00269421682606 0 -303.00269421682606 -523.23075435361352 0 0 0 0 -109.89457655802835 -236.98510715224256 0 -236.98510715224256 -405.38088546880317 0 0 0 0 -127.25161001039669 -199.72230513215982 0 -199.72230513215982 -268.00865923774836 0 0 0 0 -70.333055223105475 -219.0106939562902 0 -219.0106939562902 -461.78668927253784 0 0 0 0 -48.31071428686846 -135.66556302286335 0 -135.66556302286335 -375.13604990438489 0 0 0 0 -69.592540773708606 -172.93241868333826 0 -172.93241868333826 -370.42075901848875 0 0 0 0 -94.169278353918344 -114.76943301325082 0 -114.76943301325082 -300.98591691381444 0 0 0 0 1.2872664073656779 -1.8287639863206095 0 -1.8287639863206095 -1.5021450387967548 0 0 0 0 3.1854064323525861 -1.9035603607885703 0 -1.9035603607885703 -0.31381903497057961 0 0 0 0 -84.057123241829686 -56.561547619832709 0 -56.561547619832709 -247.99491072907949 0 0 0 0 26.468492501298897 -73.723260222646786 0 -73.723260222646786 -347.00018389083198 0 0 0 0 -8.8484853217378259 -162.35741885975767 0 -162.35741885975767 -336.28944878491893 0 0 0 0 70.799320713733323 -220.09727190465128 0 -220.09727190465128 -399.69063022642513 0 0 0 0 -50.400953238247894 -185.75365447663171 0 -185.75365447663171 -406.77565438608144 0 0 0 0 174.76881425373722 -202.02853927187971 0 -202.02853927187971 -330.87424062956779 0 0 0 0 -12.357245737919584 -165.94380677406298 0 -165.94380677406298 -319.88501552382513 0 0 0 0 110.94429706851952 -288.35219499494633 0 -288.35219499494633 -213.38659642520361 0 0 0 0 1.5034032822586596 -156.13009555117605 0 -156.13009555117605 -135.86580671848787 0 0 0 0 89.882135881460272 -92.476259043429309 0 -92.476259043429309 -343.06002429624277 0 0 0 0 -1.0540851282495076 -1.0498808570048395 0 -1.0498808570048395 1.7959404072707106 0 0 0 0 1.7579158833250403 -2.4142473313895607 0 -2.4142473313895607 -8.6869725800406741 0 0 0 0 -7.5306813285205862 -6.8229593973655938 0 -6.8229593973655938 21.388394565201452 0 0 0 0 1.5316044678620528 -1.7109414528274556 0 -1.7109414528274556 -2.0406601640461304 0 0 0 0 2.348769358016896 -3.5228804808288725 0 -3.5228804808288725 2.3854474443761902 0 0 0 0 1.6181472864700481 -2.0426078893051454 0 -2.0426078893051454 -1.3820277757149597 0 0 0 0 2.0553939002634412 -1.6607905128211033 0 -1.6607905128211033 -1.5280129633482831 0 0 0 0 1.5367105272689514 -2.0933085025639002 0 -2.0933085025639002 -1.190484795915836 0 0 0 0 1.4553011543175671 -0.90179287513456075 0 -0.90179287513456075 -0.64002101307960402 0 0 0 0 2.5354779900517315 -1.9846282115872782 0 -1.9846282115872782 -1.7188658377635875 0 0 0 0 2.0592985518574167 -2.2548743301985219 0 -2.2548743301985219 -0.32429061076532684 0 0 0 0 2.5884109415346757 -2.0771695417715819 0 -2.0771695417715819 -1.0839764108304735 0 0 0 0 4.4782541402964853 -5.3679576138893026 0 -5.3679576138893026 -1.3496186043630587 0 0 0 0 0.85973608895437792 -4.379151547622314 0 -4.379151547622314 3.8095401688406128 0 0 0 0 0.012622263586695937 -0.024756402358390162 0 -0.024756402358390162 0.025534196853347679 0 0 0 0 1.7784004837740213 0.060960965492995456 0 0.060960965492995456 -2.7590850203341688 0 0 0 0 7.4701388695982107 -2.7994460312594445 0 -2.7994460312594445 -5.5040738686748636 0 0 0 0 1.4598340218653902 -3.1025268747871451 0 -3.1025268747871451 3.3182850281464198 0 0 0 0 1.3609555369817059 -2.6522725643833081 0 -2.6522725643833081 -1.6948589739019375 0 0 0 0 1.5375055081676692 -2.2761531505325365 0 -2.2761531505325365 -1.4435100312693976 0 0 0 0 2.1254717264517109 -4.0867160152266457 0 -4.0867160152266457 3.5888765476742761 0 0 0 0 0.89230996592006306 -1.5747610940472354 0 -1.5747610940472354 1.0189830429238578 0 0 0 0 7.6220801858580671 -15.802492484266622 0 -15.802492484266622 18.46824295625629 0 0 0 0 5.3788022310927772 -7.0585346820294035 0 -7.0585346820294035 16.395684267452452 0 0 0 0 3.6266015167217347 -2.3845025048557833 0 -2.3845025048557833 -2.7845651234770066 0 0 0 0 1.718783454503864 -1.2344580657681945 0 -1.2344580657681945 -1.5363617846851412 0 0 0 0 2.1374676197883673 -0.49733517508047953 0 -0.49733517508047953 -2.1220185969614249 0 0 0 0 1.7487662426428869 -1.0770709036696644 0 -1.0770709036696644 -1.1762379490646708 0 0 0 0 0.95272395078866268 -0.89733023749429908 0 -0.89733023749429908 0.77443729171728393 0 0 0 0 -13.586971933458699 -6.9108293924218742 0 -6.9108293924218742 59.187526430050639 0 0 0 0 25.173656645521987 -17.918680246808435 0 -17.918680246808435 -50.708240617608681 0 0 0 0 -2.9630011326080421 -1.7195236547277091 0 -1.7195236547277091 9.824806736123719 0 0 0 0 29.602596583659761 -72.400414265901418 0 -72.400414265901418 16.411310775165475 0 0 0 0 -8.700413744430989 -59.50537094502215 0 -59.50537094502215 46.714440956513499 0 0 0 0 0.35011072749888683 -0.32354897057039445 0 -0.32354897057039445 0.22590431527329324 0 0 0 0 3.5737586416071281 -14.340383032242244 0 -14.340383032242244 30.593746479240508 0 0 0 0 -95.83830106726964 -123.14599615514544 0 -123.14599615514544 -325.90936556520865 0 0 0 0 49.324144078942481 -50.178451246414625 0 -50.178451246414625 39.670782555919686 0 0 0 0 31.853356157371309 102.84565815035421 0 102.84565815035421 54.574551477284331 0 0 0 0 3.4550668042473696 -2.1699837257889767 0 -2.1699837257889767 -3.1187226880054384 0 0 0 0 1.0834378664585529 -0.79726212466493962 0 -0.79726212466493962 -0.018760756867777673 0 0 0 0 5.1808077964524273 -8.9561243216244293 0 -8.9561243216244293 35.395146445962382 0 0 0 0 11.665819662135618 -2.6751574178858846 0 -2.6751574178858846 20.414890136768008 0 0 0 0 -1.0638749212608722 -2.9902802220229354 0 -2.9902802220229354 3.2244986168905019 0 0 0 0 134.64938180614263 -154.12057716809613 0 -154.12057716809613 142.8795027435367 0 0 0 0 49.570809424127219 -69.913736709238947 0 -69.913736709238947 100.61465831094665 0 0 0 0 77.751987163326703 -34.870748960711808 0 -34.870748960711808 7.1043560646876358 0 0 0 0 174.02125911461189 -67.374585770839076 0 -67.374585770839076 11.66767445030473 0 0 0 0 -0.63120939272699417 -3.0084038395095756 0 -3.0084038395095756 0.2061489948015145 0 0 0 0 -1.4097335765691241 42.460723262122883 0 42.460723262122883 -268.26887142584383 0 0 0 0 0.004418555669865043 -0.063561986117647962 0 -0.063561986117647962 0.11531905812650223 0 0 0 0 53.382652477121155 -86.572856040484112 0 -86.572856040484112 -497.10064647562467 0 0 0 0 44.269742921977013 11.071385782385732 0 11.071385782385732 -55.588412846771462 0 0 0 0 25.499481785926037 26.888345100427046 0 26.888345100427046 -43.253432212358348 0 0 0 0 23.67660788007197 -19.359010784146335 0 -19.359010784146335 4.6298130770774151 0 0 0 0 32.206504711135494 -32.896549979602099 0 -32.896549979602099 32.578918973887994 0 0 0 0 35.921135652606608 -15.391562681804317 0 -15.391562681804317 5.8892086756986828 0 0 0 0 36.797893341354211 -6.2013212026133147 0 -6.2013212026133147 -4.2338621537273866 0 0 0 0 28.152624658076093 -27.935611437789703 0 -27.935611437789703 28.028028927522541 0 0 0 0 44.148536020889878 -37.220806401551272 0 -37.220806401551272 22.814603690862896 0 0 0 0 70.616497348732082 -7.6777109545682833 0 -7.6777109545682833 30.621660513747884 0 0 0 0 69.315978951228317 -36.474977951379969 0 -36.474977951379969 22.581527751688554 0 0 0 0 52.467865407816134 -44.556063946424274 0 -44.556063946424274 29.272723328434495 0 0 0 0 55.21237803902477 -50.825583687442759 0 -50.825583687442759 21.582611273207021 0 0 0 0 16.389888333287672 -13.502242690665412 0 -13.502242690665412 0.70425793468348274 0 0 0 0 0.080429752393843756 -0.95606467740526035 0 -0.95606467740526035 0.21516188287159471 0 0 0 0 44.242329494620208 -51.576383939195239 0 -51.576383939195239 25.919871920036712 0 0 0 0 12.058507275243755 -43.300852445744113 0 -43.300852445744113 63.301111898238105 0 0 0 0 39.897471827316622 -50.792344489219516 0 -50.792344489219516 30.022357387669217 0 0 0 0 18.031975680903997 -16.67055544652294 0 -16.67055544652294 11.475505900694316 0 0 0 0 2.5103449177718211 -8.3594244178009749 0 -8.3594244178009749 3.1111752703908779 0 0 0 0 -7.0552615738706663 -19.226569627213621 0 -19.226569627213621 10.13147448172316 0 0 0 0 -9.7830209290550556 -26.986989234863813 0 -26.986989234863813 41.696529533609691 0 0 0 0 2.9489143419920811 -2.8710314957296177 0 -2.8710314957296177 -0.9233502394519566 0 0 0 0 1.1982049742946401 -2.332456667230872 0 -2.332456667230872 0.36445004273991799 0 0 0 0 -15.671848136349581 12.251130836617449 0 12.251130836617449 7.0730250558239049 0 0 0 0 0.34239272118898967 -5.6148974469369559 0 -5.6148974469369559 5.4735069154065421 0 0 0 0 -0.66379549862838161 0.204966661323434 0 0.204966661323434 0.48552843092698716 0 0 0 0 -10.38198507821653 5.9897138978376461 0 5.9897138978376461 4.5806475211675206 0 0 0 0 -10.359879625204485 4.6350843448703927 0 4.6350843448703927 -10.067843910459487 0 0 0 0 4.4129337265690385 -2.5079914865932356 0 -2.5079914865932356 -1.3749535024954964 0 0 0 0 9.6581325446022674 -14.66754284738272 0 -14.66754284738272 12.890307458095776 0 0 0 0 2.2193660348762219 -1.7515638064175754 0 -1.7515638064175754 -1.7737128172628558 0 0 0 0 1.618836050882237 -1.7281125220843023 0 -1.7281125220843023 -1.5527085516246188 0 0 0 0 1.4484932854829822 -2.7629246612759744 0 -2.7629246612759744 -1.869989828337566 0 0 0 0 -0.14680905570276082 -1.6864099897065898 0 -1.6864099897065898 0.65233646411797963 0 0 0 0 -5.9785108325222218 -1.2389058864197366 0 -1.2389058864197366 4.189137051401584 0 0 0 0 3.2733111984705445 -3.5938729761260468 0 -3.5938729761260468 2.6544428565340765 0 0 0 0 0.7300758279506514 -5.0211594493978513 0 -5.0211594493978513 2.8855920747335597 0 0 0 0 -0.86679565886373311 -3.5744082447349559 0 -3.5744082447349559 2.9652755069250252 0 0 0 0 1.616206349193817 -1.6951898896631974 0 -1.6951898896631974 -1.1377752156664656 0 0 0 0 0.28358982439385727 -1.4199811336584389 0 -1.4199811336584389 -0.93271200423623668 0 0 0 0 0.71012288912082511 -2.1737937452902312 0 -2.1737937452902312 0.87494299564488565 0 0 0 0 2.4452949378755875 -4.0671428255836872 0 -4.0671428255836872 -2.1234701783778291 0 0 0 0 2.1782507952448213 -3.6581268991976685 0 -3.6581268991976685 -2.0782755223262939 0 0 0 0 2.1682243842078606 -4.7301390260327025 0 -4.7301390260327025 -1.4519853180681821 0 0 0 0 1.9815119841077831 -3.9215448529603236 0 -3.9215448529603236 -1.2858383537186455 0 0 0 0 7.6492577764956398 -2.181204677414879 0 -2.181204677414879 -4.4842424426117686 0 0 0 0 2.4846262120991014 -3.684430337856611 0 -3.684430337856611 -3.5229435595497307 0 0 0 0 1.1474463197347973 -3.6207973738210191 0 -3.6207973738210191 0.6017485874896511 0 0 0 0 1.6632940027193399 -2.721490717526649 0 -2.721490717526649 -0.096704650252831925 0 0 0 0 1.7200002394820331 -2.6500491129384045 0 -2.6500491129384045 -0.13505854589857336 0 0 0 0 4.0758199714361005 -3.7631449539917288 0 -3.7631449539917288 0.76072691938499215 0 0 0 0 2.4395108514620105 -7.8955367680766377 0 -7.8955367680766377 1.6503447858691245 0 0 0 0 1.2862752808481854 -0.1778498900182246 0 -0.1778498900182246 -0.53803571959490482 0 0 0 0 47.169453083886765 -7.0005550487330765 0 -7.0005550487330765 -5.0377350314156502 0 0 0 0 4.7770521303760436 -10.759684880265329 0 -10.759684880265329 -0.77725237728884267 0 0 0 0 5.7515737704816274 -4.7203678037021746 0 -4.7203678037021746 -1.4041544243536919 0 0 0 0 43.323995872160594 -6.1853352570042262 0 -6.1853352570042262 -2.0052005357210874 0 0 0 0 5.1687056902059219 -4.4051210026207901 0 -4.4051210026207901 -0.56633235284695083 0 0 0 0 4.8218803734229567 -11.987305555534309 0 -11.987305555534309 3.4816964641140773 0 0 0 0 3.2526368998662178 -8.9892065293714349 0 -8.9892065293714349 2.399873533615509 0 0 0 0 5.0386547814705409 -4.7776444886731042 0 -4.7776444886731042 -0.7721667485202488 0 0 0 0 5.4438637417479185 -4.9765504918777879 0 -4.9765504918777879 -0.76929975107123028 0 0 0 0 15.71062045970757 -15.521571719971291 0 -15.521571719971291 -1.6147171521442942 0 0 0 0 19.756132048933068 -18.68438949485062 0 -18.68438949485062 -2.1087333947225488 0 0 0 0 20.509666146288509 -12.664284354001211 0 -12.664284354001211 -11.021006385693454 0 0 0 0 20.633648645714857 -24.68478059970721 0 -24.68478059970721 -6.9798482978208085 0 0 0 0 23.299643742420812 -13.714614540934356 0 -13.714614540934356 6.8980169087517424 0 0 0 0 41.164267513144296 -47.869628792088179 0 -47.869628792088179 9.5541482768404933 0 0 0 0 23.511797899729572 -19.62360866360109 0 -19.62360866360109 23.403791027048101 0 0 0 0 3.413957828186966 -3.6644561410856387 0 -3.6644561410856387 1.1861031535849786 0 0 0 0 4.5348298537749407 -4.0240589790755585 0 -4.0240589790755585 1.5373673235079168 0 0 0 0 22.9449929751936 -16.509159359261432 0 -16.509159359261432 33.147535686463925 0 0 0 0 28.381074764300138 -30.182108562207304 0 -30.182108562207304 6.2283030498251719 0 0 0 0 16.677038883906789 -51.510724804114716 0 -51.510724804114716 60.482249920441518 0 0 0 0 35.461618841451127 -28.946647280543729 0 -28.946647280543729 103.52574356372085 0 0 0 0 2.6688382337560626 -2.9369303432128753 0 -2.9369303432128753 1.0563655372871328 0 0 0 0 1.9394242544152789 -2.1427212519635042 0 -2.1427212519635042 0.74306702178652617 0 0 0 0 49.134936327347532 -68.017737507874699 0 -68.017737507874699 42.035272575149065 0 0 0 0 -7.4514236719696783 4.0446988073526882 0 4.0446988073526882 -1.3282280469946954 0 0 0 0 15.678736434216262 0.19000528341530298 0 0.19000528341530298 -20.62896143436592 0 0 0 0 15.062296623310509 -6.7516957206997859 0 -6.7516957206997859 -3.9296355518799784 0 0 0 0 28.800827436787586 -33.35866445781221 0 -33.35866445781221 -99.341408757321915 0 0 0 0 15.456471655474232 -6.1981300957873406 0 -6.1981300957873406 -3.9958574415108035 0 0 0 0 35.272894562061992 2.3156128587870626 0 2.3156128587870626 -21.478599631274164 0 0 0 0 11.422353475481941 -14.055279995960291 0 -14.055279995960291 5.1302260491311245 0 0 0 0 15.395805525709875 -14.60125380881027 0 -14.60125380881027 -19.110145407261285 0 0 0 0 9.598278271878371 -24.554451428853781 0 -24.554451428853781 0.9883532331969036 0 0 0 0 29.170997444896784 -1.3145076491211114 0 -1.3145076491211114 -39.003234205528997 0 0 0 0 12.81239161992562 -14.863725032397269 0 -14.863725032397269 -5.8187824562146488 0 0 0 0 31.219310302345548 -6.8429654287206176 0 -6.8429654287206176 -8.2616248308277136 0 0 0 0 7.5913761496194638 13.627431539766349 0 13.627431539766349 -15.57134591063641 0 0 0 0 6.7520093560160603 6.5989790118430847 0 6.5989790118430847 -25.564317013398522 0 0 0 0 -0.44957159117620904 0.61337895452226121 0 0.61337895452226121 -15.990942215460564 0 0 0 0 -0.78584398352541029 3.3448206173866311 0 3.3448206173866311 -6.7876978559470444 0 0 0 0 14.712462725176637 -7.945164644447793 0 -7.945164644447793 -4.002757884049136 0 0 0 0 22.948008126375498 -6.4947581485521368 0 -6.4947581485521368 6.4590446775869168 0 0 0 0 25.50883662166234 -9.0070970282145026 0 -9.0070970282145026 -4.0937786095455522 0 0 0 0 23.993808226128749 -0.51340747031190404 0 -0.51340747031190404 -12.626919669666677 0 0 0 0 7.4462874445453053 -15.89334875298664 0 -15.89334875298664 7.4969580116869565 0 0 0 0 10.615543883424834 -19.314109487499081 0 -19.314109487499081 -9.1397856497642351 0 0 0 0 10.50325402199087 -15.840874175488352 0 -15.840874175488352 -19.429643416071485 0 0 0 0 31.081720773763664 -8.1528613943919481 0 -8.1528613943919481 -12.180112483034463 0 0 0 0 41.151643328164937 -24.54094822492516 0 -24.54094822492516 4.4497941068202636 0 0 0 0 1.528522884414997 -21.336497438187507 0 -21.336497438187507 5.4240300926139753 0 0 0 0 32.954722080467036 -38.716932106148306 0 -38.716932106148306 -13.52106701998855 0 0 0 0 50.284425386234943 -9.7654768763404718 0 -9.7654768763404718 -16.24318939094519 0 0 0 0 -37.565979184415482 -34.197141438224207 0 -34.197141438224207 -9.0317867907288019 0 0 0 0 4.7220805165416095 -39.415317971135664 0 -39.415317971135664 -28.125831556638332 0 0 0 0 -51.693648227403173 -84.222480685324626 0 -84.222480685324626 -36.16921634140499 0 0 0 0 -63.826149854234245 -85.379701481484972 0 -85.379701481484972 -13.252736648701102 0 0 0 0 2.3314730328711448 -56.718359515911288 0 -56.718359515911288 -31.274552356015192 0 0 0 0 -3.5652388899798098 -45.668735161208133 0 -45.668735161208133 -46.348089969600551 0 0 0 0 -31.2018528165936 -109.39443878192924 0 -109.39443878192924 -104.13926906748748 0 0 0 0 -98.913657194716507 -121.38870018438865 0 -121.38870018438865 -27.439194543037956 0 0 0 0 -65.352211122371955 -87.536727224807692 0 -87.536727224807692 -5.2817973583187268 0 0 0 0 -28.254826972908631 -73.183361071012769 0 -73.183361071012769 -25.925128053000662 0 0 0 0 -59.040661711409484 -111.19600134388475 0 -111.19600134388475 -65.525283631508501 0 0 0 0 18.434299727443431 -37.608007173585065 0 -37.608007173585065 -96.413426680406701 0 0 0 0 -0.86205516748601418 -0.59675865895500557 0 -0.59675865895500557 1.7884872618123913 0 0 0 0 -114.3380027706371 -88.226179979985318 0 -88.226179979985318 -11.876888084221719 0 0 0 0 -92.143853302310163 -26.467106427462568 0 -26.467106427462568 -30.840473033993476 0 0 0 0 -12.218571720615728 -46.094968678378791 0 -46.094968678378791 -30.293438478474854 0 0 0 0 -14.992283535188108 -28.451350970747171 0 -28.451350970747171 -3.909853455996199 0 0 0 0 26.4772257606528 -27.6880485366637 0 -27.6880485366637 -10.7570382307822 0 0 0 0 20.75961764913518 -19.413585492249695 0 -19.413585492249695 -22.721087558442377 0 0 0 0 14.163740661664633 -47.30714183874079 0 -47.30714183874079 -27.181704721758251 0 0 0 0 -16.221076713118237 -48.586095548964295 0 -48.586095548964295 -13.021360758335504 0 0 0 0 -4.5061706820997642 -91.757094073798726 0 -91.757094073798726 -54.298498213667699 0 0 0 0 -67.893632492734469 -113.02560295367039 0 -113.02560295367039 -57.752340002504752 0 0 0 0 -18.928878321050433 -63.154236165581096 0 -63.154236165581096 -91.142836863749835 0 0 0 0 -39.039102804905269 -79.981813773325484 0 -79.981813773325484 -29.491501738812076 0 0 0 0 -29.349547565601824 -41.52237996540498 0 -41.52237996540498 -6.7218824881420005 0 0 0 0 -17.799168350371474 -42.81472962360931 0 -42.81472962360931 -8.1195410635464214 0 0 0 0 -37.547800688436837 -20.202459171133341 0 -20.202459171133341 32.652722360460757 0 0 0 0 1.4205986341185053 -4.8486257687309262 0 -4.8486257687309262 8.0898875163966295 0 0 0 0 1.1879541827283742 -19.416292223623067 0 -19.416292223623067 6.4449188913385491 0 0 0 0 0.17119249709503492 -5.7027586045328462 0 -5.7027586045328462 29.901440114357683 0 0 0 0 8.9896703534323024 -31.728716203942895 0 -31.728716203942895 -69.036080322955968 0 0 0 0 -2.6760239866447098 -1.7961538571229356 0 -1.7961538571229356 5.5099357407867364 0 0 0 0 -112.00344761678025 -24.533939488822398 0 -24.533939488822398 38.778463668506447 0 0 0 0 36.978149091417436 5.0291365872712959 0 5.0291365872712959 25.446949207510443 0 0 0 0 45.914615084617253 -15.421375508990934 0 -15.421375508990934 -5.5899561000442191 0 0 0 0 17.839893908530939 -25.644698055540857 0 -25.644698055540857 -0.88261557654323042 0 0 0 0 30.001595172274392 -18.231794258141235 0 -18.231794258141235 2.2710501322894743 0 0 0 0 29.800071349008249 -15.816803006127365 0 -15.816803006127365 4.5826435722128736 0 0 0 0 15.293131848608027 -16.006812315535399 0 -16.006812315535399 5.1490634045876504 0 0 0 0 -10.079938624694478 -17.804523228774315 0 -17.804523228774315 35.139470979264843 0 0 0 0 0.54701881951768883 -3.5956441227504001 0 -3.5956441227504001 51.118528728063666 0 0 0 0 2.1682629605965196 -12.737096546479956 0 -12.737096546479956 4.81568857464661 0 0 0 0 8.8697042149724439 -8.7437816012061376 0 -8.7437816012061376 -4.6153560063357872 0 0 0 0 7.5508193572750315 -6.8398141153957113 0 -6.8398141153957113 -0.14004193603159365 0 0 0 0 7.4644495709617331 -6.3339229358507509 0 -6.3339229358507509 -0.29072288953466341 0 0 0 0 7.3689918887052634 -6.3783473847430603 0 -6.3783473847430603 0.57880780996400683 0 0 0 0 9.7083308759972002 -12.503436332179673 0 -12.503436332179673 -2.5300743380487649 0 0 0 0 58.338744734712236 -10.329659613546028 0 -10.329659613546028 -5.5140136276968406 0 0 0 0 68.645593727211235 -0.79313154124974972 0 -0.79313154124974972 -8.377702602338104 0 0 0 0 0.34347170151614392 -0.1704276930863422 0 -0.1704276930863422 -0.22516741530659612 0 0 0 0 72.082701416104101 -24.900518178430502 0 -24.900518178430502 0.99259791358781513 0 0 0 0 36.935034721769625 -13.692572565412775 0 -13.692572565412775 0.55342250915418845 0 0 0 0 19.801377569769102 -23.891164147713425 0 -23.891164147713425 3.1741146038839361 0 0 0 0 57.318881237413734 -24.986525382904802 0 -24.986525382904802 -8.2279924101458164 0 0 0 0 47.247476703196298 -13.002412880436168 0 -13.002412880436168 6.7535804022263619 0 0 0 0 14.794816208499054 -18.027717238140625 0 -18.027717238140625 -8.9315203941599606 0 0 0 0 5.2945881048144656 -64.355683872491682 0 -64.355683872491682 14.1019789623424 0 0 0 0 2.6153645647856738 -0.74149001571435491 0 -0.74149001571435491 -1.7980847841022847 0 0 0 0 -16.860150964675995 -61.690978863658074 0 -61.690978863658074 -29.773692286042206 0 0 0 0 42.145054936052475 -0.58878193584860128 0 -0.58878193584860128 -55.279848055522962 0 0 0 0 21.033838057526737 -42.134042330342709 0 -42.134042330342709 -21.225962502339826 0 0 0 0 14.13709810263453 -18.274207855384745 0 -18.274207855384745 -11.668078768838454 0 0 0 0 -9.8432228630845202 -14.965581855627534 0 -14.965581855627534 -9.5097580844158074 0 0 0 0 -5.5030015632510185 -9.940388211653044 0 -9.940388211653044 -14.988929734943667 0 0 0 0 0.52730053925552056 -11.378254332280449 0 -11.378254332280449 3.3436819677299354 0 0 0 0 -2.0602130632905755 -20.486255166739284 0 -20.486255166739284 -6.9095961583952885 0 0 0 0 11.931368390622083 -43.285502199732946 0 -43.285502199732946 21.378185562909266 0 0 0 0 39.532884913787711 -31.630003520023195 0 -31.630003520023195 -9.5504711285821031 0 0 0 0 3.2556742808155832 -13.928333480713263 0 -13.928333480713263 -13.396804167612572 0 0 0 0 3.5743800554640934 -14.905589424776334 0 -14.905589424776334 7.0264404374002263 0 0 0 0 -19.922105090023251 2.2023697654542502 0 2.2023697654542502 15.102486184489862 0 0 0 0 30.624589663333609 -43.419738012699327 0 -43.419738012699327 -23.792277880027996 0 0 0 0 0.032606409967996797 -0.038905695439732213 0 -0.038905695439732213 0.0056225361244522931 0 0 0 0 5.4806262019919814 -58.811189648595473 0 -58.811189648595473 -5.1342116072864883 0 0 0 0 -11.394445493380772 -10.263994076028212 0 -10.263994076028212 49.652831302642426 0 0 0 0 -43.489478895324282 -49.20019632291951 0 -49.20019632291951 34.842364824202377 0 0 0 0 50.984856501716422 4.6580734766716887 0 4.6580734766716887 -14.253422548184517 0 0 0 0 5.1252009663052638 -17.632648663029041 0 -17.632648663029041 9.0437515254367291 0 0 0 0 -38.268830758694094 -15.355319605030672 0 -15.355319605030672 4.6619531825417653 0 0 0 0 -60.523910797724966 -19.404751738300547 0 -19.404751738300547 -15.653670630417764 0 0 0 0 17.481085671286564 -8.0585781429272174 0 -8.0585781429272174 -15.873489128513029 0 0 0 0 0.35511490701209958 -0.37321736115864468 0 -0.37321736115864468 -0.31566895041166632 0 0 0 0 -0.14562253204775999 -0.093931150400317964 0 -0.093931150400317964 0.16773239200508794 0 0 0 0 -43.747459616337437 -46.364829743324663 0 -46.364829743324663 -21.721674236847321 0 0 0 0 -9.5871005615281319 -36.365227027533365 0 -36.365227027533365 -25.184871710895095 0 0 0 0 14.100028129725203 -19.636704921864062 0 -19.636704921864062 -14.792679361517607 0 0 0 0 -9.5191968318904401 -42.556240247762616 0 -42.556240247762616 25.162183492924669 0 0 0 0 11.872796306415694 -13.7390289815703 0 -13.7390289815703 -20.618255817564204 0 0 0 0 -19.174830207877676 -36.4664314449019 0 -36.4664314449019 -19.834007266048502 0 0 0 0 -3.9100556390669556 -23.038730890477847 0 -23.038730890477847 11.506642515959165 0 0 0 0 -21.438313613871287 -71.552916777596693 0 -71.552916777596693 -22.503721395070897 0 0 0 0 -49.996529457697761 -83.351806204082095 0 -83.351806204082095 -26.661857368024357 0 0 0 0 -16.137965371301107 -102.98487111761642 0 -102.98487111761642 -24.797821080865106 0 0 0 0 -52.511315533487505 -121.82677051070641 0 -121.82677051070641 -7.374414271209389 0 0 0 0 -33.108609975555737 -104.9399818128295 0 -104.9399818128295 -24.953984267638589 0 0 0 0 -80.167251225648215 -79.928279066647519 0 -79.928279066647519 -8.5603155909338966 0 0 0 0 -57.629508970818279 -81.671617065359897 0 -81.671617065359897 -11.504398980381666 0 0 0 0 9.9500103284561146 -16.699881061160855 0 -16.699881061160855 -1.1248585156626625 0 0 0 0 -20.741981093990034 -13.873660834644397 0 -13.873660834644397 -4.5775792655476835 0 0 0 0 59.549423629096054 -32.111540875801438 0 -32.111540875801438 -43.315755609160988 0 0 0 0 -2.5474724641152484 -23.42908832062956 0 -23.42908832062956 9.9222745775665864 0 0 0 0 -32.734950964077143 -25.856228285811085 0 -25.856228285811085 -5.7787829943699762 0 0 0 0 17.993794238398362 -20.007525753214757 0 -20.007525753214757 -7.2068171166090202 0 0 0 0 -17.042124312310147 -14.043461913264681 0 -14.043461913264681 18.056564327129951 0 0 0 0 0.41090493111281212 -13.910423406872837 0 -13.910423406872837 9.1554998829915633 0 0 0 0 -33.188471907007624 -115.65236005469342 0 -115.65236005469342 -33.800273642933462 0 0 0 0 7.182690630049656 -11.908655700968557 0 -11.908655700968557 -6.0396099713696927 0 0 0 0 -28.9377159375872 -13.965790979047597 0 -13.965790979047597 -1.3636044182640035 0 0 0 0 -11.066113043736003 -5.3995869870988873 0 -5.3995869870988873 5.9098277841818971 0 0 0 0 2.0362930678745279 -13.53187205157071 0 -13.53187205157071 10.622535352643435 0 0 0 0 -11.572387755299133 -15.861110923388878 0 -15.861110923388878 -15.020455535210203 0 0 0 0 -4.4077454567304812 -32.035085664159851 0 -32.035085664159851 -14.356016888350041 0 0 0 0 33.862127667518507 -35.827303161844611 0 -35.827303161844611 -81.353515583970875 0 0 0 0 35.111451913589917 -18.814104701483302 0 -18.814104701483302 -70.583371895307209 0 0 0 0 15.253960004840337 -30.501690739547485 0 -30.501690739547485 -75.157593304029433 0 0 0 0 10.643984789101523 -28.455365540459752 0 -28.455365540459752 -66.829010171408299 0 0 0 0 -0.02774248234421961 -20.086124101921683 0 -20.086124101921683 7.8827604229372223 0 0 0 0 -0.89501354003732558 -54.640392970235553 0 -54.640392970235553 -82.1205453537209 0 0 0 0 14.142247035848413 -61.771718672120187 0 -61.771718672120187 -105.54807610131684 0 0 0 0 -1.6666923560507207 -21.235805470631654 0 -21.235805470631654 9.5085821033157032 0 0 0 0 -18.729771772399545 -39.440525480339147 0 -39.440525480339147 -2.1003290047810879 0 0 0 0 1.5234018140545231 -86.681450097210472 0 -86.681450097210472 -86.257227320245875 0 0 0 0 -21.57454097449272 -73.713818589833863 0 -73.713818589833863 -56.063229919935111 0 0 0 0 -9.4852973562956322 -51.097197481882176 0 -51.097197481882176 -77.510753642578493 0 0 0 0 9.0541516002558637 -63.820216448439169 0 -63.820216448439169 -69.283697047067108 0 0 0 0 5.1257369083541562 -90.070620326805511 0 -90.070620326805511 -53.540948056703201 0 0 0 0 32.137361319641059 -95.072946664004121 0 -95.072946664004121 -41.876255465394934 0 0 0 0 6.4059567188378423 -130.45593572750658 0 -130.45593572750658 -24.68276039083139 0 0 0 0 20.56221933939014 -103.6024259709302 0 -103.6024259709302 -46.206621617311612 0 0 0 0 42.817140241981178 -60.287311023745133 0 -60.287311023745133 -61.254121225734707 0 0 0 0 84.868048810189066 -11.917542922339635 0 -11.917542922339635 -50.69430827657925 0 0 0 0 93.980574029163108 -71.41066894272808 0 -71.41066894272808 -59.441605773201445 0 0 0 0 45.6254893379637 -22.281992871267903 0 -22.281992871267903 -61.464173134125303 0 0 0 0 50.478905992211367 -62.682628140682937 0 -62.682628140682937 -69.371661882119952 0 0 0 0 25.459084792844806 -34.748677036659501 0 -34.748677036659501 -67.97181047158665 0 0 0 0 46.769071268745392 4.262086097921383 0 4.262086097921383 -40.382320606906433 0 0 0 0 51.836985819631082 -27.423276981760864 0 -27.423276981760864 -57.328533846492064 0 0 0 0 16.912287258819561 3.0506621880194871 0 3.0506621880194871 -28.583233448574902 0 0 0 0 10.535075258238066 0.028404147640685551 0 0.028404147640685551 -25.433198409878969 0 0 0 0 15.223765682644625 5.7249424845649628 0 5.7249424845649628 -19.263694423425477 0 0 0 0 5.786863373410597 1.4868810504049179 0 1.4868810504049179 -18.099440410966054 0 0 0 0 2.5041577790034353 -4.3885398548882222 0 -4.3885398548882222 -23.607660605382989 0 0 0 0 18.530012693227036 -9.8549070572044002 0 -9.8549070572044002 -45.981274201825727 0 0 0 0 15.505330475090886 -15.776816784142284 0 -15.776816784142284 -51.51106496322609 0 0 0 0 -3.293383081749198 -32.021207576559391 0 -32.021207576559391 -61.219101055583451 0 0 0 0 19.701783267708379 -20.326291216828395 0 -20.326291216828395 -74.618696702003945 0 0 0 0 8.3379005652022897 -19.839923251594882 0 -19.839923251594882 -29.875026292225812 0 0 0 0 8.2450404115552374 -7.8967617209345917 0 -7.8967617209345917 -50.163890933908988 0 0 0 0 12.496090753629687 27.40855708840536 0 27.40855708840536 -93.400107113604463 0 0 0 0 -46.301329960399016 -36.571854766836623 0 -36.571854766836623 -63.510345334099839 0 0 0 0 4.8197733654233161 2.8185894257039763 0 2.8185894257039763 -97.53978636332613 0 0 0 0 9.747397789345996 -31.549159430571308 0 -31.549159430571308 -113.60330450953916 0 0 0 0 44.207997479410551 -68.616381115090917 0 -68.616381115090917 -100.8157767681987 0 0 0 0 -1.285515977157047 -5.0896799550537253 0 -5.0896799550537253 3.8063957035701605 0 0 0 0 -45.915961826911371 -18.848213354707696 0 -18.848213354707696 85.250062503502704 0 0 0 0 -1.0528042424328428 -0.66605979219897016 0 -0.66605979219897016 2.1471077508053718 0 0 0 0 3.3579570075272667 -11.035106863529158 0 -11.035106863529158 -0.95646325019870915 0 0 0 0 3.514001432544319 3.7721625295234844 0 3.7721625295234844 -46.799835813813843 0 0 0 0 4.1290305284928763 -27.861400696914643 0 -27.861400696914643 -7.5683272007736377 0 0 0 0 21.85173368339747 -23.797476764520979 0 -23.797476764520979 -73.138536750571802 0 0 0 0 10.178151543193962 -32.589643146988237 0 -32.589643146988237 -62.226163345978421 0 0 0 0 19.728814925838378 -15.815625124145299 0 -15.815625124145299 -64.148574005906994 0 0 0 0 10.758993296465633 -25.505168397248781 0 -25.505168397248781 -77.496055528114084 0 0 0 0 19.673203950165771 -16.992939788789954 0 -16.992939788789954 -84.325325477460865 0 0 0 0 5.3470313876096043 -6.3550135278710513 0 -6.3550135278710513 -2.4903436451095331 0 0 0 0 1.7323802592648798 -6.0906727476106894 0 -6.0906727476106894 0.030552979321022633 0 0 0 0 -0.49751264886405488 -7.6433768586738244 0 -7.6433768586738244 -1.7513319444669406 0 0 0 0 3.7569176973444574 -1.8276654105797245 0 -1.8276654105797245 -12.290684668121244 0 0 0 0 2.304933400474706 -11.071074765775423 0 -11.071074765775423 -2.055473752837651 0 0 0 0 -0.8976720532955369 -5.626408414755133 0 -5.626408414755133 3.3463038845584379 0 0 0 0 23.402517399306817 -71.920844864122046 0 -71.920844864122046 7.4720240031601861 0 0 0 0 8.5958269366819255 -13.286001253647608 0 -13.286001253647608 -20.831417674990917 0 0 0 0 38.439224326124531 0.14972993683477398 0 0.14972993683477398 -55.355302731622942 0 0 0 0 15.592735657111916 -14.386523978449986 0 -14.386523978449986 -29.910887530611944 0 0 0 0 20.898968161651283 -2.4880118560686242 0 -2.4880118560686242 -30.381232755593373 0 0 0 0 6.4147707873926265 4.0018665117095225 0 4.0018665117095225 -26.44530008957372 0 0 0 0 13.592595496644208 -10.58455785085971 0 -10.58455785085971 0.83446170628303662 0 0 0 0 37.614886246534297 -32.732099151246075 0 -32.732099151246075 -15.874277251728927 0 0 0 0 43.510465355087945 -11.264618795528804 0 -11.264618795528804 -79.730756251403363 0 0 0 0 -34.31283523379534 -20.601877859779052 0 -20.601877859779052 4.6987399741774425 0 0 0 0 7.1148959038343094 -10.972325072835933 0 -10.972325072835933 -16.829048864736574 0 0 0 0 -7.2771489968399692 -25.275188664068992 0 -25.275188664068992 17.321919142392289 0 0 0 0 12.652139523415826 3.6190118033991894 0 3.6190118033991894 -24.056591942673549 0 0 0 0 0.24061015778078065 -0.022699205574869374 0 -0.022699205574869374 -0.53053918448200577 0 0 0 0 38.598786958671553 -62.834443562731394 0 -62.834443562731394 -58.266550220883801 0 0 0 0 21.025693568470615 -18.47801463036194 0 -18.47801463036194 -26.794745197257726 0 0 0 0 25.696620770715526 -31.654119658021955 0 -31.654119658021955 -7.2140153451327933 0 0 0 0 1.9310874176110122 -1.9521306220860661 0 -1.9521306220860661 -3.7436264353219784 0 0 0 0 22.380639656505082 11.008156765223248 0 11.008156765223248 -3.0179253401693131 0 0 0 0 -11.718654362572124 9.1700758008810226 0 9.1700758008810226 -1.1538127133753733 0 0 0 0 -21.161139991909295 -28.450790949464135 0 -28.450790949464135 -12.109337623915053 0 0 0 0 -10.047195163962897 -14.185904389800271 0 -14.185904389800271 -6.0726797900570091 0 0 0 0 2.5397209233133307 -3.0973643059582447 0 -3.0973643059582447 -5.6148897898698138 0 0 0 0 22.114610386968707 0.63556962445727549 0 0.63556962445727549 -31.74473957734881 0 0 0 0 19.940261430005194 2.9141156429977855 0 2.9141156429977855 -17.644975761912065 0 0 0 0 -0.47695645339990733 -20.518274479582033 0 -20.518274479582033 -9.9782841392443515 0 0 0 0 10.880881881166715 -18.321097339881817 0 -18.321097339881817 -24.77897767455579 0 0 0 0 -2.5203332853707252 -32.088517462150776 0 -32.088517462150776 -45.038596348560532 0 0 0 0 -18.123042484792677 24.436029290078295 0 24.436029290078295 -32.471386804536451 0 0 0 0 18.619353491696529 -7.8616318234344362 0 -7.8616318234344362 -38.711427404079586 0 0 0 0 13.537563078076346 5.4096208869596012 0 5.4096208869596012 -70.012543340038974 0 0 0 0 19.024669976366567 9.4882521941872255 0 9.4882521941872255 -34.530613197584898 0 0 0 0 20.589452370844811 -11.255716474022847 0 -11.255716474022847 -20.446926089778572 0 0 0 0 12.427542182020261 2.1044127941750048 0 2.1044127941750048 -50.480244632330141 0 0 0 0 12.557224540661991 3.5567219534059404 0 3.5567219534059404 -42.881674706943159 0 0 0 0 7.5116901626461186 0.39910401501401793 0 0.39910401501401793 -35.556488682457712 0 0 0 0 13.391949516138993 13.821637754583207 0 13.821637754583207 -36.006691040168334 0 0 0 0 7.6687615421638515 -8.8148145687394077 0 -8.8148145687394077 -16.445237680935001 0 0 0 0 28.515674884813052 -3.9366483171943401 0 -3.9366483171943401 -29.704983137264207 0 0 0 0 23.785301689546031 7.3156004649672468 0 7.3156004649672468 -36.806187539055827 0 0 0 0 -2.1375879325059941 6.2010316916275769 0 6.2010316916275769 -16.453193739336712 0 0 0 0 15.002161269214412 5.7749712650602305 0 5.7749712650602305 -33.80138054604322 0 0 0 0 7.110305849222641 6.7845488034308801 0 6.7845488034308801 -32.347413887233415 0 0 0 0 8.6811130699155612 1.7657136823942228 0 1.7657136823942228 -8.9835158581190093 0 0 0 0 20.016070352983661 10.223862340499181 0 10.223862340499181 -35.468210432969499 0 0 0 0 14.543058411014499 34.686269785655895 0 34.686269785655895 -35.271531369424338 0 0 0 0 -24.489058083730924 8.7496652643676498 0 8.7496652643676498 29.912779246558785 0 0 0 0 30.386226367620111 -1.2479166366392747 0 -1.2479166366392747 -67.267787805234548 0 0 0 0 2.0536701593891848 64.735377643886295 0 64.735377643886295 -102.78716698645439 0 0 0 0 3.2443983901121101 39.014909702970499 0 39.014909702970499 -36.91601419892686 0 0 0 0 42.221503409375146 17.342677924674717 0 17.342677924674717 -132.9948964509822 0 0 0 0 12.667236942244926 34.54659715393791 0 34.54659715393791 -9.4255779544801044 0 0 0 0 -6.0164777582469871 2.2236152668932654 0 2.2236152668932654 -4.4890057991155459 0 0 0 0 5.5093516982160509 -0.18130659795133397 0 -0.18130659795133397 -33.795882038240961 0 0 0 0 0.12732898416288663 -1.5866670574469026 0 -1.5866670574469026 -3.1525037988903932 0 0 0 0 2.0309440664132126 -1.0723202894878341 0 -1.0723202894878341 -2.2682072057505138 0 0 0 0 3.1692268856451928 0.44769173948064056 0 0.44769173948064056 -11.862339778465666 0 0 0 0 1.7760467638228796 -1.2010512231701487 0 -1.2010512231701487 -5.1223811488693878 0 0 0 0 -0.94457197540032212 -0.90453704788524192 0 -0.90453704788524192 -3.0389044783369172 0 0 0 0 -0.65213532732741442 -1.5966809612873476 0 -1.5966809612873476 -1.8552064975956455 0 0 0 0 -0.37278740396697607 -1.6954250998360187 0 -1.6954250998360187 -2.9748948876328853 0 0 0 0 -1.5901277259503441 4.7739883657739988 0 4.7739883657739988 -7.075581012402969 0 0 0 0 -1.6978941258057603 -0.97930030637508025 0 -0.97930030637508025 0.3966221658338327 0 0 0 0 -0.91679895095876418 -2.3890219894674374 0 -2.3890219894674374 2.0342228619992966 0 0 0 0 -0.90184067807058454 -2.0422844925342361 0 -2.0422844925342361 2.9017896598670632 0 0 0 0 -2.0053048826739541 -0.3666746671369765 0 -0.3666746671369765 0.12425283105403651 0 0 0 0 -0.6477332980139181 -2.5007045334277791 0 -2.5007045334277791 2.4058267989603337 0 0 0 0 0.050244356765679399 -0.062065685875616783 0 -0.062065685875616783 -0.093858960650290868 0 0 0 0 -1.3662604607088724 -2.0363779854233144 0 -2.0363779854233144 0.97188180187367834 0 0 0 0 6.6600822987384163 2.6758977264107671 0 2.6758977264107671 -19.637250177911483 0 0 0 0 0.89651376436813734 -4.141964548805845 0 -4.141964548805845 4.0241682630730793 0 0 0 0 -0.32765924694831483 -3.3203274938568939 0 -3.3203274938568939 4.1194301738869399 0 0 0 0 -1.48972328337004 -1.543371412203669 0 -1.543371412203669 4.2792015199520392 0 0 0 0 -31.319261016486053 -23.888095745574901 0 -23.888095745574901 -1.6695729399216361 0 0 0 0 -0.14752539729535163 -1.0217114439011636 0 -1.0217114439011636 0.23077223338351516 0 0 0 0 -16.694012450607261 -7.8334467549575493 0 -7.8334467549575493 15.929133844882017 0 0 0 0 2.2143425235747642 -4.9596912374738533 0 -4.9596912374738533 -9.2241705803614042 0 0 0 0 8.7872280539377243 -23.703514945787902 0 -23.703514945787902 -15.97412867328967 0 0 0 0 5.1931913089501904 -16.638231845747214 0 -16.638231845747214 -15.252510873397114 0 0 0 0 5.6938659802253824 -21.434159399286727 0 -21.434159399286727 -1.357405673887115 0 0 0 0 5.39771798079164 -5.5210423178432393 0 -5.5210423178432393 -0.43703955888850032 0 0 0 0 4.6931642935378477 -9.9055753400316462 0 -9.9055753400316462 -10.413197324494831 0 0 0 0 12.509068483785086 -13.033459437283454 0 -13.033459437283454 -9.516129843017552 0 0 0 0 7.7571026472724043 -9.1222022905421909 0 -9.1222022905421909 -12.38756160770572 0 0 0 0 2.0320404003141448 -1.0835181345428282 0 -1.0835181345428282 -2.2438318524509668 0 0 0 0 5.6028071903143912 -5.0482570156234363 0 -5.0482570156234363 -5.7859897415653663 0 0 0 0 7.1704105546607542 -2.2114800054427732 0 -2.2114800054427732 -7.2546252007904481 0 0 0 0 1.7114294322673231 -0.88630680402275175 0 -0.88630680402275175 -2.8613001125631854 0 0 0 0 1.8013416992699742 -2.1510504578468979 0 -2.1510504578468979 -5.5367557151640909 0 0 0 0 0.37776083725647425 -1.1062676097095663 0 -1.1062676097095663 -3.1778301503817499 0 0 0 0 1.4836131721899051 -5.5755934754754541 0 -5.5755934754754541 -9.8147429488146773 0 0 0 0 4.2711142085245228 -4.7885818608556292 0 -4.7885818608556292 0.27572641205915716 0 0 0 0 2.9865246298069059 -3.723312951852753 0 -3.723312951852753 -0.10143848568318248 0 0 0 0 -1.4902444337967609 -1.2935247683781199 0 -1.2935247683781199 -0.25186977579141967 0 0 0 0 3.7380975325067993 -5.9444298408925533 0 -5.9444298408925533 -0.32362009481585119 0 0 0 0 2.4274739327811403 -5.6227461618254893 0 -5.6227461618254893 0.51258361850341316 0 0 0 0 2.9924861917243106 -5.3110007949035207 0 -5.3110007949035207 0.66909684086567722 0 0 0 0 -1.3158542825403856 -3.5855988085641002 0 -3.5855988085641002 1.6603884382493561 0 0 0 0 2.8931873468172853 -5.1005256347125396 0 -5.1005256347125396 0.24122603489195171 0 0 0 0 2.941637467576828 -3.6989946582694797 0 -3.6989946582694797 0.30462364900734684 0 0 0 0 -2.6658042604467482 -2.3731295507532195 0 -2.3731295507532195 1.9329691770108184 0 0 0 0 -0.38399897234921809 -2.7601128102978691 0 -2.7601128102978691 0.66767357954813633 0 0 0 0 -0.094883084537286777 -4.3825766653462779 0 -4.3825766653462779 1.3658578502254386 0 0 0 0 -1.0848850627808133 -2.9132472052624507 0 -2.9132472052624507 1.1771697595686419 0 0 0 0 0.10150449373759329 -4.0139336264401209 0 -4.0139336264401209 2.0456405380100477 0 0 0 0 0.052716547008458292 -4.2693861572261085 0 -4.2693861572261085 0.91354534894344397 0 0 0 0 0.72606822788657155 -4.5534143711483921 0 -4.5534143711483921 0.43731909309644834 0 0 0 0 2.970902978565864 -3.7310330791281823 0 -3.7310330791281823 0.73608612759249681 0 0 0 0 -0.32155444844102021 -1.7901427410542965 0 -1.7901427410542965 4.3218663916049991 0 0 0 0 2.1322490823658882 -3.136276507328148 0 -3.136276507328148 3.5518083458882757 0 0 0 0 2.9362292352698205 -3.4519519123159625 0 -3.4519519123159625 3.9082431836868636 0 0 0 0 2.1270776133460458 -3.0550969397882 0 -3.0550969397882 3.7173765560437459 0 0 0 0 3.0712224310009333 -1.1972531852775319 0 -1.1972531852775319 4.4165597382816486 0 0 0 0 -3.4170374665554846 -1.9360037045989884 0 -1.9360037045989884 8.7723601889447309 0 0 0 0 -7.2932609278814198 -48.50642901856736 0 -48.50642901856736 24.43308471335331 0 0 0 0 2.6549713262429577 3.3974039879176416 0 3.3974039879176416 13.418369016028009 0 0 0 0 10.053243920701789 -1.2258087204245385 0 -1.2258087204245385 3.707580242829863 0 0 0 0 5.6344558738055639 -1.9457011288322974 0 -1.9457011288322974 4.7149922792450525 0 0 0 0 2.7662076982087456 -5.1509973737120163 0 -5.1509973737120163 5.0828433831629809 0 0 0 0 7.7410877434595022 -4.686427297318005 0 -4.686427297318005 3.960969656240195 0 0 0 0 2.9443216967047192 -5.3452293861773796 0 -5.3452293861773796 4.5432213385793148 0 0 0 0 0.46704498049803078 -4.2402305793948472 0 -4.2402305793948472 5.0404174748982769 0 0 0 0 1.7548879824462347 -3.6593205148528796 0 -3.6593205148528796 3.6364126614062116 0 0 0 0 2.5490297034557443 -4.6516306172707118 0 -4.6516306172707118 3.9986244120518677 0 0 0 0 1.0293337059410987 -4.6323282627781737 0 -4.6323282627781737 4.2391852258006111 0 0 0 0 2.5222669407667127 -4.7940072337223683 0 -4.7940072337223683 3.2715450796240475 0 0 0 0 1.3108310612442438 -4.4268824285973096 0 -4.4268824285973096 3.3519500982656609 0 0 0 0 1.1101709874637891 -5.074680499965325 0 -5.074680499965325 2.8680979757991736 0 0 0 0 0.8647892245244293 -4.168188961877604 0 -4.168188961877604 3.1368505227437709 0 0 0 0 0.4663490966080559 -3.9309147670977467 0 -3.9309147670977467 2.9696529016946442 0 0 0 0 -0.33012393557146424 -4.3607475512908422 0 -4.3607475512908422 3.9747649624041514 0 0 0 0 -0.50039068062324077 -3.1204641389995231 0 -3.1204641389995231 1.8430291757176747 0 0 0 0 -0.77757879390264861 -4.1778412018284143 0 -4.1778412018284143 2.6925047904078383 0 0 0 0 1.147374282911187 -5.5358093498070957 0 -5.5358093498070957 2.4967282826910377 0 0 0 0 0.71512422857631464 -4.6341594230470946 0 -4.6341594230470946 1.8976883304712828 0 0 0 0 0.40865628227766138 -5.6843505536162411 0 -5.6843505536162411 3.764294661290478 0 0 0 0 0.18180552486592205 -5.4958068680825818 0 -5.4958068680825818 4.6375634568976238 0 0 0 0 0.3487970021305955 -5.5051546899630921 0 -5.5051546899630921 3.2677222612546757 0 0 0 0 0.32476012116239872 -4.9903948945247976 0 -4.9903948945247976 3.1984090681362431 0 0 0 0 0.5438494781992631 -5.2111189793431549 0 -5.2111189793431549 3.1749082928290591 0 0 0 0 0.55778946989448741 -4.6161778197565582 0 -4.6161778197565582 3.3049390826636227 0 0 0 0 0.79842794536671136 -4.8712341124701197 0 -4.8712341124701197 3.5716364508843981 0 0 0 0 -0.29188029294891749 -4.7443878063932061 0 -4.7443878063932061 3.5644694849315783 0 0 0 0 -0.8084073544741841 -3.5173105359135661 0 -3.5173105359135661 3.578972982999403 0 0 0 0 -0.15898563508017105 -4.1021266536208714 0 -4.1021266536208714 4.1029190085246228 0 0 0 0 0.91991131315808161 -3.7632721147128905 0 -3.7632721147128905 3.5651084189303219 0 0 0 0 -0.28533399918524083 -3.1448403059330303 0 -3.1448403059330303 3.5521232648341083 0 0 0 0 -1.9724982181178348 -3.1046269913531432 0 -3.1046269913531432 4.9629408727923874 0 0 0 0 -1.3554125819937326 -3.4880604341306025 0 -3.4880604341306025 4.1514741502487595 0 0 0 0 -2.225747608448728 -2.4322651438724279 0 -2.4322651438724279 4.1712843532441184 0 0 0 0 -1.0603723391759559 -3.0929699018088286 0 -3.0929699018088286 3.6440657859493513 0 0 0 0 -1.3731913303490728 -4.4535386312636547 0 -4.4535386312636547 4.9634070057363715 0 0 0 0 -1.1487218181282515 -3.638091104614432 0 -3.638091104614432 4.2522503603831865 0 0 0 0 -2.6496540355146863 -3.0179355672298698 0 -3.0179355672298698 7.2301577878097305 0 0 0 0 -2.3246582992578624 -2.1137458301091101 0 -2.1137458301091101 3.653211520970217 0 0 0 0 -2.2963695777143585 -2.0572042603744194 0 -2.0572042603744194 5.5759112468222156 0 0 0 0 -1.9679256029630778 -3.1244543479115237 0 -3.1244543479115237 8.9338316148496233 0 0 0 0 -1.1350659949648616 -5.4945274203264489 0 -5.4945274203264489 7.5436783228942659 0 0 0 0 -1.0885934286488919 -5.0839741057861829 0 -5.0839741057861829 5.8492457395914244 0 0 0 0 0.99398724443744868 -6.8972721387399361 0 -6.8972721387399361 4.2710544768051477 0 0 0 0 1.2920488531817682 -7.8848011108348146 0 -7.8848011108348146 7.3262776062474586 0 0 0 0 -0.60471937191323377 -7.0189759883651277 0 -7.0189759883651277 7.3822709239902906 0 0 0 0 -1.2770815951516852 -1.8551791833306197 0 -1.8551791833306197 11.063805958889134 0 0 0 0 0.84829230995092075 -2.4536757403184311 0 -2.4536757403184311 8.9813573023857316 0 0 0 0 -0.96840699312451761 -6.950850640409044 0 -6.950850640409044 10.271488363243407 0 0 0 0 -0.097649896933351243 -0.10216494239147611 0 -0.10216494239147611 0.023007992393382359 0 0 0 0 -1.1122526662657037 -1.4174205036033527 0 -1.4174205036033527 9.1761858272657264 0 0 0 0 -1.4851803621277213 -6.6643646954325959 0 -6.6643646954325959 -16.761965316240094 0 0 0 0 -3.8861248209723271 -11.28825715862331 0 -11.28825715862331 -17.347515217712498 0 0 0 0 -3.1831911341432715 0.90215196335702785 0 0.90215196335702785 6.05299922436825 0 0 0 0 -2.991758336458588 0.21012034671730362 0 0.21012034671730362 7.9504242101684213 0 0 0 0 -1.9336783527687658 -1.4540164581194404 0 -1.4540164581194404 1.3477147537196288 0 0 0 0 -1.1920970328792464 -1.2611089267957141 0 -1.2611089267957141 -0.23335917631629854 0 0 0 0 -0.31385119990132715 -0.32536301489169261 0 -0.32536301489169261 0.087718766424554673 0 0 0 0 -1.971369274542667 0.45177331670129206 0 0.45177331670129206 0.72027597053238424 0 0 0 0 -2.4001550359535031 -0.70940866379532963 0 -0.70940866379532963 4.0634983818454202 0 0 0 0 0.43371772840504264 -9.0808144847121302 0 -9.0808144847121302 -0.82466338934977657 0 0 0 0 1.7428235798433889 -20.744840654486325 0 -20.744840654486325 7.2377830281729985 0 0 0 0 49.079578163931728 -46.135538019527303 0 -46.135538019527303 -74.305702737809042 0 0 0 0 -10.452573743939865 -3.7925260793526832 0 -3.7925260793526832 21.176251190951007 0 0 0 0 -5.7411550139710421 -4.5727487000511058 0 -4.5727487000511058 10.707705006995516 0 0 0 0 -3.2417522803189058 2.0956200556538533 0 2.0956200556538533 1.196833293128293 0 0 0 0 -0.072001253216495087 -0.055295155545869168 0 -0.055295155545869168 0.11861391467433213 0 0 0 0 -21.204096706424025 -18.460579249585862 0 -18.460579249585862 8.2971217248559697 0 0 0 0 0.37345891329459846 -10.554303051147144 0 -10.554303051147144 -7.7795528157002991 0 0 0 0 -0.17323413028388401 -0.19079417008023114 0 -0.19079417008023114 0.16448065612780383 0 0 0 0 2.1158829561900347 -6.023749566054903 0 -6.023749566054903 -2.2469217275065603 0 0 0 0 3.5666125464340439 -9.3146410484914668 0 -9.3146410484914668 5.1618729710025946 0 0 0 0 3.1550742478284519 -6.2180042846448487 0 -6.2180042846448487 1.0682794138774625 0 0 0 0 -8.9973436215368565 -22.160857852170011 0 -22.160857852170011 13.023566074451082 0 0 0 0 0.14342071590363048 -9.9326388149565901 0 -9.9326388149565901 16.95074678119272 0 0 0 0 2.9685226642468479 2.0509721252310555 0 2.0509721252310555 15.076007769912394 0 0 0 0 -9.5442336168198381 -0.9870556247769855 0 -0.9870556247769855 18.160962831301731 0 0 0 0 2.6023841756822552 -7.4393710715192016 0 -7.4393710715192016 3.871567340393435 0 0 0 0 -6.8522340938216075 -15.419385182205588 0 -15.419385182205588 -6.2461294828099199 0 0 0 0 13.728306636156049 -37.823900305456846 0 -37.823900305456846 65.068584084599934 0 0 0 0 28.458452230923285 -49.054048246247476 0 -49.054048246247476 55.588725599798636 0 0 0 0 -0.66932586914318515 -4.495570722059111 0 -4.495570722059111 2.3285251966326177 0 0 0 0 -197.66129247627396 -10.897645392977211 0 -10.897645392977211 161.62639415440208 0 0 0 0 1.4539604625024367 -87.990162730002339 0 -87.990162730002339 -109.72347762542267 0 0 0 0 21.499341369679314 -102.12289353500637 0 -102.12289353500637 100.87446930199985 0 0 0 0 32.063658927072538 14.174477254646263 0 14.174477254646263 137.4054450175172 0 0 0 0 -67.149170072283596 -195.14503348297876 0 -195.14503348297876 -37.932035806421482 0 0 0 0 -19.42475225943781 -40.523407731035149 0 -40.523407731035149 -7.0070739191432949 0 0 0 0 66.146346308843931 -1.0683181069007333 0 -1.0683181069007333 -30.799957912007812 0 0 0 0 -0.25914107937536368 -5.2879175568112204 0 -5.2879175568112204 2.3046521394478088 0 0 0 0 -31.04716755849222 -24.6409682481044 0 -24.6409682481044 12.368807598832063 0 0 0 0 0.92973389281256491 -1.7525378805250078 0 -1.7525378805250078 -0.87880239141557226 0 0 0 0 -17.837898812304047 -13.323336669021046 0 -13.323336669021046 14.14737991153379 0 0 0 0 -9.3294646400318015 -17.53637095776503 0 -17.53637095776503 10.718797341884056 0 0 0 0 11.03701559882029 -0.45443454674386885 0 -0.45443454674386885 19.799426837482315 0 0 0 0 6.4193263196502812 -16.969229838665342 0 -16.969229838665342 -5.4745063001028029 0 0 0 0 1.2346944900345989 -21.438897025658662 0 -21.438897025658662 0.59043534829470445 0 0 0 0 1.5955383026739582 -19.600048054715444 0 -19.600048054715444 8.6752455116620695 0 0 0 0 -14.315457065631563 -29.107060730895682 0 -29.107060730895682 2.9949281334484112 0 0 0 0 1.3645321944059106 -29.853650902779009 0 -29.853650902779009 4.2721679787500761 0 0 0 0 -1.8161426021106308 -25.025710438105307 0 -25.025710438105307 1.6781619563871573 0 0 0 0 -7.1478169952024473 -2.9949704047066916 0 -2.9949704047066916 78.137029540131152 0 0 0 0 -5.7089219181070803 -3.9646753007327789 0 -3.9646753007327789 -18.266390292279539 0 0 0 0 -3.44424099670141 -24.817686237103771 0 -24.817686237103771 3.8834233335728641 0 0 0 0 12.932294320577057 -24.669934454756003 0 -24.669934454756003 -9.2473491682467284 0 0 0 0 9.9858026608853834 -44.934708090558161 0 -44.934708090558161 2.9425108527866541 0 0 0 0 -1.3889616269880207 -41.399143095633917 0 -41.399143095633917 68.991869062721889 0 0 0 0 -37.825341320236475 -58.320063797325929 0 -58.320063797325929 -7.7845870045530319 0 0 0 0 5.0565227539918851 -16.064020225931017 0 -16.064020225931017 -25.081758720665675 0 0 0 0 -8.2933630236329918 -13.952778206909898 0 -13.952778206909898 -2.3592304959747707 0 0 0 0 5.3699775699788006 -19.546056263941864 0 -19.546056263941864 -2.7074145909791696 0 0 0 0 5.0000503103510709 -20.307926314239012 0 -20.307926314239012 -4.2080700893384346 0 0 0 0 4.7189051853183628 -16.183704064483209 0 -16.183704064483209 -4.6202419943037967 0 0 0 0 0.768994859434315 -12.318211825331673 0 -12.318211825331673 2.2765777595086547 0 0 0 0 4.5567751278576907 -19.160127122173435 0 -19.160127122173435 -0.73829194487007044 0 0 0 0 -1.1800971979828319 -1.7951832800172269 0 -1.7951832800172269 -0.08720397470460739 0 0 0 0 1.1372563610348152 -16.934967180714011 0 -16.934967180714011 -64.815356674487703 0 0 0 0 0.041421867321286499 0.063040835491481317 0 0.063040835491481317 -0.86474689845312902 0 0 0 0 2.8570556277329882 -12.902140549243091 0 -12.902140549243091 -0.2083989461692326 0 0 0 0 1.3657645834609866 -29.481126078288071 0 -29.481126078288071 -62.443561019957997 0 0 0 0 1.4430984194085621 -6.897508461467881 0 -6.897508461467881 -1.6242344341615764 0 0 0 0 -0.20573169797717128 -4.4840808644512435 0 -4.4840808644512435 -1.3977765742311021 0 0 0 0 -1.0805952810114832 -3.8289775203920726 0 -3.8289775203920726 0.55472816205292474 0 0 0 0 0.15037741527339676 -4.9124458142759977 0 -4.9124458142759977 0.25183365232078359 0 0 0 0 0.25962459148286143 -5.8188628479729232 0 -5.8188628479729232 -0.2121789197990438 0 0 0 0 0.34326280499954009 -3.0411743156328157 0 -3.0411743156328157 -3.0522121713729575 0 0 0 0 2.162797162483912 -5.3747869479666406 0 -5.3747869479666406 -0.27877843740861863 0 0 0 0 2.9042514086249867 -9.8154042895403109 0 -9.8154042895403109 -2.3248815049773839 0 0 0 0 1.6772078373754811 -6.3512039243961071 0 -6.3512039243961071 -0.01228044896502567 0 0 0 0 3.9912535542534897 -7.4236825098705594 0 -7.4236825098705594 -1.9850471481913701 0 0 0 0 -0.41239889081092063 -7.249979808279404 0 -7.249979808279404 -3.4719581503065449 0 0 0 0 -3.1429126733128214 -6.3272347260644892 0 -6.3272347260644892 -0.92341360566206276 0 0 0 0 3.179329221426932 -6.4932643989639862 0 -6.4932643989639862 -7.4635448756816647 0 0 0 0 -0.44232388893930263 -8.219778927102924 0 -8.219778927102924 7.3692022808099331 0 0 0 0 -3.4227517308780406 -5.5281104927959195 0 -5.5281104927959195 -1.7847131952048017 0 0 0 0 2.8219703328068135 -6.0139275586916483 0 -6.0139275586916483 -6.4459467693741317 0 0 0 0 5.337372839487216 -13.635980680397552 0 -13.635980680397552 4.3246063743354171 0 0 0 0 2.5536826137025681 -8.0535231411261581 0 -8.0535231411261581 0.36988385490320663 0 0 0 0 -1.7371105996717233 -12.251117337083997 0 -12.251117337083997 12.98396846545802 0 0 0 0 -0.23462348361499608 -10.588536479495815 0 -10.588536479495815 -8.7972084740067658 0 0 0 0 1.5103443334353308 -2.8536110170178386 0 -2.8536110170178386 -4.9501049820601963 0 0 0 0 -4.6943140882358421 -11.496008719605015 0 -11.496008719605015 -7.8841489814476517 0 0 0 0 0.88958761637331918 -5.3046713901348994 0 -5.3046713901348994 -7.5510809860998052 0 0 0 0 -3.4536133311048616 -6.6142520940120448 0 -6.6142520940120448 -7.1567404430816168 0 0 0 0 1.5290159187077066 -2.6769388374086365 0 -2.6769388374086365 -5.1930696999455463 0 0 0 0 -0.0063267215882660821 -7.7375075877371273 0 -7.7375075877371273 -10.971111082686548 0 0 0 0 -44.207170563386171 -119.9071937148201 0 -119.9071937148201 -109.78148675961347 0 0 0 0 -207.79921926505631 -328.29807673499454 0 -328.29807673499454 -136.79308983076271 0 0 0 0 -54.085577654448571 -267.99739321059496 0 -267.99739321059496 -281.26985169818727 0 0 0 0 -94.555542652669828 -383.85547265924106 0 -383.85547265924106 -558.72162800680235 0 0 0 0 -46.33064578360063 16.527414187765316 0 16.527414187765316 -322.4783070673875 0 0 0 0 -130.16214236796077 -248.53303701903315 0 -248.53303701903315 -244.87339594092919 0 0 0 0 -6.1422101213985023 -1.1202480919393683 0 -1.1202480919393683 3.539378912023686 0 0 0 0 1.3444907829867532 -3.0662331110891685 0 -3.0662331110891685 -4.6247050987773548 0 0 0 0 3.7172073330439162 18.566325133024293 0 18.566325133024293 -146.18343534860742 0 0 0 0 -4.0598489403346321 -7.4705544116895908 0 -7.4705544116895908 0.7341938226527418 0 0 0 0 -5.0811983350381595 -0.65573199874263199 0 -0.65573199874263199 -0.44794823431975572 0 0 0 0 -81.697410399072396 -90.153253062605472 0 -90.153253062605472 -133.99543570444075 0 0 0 0 65.165941097395262 -118.74008995553777 0 -118.74008995553777 82.334426010756943 0 0 0 0 178.72981309617171 17.152043351545217 0 17.152043351545217 -10.886649756425186 0 0 0 0 -0.047957611178970794 -0.44237039794749577 0 -0.44237039794749577 -0.31486159862701835 0 0 0 0 -13.151375655535958 51.975411978681564 0 51.975411978681564 17.1703872283706 0 0 0 0 -35.02002056017227 -17.457554452154909 0 -17.457554452154909 34.766416483176727 0 0 0 0 -17.251393878483213 -113.56925179174783 0 -113.56925179174783 -115.43339735644685 0 0 0 0 20.027059464220656 7.4679809568488054 0 7.4679809568488054 -53.19019331774598 0 0 0 0 -5.9306121746968898 -1.6777606222269883 0 -1.6777606222269883 3.067839737323327 0 0 0 0 4.5326312930264976 -28.778674944587692 0 -28.778674944587692 -68.682080409056653 0 0 0 0 6.1166659914883894 0.14164273812046391 0 0.14164273812046391 -9.1085934415754863 0 0 0 0 0.89117290417198092 -32.09299697698475 0 -32.09299697698475 -29.165147190877178 0 0 0 0 -6.0397902858967427 -5.4999897753277764 0 -5.4999897753277764 11.497126096426655 0 0 0 0 -3.030648683256004 -2.0412534100250923 0 -2.0412534100250923 7.0780172350059729 0 0 0 0 -0.60207187596824951 -5.3897540273464983 0 -5.3897540273464983 -5.2885493107169168 0 0 0 0 0.0075559177494142205 -8.8583507040766563 0 -8.8583507040766563 0.7191380913463945 0 0 0 0 -3.3785522457037587 -6.2991352234430451 0 -6.2991352234430451 14.913555278777494 0 0 0 0 -0.53230477228093065 0.99926494057656878 0 0.99926494057656878 0.24421519110114742 0 0 0 0 0.00032386305974796414 -3.4417618718762242 0 -3.4417618718762242 -1.7929855617658177 0 0 0 0 0.7097837703324501 -0.04148337783602285 0 -0.04148337783602285 -5.6749909403679402 0 0 0 0 -0.33308672299608588 2.0239123891078634 0 2.0239123891078634 20.85717177540937 0 0 0 0 5.2062883432372473 -6.8482489528814767 0 -6.8482489528814767 -102.55250764823268 0 0 0 0 -16.071538898337167 -20.529724116850048 0 -20.529724116850048 8.9065094366469566 0 0 0 0 0.0059916049067396671 -27.503506838404064 0 -27.503506838404064 -41.570385607108619 0 0 0 0 9.3207800552190747 -4.2016637955530314 0 -4.2016637955530314 -55.675761535237143 0 0 0 0 -0.16056664574500701 1.1528158402425075 0 1.1528158402425075 0.15557558197206944 0 0 0 0 -3.7172351327390061 -18.133353879874676 0 -18.133353879874676 -22.312024246579313 0 0 0 0 -0.020906840666326615 -27.344904067622824 0 -27.344904067622824 -28.210318224293587 0 0 0 0 -0.20652973246277639 1.4818930811314743 0 1.4818930811314743 0.20006721829000329 0 0 0 0 10.087797796237282 -1.0256104893805968 0 -1.0256104893805968 -86.176565522117244 0 0 0 0 1.0281858730595559 -9.7641151026873558 0 -9.7641151026873558 -4.9530028991816835 0 0 0 0 0.97851424640975893 -31.428816505957229 0 -31.428816505957229 0.64214875339985156 0 0 0 0 19.927172485506162 -15.553622448332135 0 -15.553622448332135 -23.085717626850965 0 0 0 0 18.629609546129359 -18.597692766359614 0 -18.597692766359614 9.4358446878786708 0 0 0 0 4.6291619920630183 -29.078527885438319 0 -29.078527885438319 18.720662609148349 0 0 0 0 20.278477371204644 -31.648751465119403 0 -31.648751465119403 7.5919410096868205 0 0 0 0 26.244333804796042 -25.26091096757375 0 -25.26091096757375 14.340650020252724 0 0 0 0 25.289031738066114 -34.377667046234137 0 -34.377667046234137 13.788058821590766 0 0 0 0 16.407743508869316 -22.034061316405769 0 -22.034061316405769 15.533774774009089 0 0 0 0 0.00046041840687394142 -26.850830336906256 0 -26.850830336906256 9.861297647246829 0 0 0 0 4.0815468558575958 -20.788874628965004 0 -20.788874628965004 18.492069096212163 0 0 0 0 -5.2095880275592208 -5.1477365123148502 0 -5.1477365123148502 39.796833005114877 0 0 0 0 -14.442623103095684 -20.177935305564461 0 -20.177935305564461 22.891710914047508 0 0 0 0 -7.950596587616019 -16.253631003411556 0 -16.253631003411556 26.673653882061672 0 0 0 0 -7.6175315192085691 -10.419981485269091 0 -10.419981485269091 20.718351761013764 0 0 0 0 -0.277423191539242 0.089381033649363673 0 0.089381033649363673 0.32911098349395229 0 0 0 0 -8.1006289657088928 2.6687910373861996 0 2.6687910373861996 4.3196530867035108 0 0 0 0 -3.2758389079244807 -4.6509560661652358 0 -4.6509560661652358 -4.8349610677000783 0 0 0 0 -2.1223183038941116 -0.85407659488367926 0 -0.85407659488367926 -1.2615997326398265 0 0 0 0 -0.0056647597315304665 -0.048175698877436446 0 -0.048175698877436446 -0.095039273732012486 0 0 0 0 7.6681492921197787 24.855193316704572 0 24.855193316704572 -43.669812589917456 0 0 0 0 0.061972029269682594 -0.13348588588819688 0 -0.13348588588819688 -0.23157785268817316 0 0 0 0 -0.7341412074456457 -21.126491598570283 0 -21.126491598570283 17.127054066078017 0 0 0 0 -3.7697498469497077 3.3978839491816046 0 3.3978839491816046 31.664219703483468 0 0 0 0 -11.85768645835924 -8.4570210599270013 0 -8.4570210599270013 4.1328098721673996 0 0 0 0 -38.505495634046383 16.811396741806675 0 16.811396741806675 67.434469532025105 0 0 0 0 68.389094697369728 -39.263742178597568 0 -39.263742178597568 0.28990180635673823 0 0 0 0 27.78732420400047 -32.558301967510999 0 -32.558301967510999 6.0471492492051766 0 0 0 0 -16.28736209066119 1.6900648034943515 0 1.6900648034943515 34.261012281956937 0 0 0 0 -48.456080853648018 -10.649100547440185 0 -10.649100547440185 30.158782762297051 0 0 0 0 -0.35603252852930822 -0.46504787755721644 0 -0.46504787755721644 0.31288750781622732 0 0 0 0 29.661957114320103 -51.312874570057033 0 -51.312874570057033 8.9092169977884623 0 0 0 0 3.8190484941587783 -29.687265497057524 0 -29.687265497057524 16.173149368600662 0 0 0 0 -1.6149758781539276 -26.453105060862981 0 -26.453105060862981 4.0740290336498219 0 0 0 0 -23.983424342586659 -27.623415339402072 0 -27.623415339402072 8.590192725572706 0 0 0 0 -5.9986185519373976 -14.550081811757991 0 -14.550081811757991 17.84604388155185 0 0 0 0 -5.1543028678861447 -18.447040213448304 0 -18.447040213448304 5.841550962844849 0 0 0 0 -4.1992728715049452 -17.647977994755593 0 -17.647977994755593 -2.7485926966874104 0 0 0 0 -5.3199481954216026 -14.976780448253521 0 -14.976780448253521 5.1431379880668828 0 0 0 0 5.8711948714335449 -26.80033634458141 0 -26.80033634458141 9.1526552394934697 0 0 0 0 5.1720076037963736 -21.582618390752032 0 -21.582618390752032 -6.5069382618785312 0 0 0 0 2.210195449879393 -22.983635626953401 0 -22.983635626953401 -3.769658681558667 0 0 0 0 8.3446264527738094 -30.844750113254122 0 -30.844750113254122 -1.2670158245109633 0 0 0 0 5.7846356728114188 -36.616901799592597 0 -36.616901799592597 -12.199060859190467 0 0 0 0 22.466311997472076 -11.283924136640962 0 -11.283924136640962 -56.221090754104807 0 0 0 0 24.413104931474663 -21.138456649926866 0 -21.138456649926866 -13.714154349563614 0 0 0 0 0.22723279433557764 -12.931296945451322 0 -12.931296945451322 -9.9235242053991897 0 0 0 0 6.3282382432863677 0.70028632404753965 0 0.70028632404753965 -9.2018049845974126 0 0 0 0 -12.962946943880524 -16.251286231085032 0 -16.251286231085032 -42.554193208141442 0 0 0 0 1.5256523945135996 -17.303733241434202 0 -17.303733241434202 -97.768289702140464 0 0 0 0 -4.8015168217825703 -23.218538562952745 0 -23.218538562952745 -102.45239013021364 0 0 0 0 -0.065753992181221577 0.47060732556877527 0 0.47060732556877527 0.063524371913189021 0 0 0 0 -198.86030168400612 -185.30728932411193 0 -185.30728932411193 317.48038556249503 0 0 0 0 282.3203336334409 351.02161985056085 0 351.02161985056085 -31.914613352728338 0 0 0 0 6.1284592286535542 1.0025296838620541 0 1.0025296838620541 -9.2836585321088148 0 0 0 0 0.12754914601100609 -43.977973404052136 0 -43.977973404052136 -59.220566508185584 0 0 0 0 40.775039630068932 50.779066509151107 0 50.779066509151107 -158.47753032710671 0 0 0 0 -8.9402864322473761 12.65458809899792 0 12.65458809899792 4.7336765184227119 0 0 0 0 9.3751011731510516 -1.170549227623269 0 -1.170549227623269 -6.7143280431528183 0 0 0 0 -16.394425636564847 3.1054769319620164 0 3.1054769319620164 11.423782994548674 0 0 0 0 0.68658925028285012 -8.5773697905206063 0 -8.5773697905206063 -18.34680368008776 0 0 0 0 5.5201859942305873 1.0156376915502383 0 1.0156376915502383 -9.3297339016856977 0 0 0 0 -4.248566945148923 -16.600963130886385 0 -16.600963130886385 -21.937913758514696 0 0 0 0 8.7903087426675484 -19.953774320994853 0 -19.953774320994853 -62.939725425236247 0 0 0 0 6.124125139642274 -35.427384156255357 0 -35.427384156255357 -23.235558502954518 0 0 0 0 -11.296270222272142 -6.6459330852580933 0 -6.6459330852580933 -23.579998381766927 0 0 0 0 -7.0044494309695438 -19.051096128119752 0 -19.051096128119752 -15.780361266981345 0 0 0 0 -9.2183587636682205 -15.470432768326646 0 -15.470432768326646 -5.2352111143281945 0 0 0 0 0.55031913556740619 -16.567422957291001 0 -16.567422957291001 -25.849706290518952 0 0 0 0 -5.0565465627405501 -16.263770884003748 0 -16.263770884003748 -5.086735179356765 0 0 0 0 -8.0838790710440662 -13.813715495332815 0 -13.813715495332815 6.9119173538001633 0 0 0 0 -9.2005500111263245 -12.387545965553727 0 -12.387545965553727 6.1193025712591407 0 0 0 0 -9.0367864285017276 -15.137402945747539 0 -15.137402945747539 -4.2106282976201328 0 0 0 0 -8.6589861558750272 -11.060903180215973 0 -11.060903180215973 -6.1904068281837681 0 0 0 0 -3.2491741907724645 -10.087481617690173 0 -10.087481617690173 -4.8201697310269083 0 0 0 0 -9.8576689701130817 -10.119937144098429 0 -10.119937144098429 5.3382641852685992 0 0 0 0 -9.2252407347623375 -16.287930617097118 0 -16.287930617097118 -7.1462076478037488 0 0 0 0 -9.8304465359542519 -9.9172215805720043 0 -9.9172215805720043 4.9934587806928903 0 0 0 0 -8.4129511472710874 -6.2419538777644448 0 -6.2419538777644448 7.1586651410816557 0 0 0 0 0.0196877809939906 -2.044459907194323 0 -2.044459907194323 -0.9264807845629548 0 0 0 0 -9.8228279913892038 -10.307094440564015 0 -10.307094440564015 5.4658510537810798 0 0 0 0 -3.2832000957273344 -4.4711099472629545 0 -4.4711099472629545 2.3934289211499156 0 0 0 0 -0.069475990396622223 -0.13263131009441409 0 -0.13263131009441409 -0.14599869834186074 0 0 0 0 -7.3295705810887739 -7.9708922610125228 0 -7.9708922610125228 -2.2591019578319447 0 0 0 0 -6.0990225916320924 -4.1971331281640687 0 -4.1971331281640687 7.7806562064497484 0 0 0 0 -6.087030400056392 -2.9667867986513556 0 -2.9667867986513556 2.9531526278078672 0 0 0 0 -10.534788677410688 -6.663072324332461 0 -6.663072324332461 18.294630915539983 0 0 0 0 -11.072013216849882 -9.3541620217948775 0 -9.3541620217948775 7.7126249864950296 0 0 0 0 -9.6232799264835194 -10.201159402786516 0 -10.201159402786516 5.1176909800906287 0 0 0 0 -1.8456476798091899 -4.0594681485811179 0 -4.0594681485811179 -1.6533568042414117 0 0 0 0 0.78026087087169316 -3.5580438621680521 0 -3.5580438621680521 -1.5139124783446771 0 0 0 0 -16.436921487562358 11.604599236947251 0 11.604599236947251 13.005502024261659 0 0 0 0 9.254756837093737 -17.887001191919808 0 -17.887001191919808 5.9994169196434086 0 0 0 0 -21.475683036725968 -2.5343382006831234 0 -2.5343382006831234 7.1851480661230198 0 0 0 0 -0.204355149328312 -0.21351255152162274 0 -0.21351255152162274 0.04039613344085824 0 0 0 0 1.3926638835400809 -3.7257650890114746 0 -3.7257650890114746 0.7203175244940212 0 0 0 0 -3.1431660762382307 -12.510798789991512 0 -12.510798789991512 -1.5660640223741211 0 0 0 0 -3.3258219812145029 -5.2504962843371947 0 -5.2504962843371947 1.0680851189009835 0 0 0 0 0.82361552651855163 -5.3519897125725038 0 -5.3519897125725038 -7.9350488163108821 0 0 0 0 -0.39936537229353775 -0.88243522991368728 0 -0.88243522991368728 2.6509553827050629 0 0 0 0 -1.7880923595221248 3.6273374407483061 0 3.6273374407483061 -0.44173210744475 0 0 0 0 -18.014466490130872 5.784366026011412 0 5.784366026011412 -0.5259737789092469 0 0 0 0 -0.05748840582719339 -0.28575068099311451 0 -0.28575068099311451 0.62718244850674609 0 0 0 0 0.68456180649809539 0.4884879211133466 0 0.4884879211133466 -0.17489628047349015 0 0 0 0 2.5512544304347848 -4.8554186900130336 0 -4.8554186900130336 -4.7691276722665172 0 0 0 0 1.6946660943013114 0.91047062484148888 0 0.91047062484148888 -2.9041556621441345 0 0 0 0 0.76549325292580761 -1.2241262515735798 0 -1.2241262515735798 -0.97419685294335068 0 0 0 0 -0.0833638275237778 0.12065857346387787 0 0.12065857346387787 -0.4306166041232613 0 0 0 0 1.7956043160374975 1.1952833309344442 0 1.1952833309344442 -1.2706783638677734 0 0 0 0 1.4734829977231669 0.6896877790978424 0 0.6896877790978424 -0.94619505899553558 0 0 0 0 -470.2060420246562 649.34700384379789 0 649.34700384379789 1395.0403729265568 0 0 0 0 -0.51597837592524343 1.3507364368192736 0 1.3507364368192736 -1.1749382952444738 0 0 0 0 0.4974587346368935 1.0278271717783127 0 1.0278271717783127 -0.85731844930319312 0 0 0 0 -1128.2635274279455 499.21748685900218 0 499.21748685900218 1361.324996737402 0 0 0 0 523.10488702898147 552.96772529507507 0 552.96772529507507 -615.69141821853282 0 0 0 0 227.25413308356656 -57.505000580036267 0 -57.505000580036267 -687.58760898004857 0 0 0 0 -1044.2943658532874 117.99485770001044 0 117.99485770001044 -273.89891170078045 0 0 0 0 264.02083724433032 303.53932251710194 0 303.53932251710194 -588.60436097309503 0 0 0 0 686.59440764127066 29.973952072001339 0 29.973952072001339 -527.33050411231216 0 0 0 0 635.086096928193 223.67534797652752 0 223.67534797652752 -366.26605767925685 0 0 0 0 606.83176217332948 329.23884717284818 0 329.23884717284818 -612.33232935428532 0 0 0 0 311.73408862753422 848.83514316097717 0 848.83514316097717 525.12903849491227 0 0 0 0 626.57563049974851 197.89605738409318 0 197.89605738409318 -359.30218348490052 0 0 0 0 230.21887005254393 469.04278232905745 0 469.04278232905745 -281.20050446126515 0 0 0 0 421.50303381899721 160.41379553461923 0 160.41379553461923 46.027904542121405 0 0 0 0 -37.781383542576805 -11.434197536261763 0 -11.434197536261763 -7.6112861222359243 0 0 0 0 -4.2558391466809553 49.737029717641008 0 49.737029717641008 -276.94531890854523 0 0 0 0 0.23125457135505201 0.48972931788744534 0 0.48972931788744534 -0.42476762645328237 0 0 0 0 0.14598849052075025 -0.12021824859563779 0 -0.12021824859563779 -0.15731379900171538 0 0 0 0 305.76008962397464 -12.98424866914138 0 -12.98424866914138 -311.59858498882386 0 0 0 0 -88.834495108254487 60.468891479465128 0 60.468891479465128 105.8800179693601 0 0 0 0 166.22493792731257 -40.464587528776065 0 -40.464587528776065 -198.49388217110572 0 0 0 0 -99.562850828107912 16.683096497734368 0 16.683096497734368 4.6251595114344184 0 0 0 0 14.575212904688669 -207.11099090285097 0 -207.11099090285097 -66.305501354858279 0 0 0 0 -81.212456434765045 86.954094571730593 0 86.954094571730593 167.9662219853999 0 0 0 0 94.768136948114261 -335.3975538059367 0 -335.3975538059367 474.62103593693064 0 0 0 0 -3.8820347032751137 -0.099541703640637635 0 -0.099541703640637635 -0.074676085166383244 0 0 0 0 58.276668089732993 33.15926199439491 0 33.15926199439491 -149.33083818290106 0 0 0 0 691.60693825373892 -312.43244197276363 0 -312.43244197276363 -89.51234925594963 0 0 0 0 -48.496355940049398 -225.77375680449586 0 -225.77375680449586 -817.4316894743788 0 0 0 0 -128.88081485361909 -61.766152136058736 0 -61.766152136058736 -1028.5390419680662 0 0 0 0 46.773413864284521 -64.662813723552972 0 -64.662813723552972 -688.75138529559626 0 0 0 0 -189.80995424595312 -677.99717936790876 0 -677.99717936790876 -507.65598735206368 0 0 0 0 14.242701547584147 -453.87839456470192 0 -453.87839456470192 -910.47747992615041 0 0 0 0 -416.11044779107033 -841.37585282500368 0 -841.37585282500368 -840.83104554823149 0 0 0 0 -246.27845407274435 -915.51291637759277 0 -915.51291637759277 -1244.5810346856301 0 0 0 0 -1011.9144104792504 -1660.8135354701426 0 -1660.8135354701426 -1944.6476033294966 0 0 0 0 -1068.3729479007015 -654.67048549256288 0 -654.67048549256288 -834.02481275481114 0 0 0 0 -1729.5590929444224 -947.95623338239238 0 -947.95623338239238 -523.64168384283403 0 0 0 0 -4283.5066429344297 -2748.9019609378774 0 -2748.9019609378774 -1751.2741367187227 0 0 0 0 -2463.9174870364086 -2073.0215719391726 0 -2073.0215719391726 773.55274439867208 0 0 0 0 -13.322351151058683 -186.11636564498804 0 -186.11636564498804 -2542.3763572366461 0 0 0 0 -1.5844412593678214 0.076437443824466378 0 0.076437443824466378 0.036860025620790271 0 0 0 0 -86.631472905864939 -1097.6379493769309 0 -1097.6379493769309 -4565.9396250152204 0 0 0 0 -0.068900695233647724 -0.053950419746933598 0 -0.053950419746933598 -0.030797586084472084 0 0 0 0 -107.583791421348 -312.32764822849185 0 -312.32764822849185 -498.6685674680889 0 0 0 0 150.90222898010688 627.57898389851698 0 627.57898389851698 2014.3069195564235 0 0 0 0 409.56433281193313 98.240966963345727 0 98.240966963345727 -99.420381381377865 0 0 0 0 -2447.7892968178876 -2559.1451245640365 0 -2559.1451245640365 -1760.0311604110866 0 0 0 0 -2069.2788110424299 408.55667359046492 0 408.55667359046492 176.64470029725271 0 0 0 0 692.09087574859586 -227.05159230893628 0 -227.05159230893628 -2157.6691114754758 0 0 0 0 -0.026021958856333072 -1.3476234551725916 0 -1.3476234551725916 -2.0046632783323624 0 0 0 0 -1445.5746269998781 -515.45866950025811 0 -515.45866950025811 -21.613010134249635 0 0 0 0 664.98800772911636 329.12793166657138 0 329.12793166657138 -700.35345702458835 0 0 0 0 695.70477274770383 -416.94558680237719 0 -416.94558680237719 32.814174646304309 0 0 0 0 0.15538263744492209 -3.4129343142725332 0 -3.4129343142725332 -4.7421197393930967 0 0 0 0 -26.396042779029813 -262.80226711232081 0 -262.80226711232081 281.15407648347332 0 0 0 0 -215.07763495243853 -171.65115129410196 0 -171.65115129410196 172.43813153181418 0 0 0 0 -42.545152958540712 20.797821871370388 0 20.797821871370388 50.57457475458375 0 0 0 0 -0.17269740949269874 -0.069533747885803798 0 -0.069533747885803798 -0.024350124194143008 0 0 0 0 -66.114759904041421 -22.476170474015248 0 -22.476170474015248 -89.102400798244616 0 0 0 0 146.86694185131637 -309.68927872798929 0 -309.68927872798929 -1308.8592027946888 0 0 0 0 -21.639686095746583 -972.09043438830281 0 -972.09043438830281 -1147.1769033155717 0 0 0 0 -134.91941523892456 -276.69135213430269 0 -276.69135213430269 -755.60220979241478 0 0 0 0 -535.62311226054589 -767.4124890309771 0 -767.4124890309771 -478.76547161126791 0 0 0 0 -494.45539155422011 -1245.1634387273193 0 -1245.1634387273193 -1327.1683740510139 0 0 0 0 -208.73707473662216 -1160.3195781064696 0 -1160.3195781064696 -1332.9260684920891 0 0 0 0 335.87203438556753 -1346.4736655877623 0 -1346.4736655877623 -2222.2394693494316 0 0 0 0 -817.33444777122349 -2166.7692347747316 0 -2166.7692347747316 -1466.1758494137243 0 0 0 0 -1003.4172403036209 -1492.3648552258644 0 -1492.3648552258644 -471.44597121009883 0 0 0 0 996.62476310183411 133.59610186417149 0 133.59610186417149 -2776.3907907711819 0 0 0 0 -144.4011003535561 -2252.906310198975 0 -2252.906310198975 -3930.7694096676551 0 0 0 0 -3518.3373593863216 -3055.9365454556505 0 -3055.9365454556505 -1503.3329504937656 0 0 0 0 -1029.706965335163 -898.43200459803927 0 -898.43200459803927 -4630.168543557651 0 0 0 0 -3085.2503646591795 91.834917853717798 0 91.834917853717798 -336.85345813535605 0 0 0 0 -2776.8179665224743 -3046.7704754568867 0 -3046.7704754568867 -1655.4053473315844 0 0 0 0 -295.60354640532751 -142.24845402916208 0 -142.24845402916208 -355.01196685023149 0 0 0 0 -163.66823892982211 -218.21762372801669 0 -218.21762372801669 -298.61856392728032 0 0 0 0 -429.74442666629329 600.87112079339681 0 600.87112079339681 921.63923694128789 0 0 0 0 284.91457877407083 -758.83301123618594 0 -758.83301123618594 2128.6321642345165 0 0 0 0 -935.7811601349531 -1815.9571059151381 0 -1815.9571059151381 -164.01465202112604 0 0 0 0 -0.028487237905117979 0.11115743296256042 0 0.11115743296256042 0.22911736597571364 0 0 0 0 -801.60351070261095 -556.03760722122206 0 -556.03760722122206 538.74384413335747 0 0 0 0 -406.90245842959848 -930.50417250057944 0 -930.50417250057944 -1046.1624951124118 0 0 0 0 -454.88237187816412 -1370.3475783899648 0 -1370.3475783899648 -519.84564925792802 0 0 0 0 -0.66110643843421713 2.29940653016547 0 2.29940653016547 -2.3601819539180724 0 0 0 0 -0.23395385701826399 0.66522360587152818 0 0.66522360587152818 -0.3558304281608371 0 0 0 0 0.10385101445717737 4.6280788480867159 0 4.6280788480867159 -0.42250854675967275 0 0 0 0 -0.55725229802192189 0.3880070978771073 0 0.3880070978771073 -1.1194271154519129 0 0 0 0 0.95523488719481975 -0.058014210583223758 0 -0.058014210583223758 -1.2508532257916158 0 0 0 0 0.29380791902076453 1.1470920998644942 0 1.1470920998644942 -1.0180749845203536 0 0 0 0 -2.9097876267624088 1.7197819197890567 0 1.7197819197890567 -1.0424432262132939 0 0 0 0 2.2900683824738479 0.15331011820012552 0 0.15331011820012552 -0.64138141340859478 0 0 0 0 7.8510668398084817 10.148608446586877 0 10.148608446586877 -48.258840058933856 0 0 0 0 -7.575303957273718 78.113296230547348 0 78.113296230547348 -8.4251660583540797 0 0 0 0 -6.0719446019502357 3.0125896558465683 0 3.0125896558465683 -232.61366184279905 0 0 0 0 1.2991547365555292 -0.096003228342935287 0 -0.096003228342935287 -0.27040115230407624 0 0 0 0 7.7832401118939742 0.42731906465905922 0 0.42731906465905922 -0.29421597583404946 0 0 0 0 -2.8041153958638461 3.1275755505263447 0 3.1275755505263447 1.8846786695303308 0 0 0 0 44.577174166537588 -84.844451113146533 0 -84.844451113146533 -122.2278919094706 0 0 0 0 0.77766964299371466 -47.915728354581688 0 -47.915728354581688 -137.46155235086189 0 0 0 0 3.9527494818321429 -77.804489183804435 0 -77.804489183804435 -22.332281268156294 0 0 0 0 16.20281340200745 -147.67298907952954 0 -147.67298907952954 -52.300580435578013 0 0 0 0 21.054538712720387 -31.60706784171407 0 -31.60706784171407 -53.86534362997736 0 0 0 0 4.2323674530198332 -29.619287246699969 0 -29.619287246699969 143.87380388079328 0 0 0 0 -112.45826267029042 -46.743271751788143 0 -46.743271751788143 341.00671895214145 0 0 0 0 14.029534339293605 141.01569390246857 0 141.01569390246857 316.86470974840995 0 0 0 0 32.864088221336715 523.35232102333248 0 523.35232102333248 739.57813669144161 0 0 0 0 11.987238087720471 -28.37408358558605 0 -28.37408358558605 23.896914228756941 0 0 0 0 -0.38502194224904862 -0.25213348422349569 0 -0.25213348422349569 0.21171096678815737 0 0 0 0 -9.5891235083108768 -6.2699655632313807 0 -6.2699655632313807 50.380161556384337 0 0 0 0 -122.86945716603077 -218.50338926563745 0 -218.50338926563745 58.193902884644558 0 0 0 0 26.738257514662109 -105.9846180734894 0 -105.9846180734894 -235.5975058636941 0 0 0 0 -15.043769493204309 -64.124961096208608 0 -64.124961096208608 -13.265290696366719 0 0 0 0 0.4385464382802482 -0.12991182997475637 0 -0.12991182997475637 -0.073319211387189553 0 0 0 0 -82.120917812775588 24.27118252378159 0 24.27118252378159 4.3985130200985623 0 0 0 0 19.025854620966129 3.3019000649310328 0 3.3019000649310328 -93.060055753460347 0 0 0 0 -43.974523491866421 -46.807049856008234 0 -46.807049856008234 3.5026155929424476 0 0 0 0 -31.503296581860923 6.7524915864937611 0 6.7524915864937611 -30.041861203389999 0 0 0 0 -21.359206492721569 -30.084837285144204 0 -30.084837285144204 56.02346900377259 0 0 0 0 26.126387663040077 -10.213282040430613 0 -10.213282040430613 -0.27045506993408708 0 0 0 0 19.523899971012725 -21.438501775718123 0 -21.438501775718123 -19.222376412527183 0 0 0 0 -637.08785587837338 -807.6246921070865 0 -807.6246921070865 -1574.6896154144629 0 0 0 0 -0.25005857388929087 0.31984961962807557 0 0.31984961962807557 -0.2012635123031096 0 0 0 0 6.5139181188860675 -5.6105099032046155 0 -5.6105099032046155 1.5146775580442409 0 0 0 0 -509.73864686384331 -1025.0620711650361 0 -1025.0620711650361 -1422.8179961020435 0 0 0 0 -342.8383783060126 -900.96342262409348 0 -900.96342262409348 -1333.8132388745469 0 0 0 0 -446.51556599047035 -1313.1401755467564 0 -1313.1401755467564 -1231.8023776710052 0 0 0 0 -400.7106959888697 -1193.8708973925045 0 -1193.8708973925045 -1651.1360153238165 0 0 0 0 -152.50072113663191 -395.20479417435854 0 -395.20479417435854 -1042.0741001230544 0 0 0 0 -658.4674757416069 -1160.9914722545011 0 -1160.9914722545011 -1334.2654604874924 0 0 0 0 0.15690911448124467 -0.76516053635216075 0 -0.76516053635216075 0.10154423313735909 0 0 0 0 -1198.5631648854469 -1276.7877831316637 0 -1276.7877831316637 -2539.4032747788615 0 0 0 0 -1340.999884995952 -1299.9908746243677 0 -1299.9908746243677 -1137.550423603597 0 0 0 0 -1189.5067723672237 -2069.067929767396 0 -2069.067929767396 -2001.7076657471707 0 0 0 0 -1193.737864826282 -1384.2484663681919 0 -1384.2484663681919 -2114.8955655804425 0 0 0 0 -0.10859140478559581 0.086285825109423619 0 0.086285825109423619 -0.073775111346289196 0 0 0 0 -58.600764774368145 46.42006666474731 0 46.42006666474731 -40.43710659134922 0 0 0 0 -165.09457220303011 89.778702551931929 0 89.778702551931929 -13.87401641163251 0 0 0 0 -1085.0720136920281 -1571.526872897351 0 -1571.526872897351 -2237.5015959187531 0 0 0 0 -919.30070918545243 -1128.4632103306494 0 -1128.4632103306494 -1281.5583533507261 0 0 0 0 -1877.0132384799363 -907.02463743156159 0 -907.02463743156159 -1292.2676103891049 0 0 0 0 -921.84487742916099 -723.20430820534602 0 -723.20430820534602 -860.42511186383035 0 0 0 0 -1137.7236228269467 -761.78108620602507 0 -761.78108620602507 -487.01752120192123 0 0 0 0 -1074.0949759201758 -1158.8270615924912 0 -1158.8270615924912 -723.39017755578607 0 0 0 0 0.003943499558744179 -0.065276600139078766 0 -0.065276600139078766 0.0028572946586631343 0 0 0 0 -702.45898049342213 -1167.7974760378183 0 -1167.7974760378183 -1211.7930955170718 0 0 0 0 -829.58900633113012 -1159.0847024752561 0 -1159.0847024752561 -1186.0102326570759 0 0 0 0 -701.2859227185254 -1197.8494996720456 0 -1197.8494996720456 -1382.2886037852022 0 0 0 0 -793.88628655238426 -1308.9921869850969 0 -1308.9921869850969 -1222.1652349776914 0 0 0 0 -1206.7811618328997 -1796.7209355732048 0 -1796.7209355732048 -1925.8916440562689 0 0 0 0 -238.39763425054844 -987.29217776528458 0 -987.29217776528458 -1818.5429369315952 0 0 0 0 86.215201121842256 -122.55470380075076 0 -122.55470380075076 -958.23294191246714 0 0 0 0 -254.40173536134535 -158.63005930781765 0 -158.63005930781765 -334.84711760433674 0 0 0 0 -144.94429920552648 -845.82193459886457 0 -845.82193459886457 -3220.9335384126298 0 0 0 0 -0.33365390095833902 -1.0556912177968041 0 -1.0556912177968041 0.029747853082416453 0 0 0 0 -1075.1037720203367 -834.81144937427075 0 -834.81144937427075 371.8325459137136 0 0 0 0 50.573068913945463 119.19671774028848 0 119.19671774028848 -164.16156634816957 0 0 0 0 -571.51658630029669 -129.78912698269454 0 -129.78912698269454 -229.10208166023676 0 0 0 0 126.52071331458865 193.79078470081913 0 193.79078470081913 -168.55017690120167 0 0 0 0 76.782491102028871 189.54288831062559 0 189.54288831062559 -49.462251505303357 0 0 0 0 172.10692663508235 155.81106328911028 0 155.81106328911028 -501.79256583989127 0 0 0 0 159.39134135341737 442.29000857368555 0 442.29000857368555 -222.6883061767503 0 0 0 0 295.97415059476043 -138.68094617071256 0 -138.68094617071256 -2.4672974246122976 0 0 0 0 305.59670333669055 -9.6823607309688668 0 -9.6823607309688668 -213.07466278221727 0 0 0 0 170.28420503069356 105.65710201457819 0 105.65710201457819 -36.243598009498783 0 0 0 0 154.1640250349883 -14.696653935122413 0 -14.696653935122413 -71.864761588310557 0 0 0 0 145.61967427557101 27.417578338765907 0 27.417578338765907 -26.667564873531774 0 0 0 0 49.585338497709017 11.374977360633693 0 11.374977360633693 14.872160429029805 0 0 0 0 123.70861335631344 13.711770526411328 0 13.711770526411328 14.684282720862939 0 0 0 0 47.458714170847088 147.7503520044329 0 147.7503520044329 13.024353028775295 0 0 0 0 48.766256105853245 71.826109455510732 0 71.826109455510732 92.253451483633398 0 0 0 0 5.1988546242937446 90.66323479611674 0 90.66323479611674 146.35863786279469 0 0 0 0 21.826578986132517 -5.7187386586138018 0 -5.7187386586138018 101.42281815861861 0 0 0 0 16.022449589188909 -2.7618467864033391 0 -2.7618467864033391 173.28306225508641 0 0 0 0 68.380696406587958 44.092619531474384 0 44.092619531474384 71.185045435857319 0 0 0 0 19.005510329036042 -17.049750681444493 0 -17.049750681444493 64.978103551062304 0 0 0 0 57.9126475166413 -40.077683396649718 0 -40.077683396649718 -56.142694417716939 0 0 0 0 24.467323634191416 -79.768675050417187 0 -79.768675050417187 14.592447365715486 0 0 0 0 99.819311976549216 -179.60576511065096 0 -179.60576511065096 -18.968483203409505 0 0 0 0 40.229593782190932 -14.82997689773174 0 -14.82997689773174 15.644870812884619 0 0 0 0 25.78216599219013 -42.488528286045039 0 -42.488528286045039 104.75637475350595 0 0 0 0 14.774091656319797 -68.18440230754004 0 -68.18440230754004 51.291839864387839 0 0 0 0 85.982322929805377 -172.08081774493161 0 -172.08081774493161 52.632050453896909 0 0 0 0 0.62703380147464927 -0.70582984595047193 0 -0.70582984595047193 0.25788661812528063 0 0 0 0 100.69039129928956 -76.884163281108442 0 -76.884163281108442 399.5591124672938 0 0 0 0 12.083097390888724 -0.98553062988253259 0 -0.98553062988253259 -25.328960200651181 0 0 0 0 44.87156348064309 -57.55179239152244 0 -57.55179239152244 6.9880633092082007 0 0 0 0 3.677385005808901 -24.390818240201497 0 -24.390818240201497 151.85469118905098 0 0 0 0 179.00165760028176 -135.06767304769767 0 -135.06767304769767 -153.82403153661926 0 0 0 0 -61.247079179971479 26.788722010602214 0 26.788722010602214 359.92461647283744 0 0 0 0 368.67603511631023 -553.82369134520127 0 -553.82369134520127 -194.34729190650296 0 0 0 0 1.071290974856371 -1.9882933283045947 0 -1.9882933283045947 0.4920291750185547 0 0 0 0 -1.5120421872707084 -29.275963341884562 0 -29.275963341884562 210.80827547562694 0 0 0 0 -51.208308814675547 135.42243032866463 0 135.42243032866463 321.01944644250125 0 0 0 0 1.7979805667127948 104.53726373040661 0 104.53726373040661 122.18139652052741 0 0 0 0 47.831254894088488 236.20246691277589 0 236.20246691277589 -46.279955537753267 0 0 0 0 48.61413665371947 163.67733624136599 0 163.67733624136599 157.43178324368273 0 0 0 0 -93.167066541092936 259.19416693569838 0 259.19416693569838 510.7443608543108 0 0 0 0 22.45106784964446 456.82646875996943 0 456.82646875996943 312.4802334572214 0 0 0 0 -60.692729190748651 198.60192076317253 0 198.60192076317253 175.61618854556218 0 0 0 0 26.555777748959372 278.50775542631982 0 278.50775542631982 -46.172610189936677 0 0 0 0 -8.2787461407715455 298.53951706526823 0 298.53951706526823 208.48304619678402 0 0 0 0 95.371721909672488 469.64939723935731 0 469.64939723935731 -25.385080018810186 0 0 0 0 -734.63686281291302 -39.849428195438634 0 -39.849428195438634 448.36871663751197 0 0 0 0 361.03500689507928 327.19376587512397 0 327.19376587512397 -230.33304635939089 0 0 0 0 826.2304228413559 99.90433085167831 0 99.90433085167831 -762.32281958791623 0 0 0 0 -1206.619129350016 -605.89595143751114 0 -605.89595143751114 27.672011750467163 0 0 0 0 -957.90857637990848 -1317.1163712573052 0 -1317.1163712573052 -1123.0519132144104 0 0 0 0 -224.18957430691808 64.043475713371436 0 64.043475713371436 -285.78046844679602 0 0 0 0 -456.60362571549194 -61.377577141130132 0 -61.377577141130132 -52.387393860252587 0 0 0 0 -238.5250610178191 41.868043482647977 0 41.868043482647977 -59.433693713428056 0 0 0 0 170.19250687229214 -67.136714249893203 0 -67.136714249893203 -372.34729549713711 0 0 0 0 84.108177981863264 -26.259517285076299 0 -26.259517285076299 -144.55878707060583 0 0 0 0 16.338676046347246 211.93567228244365 0 211.93567228244365 -257.95778972475273 0 0 0 0 73.119215075479588 -22.624106181528248 0 -22.624106181528248 -145.29852737084821 0 0 0 0 -60.858745821518824 68.250566519631775 0 68.250566519631775 -26.377780926174637 0 0 0 0 -64.938463350987149 45.995426778092963 0 45.995426778092963 -120.76366851077137 0 0 0 0 -13.895905581041006 -60.335007725451419 0 -60.335007725451419 -103.85060624313462 0 0 0 0 -132.1222423002182 147.48690860008128 0 147.48690860008128 4.2697922745177266 0 0 0 0 -193.0168718744535 86.556969387135496 0 86.556969387135496 81.93302715968764 0 0 0 0 -120.74621878087055 102.43411839631574 0 102.43411839631574 74.014574818382471 0 0 0 0 -0.09771008144173976 -0.02261047252569881 0 -0.02261047252569881 -0.0015100673353196092 0 0 0 0 8.4726831685402431 -14.994045704731434 0 -14.994045704731434 11.96491975495934 0 0 0 0 -130.71920662774937 -25.946773969091737 0 -25.946773969091737 11.310016938312458 0 0 0 0 23.30205930988086 -10.08364160553549 0 -10.08364160553549 0.18200756888109026 0 0 0 0 38.06201526656514 -45.832233718810585 0 -45.832233718810585 4.6167371921860649 0 0 0 0 22.638565243469202 1.3069938566320616 0 1.3069938566320616 24.510873941665523 0 0 0 0 16.028109718230553 -21.301611583267913 0 -21.301611583267913 38.842770725108494 0 0 0 0 26.224973254184079 -49.570093540483086 0 -49.570093540483086 26.237820979201388 0 0 0 0 90.209159402771547 -39.892104305963102 0 -39.892104305963102 22.710931508534486 0 0 0 0 84.763674059850018 25.284030218661044 0 25.284030218661044 69.096432169608306 0 0 0 0 19.545796805352438 -57.469489992418858 0 -57.469489992418858 45.877061026554657 0 0 0 0 19.075283899321221 39.884063144636912 0 39.884063144636912 61.326092727627668 0 0 0 0 -62.056803639767168 -7.5208888134467884 0 -7.5208888134467884 53.396076719885968 0 0 0 0 -93.874025242548669 92.646650390644254 0 92.646650390644254 -7.9605233449003663 0 0 0 0 -19.919690835027723 13.860094897022805 0 13.860094897022805 41.386946498285852 0 0 0 0 -115.06396460962424 51.582793961508742 0 51.582793961508742 13.486552618539008 0 0 0 0 -47.449160738615319 -1.7255415726222054 0 -1.7255415726222054 70.437193366316478 0 0 0 0 -47.46063301153481 0.36242082169496825 0 0.36242082169496825 46.877164275800624 0 0 0 0 -4.7235149845655542 -13.872457327897109 0 -13.872457327897109 9.291992230311962 0 0 0 0 -3.3225173241226003 -11.650471452639607 0 -11.650471452639607 -56.295793850724749 0 0 0 0 -33.926978834177135 -73.219871823597487 0 -73.219871823597487 13.622480030732277 0 0 0 0 -3.5907774609295302 -32.64658504701822 0 -32.64658504701822 44.110886678053703 0 0 0 0 -23.234569562617253 -86.47139101911813 0 -86.47139101911813 77.757666893639453 0 0 0 0 -138.05060587939806 -48.311231411098674 0 -48.311231411098674 77.153311519186445 0 0 0 0 -44.69447888160721 -29.120069113326053 0 -29.120069113326053 50.499971563916461 0 0 0 0 -45.318611149501521 -37.061078575447937 0 -37.061078575447937 55.646069431946898 0 0 0 0 28.010632277837431 -71.026112932653746 0 -71.026112932653746 35.355581328374683 0 0 0 0 15.738482722670597 -38.760971890193218 0 -38.760971890193218 12.260074822731895 0 0 0 0 -51.715234069299186 -5.7065509488068358 0 -5.7065509488068358 11.41103609673155 0 0 0 0 -79.921622728434158 -29.148365738228676 0 -29.148365738228676 23.14558022534527 0 0 0 0 -45.142689631873509 18.325307061723606 0 18.325307061723606 58.755645268117178 0 0 0 0 -44.101429254253162 18.37999744096669 0 18.37999744096669 41.580488853543784 0 0 0 0 -62.8148056490827 -49.310115889077565 0 -49.310115889077565 12.677858174038192 0 0 0 0 0.060302712747210663 -0.075351060167827555 0 -0.075351060167827555 0.019781714000375983 0 0 0 0 -6.7667884459806373 -2.5997350976119833 0 -2.5997350976119833 -24.070476986265476 0 0 0 0 -39.235845085146138 -82.659009805674259 0 -82.659009805674259 19.429521628901057 0 0 0 0 0.032449472104710608 -0.040421650514561591 0 -0.040421650514561591 0.0092953072799565328 0 0 0 0 -14.971877618736471 6.2154421768389057 0 6.2154421768389057 -15.052765999717622 0 0 0 0 -55.576127681350044 -27.217137633850143 0 -27.217137633850143 42.913327957492584 0 0 0 0 -14.314762644618895 -3.3025322327603135 0 -3.3025322327603135 -30.777510165135027 0 0 0 0 -66.019501320726704 -134.45977635785766 0 -134.45977635785766 54.90084769729242 0 0 0 0 2.5146915726262833 -11.780440022405694 0 -11.780440022405694 7.573782571745749 0 0 0 0 -82.955578746290485 19.548552192420061 0 19.548552192420061 11.713855653726569 0 0 0 0 0.093763093638699502 -44.063488671963569 0 -44.063488671963569 -18.563854137144517 0 0 0 0 -8.7030901845577304 -5.0815353887298844 0 -5.0815353887298844 5.9454623672426523 0 0 0 0 -22.01597599539673 -3.1665734228736255 0 -3.1665734228736255 4.0241108888440067 0 0 0 0 -15.929074604180641 -14.396004546622862 0 -14.396004546622862 -6.8659119121730328 0 0 0 0 25.664227865283465 35.792126408179683 0 35.792126408179683 -16.293858418762284 0 0 0 0 84.558380898903124 -109.22251985204093 0 -109.22251985204093 -185.57298906380765 0 0 0 0 -6.6136040230667348 -5.0309281171247076 0 -5.0309281171247076 6.2555820542769318 0 0 0 0 -15.146027618116932 0.3562419624568065 0 0.3562419624568065 -46.254740459029563 0 0 0 0 -1.7785546898376197 -41.069121468666708 0 -41.069121468666708 -24.025356632919284 0 0 0 0 73.089905675937189 -150.23643047196265 0 -150.23643047196265 -49.022748519071683 0 0 0 0 2.7861451454613189 -10.15712853114557 0 -10.15712853114557 4.5837251172241222 0 0 0 0 -28.065398523758631 -62.26087722489865 0 -62.26087722489865 73.994160498169549 0 0 0 0 -33.943565659988963 -32.962933165978598 0 -32.962933165978598 147.80769592948673 0 0 0 0 31.172860157312243 -86.241599961619613 0 -86.241599961619613 107.73781610048809 0 0 0 0 0.45320296903676294 0.56205124257645478 0 0.56205124257645478 -1.2835983753551155 0 0 0 0 127.35201643478649 -73.323979414834184 0 -73.323979414834184 11.444173759547084 0 0 0 0 -6.8544171063986141 -2.9083989151158676 0 -2.9083989151158676 123.99159771485211 0 0 0 0 -3.8721545671869535 -24.20796371076267 0 -24.20796371076267 106.07409183019445 0 0 0 0 17.536923867359292 -60.209770705127312 0 -60.209770705127312 18.004785905487097 0 0 0 0 46.859756624042348 -48.271037870671535 0 -48.271037870671535 6.0037711845739068 0 0 0 0 61.136246746587858 -77.571190626279645 0 -77.571190626279645 16.765520882325745 0 0 0 0 87.623923428080161 -57.570178505602144 0 -57.570178505602144 8.3642582575523647 0 0 0 0 48.59916988023906 -32.094663087723802 0 -32.094663087723802 -7.3790119717314155 0 0 0 0 48.808811803639401 -70.457659756679277 0 -70.457659756679277 37.180276073738696 0 0 0 0 8.2678097068856005 -36.06150399958733 0 -36.06150399958733 16.579227782855014 0 0 0 0 1.365558698281788 1.716552836446859 0 1.716552836446859 -3.8868070259116889 0 0 0 0 28.825523856037762 -28.412609436678622 0 -28.412609436678622 -5.1778067020859453 0 0 0 0 19.549577471014345 -23.178866487071218 0 -23.178866487071218 7.2491443372086906 0 0 0 0 1.985696032663709 -9.5650970173696699 0 -9.5650970173696699 -7.8936809411938071 0 0 0 0 97.005722191432142 21.958975835077581 0 21.958975835077581 -1.1711592525825836 0 0 0 0 10.042816273868084 -8.5959606662718215 0 -8.5959606662718215 -43.427359064921802 0 0 0 0 14.25021891616052 4.9145367417963826 0 4.9145367417963826 -72.775569343742973 0 0 0 0 7.5313030028482899 9.3798775742602629 0 9.3798775742602629 -10.103223456919068 0 0 0 0 5.408277984126471 -14.049707473372109 0 -14.049707473372109 -8.7238401427675853 0 0 0 0 54.406966611160897 39.559403087761893 0 39.559403087761893 37.794632375327637 0 0 0 0 5.8482701836419437 -5.1977702474780552 0 -5.1977702474780552 -4.8362790479039557 0 0 0 0 39.851260394309065 59.177488095825538 0 59.177488095825538 11.700466250782483 0 0 0 0 27.26227476188069 13.751044641474437 0 13.751044641474437 -13.101491778463242 0 0 0 0 82.456882238620892 41.769625683009508 0 41.769625683009508 -27.748715596208058 0 0 0 0 25.07138932714588 4.622943397040217 0 4.622943397040217 -4.1821272737124673 0 0 0 0 187.52647608955158 8.1323688408265298 0 8.1323688408265298 -69.475539853625378 0 0 0 0 1.4860652523064637 -7.7437167105223459 0 -7.7437167105223459 -7.4165072290956617 0 0 0 0 20.471484145782597 -30.472559936150674 0 -30.472559936150674 -163.91494813422469 0 0 0 0 111.26344625754427 -72.87446121320545 0 -72.87446121320545 -55.652241814910667 0 0 0 0 -71.924945436010603 -36.757866164203733 0 -36.757866164203733 -3.6444644789262384 0 0 0 0 -477.03765131710679 -82.533995079211309 0 -82.533995079211309 79.278477482905146 0 0 0 0 0.99020549589576756 -6.2435979745178685 0 -6.2435979745178685 -6.7518008001100807 0 0 0 0 83.04723884203122 -84.630860220594059 0 -84.630860220594059 46.049807539114227 0 0 0 0 77.449748415776412 -59.040541478201249 0 -59.040541478201249 10.964396386938461 0 0 0 0 176.21377255683547 -83.777348787701044 0 -83.777348787701044 12.829068782724789 0 0 0 0 79.183852140064118 -77.927092948912104 0 -77.927092948912104 12.068254257330409 0 0 0 0 76.552798446151428 -72.002379035300692 0 -72.002379035300692 31.117427686732185 0 0 0 0 143.5227217527281 -66.637787291267387 0 -66.637787291267387 35.988233765177426 0 0 0 0 23.015623808387318 -88.883394803437398 0 -88.883394803437398 141.42599292849718 0 0 0 0 418.98995464717154 -117.57760241038545 0 -117.57760241038545 73.301756040632426 0 0 0 0 -786.66443058570439 112.33234357387664 0 112.33234357387664 303.70207163010855 0 0 0 0 137.59141083314171 -44.41139366437892 0 -44.41139366437892 -7.6887336394283921 0 0 0 0 0.53372541840760679 -4.873560409646208 0 -4.873560409646208 -5.9104676113991639 0 0 0 0 265.20943712975713 -170.80148467835204 0 -170.80148467835204 73.283833770426554 0 0 0 0 -1056.313674825622 -534.31375074087555 0 -534.31375074087555 150.48626252143367 0 0 0 0 -1035.6413735968308 -650.6761312902554 0 -650.6761312902554 -114.44146324698522 0 0 0 0 -878.73158505756874 -622.29567296119058 0 -622.29567296119058 -467.91345371431726 0 0 0 0 -868.80187400738214 -465.70251304936937 0 -465.70251304936937 -145.3505696308639 0 0 0 0 -538.46151940556592 -733.07745324930329 0 -733.07745324930329 114.30829269438982 0 0 0 0 -541.12106813556602 -664.38442315314205 0 -664.38442315314205 -425.17120616310422 0 0 0 0 -570.78570349950314 -1043.5905639410821 0 -1043.5905639410821 -586.04783450468676 0 0 0 0 -292.01203728350811 -691.85357352610663 0 -691.85357352610663 -498.74569311788218 0 0 0 0 0.58339500322168547 -0.010882239225616708 0 -0.010882239225616708 -0.46230885411751466 0 0 0 0 -383.40378129637975 -695.84608122265126 0 -695.84608122265126 -708.6140737993519 0 0 0 0 -439.41673506523875 -567.20038757998736 0 -567.20038757998736 -575.72410957753891 0 0 0 0 -288.70105992384197 -260.91291050914151 0 -260.91291050914151 -423.03650825220939 0 0 0 0 -113.26309740285797 -184.14663916571953 0 -184.14663916571953 -292.0735700043806 0 0 0 0 -377.52732894620362 -497.18044512976144 0 -497.18044512976144 -81.277321263303747 0 0 0 0 -368.16468725676532 -387.10825661526542 0 -387.10825661526542 76.907857364881238 0 0 0 0 -298.55349850901985 -312.64370651207901 0 -312.64370651207901 -281.4275294018662 0 0 0 0 -171.95618176979769 -135.93795383787256 0 -135.93795383787256 -41.90992869274487 0 0 0 0 -48.744968874925689 -58.895480557359406 0 -58.895480557359406 -251.16753732665529 0 0 0 0 -94.287845145932806 -72.727635519928299 0 -72.727635519928299 -67.132713834915194 0 0 0 0 -30.340859928139253 48.881288255368418 0 48.881288255368418 -34.382043788784358 0 0 0 0 48.916707441647304 43.029234377980174 0 43.029234377980174 -61.373167693192499 0 0 0 0 -49.012400521940435 54.297878841249258 0 54.297878841249258 187.60587646981003 0 0 0 0 5.0308525058721933 -4.2720172811613768 0 -4.2720172811613768 -4.0148057978897214 0 0 0 0 -2.851630367746111 97.75216100340549 0 97.75216100340549 134.70649105958728 0 0 0 0 44.191066286584828 -13.63063709085327 0 -13.63063709085327 -88.145409013675817 0 0 0 0 -86.811126591608627 19.269535696115781 0 19.269535696115781 -81.886875657684868 0 0 0 0 -71.228681392971339 -187.77428506262549 0 -187.77428506262549 -210.43026817400823 0 0 0 0 -116.05032154704895 -354.18377749432602 0 -354.18377749432602 -525.28057861948037 0 0 0 0 -212.73081088162144 -176.40817309840349 0 -176.40817309840349 -195.20363081033247 0 0 0 0 -367.6461802138947 -365.99181987815609 0 -365.99181987815609 -454.6539456720202 0 0 0 0 1.1938176414187964 0.05486751196528683 0 0.05486751196528683 -1.0817003794431814 0 0 0 0 -429.98071299161165 -518.17884945021342 0 -518.17884945021342 -490.68182006659481 0 0 0 0 -745.57993362031993 -539.54114150889291 0 -539.54114150889291 -490.14378361949639 0 0 0 0 -108.1285674596329 -435.9856758590895 0 -435.9856758590895 -816.39704448996054 0 0 0 0 -39.073197252844693 -102.32505541578939 0 -102.32505541578939 -345.62515436976901 0 0 0 0 209.39093101819162 84.24948138837135 0 84.24948138837135 -307.96586908519021 0 0 0 0 0.25750492551094384 -0.53439127678823972 0 -0.53439127678823972 -0.48041218542998543 0 0 0 0 -50.29698696466221 -117.54462518253422 0 -117.54462518253422 10.296002036411664 0 0 0 0 -23.617632292254712 37.417486282483878 0 37.417486282483878 -51.494153357223695 0 0 0 0 8.8610743350873236 -437.59291604570899 0 -437.59291604570899 -594.12374833151989 0 0 0 0 -230.20046506353538 -454.1301830596276 0 -454.1301830596276 -395.93446615903667 0 0 0 0 -535.35952642717166 -195.43874047652207 0 -195.43874047652207 11.081348787505704 0 0 0 0 -236.85966487441328 -476.2376652784078 0 -476.2376652784078 -465.89235957943401 0 0 0 0 -590.34264654063736 -820.7850222624329 0 -820.7850222624329 -900.59793968126178 0 0 0 0 -268.47351039134082 -374.74787960207686 0 -374.74787960207686 -724.40498008571251 0 0 0 0 -418.29892556773848 -478.72065927728545 0 -478.72065927728545 -464.58841721695171 0 0 0 0 -1183.8204963400349 -667.28410723315483 0 -667.28410723315483 -327.32139332426596 0 0 0 0 -164.00658457657846 -593.95883047175812 0 -593.95883047175812 -720.59296725975582 0 0 0 0 0.1522731356624521 -386.48667404431541 0 -386.48667404431541 -625.0543548585847 0 0 0 0 -8.7872738501719141 -420.1811824765955 0 -420.1811824765955 -750.84996192303515 0 0 0 0 -0.20461413208977319 -403.49331519628686 0 -403.49331519628686 -767.91918938339222 0 0 0 0 0.53630889624449196 0.06136001387870671 0 0.06136001387870671 -0.54145130323832724 0 0 0 0 -196.04605068790261 -446.96791079973627 0 -446.96791079973627 -1127.8889808512613 0 0 0 0 -319.64189742317831 -661.00648119964899 0 -661.00648119964899 -805.26801044082458 0 0 0 0 -241.2157516546431 -474.28977091168781 0 -474.28977091168781 -748.9034765253673 0 0 0 0 0.051551083131926134 -524.06742795454375 0 -524.06742795454375 -740.7189102909324 0 0 0 0 -209.56673391436925 -554.10780255979626 0 -554.10780255979626 -530.57293803966513 0 0 0 0 -423.05678812979022 -713.0310548730813 0 -713.0310548730813 -617.38815515677561 0 0 0 0 -201.30091915251978 -527.4778907341788 0 -527.4778907341788 -758.52727520316694 0 0 0 0 -456.99670611938927 -573.08201825742799 0 -573.08201825742799 -477.11071908591475 0 0 0 0 1.2498723239468497 -0.01483916678652708 0 -0.01483916678652708 -1.0106671675751429 0 0 0 0 -236.05128431537014 -585.33780709214625 0 -585.33780709214625 -499.41582123146691 0 0 0 0 -159.96416926469828 -458.97577031177934 0 -458.97577031177934 -414.29172176467364 0 0 0 0 -333.08365464613235 -494.82200279337326 0 -494.82200279337326 -303.8716628937691 0 0 0 0 -207.82746320472506 -370.56895845262807 0 -370.56895845262807 -243.49250390260931 0 0 0 0 -209.75228499452351 -351.79562777719366 0 -351.79562777719366 459.00582712790492 0 0 0 0 -0.35577164395678679 -666.41607292793651 0 -666.41607292793651 -317.01744779316505 0 0 0 0 -45.42152549669845 -554.46376386542761 0 -554.46376386542761 -531.71401058340052 0 0 0 0 -265.80425471561102 -554.03734180418996 0 -554.03734180418996 -127.97839315822785 0 0 0 0 899.80462141685712 -1987.0371179953509 0 -1987.0371179953509 3090.1333774934319 0 0 0 0 578.93871838841005 -2306.6880531967909 0 -2306.6880531967909 2772.4243937368592 0 0 0 0 0.99073820839112159 -2389.2777879783607 0 -2389.2777879783607 3325.7406734206816 0 0 0 0 186.62384941331402 -2392.089327044152 0 -2392.089327044152 2773.8074919282299 0 0 0 0 0.23350329911045264 -2725.1969721564237 0 -2725.1969721564237 2296.736955509914 0 0 0 0 459.00101494582486 -3056.0959658076899 0 -3056.0959658076899 2311.4631621036679 0 0 0 0 666.84391098408378 -2847.3364625207323 0 -2847.3364625207323 2519.7656028890233 0 0 0 0 761.59542717487784 -3220.3986462614339 0 -3220.3986462614339 2161.5437810089934 0 0 0 0 807.71370785738691 -2646.5454284575026 0 -2646.5454284575026 2178.0331568909714 0 0 0 0 1057.6154978744817 -2997.2517106757186 0 -2997.2517106757186 2321.2141238529584 0 0 0 0 1182.9338013189554 -2753.1223594752228 0 -2753.1223594752228 2448.2754519873015 0 0 0 0 789.5670770341676 -2238.6139176671459 0 -2238.6139176671459 2850.290224686396 0 0 0 0 836.27937988415943 -2802.9309713470957 0 -2802.9309713470957 2843.0523892756755 0 0 0 0 995.70204144672607 -2567.7901515634003 0 -2567.7901515634003 1960.7655656915158 0 0 0 0 237.36715605329664 -1840.5880104389435 0 -1840.5880104389435 2279.4200036634138 0 0 0 0 642.69861463087727 -2351.0337842774825 0 -2351.0337842774825 2921.4223112883046 0 0 0 0 -534.52532319480088 -935.10931299239746 0 -935.10931299239746 3029.4522052826906 0 0 0 0 258.96071274357382 -763.16778887859255 0 -763.16778887859255 1532.6010021344118 0 0 0 0 1533.3439466356067 -2900.0910439444342 0 -2900.0910439444342 3433.036142992125 0 0 0 0 45.008106249559205 -1933.6853961226589 0 -1933.6853961226589 4716.8614436231364 0 0 0 0 1904.4110512887164 -1135.9485718560531 0 -1135.9485718560531 3853.0049100758697 0 0 0 0 271.52729117211129 -2120.4161925108274 0 -2120.4161925108274 3591.3648906617382 0 0 0 0 -0.48138831411779393 -1541.2199844143215 0 -1541.2199844143215 5054.8542862239701 0 0 0 0 800.96657083215541 -2605.4611490161697 0 -2605.4611490161697 4096.4792788630875 0 0 0 0 3097.156513835982 -1823.3091968295703 0 -1823.3091968295703 469.16663138580043 0 0 0 0 0.027860902563165979 -0.86033536519500053 0 -0.86033536519500053 1.6387308042964932 0 0 0 0 158.21237590233795 112.73513427744911 0 112.73513427744911 756.84016057055123 0 0 0 0 1.1501851118082413 -952.66702480630556 0 -952.66702480630556 1456.7214496340966 0 0 0 0 -112.29965085227741 -222.74199171773944 0 -222.74199171773944 -259.40178511567501 0 0 0 0 550.52440437083715 -940.43675820279896 0 -940.43675820279896 817.59850130375708 0 0 0 0 0.08431096502131652 -0.19989451503878009 0 -0.19989451503878009 -1.6854580762890601 0 0 0 0 0.018658306708077443 -2.3775434464463654 0 -2.3775434464463654 4.0822329486652258 0 0 0 0 -123.96964409158045 -80.699695918319549 0 -80.699695918319549 -58.764199441182427 0 0 0 0 163.50013540107466 -123.38825856689073 0 -123.38825856689073 88.166657056615804 0 0 0 0 -0.040400184232190384 -0.41856974778805123 0 -0.41856974778805123 -1.589781125746685 0 0 0 0 -161.11875416750263 -154.0637812441455 0 -154.0637812441455 -162.92763314416516 0 0 0 0 -0.42934150608391569 -285.06352442428516 0 -285.06352442428516 -292.11319997913961 0 0 0 0 0.73533560320009528 -1.309302449490696 0 -1.309302449490696 -1.2567911700403958 0 0 0 0 39.262993858515983 -48.611703189777472 0 -48.611703189777472 63.086428066366352 0 0 0 0 -462.67404811618871 -188.53665615720638 0 -188.53665615720638 154.39168367767707 0 0 0 0 2.3437599736685932 -2.5312171863994752 0 -2.5312171863994752 -2.1776059472633555 0 0 0 0 187.90350762949674 -338.24050248751155 0 -338.24050248751155 -377.04205738235032 0 0 0 0 -128.15168906359031 57.929899550286791 0 57.929899550286791 -142.20589454298897 0 0 0 0 308.49000632711432 273.58528969061729 0 273.58528969061729 654.03747329568432 0 0 0 0 298.50281839592208 -447.91427912626386 0 -447.91427912626386 235.2950338888113 0 0 0 0 -582.08805151059823 1079.8133818624447 0 1079.8133818624447 2799.5943656061427 0 0 0 0 130.18008829955943 -356.84937034178438 0 -356.84937034178438 1667.2535866408361 0 0 0 0 390.86151713566505 -682.45002010081953 0 -682.45002010081953 1261.3181717746847 0 0 0 0 107.34173782158177 -99.830356645950815 0 -99.830356645950815 830.22876250445552 0 0 0 0 338.33875702714431 -369.23381297698506 0 -369.23381297698506 645.78672753956926 0 0 0 0 286.15057936689118 -315.67809304748516 0 -315.67809304748516 784.18753540015314 0 0 0 0 141.4891843762307 -8.8810241380379011 0 -8.8810241380379011 515.62290367350215 0 0 0 0 237.50736939975468 135.14843080269202 0 135.14843080269202 -119.3424760507769 0 0 0 0 195.4926116616698 -113.81598669146479 0 -113.81598669146479 228.91799138421266 0 0 0 0 86.630157016159501 108.19484745763475 0 108.19484745763475 202.52030122085125 0 0 0 0 95.700053416250739 105.91869082462654 0 105.91869082462654 342.68026908170577 0 0 0 0 301.40316529665142 -227.09321712854216 0 -227.09321712854216 459.95548417347891 0 0 0 0 381.49534439225681 -208.08842629515857 0 -208.08842629515857 -17.770854997506831 0 0 0 0 90.66941184058669 39.537726378679508 0 39.537726378679508 -170.72065877746354 0 0 0 0 -58.515904152955045 77.626653420738876 0 77.626653420738876 -176.41050991372322 0 0 0 0 3.3426546558269692 -3.0509339298409279 0 -3.0509339298409279 -2.6756890222844856 0 0 0 0 -98.295637629576959 -8.9255459708765557 0 -8.9255459708765557 248.80254000946297 0 0 0 0 242.10413985137711 -159.00867953723355 0 -159.00867953723355 -552.0271670107395 0 0 0 0 -10.129222340816341 49.237540050546158 0 49.237540050546158 -62.398660386446863 0 0 0 0 -74.753345283999806 -4.5976534899164108 0 -4.5976534899164108 -16.0208822528366 0 0 0 0 4.1981632024895177 -3.5826178884034836 0 -3.5826178884034836 -3.2960279003493405 0 0 0 0 -24.882223998385598 99.42238807148351 0 99.42238807148351 -196.35150212436565 0 0 0 0 49.563457575801294 93.682343943000888 0 93.682343943000888 -262.64782317112258 0 0 0 0 73.018618648755364 187.60009232937591 0 187.60009232937591 -135.59739105965127 0 0 0 0 -13.034224392817123 175.95735743177647 0 175.95735743177647 -82.74208796970197 0 0 0 0 -26.877909285278292 220.48933312868758 0 220.48933312868758 -148.17905083327787 0 0 0 0 -360.22615840373328 121.14579837510246 0 121.14579837510246 -46.765231665471219 0 0 0 0 -207.82570892237709 141.06216566432704 0 141.06216566432704 -95.100226025111624 0 0 0 0 -151.16675196414872 14.316699621464068 0 14.316699621464068 -18.205254053755198 0 0 0 0 -120.20145152765326 54.30704044913 0 54.30704044913 -31.112255974992877 0 0 0 0 -227.71796784680919 345.76728784032457 0 345.76728784032457 -440.25006651075091 0 0 0 0 -321.89001293608453 -141.55196166460519 0 -141.55196166460519 -236.87190898807603 0 0 0 0 -412.81702418184432 124.48123622829735 0 124.48123622829735 142.37238803954097 0 0 0 0 -147.29582092617056 111.9282433365006 0 111.9282433365006 129.29577829380287 0 0 0 0 -214.07885211380199 -12.56429572799243 0 -12.56429572799243 189.70245119441824 0 0 0 0 -84.179492903116625 273.58545872391551 0 273.58545872391551 65.49162072641775 0 0 0 0 -223.27901330700843 293.6581772142672 0 293.6581772142672 139.02828181019868 0 0 0 0 -307.87104496906977 115.4679524161038 0 115.4679524161038 136.43410499641323 0 0 0 0 133.88152073964011 138.97243154355965 0 138.97243154355965 -132.23038630750671 0 0 0 0 -151.69953992537921 175.33991275072185 0 175.33991275072185 -59.246419033268467 0 0 0 0 31.559608354698867 61.350493022764567 0 61.350493022764567 -268.02480157933314 0 0 0 0 19.860500585797126 28.200550100491455 0 28.200550100491455 129.09527729047113 0 0 0 0 144.95668164209928 58.063128915906418 0 58.063128915906418 125.40892545446695 0 0 0 0 -8.1462775424183747 101.87015665581634 0 101.87015665581634 252.64125625556335 0 0 0 0 -3.2232563890866004 -105.30960685564787 0 -105.30960685564787 387.96614069206407 0 0 0 0 47.503050240396988 -21.18461472580384 0 -21.18461472580384 436.93218097407953 0 0 0 0 123.52908271734486 -170.8255527570218 0 -170.8255527570218 605.27787417033687 0 0 0 0 228.66001032665372 -138.489716465323 0 -138.489716465323 360.13999193757627 0 0 0 0 -200.2978515830473 228.55294712922478 0 228.55294712922478 229.99522972863633 0 0 0 0 -50.093703720311169 133.45893423397501 0 133.45893423397501 244.19695705713821 0 0 0 0 -89.26787722017616 223.48093434658949 0 223.48093434658949 168.15732053219108 0 0 0 0 -104.84846888441825 190.24768372357357 0 190.24768372357357 157.89546072974917 0 0 0 0 89.339735452143941 -43.038322575797793 0 -43.038322575797793 312.98087124127051 0 0 0 0 -129.1977015058219 119.4118715281511 0 119.4118715281511 324.69701952883042 0 0 0 0 -33.162233423383441 33.739394097181503 0 33.739394097181503 376.9708198113367 0 0 0 0 69.16402518589166 -26.274735330138355 0 -26.274735330138355 393.22286275133956 0 0 0 0 118.77879116137046 -8.3166938228096114 0 -8.3166938228096114 320.94570059204261 0 0 0 0 234.4951011488447 -17.256048806011677 0 -17.256048806011677 257.62345525904675 0 0 0 0 362.52768066656427 -223.25887250763481 0 -223.25887250763481 398.02448208114947 0 0 0 0 103.83453159838245 -101.39003909003713 0 -101.39003909003713 375.20891585477511 0 0 0 0 704.45904858928407 -198.67007593068411 0 -198.67007593068411 97.492153634048009 0 0 0 0 655.75476955328486 -563.25475144248048 0 -563.25475144248048 484.67046653898433 0 0 0 0 735.51908727776026 -513.15370583613549 0 -513.15370583613549 371.85616779621341 0 0 0 0 249.1435258082347 -297.49729050075985 0 -297.49729050075985 603.31700323607947 0 0 0 0 218.81835080491146 -213.43015920510516 0 -213.43015920510516 486.1708072215115 0 0 0 0 502.99022621745826 -467.61270874079491 0 -467.61270874079491 618.83877061200928 0 0 0 0 283.82547272928059 -174.3415973552037 0 -174.3415973552037 494.51170379068935 0 0 0 0 261.45897438476095 -525.78081304133229 0 -525.78081304133229 1075.0448318496638 0 0 0 0 880.24948130533448 -962.53230502590304 0 -962.53230502590304 855.71374543714774 0 0 0 0 726.35285092829145 -1600.1026462378359 0 -1600.1026462378359 1838.2380166910771 0 0 0 0 189.12943831946177 -675.71829817355319 0 -675.71829817355319 1463.8623579754494 0 0 0 0 559.70953174601891 -1190.0828874243671 0 -1190.0828874243671 1000.951118189143 0 0 0 0 1210.3162714406935 -1834.7972094103679 0 -1834.7972094103679 1468.6085367741034 0 0 0 0 1562.7765627556946 -1185.4544404135959 0 -1185.4544404135959 397.74797434223001 0 0 0 0 586.10936417866469 -804.2679641713039 0 -804.2679641713039 846.93605316075264 0 0 0 0 1349.9557381834311 -2131.5642374196032 0 -2131.5642374196032 1008.4380425921408 0 0 0 0 1053.4236835602333 -2942.5202536340021 0 -2942.5202536340021 1662.6855638446577 0 0 0 0 1212.641114297192 -2655.1854289978364 0 -2655.1854289978364 1952.5437797030754 0 0 0 0 1693.8451970306924 -3335.9527937336898 0 -3335.9527937336898 1899.3488473008983 0 0 0 0 1939.8258019532368 -2839.7236751475575 0 -2839.7236751475575 1161.6180242318223 0 0 0 0 1844.7015031783303 -1869.4713406806077 0 -1869.4713406806077 387.62787423626287 0 0 0 0 2157.9178521634894 -3175.9408404605056 0 -3175.9408404605056 1656.8843401056947 0 0 0 0 2144.9815768220578 -2657.0129958163452 0 -2657.0129958163452 1304.3475030879927 0 0 0 0 3351.8776247849164 -2727.922355750823 0 -2727.922355750823 389.51552003588029 0 0 0 0 932.31097853093524 221.71040741426623 0 221.71040741426623 -436.57930456046597 0 0 0 0 3961.3400814718043 -1102.9114681555002 0 -1102.9114681555002 -731.64184622954599 0 0 0 0 -437.40345794793393 -437.5929313523302 0 -437.5929313523302 179.18348806461472 0 0 0 0 215.79680535334046 100.24698699744476 0 100.24698699744476 125.87575658022251 0 0 0 0 2603.2209413200908 -1506.7860955125725 0 -1506.7860955125725 235.40811363179819 0 0 0 0 1135.5725732578867 -709.92557647101785 0 -709.92557647101785 3.4001240141078597 0 0 0 0 -291.2758671240008 -116.26021019153995 0 -116.26021019153995 -244.20626798982266 0 0 0 0 -276.59192798456934 -773.35061391376075 0 -773.35061391376075 -583.25064004044543 0 0 0 0 0.76782075824418428 -1.4857208053255269 0 -1.4857208053255269 0.82622640344123788 0 0 0 0 -136.67722747134394 170.41045862214378 0 170.41045862214378 -150.17333767437958 0 0 0 0 -17.846332515931863 -16.447898683360108 0 -16.447898683360108 -2.7033652014652034 0 0 0 0 1.1004169136722339 -9.6198204017346143 0 -9.6198204017346143 -6.7995430696901167 0 0 0 0 -13.630021105025662 -9.7560906790859008 0 -9.7560906790859008 3.5826918072416447 0 0 0 0 6.664872366795298 -2.5006303197570006 0 -2.5006303197570006 -1.7665834297435445 0 0 0 0 23.751078095388948 -2.0000570589472773 0 -2.0000570589472773 -8.0313211458897058 0 0 0 0 5.7706699132587405 -2.2078368987774724 0 -2.2078368987774724 -1.6500443339336073 0 0 0 0 23.346028440093505 9.8092032862823544 0 9.8092032862823544 0.60502273458405398 0 0 0 0 -8.5994114519417053 -4.1496345835985267 0 -4.1496345835985267 6.9332228476851014 0 0 0 0 -0.36401259510759232 -1.9941873715727976 0 -1.9941873715727976 1.5468709260328062 0 0 0 0 -349.33424705962534 -370.6812440503345 0 -370.6812440503345 -289.24117400139221 0 0 0 0 -414.63135647546733 -351.10374102501373 0 -351.10374102501373 -194.36939909550711 0 0 0 0 -431.71931712934747 -274.7466734177724 0 -274.7466734177724 -245.00101218048076 0 0 0 0 -294.9375633045729 -151.73429193545098 0 -151.73429193545098 -103.39239867840661 0 0 0 0 2.3245181099859913 0.69403012667579045 0 0.69403012667579045 -1.7908149681855647 0 0 0 0 8.5047317817998191 -30.205898079951339 0 -30.205898079951339 -253.96627655578777 0 0 0 0 52.407759634283138 14.833927624997159 0 14.833927624997159 -1.455601865745848 0 0 0 0 0.17775387445228541 -0.14660135857616297 0 -0.14660135857616297 -0.047169896590880001 0 0 0 0 -132.06097981275525 -224.61202259402489 0 -224.61202259402489 -212.36347882461268 0 0 0 0 -317.05481642870291 -182.15290751480643 0 -182.15290751480643 -79.633491334243445 0 0 0 0 -156.07613838440739 -131.60991707985522 0 -131.60991707985522 -65.995809006111813 0 0 0 0 -279.88810302267666 -161.43585081101628 0 -161.43585081101628 -97.788883091314347 0 0 0 0 -285.89529753947863 -273.62798236268281 0 -273.62798236268281 -320.78438399048173 0 0 0 0 -256.6770778272039 -54.622880756596714 0 -54.622880756596714 -175.27153655941947 0 0 0 0 -268.87721909768879 -134.2567758809746 0 -134.2567758809746 -41.320473362720804 0 0 0 0 -241.04703942366177 -14.971458669970161 0 -14.971458669970161 3.305120297751273 0 0 0 0 -211.57550993707082 -47.571410986889532 0 -47.571410986889532 35.938646597991465 0 0 0 0 -217.41277073543824 33.503516407845382 0 33.503516407845382 108.04703180087381 0 0 0 0 -207.88166581717087 65.512323634553468 0 65.512323634553468 188.00321083566814 0 0 0 0 -195.33919382523163 -8.0106020765961148 0 -8.0106020765961148 27.376612037624 0 0 0 0 -277.80070378747769 -48.943904277111869 0 -48.943904277111869 105.49693234417646 0 0 0 0 -454.5305501300063 -183.45815682866487 0 -183.45815682866487 -51.783845491794636 0 0 0 0 -294.08253770740703 -209.77800931841193 0 -209.77800931841193 -105.47466292729951 0 0 0 0 -249.15167929424206 -104.8088808784596 0 -104.8088808784596 341.6485822100658 0 0 0 0 -226.91594726778567 -214.69630416858126 0 -214.69630416858126 -131.08919655498175 0 0 0 0 -308.52459865594574 -101.42244887607285 0 -101.42244887607285 232.58858727218467 0 0 0 0 91.884814383029152 -10.513375090601585 0 -10.513375090601585 118.06820257773506 0 0 0 0 -153.80657217570115 63.250499106608913 0 63.250499106608913 283.75695265343529 0 0 0 0 -151.15331758436514 23.374310531944502 0 23.374310531944502 87.204310113636893 0 0 0 0 -28.860689529931733 106.22407532755187 0 106.22407532755187 192.52047252008924 0 0 0 0 -86.765051807742566 210.41685005728505 0 210.41685005728505 189.25841966950975 0 0 0 0 -120.80683834513184 133.06923163503234 0 133.06923163503234 249.6455720965605 0 0 0 0 -117.64890933858987 110.95004644947312 0 110.95004644947312 121.60866950114723 0 0 0 0 -83.522387786535546 174.06480329988699 0 174.06480329988699 131.2691232811776 0 0 0 0 -68.347068100410979 161.239903460606 0 161.239903460606 132.94926153635606 0 0 0 0 -33.004645191482268 187.79788748014835 0 187.79788748014835 130.61826716152063 0 0 0 0 -59.778712782543153 225.05372919054935 0 225.05372919054935 156.02921080653323 0 0 0 0 -76.78818575074547 194.64725037906828 0 194.64725037906828 166.0682658299047 0 0 0 0 -72.295755595041555 250.34649204123707 0 250.34649204123707 114.73178410826949 0 0 0 0 -128.59770724421833 69.487260441615945 0 69.487260441615945 91.672305127554864 0 0 0 0 -179.16801301258965 25.483702496698243 0 25.483702496698243 105.3258774660062 0 0 0 0 -156.08635875846085 80.963430465322745 0 80.963430465322745 124.9036800879112 0 0 0 0 -117.23455205588834 138.33611195054254 0 138.33611195054254 149.05914318253053 0 0 0 0 -62.017565793124959 104.16193252758239 0 104.16193252758239 112.9225495418068 0 0 0 0 -94.450238753808662 137.00567744809086 0 137.00567744809086 120.90462812036276 0 0 0 0 -112.41628929591388 81.26239405326487 0 81.26239405326487 123.02168684575008 0 0 0 0 -83.850344351638341 51.001478383004724 0 51.001478383004724 104.23342718975618 0 0 0 0 -59.54298785753781 66.476949819989386 0 66.476949819989386 141.18481418301235 0 0 0 0 -11.911367272085045 68.641061597387306 0 68.641061597387306 120.63858344683831 0 0 0 0 35.156152582378127 100.19142472418025 0 100.19142472418025 116.19045275420649 0 0 0 0 -50.606612519361079 115.38760270588682 0 115.38760270588682 113.5484470531228 0 0 0 0 -17.609900228970218 137.71849385590758 0 137.71849385590758 114.02633704157779 0 0 0 0 36.033298749665846 164.13515956958872 0 164.13515956958872 90.736844486207701 0 0 0 0 24.92775077636179 106.33572384069339 0 106.33572384069339 118.06253045075573 0 0 0 0 105.83886695449473 132.70389396275277 0 132.70389396275277 110.78170676670561 0 0 0 0 150.67656976665603 51.444752379844431 0 51.444752379844431 138.74175954511156 0 0 0 0 57.33263108227402 102.55200806277571 0 102.55200806277571 112.46728511952097 0 0 0 0 61.918857388431206 13.38612748257583 0 13.38612748257583 190.67768638438429 0 0 0 0 81.011322440404911 46.473383013100829 0 46.473383013100829 147.02989662997425 0 0 0 0 -2.3984968677395955 88.951246617099969 0 88.951246617099969 125.66704336827388 0 0 0 0 0.090022909173057997 31.667032163767999 0 31.667032163767999 161.00059647520538 0 0 0 0 12.882700064044911 39.152721236925572 0 39.152721236925572 162.33114508766448 0 0 0 0 13.524474201665726 32.15184448385844 0 32.15184448385844 184.21374918409856 0 0 0 0 -43.019144431571476 17.784665520997805 0 17.784665520997805 208.52806433162186 0 0 0 0 -38.484613293374423 38.06205955639598 0 38.06205955639598 213.36270701291505 0 0 0 0 -2.3651130931684747 210.8914057984075 0 210.8914057984075 79.919247682515561 0 0 0 0 -150.96370238462987 147.13365211667406 0 147.13365211667406 -260.82658376957261 0 0 0 0 -46.822528486140072 -41.709883566159988 0 -41.709883566159988 -50.416110651916824 0 0 0 0 0.23884724167292859 -0.022168021585093456 0 -0.022168021585093456 -0.95892972177350089 0 0 0 0 -32.606826602015644 225.19078867934149 0 225.19078867934149 89.724912299803691 0 0 0 0 -38.158344834228046 225.6727906819724 0 225.6727906819724 114.58495631889673 0 0 0 0 -55.05416353920009 214.46608539388399 0 214.46608539388399 107.3109005690203 0 0 0 0 -11.822040603728965 205.33958303346299 0 205.33958303346299 108.56663707761618 0 0 0 0 -42.996473623177735 173.36345170944696 0 173.36345170944696 110.23280049458845 0 0 0 0 22.265552695665974 176.26006631396012 0 176.26006631396012 88.2302468722919 0 0 0 0 -10.847293874016032 180.24398416292388 0 180.24398416292388 104.81379499891773 0 0 0 0 4.2166755251819268 168.9133649970754 0 168.9133649970754 106.78576806175988 0 0 0 0 50.260033176396973 178.51315527169209 0 178.51315527169209 98.449990639182943 0 0 0 0 -0.05028971515232783 0.11827424015611587 0 0.11827424015611587 -0.96066126817207476 0 0 0 0 -140.66539982816903 4.3858535599865718 0 4.3858535599865718 -34.054181791449082 0 0 0 0 -30.918981235357933 -31.977494256949285 0 -31.977494256949285 -27.568883973057382 0 0 0 0 -60.781202610116452 -30.655248039693106 0 -30.655248039693106 -22.865815655852202 0 0 0 0 -38.604857608501334 -2.4677011039020726 0 -2.4677011039020726 -27.159035307806334 0 0 0 0 -3.9532699523842894 -37.637196673837025 0 -37.637196673837025 -35.579219610201108 0 0 0 0 24.466441709373612 -39.455222075994243 0 -39.455222075994243 -37.135792872722959 0 0 0 0 -19.956181179499254 -18.590540384117048 0 -18.590540384117048 -40.384061170261703 0 0 0 0 -0.2557521174955113 0.29048628804565979 0 0.29048628804565979 -2.8058539580050788 0 0 0 0 9.3652323313144734 -17.929556223698455 0 -17.929556223698455 -101.63752446723811 0 0 0 0 27.442246398873976 9.0547364011981699 0 9.0547364011981699 -14.940312866980094 0 0 0 0 48.297653965419158 -5.5844001722871326 0 -5.5844001722871326 244.416487798444 0 0 0 0 87.440923573274631 -14.857543312333291 0 -14.857543312333291 213.9877278120257 0 0 0 0 -5.3505632517626509 18.956713294290239 0 18.956713294290239 257.68140435393434 0 0 0 0 -35.593747558887117 44.917158544412814 0 44.917158544412814 237.69026663475961 0 0 0 0 -29.560222801752388 42.994951487722574 0 42.994951487722574 220.01225039048586 0 0 0 0 -10.037364649237134 15.107201748236548 0 15.107201748236548 231.84596322261496 0 0 0 0 -8.5342465366702527 24.106126829690766 0 24.106126829690766 229.07777056802297 0 0 0 0 56.390413437708048 -13.542474789188418 0 -13.542474789188418 -46.650499487615889 0 0 0 0 12.615091294392187 -3.7614006515832443 0 -3.7614006515832443 -15.493640144224628 0 0 0 0 23.734408019387047 -18.486727954386879 0 -18.486727954386879 -36.499646265525371 0 0 0 0 -4.6707403839973267 -26.82880432181264 0 -26.82880432181264 -23.485239939880557 0 0 0 0 -12.233345981308958 5.5035068551005679 0 5.5035068551005679 -21.182424462927884 0 0 0 0 13.369029768975452 -16.233049527974799 0 -16.233049527974799 -33.99166501853324 0 0 0 0 -7.7686157283314969 -3.4901184796835878 0 -3.4901184796835878 28.498835678314208 0 0 0 0 4.4268679021042772 -12.051120434127824 0 -12.051120434127824 -10.343962412578549 0 0 0 0 10.224566732009407 -26.320307016024344 0 -26.320307016024344 -76.62823426408977 0 0 0 0 13.337806937051937 -14.49986911698943 0 -14.49986911698943 3.270761982887052 0 0 0 0 -1.1329129845978727 -12.273000392652449 0 -12.273000392652449 7.0684208593129849 0 0 0 0 9.3013399508456605 -10.353940603128263 0 -10.353940603128263 -14.704777518159503 0 0 0 0 0.34051976735645439 -7.8751263757912966 0 -7.8751263757912966 -16.072141819502576 0 0 0 0 -25.003232719551306 49.997807661595289 0 49.997807661595289 249.37161650287089 0 0 0 0 -0.17825277656369387 -0.41302398529850137 0 -0.41302398529850137 0.18411769977112868 0 0 0 0 41.844639072878635 51.668521842693735 0 51.668521842693735 53.573718790605199 0 0 0 0 0.67286902074186727 -0.18959802029650596 0 -0.18959802029650596 -2.7807461668806361 0 0 0 0 43.757776259517414 -10.872244922316895 0 -10.872244922316895 220.79322184430202 0 0 0 0 0.86265020439168438 53.588639089168282 0 53.588639089168282 224.8412115801475 0 0 0 0 -47.632175262988312 27.693110162668745 0 27.693110162668745 219.28796360411798 0 0 0 0 49.358966695377603 14.897698887769366 0 14.897698887769366 170.77467169988086 0 0 0 0 -55.677186878980137 -29.982761007035151 0 -29.982761007035151 159.42657093862363 0 0 0 0 -43.035586238693213 -48.663537571599591 0 -48.663537571599591 204.67207974099438 0 0 0 0 -7.1226459208701272 64.201349313938408 0 64.201349313938408 131.29555387466098 0 0 0 0 -14.124598977010464 12.812663380558661 0 12.812663380558661 97.404487706080545 0 0 0 0 -45.269326808775077 -29.795270190654264 0 -29.795270190654264 152.01153531568707 0 0 0 0 -45.804999465195579 -41.644082635335508 0 -41.644082635335508 67.035432173055597 0 0 0 0 -53.604673598485533 -93.412405918301374 0 -93.412405918301374 107.44772462957189 0 0 0 0 -31.922297029494075 -35.628078377267229 0 -35.628078377267229 141.84986574196955 0 0 0 0 -67.797860184451565 -91.390324874824728 0 -91.390324874824728 127.009679696479 0 0 0 0 -129.72899967635749 -66.996003797306912 0 -66.996003797306912 127.85261724305747 0 0 0 0 -71.117846016888507 -67.339735069035669 0 -67.339735069035669 120.72038261499256 0 0 0 0 -87.560960094924667 -97.686674172204221 0 -97.686674172204221 86.494308159220964 0 0 0 0 -106.79689722886542 -129.81721003713028 0 -129.81721003713028 87.925243204110302 0 0 0 0 -34.943708961160155 22.653028783810441 0 22.653028783810441 171.69239933724748 0 0 0 0 -82.94169610820245 17.016466107568704 0 17.016466107568704 174.83330083484179 0 0 0 0 -48.578409844543785 36.123884669330437 0 36.123884669330437 211.23628363636089 0 0 0 0 -87.011506623472087 -18.6540715181618 0 -18.6540715181618 162.87784408255902 0 0 0 0 -22.103600324408035 -2.0766226863197517 0 -2.0766226863197517 160.82107538869604 0 0 0 0 -140.69638353900518 -24.545049121938064 0 -24.545049121938064 133.50624287623941 0 0 0 0 -66.875057453085901 -20.131949072165298 0 -20.131949072165298 127.4823602376855 0 0 0 0 -47.74443476536544 19.194342687340395 0 19.194342687340395 132.39032827096526 0 0 0 0 -131.00196113850689 16.164015965900035 0 16.164015965900035 133.6290377367186 0 0 0 0 -109.94646520618699 -5.2419058919913368 0 -5.2419058919913368 96.565256792469881 0 0 0 0 -112.61968550423626 -71.341774506036018 0 -71.341774506036018 92.166910911910236 0 0 0 0 -167.94532831659308 -47.810573770257179 0 -47.810573770257179 83.337071068555815 0 0 0 0 -172.04925105279835 -82.969120028305042 0 -82.969120028305042 50.13315215826151 0 0 0 0 -231.28277814632747 -47.525190601823851 0 -47.525190601823851 29.278488110459875 0 0 0 0 -214.3466328298091 -24.93714890141564 0 -24.93714890141564 95.711498571756238 0 0 0 0 -155.92315262267948 17.165442698322295 0 17.165442698322295 59.078878468775656 0 0 0 0 -52.999671832163585 -143.8936994686228 0 -143.8936994686228 47.012382528220769 0 0 0 0 -157.33690826303791 -123.31067913596053 0 -123.31067913596053 78.280205398586986 0 0 0 0 -147.30618733773008 -105.41322704849881 0 -105.41322704849881 49.336658265761798 0 0 0 0 -221.21596879007484 -154.6502564655475 0 -154.6502564655475 22.922779299900867 0 0 0 0 -122.35376659150643 -180.53003448295021 0 -180.53003448295021 29.849823505792301 0 0 0 0 -169.1342296704097 -153.48202156354819 0 -153.48202156354819 22.730727182613919 0 0 0 0 87.683200419472996 -208.26003057647904 0 -208.26003057647904 -17.090019574476173 0 0 0 0 -59.299220448563574 -158.5212736669564 0 -158.5212736669564 42.157087403218611 0 0 0 0 60.660900830727769 -39.949097839096794 0 -39.949097839096794 161.74038256940548 0 0 0 0 209.83006544435921 -61.694590209335729 0 -61.694590209335729 -24.298463780491147 0 0 0 0 36.480161403538659 -75.809226075347397 0 -75.809226075347397 -25.266750946968386 0 0 0 0 48.619796354396385 -57.808890611064271 0 -57.808890611064271 0.80901252944022417 0 0 0 0 0.428196131659206 -134.52478692142176 0 -134.52478692142176 51.243800075360923 0 0 0 0 43.603023617557483 -96.051170494800317 0 -96.051170494800317 25.199710964807309 0 0 0 0 -59.943826432659989 -107.99897731823876 0 -107.99897731823876 76.543230840266915 0 0 0 0 -22.477752165024867 -67.600044651306234 0 -67.600044651306234 95.082418538193451 0 0 0 0 -14.567067079573462 -60.659824295002181 0 -60.659824295002181 45.796791123546427 0 0 0 0 4.1630482395994477 -67.764450568894972 0 -67.764450568894972 30.571443672803071 0 0 0 0 -2.9396607658709399 -20.110163191333413 0 -20.110163191333413 13.303782171395142 0 0 0 0 13.964455355839164 -42.192817118757375 0 -42.192817118757375 -3.6440554401779082 0 0 0 0 -8.2269153447123244 -10.4906006909805 0 -10.4906006909805 3.5610952192291734 0 0 0 0 -5.3762598061293829 -12.203012785641477 0 -12.203012785641477 1.9629726232087705 0 0 0 0 3.0407916905779544 -8.4966300541149717 0 -8.4966300541149717 1.392191840515661 0 0 0 0 -4.7521081111471126 -5.185558152144953 0 -5.185558152144953 6.8032616094319689 0 0 0 0 -14.100718391942792 -4.7565131343435496 0 -4.7565131343435496 -50.780492826830596 0 0 0 0 -15.063386147638084 -19.430409428656276 0 -19.430409428656276 40.371716780411589 0 0 0 0 -17.992310816014651 -21.7619138589871 0 -21.7619138589871 73.654706964473007 0 0 0 0 -35.939709188824054 -13.66213297523791 0 -13.66213297523791 -3.0999678707703424 0 0 0 0 -20.355343260918744 -6.6371531252443674 0 -6.6371531252443674 -6.4343315961014014 0 0 0 0 -20.162544747421634 -7.5388688917664695 0 -7.5388688917664695 -4.6301322708604857 0 0 0 0 -13.510913765698206 -12.859435100253904 0 -12.859435100253904 -2.1495297535975624 0 0 0 0 -9.8663489208265673 -5.1808930626430083 0 -5.1808930626430083 -1.769822771413601 0 0 0 0 -19.321201518614544 -9.7550559949595481 0 -9.7550559949595481 1.0456440657981148 0 0 0 0 -0.26584201748482883 -10.02560204656038 0 -10.02560204656038 -7.9886240225750953 0 0 0 0 -14.049593816773267 -6.9444898812798783 0 -6.9444898812798783 -2.5426788203330943 0 0 0 0 -10.008471414097585 -23.593079089434468 0 -23.593079089434468 -3.6404483867008821 0 0 0 0 -52.869902250065934 -22.765537118451903 0 -22.765537118451903 -4.4382494643868995 0 0 0 0 -33.733815629035234 -10.126112787052989 0 -10.126112787052989 -8.6219658658374101 0 0 0 0 -27.814460646128282 -15.468488768688985 0 -15.468488768688985 -5.1830944785615429 0 0 0 0 -36.420182781919721 -23.024308014302733 0 -23.024308014302733 -24.023693235387327 0 0 0 0 -36.74358335279976 -10.635194285641774 0 -10.635194285641774 -11.862768092629267 0 0 0 0 -46.246290342591237 -33.052790622910834 0 -33.052790622910834 -17.743189644854283 0 0 0 0 -79.352277994816177 -30.868694375470113 0 -30.868694375470113 3.4419760042219423 0 0 0 0 -75.019862827059114 4.6043193448422244 0 4.6043193448422244 3.1444195358199067 0 0 0 0 -2.8781443126374207 -0.78384400437810697 0 -0.78384400437810697 0.062448070431756264 0 0 0 0 -140.5249190293689 25.368964401437552 0 25.368964401437552 11.011870020389324 0 0 0 0 -21.640946878003888 -5.3367028602151549 0 -5.3367028602151549 -8.8145094276114833 0 0 0 0 -12.224311776575632 15.370123035963843 0 15.370123035963843 -38.989379213249777 0 0 0 0 38.191680138257652 -0.9852096769709533 0 -0.9852096769709533 -18.218111880880315 0 0 0 0 -5.4416100367088802 -12.024018126001465 0 -12.024018126001465 21.124316174187697 0 0 0 0 -28.129030962852994 -80.004838422741159 0 -80.004838422741159 33.049638910015346 0 0 0 0 60.0053677354299 -49.903024258230289 0 -49.903024258230289 13.676811910627293 0 0 0 0 20.67280683881836 -66.694921292641084 0 -66.694921292641084 18.457687848370369 0 0 0 0 13.338140106825449 -38.595168466184987 0 -38.595168466184987 -43.675346087344224 0 0 0 0 -60.648697761385847 -138.16309953988821 0 -138.16309953988821 -52.13437441518181 0 0 0 0 -0.91288875598450936 -0.29453284908322352 0 -0.29453284908322352 -0.019318802565457815 0 0 0 0 -23.56179041172436 52.058565164336869 0 52.058565164336869 -17.522699439985445 0 0 0 0 -253.80159434561938 -48.070278588769725 0 -48.070278588769725 69.610740510135656 0 0 0 0 -180.49348972806183 88.400391190953087 0 88.400391190953087 75.216419803124154 0 0 0 0 7.4049550507482582 -13.567780310115449 0 -13.567780310115449 10.684863847330881 0 0 0 0 -130.77705681604857 -98.455133640010899 0 -98.455133640010899 17.38077512075688 0 0 0 0 84.281509304011706 -113.97038401286409 0 -113.97038401286409 -8.5896548393939156 0 0 0 0 38.344746628776193 -77.418380590304878 0 -77.418380590304878 57.082288560312008 0 0 0 0 -18.35304309467756 -44.754488755350394 0 -44.754488755350394 112.50307998535573 0 0 0 0 234.53849454768351 -105.80180677537282 0 -105.80180677537282 17.860036637743178 0 0 0 0 -56.879423710837727 -142.46351777175732 0 -142.46351777175732 -135.06666818191297 0 0 0 0 0.78596134211029778 0.23069820271244357 0 0.23069820271244357 -0.60277937662948489 0 0 0 0 221.76724522165023 94.670202586064988 0 94.670202586064988 26.958559167775093 0 0 0 0 -56.637785532395355 -174.22031790167966 0 -174.22031790167966 16.73890194199339 0 0 0 0 53.710347604617709 28.550010475380986 0 28.550010475380986 2.0640254420432029 0 0 0 0 86.0989010741323 -21.364270460253465 0 -21.364270460253465 -6.7551512104546418 0 0 0 0 111.75346676334811 19.564795574937307 0 19.564795574937307 -25.253232569884858 0 0 0 0 91.175195338902995 -43.455755869843415 0 -43.455755869843415 -23.096702874034236 0 0 0 0 65.090399907319807 0.92635642497043591 0 0.92635642497043591 -32.461447712994413 0 0 0 0 62.818870955903549 -5.1415687250555493 0 -5.1415687250555493 -8.6419072058051825 0 0 0 0 75.041102849732852 0.53360735886235489 0 0.53360735886235489 -22.942400821426418 0 0 0 0 61.643521534890169 -3.1014838136761682 0 -3.1014838136761682 -23.921414978409302 0 0 0 0 27.889598449255573 -39.977740603877464 0 -39.977740603877464 -37.152440685531474 0 0 0 0 -44.443482241971651 -49.959780394601694 0 -49.959780394601694 -0.37363220181578072 0 0 0 0 -109.2059052845907 71.367556764769688 0 71.367556764769688 -39.00751747546019 0 0 0 0 7.4062391743720344 -12.44392274186421 0 -12.44392274186421 10.17562168130695 0 0 0 0 27.546870761900209 -24.027946774251177 0 -24.027946774251177 -17.430632968433201 0 0 0 0 28.243054759077495 -28.42117919489101 0 -28.42117919489101 -33.327170030097477 0 0 0 0 25.242933287285268 -37.124606148070598 0 -37.124606148070598 -24.320064596220618 0 0 0 0 -5.1291764687557588 -7.2327456479470129 0 -7.2327456479470129 -0.99012904567644 0 0 0 0 -2.8899400929658441 -6.0791859651799314 0 -6.0791859651799314 -0.42826196910755243 0 0 0 0 21.496254333464094 -12.149779502309684 0 -12.149779502309684 -18.17458749920479 0 0 0 0 9.6318190849900631 -7.7411184641550896 0 -7.7411184641550896 5.216715957129118 0 0 0 0 -2.0681920385416923 -1.3261109827541411 0 -1.3261109827541411 2.3553705987165117 0 0 0 0 -3.2547506961418549 -44.643996247417817 0 -44.643996247417817 -24.125312750984449 0 0 0 0 3.5784594883182805 -9.3293967986085384 0 -9.3293967986085384 4.6670643111426706 0 0 0 0 -9.4467418159911176 -23.092626409874356 0 -23.092626409874356 32.073051953673712 0 0 0 0 15.332072581135435 23.283347584030707 0 23.283347584030707 14.301177887464291 0 0 0 0 0.55089582489663158 1.199270081292565 0 1.199270081292565 -0.61131401296350862 0 0 0 0 53.629109545538086 -26.207807567254349 0 -26.207807567254349 5.1426561164844315 0 0 0 0 34.047469355340581 21.681364329706412 0 21.681364329706412 -2.8367237304191804 0 0 0 0 21.530850295966957 1.2715129505086225 0 1.2715129505086225 -36.115196289814776 0 0 0 0 5.1300602044559582 -8.2278606514844821 0 -8.2278606514844821 3.1391372964728568 0 0 0 0 54.456339349431801 -46.053419525909703 0 -46.053419525909703 -59.069964383379556 0 0 0 0 -1.0937339221563889 -10.835478479019002 0 -10.835478479019002 3.7229079219687264 0 0 0 0 17.133675460383529 -12.468139669086668 0 -12.468139669086668 -2.8745203967118869 0 0 0 0 6.0805672614253652 -7.5293458727741731 0 -7.5293458727741731 2.1100411862071482 0 0 0 0 16.936996690974183 -3.2926380689896178 0 -3.2926380689896178 -8.596977288252674 0 0 0 0 12.090141106658848 -1.8050050349920639 0 -1.8050050349920639 -1.2331578361336142 0 0 0 0 13.212448632955784 -1.4206331675886759 0 -1.4206331675886759 -6.8146147193328943 0 0 0 0 -3.7104365681880154 -2.5055296481878031 0 -2.5055296481878031 7.281367521485663 0 0 0 0 3.2244716793284169 -8.9961709448398324 0 -8.9961709448398324 -7.1863943216740154 0 0 0 0 -0.15446212622695299 -0.30553640951587724 0 -0.30553640951587724 0.23962586586936219 0 0 0 0 2.7294447395252064 -9.3647763116314309 0 -9.3647763116314309 -3.1964680107485037 0 0 0 0 8.6273173599624826 -6.5682056494211274 0 -6.5682056494211274 5.0769623821855916 0 0 0 0 -3.2864247334073298 -6.5894582561013522 0 -6.5894582561013522 0.090073482242587488 0 0 0 0 -14.252844470974196 -19.214964201652037 0 -19.214964201652037 43.919058247323846 0 0 0 0 -25.462178940004378 -50.387858515430707 0 -50.387858515430707 6.6406991860931157 0 0 0 0 -62.308405350690009 -32.535738471953664 0 -32.535738471953664 11.308357188900118 0 0 0 0 -6.0417545332829441 -4.2032930580443644 0 -4.2032930580443644 4.3917779688747265 0 0 0 0 -82.348300883662887 34.023177959508757 0 34.023177959508757 33.250769925623899 0 0 0 0 -61.232220565114403 -18.248173411066091 0 -18.248173411066091 15.112579916720279 0 0 0 0 20.023689376524999 -1.6888301883736858 0 -1.6888301883736858 -26.334105966961943 0 0 0 0 -5.3234356329849106 -1.3952086530007364 0 -1.3952086530007364 6.6377123380079865 0 0 0 0 1.4054907851045906 -1.8519129336044555 0 -1.8519129336044555 4.439605097658653 0 0 0 0 1.9743731799171655 -8.2224946494461619 0 -8.2224946494461619 14.982330900704255 0 0 0 0 1.2004624128546344 -1.03406919193581 0 -1.03406919193581 2.9421586789851233 0 0 0 0 -2.7596176704209938 -3.7218678322678898 0 -3.7218678322678898 2.0571846001257654 0 0 0 0 -4.8088547399675008 -13.104847279391834 0 -13.104847279391834 14.442857843547245 0 0 0 0 -1.1584833515724995 -0.7805740296915058 0 -0.7805740296915058 1.4401942994860555 0 0 0 0 -0.4422827542636103 -0.29302361762266749 0 -0.29302361762266749 0.52906519194636203 0 0 0 0 -34.519649066645798 39.873499022964097 0 39.873499022964097 31.928142674732953 0 0 0 0 59.221976788976463 -7.0918777630722616 0 -7.0918777630722616 -34.700012834029621 0 0 0 0 -271.15672432651627 -18.575560148339719 0 -18.575560148339719 -15.304023189906729 0 0 0 0 -212.84353165377252 -268.44932688410336 0 -268.44932688410336 -239.32643579685828 0 0 0 0 -238.423574428336 74.6657712199667 0 74.6657712199667 1.9758738722302951 0 0 0 0 -0.11715275919890544 -0.44082510449387158 0 -0.44082510449387158 0.17640838937276149 0 0 0 0 0.15489478924428113 20.455891987090581 0 20.455891987090581 -66.496751561877318 0 0 0 0 -62.745128222974017 3.4169294215098489 0 3.4169294215098489 50.299355844861566 0 0 0 0 -3.5119501987937838 0.34817252110224217 0 0.34817252110224217 14.96211506081454 0 0 0 0 52.352761065838422 -22.208033311855615 0 -22.208033311855615 12.719711996323895 0 0 0 0 15.38018280560209 0.41925166076543974 0 0.41925166076543974 -3.5693214053821976 0 0 0 0 -0.26829500311838572 -1.134218943357336 0 -1.134218943357336 0.51852335552014095 0 0 0 0 2.7601970665379345 -0.16531237365069984 0 -0.16531237365069984 2.0109500181557038 0 0 0 0 0.30719854668632962 -5.3633366133140434 0 -5.3633366133140434 2.3145721458488793 0 0 0 0 -2.2530513316014549 -3.518894284236012 0 -3.518894284236012 0.41578360553830862 0 0 0 0 -1.3895285891642999 -2.9032046389312445 0 -2.9032046389312445 2.3088812260525557 0 0 0 0 -36.637027762189973 -37.778697614354314 0 -37.778697614354314 -2.1741423457860947 0 0 0 0 6.7317578887045739 -0.84104665145711088 0 -0.84104665145711088 -0.51823016211101702 0 0 0 0 -12.457211700129847 -38.517629204616242 0 -38.517629204616242 -72.105844476784114 0 0 0 0 -101.73078642871405 -48.280103024364507 0 -48.280103024364507 -0.18807466859288979 0 0 0 0 -265.6383935334452 -184.51790008393073 0 -184.51790008393073 -110.71654320403468 0 0 0 0 -260.01276937921648 -150.51767628885864 0 -150.51767628885864 -63.454751016543014 0 0 0 0 -16.845343806602614 -68.688334916492749 0 -68.688334916492749 -144.21535964787472 0 0 0 0 0.27338707459782086 -0.086928569670051914 0 -0.086928569670051914 -0.11611110281808834 0 0 0 0 328.7786057338817 -139.2800673013553 0 -139.2800673013553 80.694415187841514 0 0 0 0 208.16696263776976 -288.50380665395642 0 -288.50380665395642 745.1506812046573 0 0 0 0 485.21886713703861 -362.23907378310105 0 -362.23907378310105 49.163900195679162 0 0 0 0 -233.2706233701756 121.15453274929314 0 121.15453274929314 435.49529606703436 0 0 0 0 1434.4304389985627 -1154.7117434271495 0 -1154.7117434271495 710.77762972538403 0 0 0 0 64.939824027183931 -167.89901626686333 0 -167.89901626686333 1.1984980086563155 0 0 0 0 23.534785325507983 -53.887663632027397 0 -53.887663632027397 81.409528029442299 0 0 0 0 -6.409328366513364 -4.3249825413440703 0 -4.3249825413440703 3.5962852017546538 0 0 0 0 0.035302462984814653 -0.12204631022349766 0 -0.12204631022349766 0.034255763768278769 0 0 0 0 0.21199845459921107 -4.1191253014448712 0 -4.1191253014448712 2.5397233611027961 0 0 0 0 1.5198498169193044 -2.6470287196425488 0 -2.6470287196425488 1.1647065859433496 0 0 0 0 -1.6001769323193002 -3.5242833428783342 0 -3.5242833428783342 1.342285756370984 0 0 0 0 -1.8761440951765778 -3.9313054919278283 0 -3.9313054919278283 2.6058201973814104 0 0 0 0 2.1143178498750785 -3.0302830047585303 0 -3.0302830047585303 -1.8884178629377857 0 0 0 0 41.547750077181263 91.755649617320159 0 91.755649617320159 7.544229156075744 0 0 0 0 196.59817325288896 9.1117266618239228 0 9.1117266618239228 -157.52386893506628 0 0 0 0 -4.3703706981759751 -3.96310579830606 0 -3.96310579830606 3.845176902905223 0 0 0 0 -0.33158924576238036 -8.8335297297314312 0 -8.8335297297314312 3.9534001605609124 0 0 0 0 -12.625177389767487 -5.1001478248508647 0 -5.1001478248508647 -125.07659475592664 0 0 0 0 -273.47496605854394 40.068244848152972 0 40.068244848152972 1.0982631715596654 0 0 0 0 4.4799214490972208 -1.6409527655237586 0 -1.6409527655237586 -1.1743466277260666 0 0 0 0 369.04681878711563 97.022923985437956 0 97.022923985437956 -99.396590280288365 0 0 0 0 -10.663578104344197 -5.7962067003682023 0 -5.7962067003682023 4.3150045494694496 0 0 0 0 0.010432643598019986 -0.25518722892035051 0 -0.25518722892035051 -0.051650614079548518 0 0 0 0 -5.4526938616327243 -9.8274580256111221 0 -9.8274580256111221 -0.01949371222872287 0 0 0 0 4.7510303512171959 -4.2310130214245874 0 -4.2310130214245874 0.40534232926438563 0 0 0 0 1.9433892916567856 -2.7548317571054213 0 -2.7548317571054213 2.2211109638446942 0 0 0 0 1.2765587511094054 -4.3746349111897871 0 -4.3746349111897871 -0.00093734321126248688 0 0 0 0 -1.898730165528832 -0.2473189548618393 0 -0.2473189548618393 1.5927901354589267 0 0 0 0 3.1021099117788253 -4.1265109709675016 0 -4.1265109709675016 4.5955086808244232 0 0 0 0 10.519362383587577 -4.3239574067156354 0 -4.3239574067156354 0.20243650011252612 0 0 0 0 2.5403223758621607 -6.1953527510922868 0 -6.1953527510922868 0.87776031649991637 0 0 0 0 -27.140474452222406 4.4050996319892874 0 4.4050996319892874 21.694718392391223 0 0 0 0 -0.05100554182844963 -0.2408172534634776 0 -0.2408172534634776 0.031732585298271943 0 0 0 0 1559.7774449010321 -829.02497099759057 0 -829.02497099759057 71.108003504938097 0 0 0 0 1719.9739674731682 -199.06472357052917 0 -199.06472357052917 -468.07937976828543 0 0 0 0 820.17676912737079 565.12196364370175 0 565.12196364370175 -696.22953836686065 0 0 0 0 2245.5866530512867 -633.76439673878485 0 -633.76439673878485 -992.55481457677524 0 0 0 0 3621.4222668553411 -1189.5003211230942 0 -1189.5003211230942 -606.51355896744644 0 0 0 0 2176.9909572443321 -821.40283820102559 0 -821.40283820102559 141.07885664649075 0 0 0 0 6479.7609434566548 -1190.4444775561496 0 -1190.4444775561496 -806.50758734534611 0 0 0 0 1.3720223273849115 -10.348583002982195 0 -10.348583002982195 -1.5999773108196678 0 0 0 0 8.4649181141012466 -4.6127700299450218 0 -4.6127700299450218 0.34043034044338327 0 0 0 0 -136.05620919568173 -90.231847773466143 0 -90.231847773466143 1163.591083608786 0 0 0 0 4.7679693469690392 -7.2236780478415312 0 -7.2236780478415312 -2.5504533060302492 0 0 0 0 1.5599536013178295 -4.5476747660068213 0 -4.5476747660068213 0.9705407093570102 0 0 0 0 84.293388779740781 -1.9568588190304581 0 -1.9568588190304581 -156.05396957829362 0 0 0 0 -658.68056240514852 -211.10187620404758 0 -211.10187620404758 160.74040795813198 0 0 0 0 127.16613468696596 -407.88880189982592 0 -407.88880189982592 202.52006678743055 0 0 0 0 587.05401221197098 -66.9230188576621 0 -66.9230188576621 -158.48464045004221 0 0 0 0 461.66287425672635 -2730.4852781275404 0 -2730.4852781275404 2494.3224219475524 0 0 0 0 -994.83622799497698 497.18865147208726 0 497.18865147208726 1933.0439208460157 0 0 0 0 0.039614227213431275 -0.12875009117764868 0 -0.12875009117764868 -0.21090159259463803 0 0 0 0 2.5954969329651156 -0.37574886779317929 0 -0.37574886779317929 -0.14536531084351867 0 0 0 0 1980.4134195348597 -2732.8711287418846 0 -2732.8711287418846 5271.4278041749458 0 0 0 0 3105.3456738577661 1673.515040304701 0 1673.515040304701 -60.244387182465289 0 0 0 0 4712.718297657615 -4493.820153074048 0 -4493.820153074048 2968.1433171813842 0 0 0 0 7894.1671498963415 -3354.2252824930592 0 -3354.2252824930592 227.89908487608773 0 0 0 0 4180.679658633424 -1981.7387546588434 0 -1981.7387546588434 1.2808838401979301 0 0 0 0 1218.5032953682821 -1249.603058053588 0 -1249.603058053588 1184.1252363784788 0 0 0 0 -1036.9079520588275 -37.632432747835992 0 -37.632432747835992 804.38168524231878 0 0 0 0 1202.6199599473184 -1538.5321754398901 0 -1538.5321754398901 1300.3930784376571 0 0 0 0 4219.8247602506817 -2649.2745764716565 0 -2649.2745764716565 1141.7967631551437 0 0 0 0 1092.3996794119012 -1666.2213518095086 0 -1666.2213518095086 1156.6944693714177 0 0 0 0 4418.4021613535297 -2957.833265095469 0 -2957.833265095469 1487.5549060732883 0 0 0 0 7848.750846619334 -1631.9063951897251 0 -1631.9063951897251 758.66435625380836 0 0 0 0 6415.099968493043 -2673.3310616430099 0 -2673.3310616430099 2.198577712202789 0 0 0 0 4491.2562125006225 -3871.318352582326 0 -3871.318352582326 2586.9920361198529 0 0 0 0 5371.5970045630529 -1971.1003668573176 0 -1971.1003668573176 3004.2855259074131 0 0 0 0 4314.0990964470402 -3326.8300482112973 0 -3326.8300482112973 1349.0842424159346 0 0 0 0 4097.3496472730776 -3736.2204659623403 0 -3736.2204659623403 1411.9452973957232 0 0 0 0 4083.8059526407887 -3128.1812419545458 0 -3128.1812419545458 1493.1750591483287 0 0 0 0 5753.3897508085211 -4056.4232771320385 0 -4056.4232771320385 1113.61598285129 0 0 0 0 5165.9135397279169 -3155.0080265528231 0 -3155.0080265528231 152.16971239830309 0 0 0 0 3165.3247297008056 -2162.8051226762618 0 -2162.8051226762618 81.732200382059091 0 0 0 0 3340.9877350930146 -2470.7245030980612 0 -2470.7245030980612 382.73247023850854 0 0 0 0 3920.6667297567183 -3204.4164565291576 0 -3204.4164565291576 947.98210125035257 0 0 0 0 3148.8478185583808 -3177.1345900372471 0 -3177.1345900372471 1601.8713182309584 0 0 0 0 2260.6952029492822 -2075.1163583749076 0 -2075.1163583749076 653.2371951500827 0 0 0 0 3529.4574123093626 -2564.3584846074446 0 -2564.3584846074446 1144.8064995843743 0 0 0 0 1013.0309019239212 -1274.7351629125187 0 -1274.7351629125187 1452.8237445807026 0 0 0 0 376.99274607354891 -101.90259771455021 0 -101.90259771455021 696.91914817885845 0 0 0 0 2388.1088659120433 -1760.5374202818493 0 -1760.5374202818493 487.87814620557765 0 0 0 0 2107.0462909973885 -1867.9687580950813 0 -1867.9687580950813 762.4667572088656 0 0 0 0 2102.5604459266192 -936.24438432312013 0 -936.24438432312013 -100.19361420348287 0 0 0 0 264.92976859904593 -458.71835304665728 0 -458.71835304665728 406.50607952551218 0 0 0 0 559.13137574042776 -209.70960559930245 0 -209.70960559930245 137.77770378759305 0 0 0 0 65.034460953971575 -468.09630599287448 0 -468.09630599287448 208.62718426686479 0 0 0 0 704.24637176262331 -846.41484756000864 0 -846.41484756000864 728.47457635693718 0 0 0 0 8.7223587656150841 -4.8918138185041968 0 -4.8918138185041968 0.78008322377034389 0 0 0 0 -97.965768007357838 -18.059262198454235 0 -18.059262198454235 22.959782387362793 0 0 0 0 22.811500424788392 -33.044434715659008 0 -33.044434715659008 -30.399295634531882 0 0 0 0 -626.88191070879111 -127.38575685855903 0 -127.38575685855903 447.17486854168237 0 0 0 0 -148.70162188325776 489.69216805708129 0 489.69216805708129 115.82020756363636 0 0 0 0 -0.034547189778473708 -0.10721267082260333 0 -0.10721267082260333 0.029835785069128207 0 0 0 0 4.3322238705441123 17.589966953804833 0 17.589966953804833 -24.103398837178247 0 0 0 0 21.327580679324456 -1.7784208702214528 0 -1.7784208702214528 -35.181137312320061 0 0 0 0 -89.050870961276814 21.808175286801998 0 21.808175286801998 8.1753716940293089 0 0 0 0 -48.495547969825566 -110.86478982182598 0 -110.86478982182598 54.778868485183921 0 0 0 0 203.87121296214173 47.247533887304598 0 47.247533887304598 -490.30786114122748 0 0 0 0 67.499379518296337 -464.7060762498877 0 -464.7060762498877 -325.84794019116089 0 0 0 0 554.73290284865652 -184.45845872166683 0 -184.45845872166683 234.31013855127094 0 0 0 0 185.43379090900999 100.0101892822131 0 100.0101892822131 -84.042846103999182 0 0 0 0 -118.95205679480569 372.02450165929622 0 372.02450165929622 -33.574892170669045 0 0 0 0 -85.130380609072745 40.896453400870087 0 40.896453400870087 324.89069931868289 0 0 0 0 490.1438354721322 -266.14909578351944 0 -266.14909578351944 132.3533639688394 0 0 0 0 -38.690514305562829 7.6810585823659494 0 7.6810585823659494 -322.1678639164893 0 0 0 0 198.08504298505432 276.6073825108906 0 276.6073825108906 -47.471424566581845 0 0 0 0 -336.85257702138915 221.85347939831991 0 221.85347939831991 84.151135664316826 0 0 0 0 3.569744848049595 0.14423018419620348 0 0.14423018419620348 -18.001881272895844 0 0 0 0 11.779064169837511 14.795665735084185 0 14.795665735084185 6.3966895735356957 0 0 0 0 11.682524354793586 -3.011697506980223 0 -3.011697506980223 -2.8190651885836644 0 0 0 0 4.0715107546660718 -2.1992197760617724 0 -2.1992197760617724 -0.043147398509970181 0 0 0 0 -8.7586672653851565 -13.500799379857199 0 -13.500799379857199 -7.1237801382958423 0 0 0 0 -10.751623365125852 -10.30440843749966 0 -10.30440843749966 -7.3796006011907593 0 0 0 0 -352.54398244562617 -243.31205976571073 0 -243.31205976571073 -162.22508814180037 0 0 0 0 -115.59526405559154 514.19879538048554 0 514.19879538048554 406.45497828860243 0 0 0 0 -813.8459882644529 -115.97890103069221 0 -115.97890103069221 890.68254615567275 0 0 0 0 -23.817287834222952 -1712.3203468047541 0 -1712.3203468047541 3838.4386805560789 0 0 0 0 770.29464588998962 -270.63159814145547 0 -270.63159814145547 185.84795659899828 0 0 0 0 508.12519355176482 -536.45445309777278 0 -536.45445309777278 -39.837713672503014 0 0 0 0 33.657819153886521 -418.40965291038447 0 -418.40965291038447 450.45210444566328 0 0 0 0 3.3472412878104763 -1.5283631714222885 0 -1.5283631714222885 0.036151135381989441 0 0 0 0 3471.8612271761813 -2873.4268859567528 0 -2873.4268859567528 3363.7397492210584 0 0 0 0 4393.0711653936596 -1860.8958388560568 0 -1860.8958388560568 2979.4889975522165 0 0 0 0 5533.03805714591 -3280.757553506257 0 -3280.757553506257 2495.9619023808627 0 0 0 0 1374.1745175523683 -3054.6310199953441 0 -3054.6310199953441 4932.8917010256555 0 0 0 0 1.4472232705614907 -0.60132977163913282 0 -0.60132977163913282 0.047403250677064968 0 0 0 0 1866.8609095116262 -66.680578768166015 0 -66.680578768166015 -1001.0891023472286 0 0 0 0 6789.5081211862707 -3585.6222550872189 0 -3585.6222550872189 2458.6299591989373 0 0 0 0 0.6203849927827747 -0.60664291931722403 0 -0.60664291931722403 0.24813371205261525 0 0 0 0 5957.9365607671352 -3257.1677190750634 0 -3257.1677190750634 851.82881106663262 0 0 0 0 640.76938321263879 -741.14093210566716 0 -741.14093210566716 920.37889112495759 0 0 0 0 3461.7269867097712 -3181.5139820070763 0 -3181.5139820070763 1330.0827211427095 0 0 0 0 2995.5415882215311 -2714.3596102909796 0 -2714.3596102909796 2405.4933202747197 0 0 0 0 3163.3865124074364 -3309.9166879910917 0 -3309.9166879910917 1666.84639178199 0 0 0 0 1983.5976531853521 -3317.4032364932427 0 -3317.4032364932427 2506.1814984410594 0 0 0 0 1067.2847835985449 -3359.6816296209799 0 -3359.6816296209799 2062.650742022648 0 0 0 0 2156.1863641345626 -3655.3409616202407 0 -3655.3409616202407 2061.7354242489382 0 0 0 0 2061.4396739959338 -3021.1080506098733 0 -3021.1080506098733 2852.2723846578083 0 0 0 0 3765.9074256099702 -3214.2299377464224 0 -3214.2299377464224 2254.0074182243916 0 0 0 0 3873.3331713634398 -3625.5974923505769 0 -3625.5974923505769 2853.4924650667526 0 0 0 0 3973.2349614567083 -2317.1156090542427 0 -2317.1156090542427 2576.5961063430586 0 0 0 0 2295.1413994194518 -3372.1997526167725 0 -3372.1997526167725 1802.965601197182 0 0 0 0 0.23479079976209405 -0.80647023463771461 0 -0.80647023463771461 0.7090183359204616 0 0 0 0 9482.732141005632 -2795.458817760591 0 -2795.458817760591 496.92661377848708 0 0 0 0 5596.2021206726786 -4143.2805120600387 0 -4143.2805120600387 2669.5066255525671 0 0 0 0 4981.1389214091978 -2877.9403774688799 0 -2877.9403774688799 1654.9111101058661 0 0 0 0 4404.4502576262457 -2772.8895984051051 0 -2772.8895984051051 1669.2118980684172 0 0 0 0 4544.6691188551195 -3282.9244158822257 0 -3282.9244158822257 1084.1721727650001 0 0 0 0 4682.7386019127152 -2426.3748450549028 0 -2426.3748450549028 2510.014009623148 0 0 0 0 4884.0372268069041 -3081.5531203724331 0 -3081.5531203724331 1506.0380820196006 0 0 0 0 3613.9979233302583 -2913.6016438350489 0 -2913.6016438350489 2326.6144089061781 0 0 0 0 3950.6865596513671 -3043.7600455883367 0 -3043.7600455883367 788.59002929530106 0 0 0 0 3965.8255081844109 -3169.2603952481732 0 -3169.2603952481732 1691.7843019199572 0 0 0 0 3800.8588396990235 -3411.7943912663977 0 -3411.7943912663977 1109.1223952724249 0 0 0 0 3981.8083069325367 -3470.8498060704515 0 -3470.8498060704515 954.34801437107672 0 0 0 0 3863.7017009722476 -3297.5468813768239 0 -3297.5468813768239 1132.7374387910095 0 0 0 0 4417.9543210291013 -3089.0034819290813 0 -3089.0034819290813 694.10348097894166 0 0 0 0 3582.3204881689053 -2906.0689896696313 0 -2906.0689896696313 958.86482626263751 0 0 0 0 3071.0347137022763 -2569.7679222680163 0 -2569.7679222680163 756.90603358499357 0 0 0 0 3925.2677920743008 -3442.0694954578357 0 -3442.0694954578357 943.56583569991926 0 0 0 0 3729.6481882865774 -3401.1686284549287 0 -3401.1686284549287 1484.0220786742866 0 0 0 0 3619.9636827650247 -3223.6363565484353 0 -3223.6363565484353 1723.483732205088 0 0 0 0 3131.7980149822506 -2998.562250305311 0 -2998.562250305311 1796.940336914151 0 0 0 0 3633.4279523657169 -3195.9895361680974 0 -3195.9895361680974 1300.7819988336414 0 0 0 0 2541.7287562345737 -2803.226169337082 0 -2803.226169337082 1528.2667903139663 0 0 0 0 3108.1245430154377 -2870.5560727282136 0 -2870.5560727282136 1436.8732758758706 0 0 0 0 2055.6865039578261 -3428.1014464720211 0 -3428.1014464720211 3880.1227457490459 0 0 0 0 144.76764400716638 -260.61490604610299 0 -260.61490604610299 -749.5478561275595 0 0 0 0 0.052879460276418655 -0.47552217079419279 0 -0.47552217079419279 -0.11347174496337686 0 0 0 0 1229.4885852712032 -2188.1617852143827 0 -2188.1617852143827 2837.5257242835214 0 0 0 0 2521.2488417592831 -5146.5706836655736 0 -5146.5706836655736 -3.5221403010241858 0 0 0 0 3773.7901741704845 -3936.107960339039 0 -3936.107960339039 208.42958213881138 0 0 0 0 2978.925630092097 -3463.9564647878651 0 -3463.9564647878651 1943.1534296718601 0 0 0 0 4.1598147276351938 7.1003321454847992 0 7.1003321454847992 36.281501214340096 0 0 0 0 2.5265105977785711 -3.2996468105074168 0 -3.2996468105074168 -0.087642469933022937 0 0 0 0 -87.78886830364354 96.500648279412417 0 96.500648279412417 -1.4830239932044897 0 0 0 0 1118.2082489117747 -418.25911693225498 0 -418.25911693225498 56.907428560276458 0 0 0 0 353.6477885965578 -818.68231274192658 0 -818.68231274192658 1585.9772170077194 0 0 0 0 -0.35710616675594764 -1.202003489721962 0 -1.202003489721962 -0.29997577684655052 0 0 0 0 2512.6412164173576 -2048.2417050853119 0 -2048.2417050853119 695.7082905783609 0 0 0 0 421.65817825806153 -686.4459858287737 0 -686.4459858287737 1007.4882712659746 0 0 0 0 -314.93144435025624 -452.65836360773324 0 -452.65836360773324 -622.62677311126026 0 0 0 0 1.0232212676564973 -2.9880418324120992 0 -2.9880418324120992 1.1335967853253166 0 0 0 0 0.64393164528783742 -2.1306196334440308 0 -2.1306196334440308 1.4178558289467986 0 0 0 0 3386.2688172364287 -1601.981151552638 0 -1601.981151552638 570.31490115667111 0 0 0 0 -2720.0516541953757 -1087.3994253964886 0 -1087.3994253964886 -3.9755581857461948 0 0 0 0 2362.447147364117 -579.50141557307506 0 -579.50141557307506 -213.86005185190879 0 0 0 0 3079.5817418293736 -2474.060461711837 0 -2474.060461711837 1010.5047415226436 0 0 0 0 4610.9736011356454 -1383.5725951327058 0 -1383.5725951327058 106.47815500019351 0 0 0 0 4296.2301980794728 -3256.1272826555869 0 -3256.1272826555869 1143.0837630376045 0 0 0 0 1920.5782194554195 -1659.9721203151857 0 -1659.9721203151857 3.2061048858304275 0 0 0 0 -983.97017167578451 -1837.6614260733186 0 -1837.6614260733186 -677.45265857367667 0 0 0 0 179.63576777009439 -1876.7193703805206 0 -1876.7193703805206 -1221.2589350851049 0 0 0 0 -217.15906946860196 -1271.7980436748985 0 -1271.7980436748985 -634.60530866219779 0 0 0 0 266.89690998909646 -1784.2687172390579 0 -1784.2687172390579 -608.29413648189984 0 0 0 0 -481.7261771724734 -798.68757957310299 0 -798.68757957310299 -37.027969178139756 0 0 0 0 -291.71326940692961 -430.88840000506025 0 -430.88840000506025 -603.03831504109257 0 0 0 0 -518.41467521667801 -981.34984232259012 0 -981.34984232259012 -908.47542786845588 0 0 0 0 -0.056253049981577874 -0.044663773908601101 0 -0.044663773908601101 -0.047164217232358752 0 0 0 0 384.18328326097981 -235.52983483780554 0 -235.52983483780554 -5403.2354960142111 0 0 0 0 -166.34618856062298 -1766.3312648837091 0 -1766.3312648837091 599.05757407705823 0 0 0 0 -111.59383898996748 -275.07706823537592 0 -275.07706823537592 -912.03153080748518 0 0 0 0 3.2906062085996162 -1.4720687353045925 0 -1.4720687353045925 -0.30516165850444299 0 0 0 0 447.80997856907038 -802.42975750136418 0 -802.42975750136418 1427.7911298978433 0 0 0 0 2274.8038681186736 -5302.3826751343004 0 -5302.3826751343004 2631.5946296441834 0 0 0 0 -6.6019416088383878 -3906.5309164177525 0 -3906.5309164177525 3362.1743800551631 0 0 0 0 641.78599934984231 109.94037619272422 0 109.94037619272422 -5031.0590668350051 0 0 0 0 0.97779443162971091 -0.58332413049261689 0 -0.58332413049261689 -0.13332138984539377 0 0 0 0 -0.032992084737685445 -0.10031708529475303 0 -0.10031708529475303 -0.083985085558481387 0 0 0 0 2050.4005780039442 -3768.6105457760204 0 -3768.6105457760204 1757.2450171417877 0 0 0 0 484.42407910499605 -1420.0087445121389 0 -1420.0087445121389 -3817.3763791497295 0 0 0 0 470.09494375136273 -1245.47317360733 0 -1245.47317360733 -550.02773493678251 0 0 0 0 49.939750517252833 -2277.4418680538511 0 -2277.4418680538511 -920.4440284170596 0 0 0 0 -0.39404638137784787 -2596.8643049825405 0 -2596.8643049825405 -1588.0262255094276 0 0 0 0 -27.96289652249834 -1975.5909952434595 0 -1975.5909952434595 -835.22490318713244 0 0 0 0 0.017192103861120737 -2619.4538318274031 0 -2619.4538318274031 39.05964665520878 0 0 0 0 -80.972035605082056 -2055.7263061250414 0 -2055.7263061250414 630.75956115080044 0 0 0 0 -392.60437188006472 -2498.3478458916579 0 -2498.3478458916579 1648.1293228258 0 0 0 0 -659.84542936304933 -2134.8574565581366 0 -2134.8574565581366 293.55977501561574 0 0 0 0 -971.21490185515722 -1463.6345974077558 0 -1463.6345974077558 -748.95405829977426 0 0 0 0 -5789.118473706847 -2153.3775873433847 0 -2153.3775873433847 1502.3630564719788 0 0 0 0 117.33897035106202 -3952.1064268904011 0 -3952.1064268904011 2044.7644257586799 0 0 0 0 -256.28538823625422 -2179.3588565254613 0 -2179.3588565254613 297.39970202865879 0 0 0 0 -1147.7985527234559 -2836.5411130502434 0 -2836.5411130502434 2441.797246757953 0 0 0 0 575.08231581063592 -3172.2919823909979 0 -3172.2919823909979 1969.0065989812501 0 0 0 0 700.0996307535097 -3556.441101460252 0 -3556.441101460252 2500.7190456214012 0 0 0 0 1064.2366001367036 -3266.2339786222228 0 -3266.2339786222228 2132.9150206428167 0 0 0 0 22.708340449968091 -2700.0508725966738 0 -2700.0508725966738 2191.4924370886292 0 0 0 0 248.73192807294254 -3427.9631751776978 0 -3427.9631751776978 2371.0132091342675 0 0 0 0 -93.080182124249404 -2379.0153074758709 0 -2379.0153074758709 2109.6736812741183 0 0 0 0 -0.3226303165672581 -2669.0201712706007 0 -2669.0201712706007 1500.5335530033335 0 0 0 0 149.00873410531494 -2829.6144232848237 0 -2829.6144232848237 1646.1111990605859 0 0 0 0 3.9012144513846367 -2.8349149415898225 0 -2.8349149415898225 -3.8290290224936108 0 0 0 0 120.34079654504239 -88.414762137152138 0 -88.414762137152138 -115.4099842284777 0 0 0 0 206.09419754859482 179.26215025341662 0 179.26215025341662 39.606947887776187 0 0 0 0 104.93749655624561 -42.011153094812471 0 -42.011153094812471 -159.00552149433497 0 0 0 0 -240.20090919607173 -26.336573224514723 0 -26.336573224514723 -168.05112522458512 0 0 0 0 -247.50150055794074 -206.58388427711907 0 -206.58388427711907 -99.167129340621614 0 0 0 0 32.96191462695424 -22.567078547814162 0 -22.567078547814162 -32.795991514460184 0 0 0 0 213.22184804741119 23.666837916272925 0 23.666837916272925 -24.522026909689885 0 0 0 0 -3.1073057780304225 -25.587027992893127 0 -25.587027992893127 -21.196584124234505 0 0 0 0 -760.48582583517418 -534.24475378853822 0 -534.24475378853822 149.4676286552567 0 0 0 0 1.5653964456746281 -3.6736357977030218 0 -3.6736357977030218 -3.3771649742230991 0 0 0 0 11.572656166681554 -14.196936916516279 0 -14.196936916516279 -35.915181351650972 0 0 0 0 246.03408153489727 -258.35590965526353 0 -258.35590965526353 -379.07115508554853 0 0 0 0 -32.038921225172089 -328.58007527707377 0 -328.58007527707377 984.50503308511543 0 0 0 0 -57.227182629194431 639.5367522987508 0 639.5367522987508 530.9394235588552 0 0 0 0 1.3022488568486175 -0.91114524721315959 0 -0.91114524721315959 -1.293583788933482 0 0 0 0 -1683.4133735061387 -1106.2331078979551 0 -1106.2331078979551 2919.1572264705901 0 0 0 0 1.0224538700259336 -2.9500237980576847 0 -2.9500237980576847 -1.6536998745475628 0 0 0 0 355.73949776257359 454.13210996320413 0 454.13210996320413 -1875.8904400706233 0 0 0 0 4.6915026954175119 19.121878717753134 0 19.121878717753134 -7.028343422251055 0 0 0 0 370.11229621248367 -307.35538676969009 0 -307.35538676969009 -1041.6964181882213 0 0 0 0 -292.72192164491571 635.87709440730396 0 635.87709440730396 -1245.3918713708845 0 0 0 0 0.035930992261988814 -0.062119883430574729 0 -0.062119883430574729 -0.022760986206716183 0 0 0 0 1372.5741471846122 -451.8513031147304 0 -451.8513031147304 141.88959983596578 0 0 0 0 140.40273376052392 -697.04992419703194 0 -697.04992419703194 346.77368377181119 0 0 0 0 173.28987571554535 -1140.3022094629905 0 -1140.3022094629905 543.33201093584648 0 0 0 0 -86.012388991024636 -354.97647895533009 0 -354.97647895533009 -105.49789512547432 0 0 0 0 -106.76005182313384 -329.46786533793784 0 -329.46786533793784 -60.850777667888906 0 0 0 0 508.29090220181024 -545.87625907632173 0 -545.87625907632173 326.4460504372837 0 0 0 0 -99.575421638128319 -82.555743734141288 0 -82.555743734141288 104.44580801654956 0 0 0 0 75.313224379846361 -8.5996896661963547 0 -8.5996896661963547 -56.258447001164313 0 0 0 0 156.86982041768715 -9.5122571851170505 0 -9.5122571851170505 -221.02984617059701 0 0 0 0 -10.419897951760504 -79.893207575310953 0 -79.893207575310953 -31.842827615724673 0 0 0 0 -27.212943053751587 -38.967869905587577 0 -38.967869905587577 -34.104476706386777 0 0 0 0 -24.413905389421416 -27.745790920627769 0 -27.745790920627769 -4.3078819348738762 0 0 0 0 3.4013444725896989 -5.1238299073011149 0 -5.1238299073011149 -33.012576951237861 0 0 0 0 -120.9595630626427 -44.23335857175698 0 -44.23335857175698 -6.0234665696334559 0 0 0 0 -56.730435502106047 85.395287066683522 0 85.395287066683522 -112.29958915483439 0 0 0 0 0.82547882363245995 0.81934192640314052 0 0.81934192640314052 -1.1061621385200944 0 0 0 0 4.8068704072270521 9.8987760842501302 0 9.8987760842501302 -6.1174232951016165 0 0 0 0 15.69481589402244 1.2137730297163216 0 1.2137730297163216 -5.3656877952744253 0 0 0 0 2.3922207506513375 2.3815554239839809 0 2.3815554239839809 -3.2157927965470066 0 0 0 0 13.470852399492287 17.68369733155123 0 17.68369733155123 -14.304255870636553 0 0 0 0 -7.168047948171079 20.73234663400217 0 20.73234663400217 -7.217972537415335 0 0 0 0 -27.740014541155688 28.155619720913819 0 28.155619720913819 -15.156709360380773 0 0 0 0 76.690486230310853 1.9257783054199535 0 1.9257783054199535 -50.603026355107431 0 0 0 0 84.211378631899606 -47.861307896862854 0 -47.861307896862854 -56.167837157117901 0 0 0 0 47.246788698006867 -24.356551324990278 0 -24.356551324990278 7.5657456999761052 0 0 0 0 21.070101072065881 -44.798693417935283 0 -44.798693417935283 -27.441052841735655 0 0 0 0 46.751393661458962 -4.6123349913880247 0 -4.6123349913880247 -122.18804216984427 0 0 0 0 45.108181362124014 -43.983246414194582 0 -43.983246414194582 -33.802800219593337 0 0 0 0 49.066465964348936 -29.914537423883303 0 -29.914537423883303 0.36205760872690007 0 0 0 0 6.5921775685375881 -8.0706635311322845 0 -8.0706635311322845 -0.16197247917989444 0 0 0 0 4.6051557727916652 -12.263555808901032 0 -12.263555808901032 -8.4921507037847377 0 0 0 0 7.4321774683701278 -10.733319865688827 0 -10.733319865688827 5.4206484535825439 0 0 0 0 12.075063799984491 -100.73802480274026 0 -100.73802480274026 -158.5938799007854 0 0 0 0 26.418386161064518 -51.292582191050315 0 -51.292582191050315 -242.71120550477644 0 0 0 0 -136.94951739346652 -144.18162372328516 0 -144.18162372328516 26.654517578368541 0 0 0 0 6.5533120063181087 -4.9076893743026346 0 -4.9076893743026346 -6.3916692325129887 0 0 0 0 -4.2972355935416999 192.67009520115971 0 192.67009520115971 -42.862802415351325 0 0 0 0 70.212711828753527 22.137772425499861 0 22.137772425499861 -31.566625439474592 0 0 0 0 17.979623766921577 -16.483063808896986 0 -16.483063808896986 -60.073370592872379 0 0 0 0 9.4234623380868925 -7.0814830879774213 0 -7.0814830879774213 -9.2687237511664549 0 0 0 0 18.180381894420861 -20.333077271108777 0 -20.333077271108777 -36.803364867693745 0 0 0 0 -28.034446317897164 1.1762986112880753 0 1.1762986112880753 123.29557943192049 0 0 0 0 18.807038954852032 0.79551028099376708 0 0.79551028099376708 -55.285250347020337 0 0 0 0 13.447959919612913 -15.824839170360065 0 -15.824839170360065 -123.21358688710461 0 0 0 0 2.8580300127352789 -2.4298018300992013 0 -2.4298018300992013 -4.2655764970479613 0 0 0 0 0.8682205539422192 -0.7331218717990815 0 -0.7331218717990815 -1.3370181856730738 0 0 0 0 15.537036568901385 -65.227666869468521 0 -65.227666869468521 -11.263066898900433 0 0 0 0 11.68222587227433 -7.818869219226638 0 -7.818869219226638 -11.225000206995279 0 0 0 0 -6.7924407063428589 -15.086332227288949 0 -15.086332227288949 -35.884346439474029 0 0 0 0 9.7535891125029206 -22.70145207705405 0 -22.70145207705405 -5.5541060470831027 0 0 0 0 16.260170753972488 -58.062074189365376 0 -58.062074189365376 17.232562343939207 0 0 0 0 3.3945400114188669 -10.504188924732798 0 -10.504188924732798 -4.0258636225792186 0 0 0 0 39.054972658719635 -53.1217157538631 0 -53.1217157538631 0.69711140404388061 0 0 0 0 3.4439346459785156 -3.5190713318042981 0 -3.5190713318042981 -2.7413196049456019 0 0 0 0 3.8976429184911492 -2.4373403607344013 0 -2.4373403607344013 -7.9505183211608461 0 0 0 0 12.138180915949761 -46.590426120095799 0 -46.590426120095799 45.668651908170432 0 0 0 0 -14.110893047160062 -76.261883930681506 0 -76.261883930681506 13.150237284513423 0 0 0 0 4.1027946867414977 -9.1107870297211981 0 -9.1107870297211981 -10.384241418998769 0 0 0 0 3.7513015209260629 -0.12823755163117312 0 -0.12823755163117312 -5.9821155547469971 0 0 0 0 18.203209016248366 -2.8780542114363925 0 -2.8780542114363925 -22.010517403716221 0 0 0 0 9.1269467784916003 -1.11929222482659 0 -1.11929222482659 -15.218284092937012 0 0 0 0 12.916295437811641 26.712225134524488 0 26.712225134524488 -27.290825049631408 0 0 0 0 3.9804037720459746 -1.0658058659028029 0 -1.0658058659028029 -5.2417178248433629 0 0 0 0 21.365193700883538 -23.20801033033058 0 -23.20801033033058 -34.053186052828096 0 0 0 0 8.4999581844518204 -6.8886821067366064 0 -6.8886821067366064 -9.5877300143432969 0 0 0 0 -33.011195826911717 -26.333446022646967 0 -26.333446022646967 -32.475425147305941 0 0 0 0 -5.8291660439208499 -44.233439703122713 0 -44.233439703122713 -26.939927647166542 0 0 0 0 -0.12905092043276978 -0.42389958420852958 0 -0.42389958420852958 0.16142725773860001 0 0 0 0 12.014245782727812 -21.92770261575788 0 -21.92770261575788 -16.077506033900136 0 0 0 0 8.3145510988911084 -10.879918087586422 0 -10.879918087586422 -19.279831656790556 0 0 0 0 18.14244627246444 -28.372641021378513 0 -28.372641021378513 -18.275324134967377 0 0 0 0 6.3566502785843229 -1.3737803337161014 0 -1.3737803337161014 -9.377821092897177 0 0 0 0 17.571762480576581 -7.4024504742774297 0 -7.4024504742774297 -24.986285553371999 0 0 0 0 27.119249835217488 -13.920289796224097 0 -13.920289796224097 -30.147867562882311 0 0 0 0 7.7518988107272264 -9.9676632165684218 0 -9.9676632165684218 -17.787924793382324 0 0 0 0 45.804243057158601 -20.681926943565486 0 -20.681926943565486 -34.40512229369233 0 0 0 0 26.032543640587392 -22.212405155019951 0 -22.212405155019951 -18.994613244809443 0 0 0 0 28.68112241617564 -5.7291577375181078 0 -5.7291577375181078 -26.504126964682655 0 0 0 0 11.775923199144017 -21.446642678572971 0 -21.446642678572971 -12.633079558861937 0 0 0 0 14.862748282954271 -18.658693358760502 0 -18.658693358760502 -33.852911726942693 0 0 0 0 11.937849225837454 -22.277775215893826 0 -22.277775215893826 -31.13096275672433 0 0 0 0 -14.210056764531146 -53.68737280515461 0 -53.68737280515461 -14.063239247130696 0 0 0 0 -13.963923160583988 -69.262562522236067 0 -69.262562522236067 15.081214640638791 0 0 0 0 12.793512569071027 -12.64780038484605 0 -12.64780038484605 -30.711760376725579 0 0 0 0 -9.1683285704039008 -16.796093910637865 0 -16.796093910637865 -13.722939462968498 0 0 0 0 -5.0044206937745912 -28.103529551197425 0 -28.103529551197425 -14.969144606766349 0 0 0 0 -25.769303640328872 -26.320170294537093 0 -26.320170294537093 -17.683644930661103 0 0 0 0 -28.61697370746333 -40.178650009189369 0 -40.178650009189369 9.6217714888625778 0 0 0 0 0.78823160311655904 -0.68830731277018709 0 -0.68830731277018709 -1.3856768768191827 0 0 0 0 96.091665448817366 -86.696299667652056 0 -86.696299667652056 -19.336261867196299 0 0 0 0 125.41826925474743 25.748648738634074 0 25.748648738634074 -19.583084500682162 0 0 0 0 -104.23673878645786 -66.655010921545909 0 -66.655010921545909 21.365536450903164 0 0 0 0 -12.750332771669491 -8.1616364234214416 0 -8.1616364234214416 -47.051146949863323 0 0 0 0 -25.596651479973843 -37.81494864470551 0 -37.81494864470551 -39.322077219927451 0 0 0 0 -26.512922812711622 -31.403573197661899 0 -31.403573197661899 47.59382260745042 0 0 0 0 99.700100179243577 0.090451696620220901 0 0.090451696620220901 -63.222018019907409 0 0 0 0 61.806555500683316 -62.372727741632843 0 -62.372727741632843 -95.701450159962405 0 0 0 0 44.85950077882444 -80.805517063199659 0 -80.805517063199659 -100.07632899434975 0 0 0 0 102.22081090938445 -74.707737321426976 0 -74.707737321426976 -101.77178584955982 0 0 0 0 -14.11528003380954 -39.562304392442456 0 -39.562304392442456 -76.932473833672702 0 0 0 0 -25.767302274261965 -71.485071792370945 0 -71.485071792370945 -88.460240359287127 0 0 0 0 -1.8639978088340285 -64.003594302386773 0 -64.003594302386773 -90.3617059449316 0 0 0 0 -9.5333757371972752 -51.749174328499066 0 -51.749174328499066 -91.98728208389366 0 0 0 0 224.81904880650109 -62.947431473672623 0 -62.947431473672623 -19.372602941377409 0 0 0 0 -22.902588845054197 -25.813575871721696 0 -25.813575871721696 29.621382769255433 0 0 0 0 2.0684366974171025 -4.1850343113410853 0 -4.1850343113410853 -5.8294509234751999 0 0 0 0 2.5750451445230884 -4.6731558829455224 0 -4.6731558829455224 -8.4503134801855424 0 0 0 0 -54.357752561409143 22.943393996858504 0 22.943393996858504 -16.677785664476687 0 0 0 0 -156.40566093347297 -54.070135450208909 0 -54.070135450208909 -22.252492149782483 0 0 0 0 107.95508521284501 31.537808528199093 0 31.537808528199093 -24.000113403219984 0 0 0 0 -47.06692841010954 51.255610909545794 0 51.255610909545794 83.159516443294706 0 0 0 0 156.1305524514828 -133.96411942036502 0 -133.96411942036502 69.801463737036102 0 0 0 0 1.6120745797674561 -0.14040393926499029 0 -0.14040393926499029 -3.1703838973147711 0 0 0 0 69.937000338104554 93.920441667723935 0 93.920441667723935 -146.05629302095622 0 0 0 0 7.406280713621527 -43.270703538129965 0 -43.270703538129965 -187.36196849288535 0 0 0 0 32.620312733910396 6.9958566071873065 0 6.9958566071873065 -14.948333087006176 0 0 0 0 -0.092747088965552393 2.5424966070713708 0 2.5424966070713708 -10.234025133482646 0 0 0 0 2.8196495513824198 -0.023938279006310736 0 -0.023938279006310736 -5.6877536338879899 0 0 0 0 -0.38644463611126412 0.33397269807755947 0 0.33397269807755947 -19.781701751402579 0 0 0 0 10.891710264402718 -7.1498530583667161 0 -7.1498530583667161 -38.421275165688712 0 0 0 0 3.1516774227539215 -5.2857485473173869 0 -5.2857485473173869 -11.209141454641038 0 0 0 0 45.028368340863381 9.3585232788755093 0 9.3585232788755093 -27.329728675424121 0 0 0 0 12.092319768758898 19.523085038083082 0 19.523085038083082 -8.8123471895232797 0 0 0 0 118.16285007633996 -16.636433847452281 0 -16.636433847452281 -51.19254880558583 0 0 0 0 75.236102995910187 38.910711941498448 0 38.910711941498448 -9.693645644292701 0 0 0 0 0.53453582705325342 -0.08746038235726239 0 -0.08746038235726239 -0.99527490684845432 0 0 0 0 323.51606669296598 120.5874916932371 0 120.5874916932371 30.924170722963026 0 0 0 0 28.807751380511036 11.99573127439362 0 11.99573127439362 -0.31065714520082111 0 0 0 0 132.72987017603009 95.768322864940274 0 95.768322864940274 28.353219352778979 0 0 0 0 448.28638454413158 -123.39635247518891 0 -123.39635247518891 -3.0549303545340081 0 0 0 0 267.12779961300112 -25.904597018845379 0 -25.904597018845379 -52.430621107749175 0 0 0 0 184.21066026172775 -85.715045579592697 0 -85.715045579592697 -7.2133210485626478 0 0 0 0 153.43375486755303 -86.947518889255662 0 -86.947518889255662 -43.064545220579021 0 0 0 0 148.62812417250825 -4.7238071842002682 0 -4.7238071842002682 -55.48244688239356 0 0 0 0 94.589603584245197 -64.383214982517529 0 -64.383214982517529 -51.332513194007333 0 0 0 0 72.408442353838836 -117.41894788896388 0 -117.41894788896388 -36.27865871108952 0 0 0 0 80.914618784940103 -98.027691719325958 0 -98.027691719325958 -26.852491044177441 0 0 0 0 -14.20854051556671 -107.42779758897086 0 -107.42779758897086 -14.834374256519368 0 0 0 0 37.479183413190185 -148.815790296052 0 -148.815790296052 3.2838822303165216 0 0 0 0 49.623492386541329 -104.59186247507751 0 -104.59186247507751 9.8233551352459472 0 0 0 0 -6.2792809616585146 -122.44962531162309 0 -122.44962531162309 41.55938888923265 0 0 0 0 148.61264692292025 -149.77006621785404 0 -149.77006621785404 2.6272742538130842 0 0 0 0 168.24675482251769 -68.200998670901754 0 -68.200998670901754 -25.733212084072875 0 0 0 0 63.137454081446776 -136.38435134260362 0 -136.38435134260362 83.142773610248696 0 0 0 0 140.6389094642218 -85.623417147187865 0 -85.623417147187865 38.967961663409369 0 0 0 0 95.742164783732733 -67.549188947741641 0 -67.549188947741641 66.020366783552163 0 0 0 0 93.528887245774968 -89.848318701813696 0 -89.848318701813696 69.043125275959028 0 0 0 0 -28.254862859226705 -107.61652018774475 0 -107.61652018774475 55.218369734531734 0 0 0 0 34.894696988863871 -81.974662204040214 0 -81.974662204040214 20.556987427160493 0 0 0 0 48.428230192599585 -106.33659600702231 0 -106.33659600702231 53.864884814538527 0 0 0 0 89.370620420886553 -76.161139494855888 0 -76.161139494855888 39.839853940720786 0 0 0 0 29.900565887412085 -97.18797863569489 0 -97.18797863569489 55.697517668828368 0 0 0 0 29.003602240083637 -93.206024169729062 0 -93.206024169729062 39.680199521884788 0 0 0 0 -46.043336418733816 -89.338107994553866 0 -89.338107994553866 75.687810371542582 0 0 0 0 81.989615743572358 -84.46614237112226 0 -84.46614237112226 49.902339665277395 0 0 0 0 25.864073245669715 -122.74125062586972 0 -122.74125062586972 80.890740489179734 0 0 0 0 184.79247673265854 -61.961210402419965 0 -61.961210402419965 -56.31526434404077 0 0 0 0 164.6145388399018 -47.746002153522568 0 -47.746002153522568 44.719847663960536 0 0 0 0 100.28275865990872 -98.865271348309761 0 -98.865271348309761 11.389632448728662 0 0 0 0 165.47174515892402 -77.686636942496989 0 -77.686636942496989 -37.138686760823475 0 0 0 0 -26.639850791165372 -100.92466327242437 0 -100.92466327242437 -17.113403989613289 0 0 0 0 167.08125932919211 -38.930238727654796 0 -38.930238727654796 -108.07576251792489 0 0 0 0 -81.657446100372908 28.025520018709358 0 28.025520018709358 -23.862269121862482 0 0 0 0 42.293196815007832 28.213285554258619 0 28.213285554258619 -97.369824398250785 0 0 0 0 -0.0023566413244737738 0.047308507459797644 0 0.047308507459797644 0.19269713488178297 0 0 0 0 678.62473924583173 -90.360405671526678 0 -90.360405671526678 -148.01478668313939 0 0 0 0 -248.03720119593709 -180.30450551219838 0 -180.30450551219838 108.06745712162228 0 0 0 0 218.88285802462633 -47.212599003032665 0 -47.212599003032665 -39.504918681341223 0 0 0 0 419.08390258616419 105.68930752651067 0 105.68930752651067 -153.38891567744577 0 0 0 0 520.59691627020948 63.644503194023855 0 63.644503194023855 -162.74524742306676 0 0 0 0 499.3348113205866 -180.73290520044975 0 -180.73290520044975 -3.8227035598829389 0 0 0 0 196.79941033706564 -435.20049858262792 0 -435.20049858262792 11.857438398292288 0 0 0 0 437.85401102052128 -338.35797005680797 0 -338.35797005680797 179.65864105129731 0 0 0 0 -290.83903910185472 5.8492055013921345 0 5.8492055013921345 302.70669277140405 0 0 0 0 140.03533384668378 -111.82494870185246 0 -111.82494870185246 266.36541451280937 0 0 0 0 205.45770371220715 10.527552346960874 0 10.527552346960874 19.199732833600137 0 0 0 0 239.53019431418943 -100.83664711733581 0 -100.83664711733581 -55.931494360396755 0 0 0 0 11.93523675097822 -354.5031662039255 0 -354.5031662039255 -9.9415463301702403 0 0 0 0 9.4207351475541348 -19.740555244354297 0 -19.740555244354297 7.6969487146102864 0 0 0 0 -144.24617420270806 -17.933211328127072 0 -17.933211328127072 8.1372548658400774 0 0 0 0 -5.1145886741426629 -1.133363112806407 0 -1.133363112806407 0.32397114316306386 0 0 0 0 -45.071734424651368 -19.106378559663426 0 -19.106378559663426 -1.8748519764485536 0 0 0 0 -34.426323607767699 -20.930234867715626 0 -20.930234867715626 -5.7885567978682957 0 0 0 0 198.11886056048388 4.4424915423005586 0 4.4424915423005586 -70.82475645127488 0 0 0 0 -164.37657350580776 -250.13610738438365 0 -250.13610738438365 9.0511137955763843 0 0 0 0 6.5858066229559249 -10.693220229502943 0 -10.693220229502943 -0.57339102014728383 0 0 0 0 486.84581779891596 100.22212382919679 0 100.22212382919679 -170.8474744660416 0 0 0 0 -134.4380835207121 -85.053892922587693 0 -85.053892922587693 -30.36648037705163 0 0 0 0 -125.1883657310027 -73.110780086921295 0 -73.110780086921295 1.3111581434786785 0 0 0 0 -199.12599420417428 -131.29497248095868 0 -131.29497248095868 7.4095067490707152 0 0 0 0 -41.3530371106026 -141.40707510025823 0 -141.40707510025823 -12.343984224113228 0 0 0 0 -114.93624567890583 -114.46146908057926 0 -114.46146908057926 -0.34392374579329044 0 0 0 0 -84.595519434456946 -103.18940968139214 0 -103.18940968139214 0.2199458477407461 0 0 0 0 -135.92786281304143 -119.4801925803331 0 -119.4801925803331 24.354224425973371 0 0 0 0 -82.989114260562928 -136.02509867325716 0 -136.02509867325716 4.2063706023036502 0 0 0 0 -6.7146534389084991 -116.96304872124892 0 -116.96304872124892 -12.776366431266069 0 0 0 0 -40.915812533861754 -79.971518547703454 0 -79.971518547703454 -1.0494774694670923 0 0 0 0 -139.78626095114305 -79.972228292142972 0 -79.972228292142972 67.310577425378142 0 0 0 0 -49.44080990151906 -105.72226486717409 0 -105.72226486717409 67.319801199570065 0 0 0 0 -143.95163198019145 -76.727182321134023 0 -76.727182321134023 112.43659974988259 0 0 0 0 -236.82021529920166 21.256674603399006 0 21.256674603399006 41.26411010899028 0 0 0 0 -164.19150624614122 -102.11856513029488 0 -102.11856513029488 219.07934150696383 0 0 0 0 -145.77769829048111 -120.96594952959822 0 -120.96594952959822 -38.545261452411069 0 0 0 0 -347.13166296271811 -121.34870879269874 0 -121.34870879269874 34.8162710366596 0 0 0 0 3.7586028984219499 -5.9459907112006531 0 -5.9459907112006531 -0.35109148129258472 0 0 0 0 -434.83130144093593 -53.140761775692226 0 -53.140761775692226 287.92055380373495 0 0 0 0 1.2217548979958384 -1.8975089587898557 0 -1.8975089587898557 -0.13834493149259686 0 0 0 0 929.21736556407996 193.69224942654546 0 193.69224942654546 -343.6273068221999 0 0 0 0 -441.15956187774646 -429.62608861184708 0 -429.62608861184708 126.82320861292828 0 0 0 0 8.3658401694569342 -17.087570110662533 0 -17.087570110662533 9.6082740206517698 0 0 0 0 -142.05463276452792 -68.792416334814334 0 -68.792416334814334 -10.728519554897503 0 0 0 0 -27.152332239558746 402.62174739758484 0 402.62174739758484 -37.568039048986975 0 0 0 0 -825.78965886495644 -456.94841801741131 0 -456.94841801741131 673.52083112139371 0 0 0 0 7.7127245046038748 -15.09951640383092 0 -15.09951640383092 10.639544174787929 0 0 0 0 -155.34748776676133 -318.50875584883761 0 -318.50875584883761 483.11102250296972 0 0 0 0 378.70564605842083 -176.28484339479473 0 -176.28484339479473 51.207332634716295 0 0 0 0 -222.96754131133639 -167.69762497281772 0 -167.69762497281772 292.05868522118544 0 0 0 0 -233.73967465756141 -139.39757034811191 0 -139.39757034811191 264.49072544515366 0 0 0 0 -202.6596405386008 -120.5222553532949 0 -120.5222553532949 213.45643434056547 0 0 0 0 -147.21236729877273 -168.5240550468443 0 -168.5240550468443 244.7774216416874 0 0 0 0 -47.454689778322063 -149.77929889140069 0 -149.77929889140069 167.01229704546859 0 0 0 0 -129.72678929914764 -154.848314670744 0 -154.848314670744 171.04235277071712 0 0 0 0 -158.35276475326827 -223.18998671146983 0 -223.18998671146983 242.87760366883595 0 0 0 0 -65.012401850668539 -190.61550909430662 0 -190.61550909430662 189.6974829583487 0 0 0 0 -224.24183544630796 -175.65411960045458 0 -175.65411960045458 244.1239302999893 0 0 0 0 -215.94206744558323 -191.02485426791827 0 -191.02485426791827 231.09182757981762 0 0 0 0 -339.78958631601563 -247.06858845442184 0 -247.06858845442184 219.49254398272024 0 0 0 0 -98.516599201298959 -42.748891358540277 0 -42.748891358540277 -28.837940336637985 0 0 0 0 -179.84595965431799 -265.59389357999316 0 -265.59389357999316 -19.332365599257173 0 0 0 0 -262.09307836831431 15.909408835577779 0 15.909408835577779 89.039007239945931 0 0 0 0 -684.76997685997776 162.92516766328481 0 162.92516766328481 38.116699269652599 0 0 0 0 -300.03994339725887 -11.069271443530852 0 -11.069271443530852 69.890157733374508 0 0 0 0 -24.639889495723764 -186.5849601876107 0 -186.5849601876107 181.29574831212813 0 0 0 0 -151.89755372026411 120.82930487712292 0 120.82930487712292 -8.973498823819682 0 0 0 0 -86.013557396388023 71.204542620973371 0 71.204542620973371 -79.915532146173064 0 0 0 0 -221.09898245963905 173.88422212893056 0 173.88422212893056 -42.7221666573314 0 0 0 0 -601.08967658291112 111.76866922902991 0 111.76866922902991 119.78774798597442 0 0 0 0 -150.28869036985998 68.097839995549293 0 68.097839995549293 -12.613127668315428 0 0 0 0 252.79146027733805 -69.245569962542504 0 -69.245569962542504 61.867724969928531 0 0 0 0 353.64732996230305 -199.33447909721872 0 -199.33447909721872 16.088530194014311 0 0 0 0 491.19571874655958 -59.098433010512963 0 -59.098433010512963 60.852898386525339 0 0 0 0 0.21939074618206567 0.48199317987208268 0 0.48199317987208268 -0.10594340223546084 0 0 0 0 -68.486275987997942 82.552969191630837 0 82.552969191630837 10.900871506222757 0 0 0 0 979.28915734364091 -436.1968600521941 0 -436.1968600521941 -384.91811474214774 0 0 0 0 -0.0018004290641682186 0.0881624331348414 0 0.0881624331348414 0.44034783092222085 0 0 0 0 593.66151455976797 181.82276941246528 0 181.82276941246528 393.60987151297741 0 0 0 0 116.10107025881371 174.09683839359059 0 174.09683839359059 17.008758210286032 0 0 0 0 171.46183368782113 208.0423886792305 0 208.0423886792305 30.002968952583615 0 0 0 0 658.31831865829008 195.93069115193794 0 195.93069115193794 -164.81434540445116 0 0 0 0 244.14136551297997 -98.540712653644732 0 -98.540712653644732 -10.175255742797162 0 0 0 0 210.00412831206631 -41.153146295284387 0 -41.153146295284387 -89.864835821732413 0 0 0 0 230.56348668950704 -150.42556494109886 0 -150.42556494109886 -28.839877497230191 0 0 0 0 201.60289914067835 -105.85986292094458 0 -105.85986292094458 -67.923691875301301 0 0 0 0 167.90737065436042 -138.14690692385921 0 -138.14690692385921 -3.5499532757676207 0 0 0 0 148.4259691638872 -123.53263404450263 0 -123.53263404450263 20.832971452531638 0 0 0 0 126.29333604643034 -224.403257389582 0 -224.403257389582 91.670726178272162 0 0 0 0 200.7338543033693 -148.54342130228179 0 -148.54342130228179 -0.57043557491851971 0 0 0 0 223.34905686356069 -183.57448550290428 0 -183.57448550290428 18.806180622195825 0 0 0 0 -13.504927057772875 -121.96049082707032 0 -121.96049082707032 82.37928064737207 0 0 0 0 69.212955639835855 -173.81281998021586 0 -173.81281998021586 91.74864212423563 0 0 0 0 101.2613962534233 -199.5398959951126 0 -199.5398959951126 93.1528859296468 0 0 0 0 86.717254037728708 -308.58002712446614 0 -308.58002712446614 203.38686021705507 0 0 0 0 -53.255660942435497 -239.52202475923696 0 -239.52202475923696 175.21040115976939 0 0 0 0 179.62356244951661 -235.81507757154759 0 -235.81507757154759 94.059079545739223 0 0 0 0 196.12859260465484 -257.34733557410073 0 -257.34733557410073 104.27917984913802 0 0 0 0 153.109812134604 -321.91259583305509 0 -321.91259583305509 323.67647634760942 0 0 0 0 495.9857471203577 -365.02066547914001 0 -365.02066547914001 142.6974209316395 0 0 0 0 141.31557651311596 -354.80962917840952 0 -354.80962917840952 264.91912327188766 0 0 0 0 -24.127554341874202 -183.62675658395165 0 -183.62675658395165 307.10790117336001 0 0 0 0 437.82975789129705 -337.20437786979892 0 -337.20437786979892 281.95106567698531 0 0 0 0 -33.029893607250415 -241.72127925082168 0 -241.72127925082168 232.67820077280339 0 0 0 0 -92.394748332037125 -301.33632793258585 0 -301.33632793258585 212.10829109535553 0 0 0 0 -136.95041821924679 -162.8908907926816 0 -162.8908907926816 215.43571464753541 0 0 0 0 -32.246528223186033 16.861130096105626 0 16.861130096105626 174.41240152649698 0 0 0 0 -48.620779477321776 -233.87385329311655 0 -233.87385329311655 217.91834029078018 0 0 0 0 12.452336889604339 40.509094627617742 0 40.509094627617742 321.07814763977512 0 0 0 0 75.126299504729104 -54.517430267798773 0 -54.517430267798773 -46.497471848269925 0 0 0 0 102.51593009196949 -398.48324127109663 0 -398.48324127109663 471.40178453881526 0 0 0 0 -26.608790823302115 -232.40057830080332 0 -232.40057830080332 836.52978424368484 0 0 0 0 534.4625799841524 -715.45934728885186 0 -715.45934728885186 515.30316475173458 0 0 0 0 -0.0045133093771827504 0.063687676869836229 0 0.063687676869836229 0.25391311542789907 0 0 0 0 1227.797508114807 -334.55667615847051 0 -334.55667615847051 25.570963228703476 0 0 0 0 0.63258960922021767 1.4723081591102538 0 1.4723081591102538 -0.13336068226351472 0 0 0 0 448.57933528785361 286.9760034068895 0 286.9760034068895 249.46156511096342 0 0 0 0 720.379656274421 -261.71635245707148 0 -261.71635245707148 60.786714413785376 0 0 0 0 -152.29825964059091 -357.09161141477307 0 -357.09161141477307 422.56049716874259 0 0 0 0 892.72810859955644 -623.46497223872575 0 -623.46497223872575 335.62179286216269 0 0 0 0 678.73599013510102 -558.48022919180221 0 -558.48022919180221 390.84153374095331 0 0 0 0 655.17961741192812 -403.13562028798333 0 -403.13562028798333 315.73915931058582 0 0 0 0 986.39528377461829 -467.12573892917135 0 -467.12573892917135 254.53876611556916 0 0 0 0 839.69791487292969 -203.32064775162144 0 -203.32064775162144 59.853203042352106 0 0 0 0 982.52692390497396 -458.43457591653714 0 -458.43457591653714 310.31772723305039 0 0 0 0 939.00580820422783 -542.10823338399496 0 -542.10823338399496 -196.89388414204586 0 0 0 0 354.19520757493592 -50.58901004899235 0 -50.58901004899235 72.464843510439096 0 0 0 0 188.51779775147588 -107.74648390387301 0 -107.74648390387301 -82.173289340484189 0 0 0 0 -130.66321543391678 -39.57243460736936 0 -39.57243460736936 -96.41676568434923 0 0 0 0 35.096580642319168 -37.865329760767054 0 -37.865329760767054 34.326886111113708 0 0 0 0 266.69683694725245 -197.91294969106093 0 -197.91294969106093 9.5928722618846223 0 0 0 0 522.69143221661216 -82.711523863530601 0 -82.711523863530601 -680.34181140374858 0 0 0 0 598.27571824182087 -644.09109051896667 0 -644.09109051896667 614.69338775284996 0 0 0 0 0.087515208146493606 -0.2461768335026342 0 -0.2461768335026342 0.0078787159246281879 0 0 0 0 -0.086253393758115138 -0.42268835207254618 0 -0.42268835207254618 0.015778980245572893 0 0 0 0 55.381800216229749 -99.525670790986624 0 -99.525670790986624 -85.383111321163597 0 0 0 0 109.47989681464969 -458.58546724231564 0 -458.58546724231564 94.171907663445836 0 0 0 0 -130.41974477772601 -86.628584693040466 0 -86.628584693040466 85.260460762132425 0 0 0 0 667.28395117093896 -305.11526929581305 0 -305.11526929581305 -742.82402510894462 0 0 0 0 -581.04658346677752 -859.33001103579591 0 -859.33001103579591 -604.72449085008702 0 0 0 0 0.2490523383128318 -0.12019797534902921 0 -0.12019797534902921 -0.50956787800642545 0 0 0 0 118.62033836590217 183.04401470673474 0 183.04401470673474 -592.887626607524 0 0 0 0 -39.789535376607091 -251.4411438365787 0 -251.4411438365787 -128.87066936108749 0 0 0 0 43.87135721447703 -115.82611875032308 0 -115.82611875032308 -92.306767002741253 0 0 0 0 -17.901042012243124 -136.20775174640585 0 -136.20775174640585 22.293540310434764 0 0 0 0 0.64041237912760884 -0.21488636499204539 0 -0.21488636499204539 -1.1133912303920965 0 0 0 0 41.816295640608587 -31.485484561926569 0 -31.485484561926569 35.915096219949191 0 0 0 0 -444.88604467609548 723.60909814455954 0 723.60909814455954 -168.9387833980436 0 0 0 0 -123.24789194599725 678.29302237965749 0 678.29302237965749 45.937251986790216 0 0 0 0 165.83194553732756 388.88949884611065 0 388.88949884611065 -107.67564121659962 0 0 0 0 -0.5613082501484552 -0.010123151596300062 0 -0.010123151596300062 0.38142291269999262 0 0 0 0 -75.48399835348755 -204.51774272114199 0 -204.51774272114199 -131.32765800561174 0 0 0 0 -247.12745357216045 297.02625315524347 0 297.02625315524347 -49.204763677349547 0 0 0 0 157.93112523856325 -28.322022067033686 0 -28.322022067033686 32.388300528145919 0 0 0 0 37.167241280498274 -90.524839635792887 0 -90.524839635792887 111.72719410252466 0 0 0 0 388.62734958963119 -149.6136020358972 0 -149.6136020358972 53.07381246193836 0 0 0 0 135.24396564591007 -135.80891421873093 0 -135.80891421873093 123.81008896230924 0 0 0 0 802.46136557805585 -212.76441218944092 0 -212.76441218944092 5.6638435726054013 0 0 0 0 271.69622942528076 -170.94509015830408 0 -170.94509015830408 135.28942754335003 0 0 0 0 104.21647109644255 -118.36061999983212 0 -118.36061999983212 113.07844497069891 0 0 0 0 264.52993694731072 -56.59314272397387 0 -56.59314272397387 59.462676514929626 0 0 0 0 -33.89404714070406 -7.0555750416533556 0 -7.0555750416533556 16.614798739043181 0 0 0 0 -48.780701944278917 76.888110059851897 0 76.888110059851897 -147.63220255231136 0 0 0 0 -173.4891752728654 64.496275600802619 0 64.496275600802619 -41.222868616997403 0 0 0 0 -75.2131889958182 -90.359369449972291 0 -90.359369449972291 9.146067403635243 0 0 0 0 -527.85625096585136 74.962463743635453 0 74.962463743635453 -117.90194309836079 0 0 0 0 15.522994296901743 163.66584330280602 0 163.66584330280602 -188.5514484836749 0 0 0 0 -205.21248869073861 200.02395684318435 0 200.02395684318435 -285.68048758537043 0 0 0 0 -405.9671421796811 -341.14753782698244 0 -341.14753782698244 -303.62557661897154 0 0 0 0 -0.17442371214606212 -0.19832891320725921 0 -0.19832891320725921 0.009683331014029406 0 0 0 0 -1191.3163064023829 432.05173289074446 0 432.05173289074446 782.76231346188615 0 0 0 0 -526.18967946018984 101.32030888794725 0 101.32030888794725 233.78409817052307 0 0 0 0 -1170.2842970599013 334.51605109317461 0 334.51605109317461 149.88882171575096 0 0 0 0 -1297.777642531637 -50.173210379733064 0 -50.173210379733064 133.97203547146637 0 0 0 0 51.086905082971498 -63.418399144517025 0 -63.418399144517025 -19.17698637284775 0 0 0 0 -195.67783621860144 -215.55754848593642 0 -215.55754848593642 -94.089664711107616 0 0 0 0 -1.3253388643301101 -0.87363885388467644 0 -0.87363885388467644 0.87496631365467969 0 0 0 0 -482.99141279936157 -701.79963888349448 0 -701.79963888349448 -803.07597368740244 0 0 0 0 -375.74002482026117 395.69360196770867 0 395.69360196770867 -159.38707741419785 0 0 0 0 -3.7754268644277396 -2.5212261634384028 0 -2.5212261634384028 2.6036373560469199 0 0 0 0 -188.20558465563226 -222.2845904561982 0 -222.2845904561982 -148.61380149498655 0 0 0 0 -110.2074676481916 -139.26930307267867 0 -139.26930307267867 -62.476498101779725 0 0 0 0 -80.669274388987105 -17.622187147360819 0 -17.622187147360819 7.3714259778498672 0 0 0 0 -38.060220862302231 12.068568813658203 0 12.068568813658203 128.26963624275231 0 0 0 0 -381.21116271519713 73.75829169224744 0 73.75829169224744 54.199099047575146 0 0 0 0 -514.17530060827266 -245.81900183744438 0 -245.81900183744438 28.315161254889063 0 0 0 0 -207.49281579087983 -121.15695042682637 0 -121.15695042682637 32.890702127362601 0 0 0 0 -222.05406042321556 -95.972497876107809 0 -95.972497876107809 -8.526254740980221 0 0 0 0 -269.4442331274422 -251.49614486358405 0 -251.49614486358405 -8.5633875306375558 0 0 0 0 -301.50278083414014 -206.56648080931336 0 -206.56648080931336 -14.922133686923189 0 0 0 0 -291.50127903422981 -263.73982355997214 0 -263.73982355997214 -236.24678224211675 0 0 0 0 -273.70292242644064 -192.05228827128303 0 -192.05228827128303 -0.68258820260962239 0 0 0 0 -1.16668824142773 -0.10762580358338081 0 -0.10762580358338081 0.91590904724504796 0 0 0 0 -254.94080478483374 -265.28035717771127 0 -265.28035717771127 -55.172475727791607 0 0 0 0 -315.68987439224838 46.502164471047763 0 46.502164471047763 375.16605363102281 0 0 0 0 -1.2097711801161921 -0.056594789811267532 0 -0.056594789811267532 0.87060297969089717 0 0 0 0 -118.80595792533495 -47.190117632300826 0 -47.190117632300826 -4.1304178326245164 0 0 0 0 -50.26504638155393 -29.503636370705863 0 -29.503636370705863 -15.499327952013118 0 0 0 0 -71.901066303220432 -64.46505059802621 0 -64.46505059802621 3.1818437859183177 0 0 0 0 -65.867266344066593 -48.001443570072297 0 -48.001443570072297 23.64725922649086 0 0 0 0 -29.921943974637543 -53.279754727060208 0 -53.279754727060208 -0.068993336244602688 0 0 0 0 -46.996464337367343 -1.6913017152000975 0 -1.6913017152000975 46.512205287348479 0 0 0 0 -79.223155330197187 -44.561362040753011 0 -44.561362040753011 24.717437921164674 0 0 0 0 20.541926606936613 73.983767141904536 0 73.983767141904536 84.813340822103783 0 0 0 0 -0.5243488813717132 -0.063082614618880761 0 -0.063082614618880761 0.43137227055636629 0 0 0 0 -202.89596946867823 8.1431926758377813 0 8.1431926758377813 89.761346231447533 0 0 0 0 -480.38153093484289 -154.04469648380473 0 -154.04469648380473 0.19726890489484294 0 0 0 0 -617.68742692294472 -152.61505345771729 0 -152.61505345771729 -60.419421354148653 0 0 0 0 -665.21239770895045 -369.64987302203372 0 -369.64987302203372 -247.43493670294993 0 0 0 0 -61.739220385781664 46.961750652204501 0 46.961750652204501 -65.61948251756985 0 0 0 0 -67.300062996670022 81.855017294281424 0 81.855017294281424 -230.13820707252307 0 0 0 0 0.3858724118362904 -0.036503404829492325 0 -0.036503404829492325 -0.48152516094542364 0 0 0 0 246.09112099463164 -224.71732612355845 0 -224.71732612355845 120.77046520306612 0 0 0 0 33.754935024560837 88.761604678467847 0 88.761604678467847 -109.23236782057211 0 0 0 0 0.76201843414774473 -0.13118816893227248 0 -0.13118816893227248 -1.070964088823807 0 0 0 0 -195.07361385176046 104.22378084382217 0 104.22378084382217 -89.95350460040936 0 0 0 0 -180.09805539374065 -37.731911117822165 0 -37.731911117822165 -21.289630785106056 0 0 0 0 -615.50118395869868 -73.223635269328952 0 -73.223635269328952 -14.539024854675517 0 0 0 0 -114.22198776126606 -21.498503833332506 0 -21.498503833332506 -29.557965648753452 0 0 0 0 -146.5778376149658 12.073872551679301 0 12.073872551679301 -71.663856783183292 0 0 0 0 -145.56888378246515 -33.365302797452159 0 -33.365302797452159 0.31478972540935501 0 0 0 0 -104.63910415475402 -37.138479958572134 0 -37.138479958572134 0.036672277565230615 0 0 0 0 -116.46478532521724 -53.300014307998936 0 -53.300014307998936 -15.655421421484789 0 0 0 0 -129.11463329615799 -44.734213829964574 0 -44.734213829964574 -0.026321581040974706 0 0 0 0 -96.299177069551661 -43.94961950781726 0 -43.94961950781726 -31.03379759429663 0 0 0 0 7.1783983541427006 -76.186288412478461 0 -76.186288412478461 -145.41850209054246 0 0 0 0 -46.059783726719616 -88.906126455956837 0 -88.906126455956837 0.016865053650690243 0 0 0 0 -96.151594492513198 -35.730679076037859 0 -35.730679076037859 -56.127266842348035 0 0 0 0 43.673617871896568 -47.408583265361813 0 -47.408583265361813 -70.281128953400184 0 0 0 0 155.25412708810836 -142.79468865285889 0 -142.79468865285889 -0.12924859594204463 0 0 0 0 -5.5729722552423482 -85.008462797210086 0 -85.008462797210086 -57.133432839167654 0 0 0 0 164.01533371167352 -161.07211261794146 0 -161.07211261794146 0.017219708694028668 0 0 0 0 158.03601631822676 -145.76964069297537 0 -145.76964069297537 -24.890782163609401 0 0 0 0 170.91048655679333 -185.40936801006319 0 -185.40936801006319 -48.615455943690904 0 0 0 0 171.44621926301443 -193.51116445644402 0 -193.51116445644402 23.43497806355299 0 0 0 0 291.69902370196723 -280.63395271784975 0 -280.63395271784975 14.756994833878707 0 0 0 0 97.003167704093244 -261.17034698810903 0 -261.17034698810903 57.846144865281531 0 0 0 0 397.04728252957284 -437.60125551736564 0 -437.60125551736564 160.26829597787582 0 0 0 0 241.33569630203056 -270.66035700445354 0 -270.66035700445354 -28.912455480116478 0 0 0 0 247.37365752321421 -93.030657827301184 0 -93.030657827301184 -174.40389033962856 0 0 0 0 377.5379951688883 -98.049985257792287 0 -98.049985257792287 144.66117691643012 0 0 0 0 152.89161897999657 -109.26271694347815 0 -109.26271694347815 86.991071757482132 0 0 0 0 213.71793931773209 -245.89689940529934 0 -245.89689940529934 118.11225487740012 0 0 0 0 397.20954592685189 -355.02227639072407 0 -355.02227639072407 173.60832784028025 0 0 0 0 293.41649827141373 -362.07406781772443 0 -362.07406781772443 212.40107936502318 0 0 0 0 657.72933202110835 -664.37355858767114 0 -664.37355858767114 424.85431199753657 0 0 0 0 100.14027116380748 -197.83386250521289 0 -197.83386250521289 -1.3491613512887852 0 0 0 0 325.58114292303208 -231.66470087664675 0 -231.66470087664675 -73.245615864783758 0 0 0 0 493.17584923144022 -438.76394431525841 0 -438.76394431525841 99.695562752283877 0 0 0 0 238.62144186616479 -340.73297179770452 0 -340.73297179770452 411.8347023576207 0 0 0 0 417.47875205604942 -74.82670846414112 0 -74.82670846414112 -231.18460048951965 0 0 0 0 -0.18021946578084691 -0.26807932801601986 0 -0.26807932801601986 0.46986608173737565 0 0 0 0 -124.15014974458609 -248.44453038612846 0 -248.44453038612846 322.50142141566175 0 0 0 0 -62.205642053902466 -29.841097892707694 0 -29.841097892707694 -24.017395583330654 0 0 0 0 104.10163520514493 -384.61713455387508 0 -384.61713455387508 -363.52818843416753 0 0 0 0 -0.27501153269217227 -0.55005994618898768 0 -0.55005994618898768 0.91210714337789156 0 0 0 0 15.75890986907325 151.94791382677795 0 151.94791382677795 -113.8852261284992 0 0 0 0 87.267464559786447 80.411010383334315 0 80.411010383334315 -44.974781694734702 0 0 0 0 0.5110935196095916 -0.3681235259330613 0 -0.3681235259330613 -0.61334539709981151 0 0 0 0 259.90753047950056 -296.65782856177248 0 -296.65782856177248 273.69464471103856 0 0 0 0 124.55791662013326 -369.50508059877757 0 -369.50508059877757 1147.7902400394669 0 0 0 0 295.79276722210489 140.97430723202706 0 140.97430723202706 -206.66815583527205 0 0 0 0 574.55714811162761 -220.92449611570191 0 -220.92449611570191 -82.093233829655219 0 0 0 0 -179.65122471278301 -66.881001289541018 0 -66.881001289541018 309.71056727509676 0 0 0 0 -253.04432431605346 241.18018241176833 0 241.18018241176833 -493.35379177861614 0 0 0 0 0.21932884655940432 -0.36092330234403747 0 -0.36092330234403747 0.29192446242693748 0 0 0 0 1201.6027545848774 -536.15849459431047 0 -536.15849459431047 235.43849157786462 0 0 0 0 -1659.8263870180745 828.5272382516996 0 828.5272382516996 -280.30007944541285 0 0 0 0 1186.2288244713272 -549.84606552189507 0 -549.84606552189507 251.13446277877665 0 0 0 0 934.35072051379029 -519.51904182324506 0 -519.51904182324506 331.22949219605653 0 0 0 0 -788.61387325414762 6.2792397559969686 0 6.2792397559969686 -87.796704961714568 0 0 0 0 0.10280382761719498 -0.070817001459451134 0 -0.070817001459451134 0.070138639583401385 0 0 0 0 1832.8752297721658 -715.15986181066546 0 -715.15986181066546 -25.877009257063037 0 0 0 0 -1103.8242265160297 431.56626018567476 0 431.56626018567476 -131.27837269811425 0 0 0 0 -729.88027272791078 -58.148858476735768 0 -58.148858476735768 100.18111826093809 0 0 0 0 -35.225205423991611 -399.52408648239361 0 -399.52408648239361 140.01724484864098 0 0 0 0 493.62523543340103 -914.7036360444763 0 -914.7036360444763 495.68755840731319 0 0 0 0 -2.7927688840188694 -39.311756559829519 0 -39.311756559829519 -12.234571842476726 0 0 0 0 0.39154056830569195 -1.7778264516883162 0 -1.7778264516883162 1.1850111387648745 0 0 0 0 -20.635683894692647 -10.366426718552248 0 -10.366426718552248 13.634976127592381 0 0 0 0 9.5084174907160559 10.115828957154008 0 10.115828957154008 -9.2233815614308696 0 0 0 0 2.7142489806083177 6.1583963987286552 0 6.1583963987286552 -7.8744398191920482 0 0 0 0 6.3238344923902332 6.7508657753132866 0 6.7508657753132866 -10.649694428953808 0 0 0 0 3.8944172841410851 -1.647140674039095 0 -1.647140674039095 -11.694012143045802 0 0 0 0 1319.990946406353 -143.24396536382847 0 -143.24396536382847 661.36386005231179 0 0 0 0 2.6153569827721022 -1.1683255330027791 0 -1.1683255330027791 -2.8741220990015304 0 0 0 0 -0.48905319412187964 -3.4681771531177219 0 -3.4681771531177219 -17.016438600607216 0 0 0 0 -190.77869785414077 -577.3638555923535 0 -577.3638555923535 1105.1536108639993 0 0 0 0 1.5554260094229084 -0.90727562473265877 0 -0.90727562473265877 -1.7784834986494058 0 0 0 0 -1.2412410840152006 -19.933206505593262 0 -19.933206505593262 -74.679361816466553 0 0 0 0 -377.54204828270849 -176.55470687666093 0 -176.55470687666093 765.37296113977209 0 0 0 0 36.145042726304382 128.84798584118835 0 128.84798584118835 -69.671944034693297 0 0 0 0 -0.15650778754952821 -0.30119146161994337 0 -0.30119146161994337 0.50615422735937443 0 0 0 0 358.75481295529244 -141.5076541993476 0 -141.5076541993476 -251.21062094558874 0 0 0 0 728.23213577515526 -266.87770651748542 0 -266.87770651748542 -216.87680249329424 0 0 0 0 -206.51591124041079 -329.89853584633966 0 -329.89853584633966 694.63926480487862 0 0 0 0 107.15839137429248 12.034374702794594 0 12.034374702794594 -166.94698092728504 0 0 0 0 316.01937295203243 -95.152988940360956 0 -95.152988940360956 -129.14685037347954 0 0 0 0 -84.366527797605158 -32.532190002370044 0 -32.532190002370044 -15.87448881965247 0 0 0 0 -94.501542591542602 -237.36325399851921 0 -237.36325399851921 -161.81324443418998 0 0 0 0 92.090116626227427 -127.57759066330618 0 -127.57759066330618 11.659687903316808 0 0 0 0 92.672955975322111 -31.517010035473504 0 -31.517010035473504 25.640120032918276 0 0 0 0 302.56201621882389 -156.77516406035102 0 -156.77516406035102 47.296955304889707 0 0 0 0 415.13212352123639 -332.14854703665696 0 -332.14854703665696 -23.519186580553651 0 0 0 0 -117.52249616483539 -2.4348087374528404 0 -2.4348087374528404 68.714597231446533 0 0 0 0 435.15726203044505 -202.89255891209177 0 -202.89255891209177 8.800618997978745 0 0 0 0 0.59720333191213393 -0.71302948985412584 0 -0.71302948985412584 0.32121340314161984 0 0 0 0 450.70822500407826 -171.67601878337155 0 -171.67601878337155 39.831099012379127 0 0 0 0 240.44787346695296 -100.94438448061555 0 -100.94438448061555 74.526551376504358 0 0 0 0 206.94578339851159 -134.172360643297 0 -134.172360643297 72.838966471492313 0 0 0 0 223.66276427253069 -87.759673040367488 0 -87.759673040367488 60.985767289877913 0 0 0 0 236.26172221284838 -183.27697468038923 0 -183.27697468038923 59.270943282259395 0 0 0 0 138.05972008526896 -135.57051546391995 0 -135.57051546391995 37.399424319693935 0 0 0 0 7.8546176692570953 -160.7084637374428 0 -160.7084637374428 142.17702482218738 0 0 0 0 90.432576862472956 -191.22445360865777 0 -191.22445360865777 106.92222014626896 0 0 0 0 150.97088267660911 -163.55711487296503 0 -163.55711487296503 70.999544765967585 0 0 0 0 197.2809191402398 -130.60109181864391 0 -130.60109181864391 32.508238484006142 0 0 0 0 170.89860370395763 -155.46030541317305 0 -155.46030541317305 4.3172717127017677 0 0 0 0 174.59207900586989 -157.75106466526631 0 -157.75106466526631 0.021994962487951852 0 0 0 0 213.17422399014322 -134.91418757749489 0 -134.91418757749489 -0.0029267823701957241 0 0 0 0 200.58814534741543 -144.17032023412685 0 -144.17032023412685 23.94713084497198 0 0 0 0 176.68988252770077 -119.82956066407496 0 -119.82956066407496 0.047683750948635861 0 0 0 0 150.71519190279378 -138.02947566293733 0 -138.02947566293733 35.806892668944784 0 0 0 0 143.4864060857085 -95.23290261526563 0 -95.23290261526563 27.559772720841465 0 0 0 0 214.51475179866816 -60.7207559894523 0 -60.7207559894523 11.892681725614239 0 0 0 0 207.89422321981328 -88.780209281860152 0 -88.780209281860152 28.072919390708194 0 0 0 0 315.23920314056159 -67.853014167281799 0 -67.853014167281799 8.8192169545218349 0 0 0 0 284.51430317041377 -68.805131860834081 0 -68.805131860834081 0.032603948158794083 0 0 0 0 224.06768974018087 -99.072052621813782 0 -99.072052621813782 14.628022854449227 0 0 0 0 264.28282297827172 -86.706547898022109 0 -86.706547898022109 -224.46270610160718 0 0 0 0 -1.1821657128771221 -3.7047965985293558 0 -3.7047965985293558 1.6141386180970585 0 0 0 0 -0.81724307531586082 -2.0496168827436474 0 -2.0496168827436474 1.2485662579732733 0 0 0 0 149.93664679503127 -119.32288514380343 0 -119.32288514380343 92.697310705902055 0 0 0 0 0.002153551951947108 -0.00424748686062415 0 -0.00424748686062415 -0.0035716881109886245 0 0 0 0 -233.20307984636383 127.96880266467633 0 127.96880266467633 221.089942976163 0 0 0 0 3.2350460407511448 -3.4907671640262836 0 -3.4907671640262836 0.12839718707068926 0 0 0 0 257.0529277015994 -94.389756732969545 0 -94.389756732969545 -1.2066825433576014 0 0 0 0 3.6204496579227969 -4.514502198974931 0 -4.514502198974931 -1.1222405256614074 0 0 0 0 116.56996376422103 -112.4540462117584 0 -112.4540462117584 -47.504264815841452 0 0 0 0 -93.242517631431838 -40.693540077139915 0 -40.693540077139915 12.739971027651336 0 0 0 0 9.4491550244565587 -36.882695509702899 0 -36.882695509702899 2.8264567027435987 0 0 0 0 -100.42953627129191 -47.708981791016413 0 -47.708981791016413 60.884296941496359 0 0 0 0 0.30963316554156306 -0.13216406981728301 0 -0.13216406981728301 -0.0031879943281865053 0 0 0 0 -145.74708514326932 78.550878729241958 0 78.550878729241958 0.24996637104777619 0 0 0 0 179.20856040957676 -124.13414435631239 0 -124.13414435631239 -19.024812152114464 0 0 0 0 -110.23141877236048 -25.137351742159808 0 -25.137351742159808 251.11435212906508 0 0 0 0 40.343341514919302 46.786253996440792 0 46.786253996440792 148.71780072118418 0 0 0 0 -0.9420938338627094 -0.68040774322536635 0 -0.68040774322536635 0.27218497281436171 0 0 0 0 50.389191455573382 -15.622416850299487 0 -15.622416850299487 57.916397816385143 0 0 0 0 63.322904795095383 31.68529791822948 0 31.68529791822948 123.24591891857563 0 0 0 0 29.864747395244194 4.1715747937123524 0 4.1715747937123524 118.62184794455243 0 0 0 0 -88.704627148508735 -155.62676289572846 0 -155.62676289572846 -327.78448564260907 0 0 0 0 -217.48804783408559 -426.53084460023092 0 -426.53084460023092 -455.09763373023452 0 0 0 0 -273.87313745159918 -173.28336905078322 0 -173.28336905078322 -0.14303849471616559 0 0 0 0 -348.71726443660737 -294.4739332881436 0 -294.4739332881436 -83.917758008348756 0 0 0 0 -23.947255821927683 -45.586894607360591 0 -45.586894607360591 -193.47661452533794 0 0 0 0 -37.245982287771085 -1.1066647421966991 0 -1.1066647421966991 5.6064204504655208 0 0 0 0 19.941098251496442 -12.149492043652572 0 -12.149492043652572 45.094071387546137 0 0 0 0 11.311327005518251 22.252154470115784 0 22.252154470115784 153.5607021813048 0 0 0 0 -75.227878803561907 -82.836273218446877 0 -82.836273218446877 110.83793065120699 0 0 0 0 -80.106178208516212 -105.81128759708372 0 -105.81128759708372 130.51125669786416 0 0 0 0 -117.42031535065325 -121.42121322112507 0 -121.42121322112507 90.241481162636774 0 0 0 0 -2.7270968188248474 -1.7994994593248208 0 -1.7994994593248208 0.74732405860212658 0 0 0 0 2.0940277146291919 -2.1655629175947979 0 -2.1655629175947979 -0.10165533366671298 0 0 0 0 -18.767467595593189 -102.33376878833224 0 -102.33376878833224 -22.603275072280667 0 0 0 0 2.0912438798404764 -2.0434585638868157 0 -2.0434585638868157 0.038310970820020884 0 0 0 0 -4.5392142624256637 -2.7239084913400138 0 -2.7239084913400138 1.1723663171657854 0 0 0 0 -138.91390660900652 2.4850162104994524 0 2.4850162104994524 191.63288237195957 0 0 0 0 38.270044511235028 131.28815264636069 0 131.28815264636069 170.30779459928635 0 0 0 0 141.25929369559663 56.113817933868631 0 56.113817933868631 10.237312599783763 0 0 0 0 0.35652264320635929 -0.16778589811509192 0 -0.16778589811509192 -0.2829091865247868 0 0 0 0 18.221069881445146 -12.5371688662417 0 -12.5371688662417 -13.474211822824145 0 0 0 0 46.618958183957147 -3.6931760534789646 0 -3.6931760534789646 -25.485601211054018 0 0 0 0 1.1188978027145691 -0.52433255532162271 0 -0.52433255532162271 -0.87396853961360677 0 0 0 0 44.006401937919691 22.824885355170409 0 22.824885355170409 0.82270318214432336 0 0 0 0 31.274106115433369 -23.014712018477894 0 -23.014712018477894 -27.128726514230948 0 0 0 0 -66.197191427803773 17.698656629370817 0 17.698656629370817 92.646449608946568 0 0 0 0 -0.092859110010861556 -0.10094270451433118 0 -0.10094270451433118 0.047918957914172111 0 0 0 0 10.991791976824061 -86.156368819785712 0 -86.156368819785712 -170.65075187715411 0 0 0 0 -54.189676651767513 -0.67168119487178046 0 -0.67168119487178046 276.09463199885795 0 0 0 0 -48.871931686038806 -69.977858472479056 0 -69.977858472479056 -59.123413823748706 0 0 0 0 -36.151028386506368 -10.621294977885555 0 -10.621294977885555 -7.406878015527127 0 0 0 0 3.2109266003371619 -1.3350446403726117 0 -1.3350446403726117 -2.5049497477139688 0 0 0 0 4.430210965495462 1.6251794920553948 0 1.6251794920553948 -8.1261347664985806 0 0 0 0 5.4269851347908116 -0.96725352369321627 0 -0.96725352369321627 -11.813565357530024 0 0 0 0 3.3450155865721172 0.50070529879303649 0 0.50070529879303649 -12.817926277581137 0 0 0 0 -1.3507267038812643 -28.101287862707977 0 -28.101287862707977 -10.606042017985601 0 0 0 0 2.0375488592684672 -0.91693346185840241 0 -0.91693346185840241 -1.5729850881618219 0 0 0 0 11.663513433937624 25.790094810348819 0 25.790094810348819 -9.1434386290006842 0 0 0 0 12.243757897053001 6.1341193088810542 0 6.1341193088810542 -5.6405731686536456 0 0 0 0 3.4508358320672414 -1.2170708197008935 0 -1.2170708197008935 -6.711827057384653 0 0 0 0 7.5214108779910021 1.5553854419704294 0 1.5553854419704294 -11.260285401411238 0 0 0 0 4.406676110902481 -4.0311243459727848 0 -4.0311243459727848 -17.282225479953922 0 0 0 0 12.051386940232987 -1.1025706425098178 0 -1.1025706425098178 -21.235810229933122 0 0 0 0 2.7987035792029928 -8.6700780696337461 0 -8.6700780696337461 -14.230249369462399 0 0 0 0 30.0201390236507 -5.917375450299005 0 -5.917375450299005 -15.753524060011841 0 0 0 0 10.424791442397691 1.5358489851059858 0 1.5358489851059858 -1.4063396378242032 0 0 0 0 16.177570480949726 -16.238104973290319 0 -16.238104973290319 -30.360445014666766 0 0 0 0 4.4132058713058857 -11.12340960933382 0 -11.12340960933382 -1.0870840859894311 0 0 0 0 9.1989190345448719 -24.915749398795015 0 -24.915749398795015 -20.684700739191612 0 0 0 0 -1.4784921366349408 -25.126712823242997 0 -25.126712823242997 -5.9792493316817854 0 0 0 0 -3.584007440107257 -18.558717686773889 0 -18.558717686773889 -0.62401117313129362 0 0 0 0 1.3156478101618632 -24.166010670363903 0 -24.166010670363903 4.3647403502254747 0 0 0 0 9.2888408985454589 -6.9999451959592989 0 -6.9999451959592989 -25.462021730701963 0 0 0 0 3.666188815830874 -11.18677456621602 0 -11.18677456621602 -0.1703804809353775 0 0 0 0 -0.031529542276985012 -6.516491834045155 0 -6.516491834045155 -15.948049116515904 0 0 0 0 0.14039760038530813 -0.2315235055569449 0 -0.2315235055569449 0.37735999638705664 0 0 0 0 8.7808052232567206 -17.067109618386894 0 -17.067109618386894 -17.304651275248034 0 0 0 0 5.8550215530458445 -24.319077434505743 0 -24.319077434505743 -10.64029226306593 0 0 0 0 5.5111695037266202 -19.22840514970585 0 -19.22840514970585 -11.51799409231171 0 0 0 0 6.9403364118684294 -13.520111223806452 0 -13.520111223806452 -3.3974217289942317 0 0 0 0 4.069160748057584 -18.221168607808067 0 -18.221168607808067 -9.606354381001438 0 0 0 0 1.2014682246193162 -4.8377120869934629 0 -4.8377120869934629 -0.8795878094812295 0 0 0 0 4.2003161850698127 -6.4416478154132584 0 -6.4416478154132584 -1.9235196669326351 0 0 0 0 0.62251659359026235 -2.1861502561805537 0 -2.1861502561805537 -3.4055525179428514 0 0 0 0 2.1221152615908068 1.8411267638730351 0 1.8411267638730351 -9.3952109986566938 0 0 0 0 3.5226601040684793 -4.915310124860488 0 -4.915310124860488 0.1660480995105047 0 0 0 0 -1.7921009672136279 -2.63988577213604 0 -2.63988577213604 -13.060850071202367 0 0 0 0 0.13226521996933371 -0.046562664876557136 0 -0.046562664876557136 -0.16891540381450199 0 0 0 0 1.5723042496465496 -4.5001916198525578 0 -4.5001916198525578 -8.760740122263087 0 0 0 0 82.855615460784975 -55.833530288306065 0 -55.833530288306065 82.694438949925825 0 0 0 0 0.11013339609911665 0.084913588523139794 0 0.084913588523139794 -0.43770923555903263 0 0 0 0 42.628053407686821 -66.383472363871988 0 -66.383472363871988 138.32271580892848 0 0 0 0 3.5757342669380705 -16.308806541477679 0 -16.308806541477679 -19.436827449186239 0 0 0 0 32.673943395212518 -44.071670915902359 0 -44.071670915902359 -33.349076105369022 0 0 0 0 -84.937768630594292 92.27128750240081 0 92.27128750240081 40.507716142805293 0 0 0 0 157.52096458668643 -30.346793882548809 0 -30.346793882548809 -144.91734016031842 0 0 0 0 45.836387201793514 -79.551061476551695 0 -79.551061476551695 15.11396995591349 0 0 0 0 -13.52682707807935 33.874858436174691 0 33.874858436174691 60.301252606826893 0 0 0 0 28.318882240866969 -101.43081961170537 0 -101.43081961170537 84.241295643587364 0 0 0 0 75.682554532306312 -79.486485060624545 0 -79.486485060624545 20.898121885373257 0 0 0 0 16.551178760997686 -17.755111426136864 0 -17.755111426136864 -39.695410809421446 0 0 0 0 -36.028392453290508 -50.504776322763064 0 -50.504776322763064 34.188191307592206 0 0 0 0 60.259233484672222 -128.01500785365351 0 -128.01500785365351 41.928132810622628 0 0 0 0 117.80437851940496 -112.14489380432497 0 -112.14489380432497 22.165434276103042 0 0 0 0 3.9920054296243785 -5.9471183524570517 0 -5.9471183524570517 -2.1539346771306853 0 0 0 0 -13.985034655368509 -23.258617673047411 0 -23.258617673047411 -3.4046143529121764 0 0 0 0 27.627031622094364 -23.29642543368027 0 -23.29642543368027 -14.143277147115441 0 0 0 0 3.5942547581289546 -18.353999297250994 0 -18.353999297250994 -14.348115441966456 0 0 0 0 4.9392097708005167 -21.465787846027524 0 -21.465787846027524 -8.6158391919743735 0 0 0 0 9.980450871274229 -15.463227148851729 0 -15.463227148851729 -25.733449366365676 0 0 0 0 4.8353355070298205 -11.843406014862467 0 -11.843406014862467 -1.9121810319639998 0 0 0 0 6.2822745813814436 -14.983752245549113 0 -14.983752245549113 -19.677352242550114 0 0 0 0 6.5848407368935113 -11.273431761270331 0 -11.273431761270331 -9.5901912049303064 0 0 0 0 8.8908056734139791 -9.5368207844076096 0 -9.5368207844076096 -21.512202977559355 0 0 0 0 8.5110787057474226 -12.36610506469151 0 -12.36610506469151 -17.668519011116587 0 0 0 0 -0.4009220561863458 -20.852555909776129 0 -20.852555909776129 -6.4065856104571139 0 0 0 0 24.196731910012431 -29.208049909117108 0 -29.208049909117108 -4.4796149169724231 0 0 0 0 11.294674663911678 -12.905265802633949 0 -12.905265802633949 -2.5870281050592894 0 0 0 0 12.040839995322813 -14.417857123917202 0 -14.417857123917202 -8.9362878637293761 0 0 0 0 8.4645725195730961 -10.085917572760081 0 -10.085917572760081 -4.538331049043336 0 0 0 0 9.5982869013430445 -11.276313745755033 0 -11.276313745755033 -8.7623742858049809 0 0 0 0 4.931324366081399 -11.339962997702804 0 -11.339962997702804 -2.9251396673153636 0 0 0 0 8.3113056270470906 -7.8574674992441942 0 -7.8574674992441942 -14.091368568944745 0 0 0 0 16.581606755668115 -5.7044492033080916 0 -5.7044492033080916 -13.379147876168098 0 0 0 0 1.0957004681355329 -13.083854335272918 0 -13.083854335272918 -16.289173870522063 0 0 0 0 4.5436508484185651 -10.442812783730915 0 -10.442812783730915 -14.300514526867119 0 0 0 0 4.1097619506346312 -1.6314589906436758 0 -1.6314589906436758 -12.533629424866948 0 0 0 0 25.257627438896634 -16.620216698836884 0 -16.620216698836884 -7.7289587420236785 0 0 0 0 -11.291423301129271 -10.720011929777684 0 -10.720011929777684 18.048541977070272 0 0 0 0 -0.052102450802120628 -0.78612137437599738 0 -0.78612137437599738 0.24226338324724139 0 0 0 0 -2.7762211402505272 16.527225090161664 0 16.527225090161664 -45.907085460057715 0 0 0 0 7.0569993783376876 -8.3481529990747987 0 -8.3481529990747987 -11.574053214223515 0 0 0 0 21.002530968268957 -11.10261528268984 0 -11.10261528268984 6.4867066328297369 0 0 0 0 6.0606815194979395 -6.5355621476078509 0 -6.5355621476078509 -5.0449279922787156 0 0 0 0 20.737851533247522 -0.96929723997891415 0 -0.96929723997891415 -14.701759987117839 0 0 0 0 21.074990426208387 -12.026425961805217 0 -12.026425961805217 3.0149982417606225 0 0 0 0 50.421117209982185 -19.691862206127553 0 -19.691862206127553 0.99035838071358739 0 0 0 0 10.118130683553574 -14.885472063226189 0 -14.885472063226189 -4.8893323569354834 0 0 0 0 11.192332287760109 -17.157171056522202 0 -17.157171056522202 -0.3264067996351514 0 0 0 0 5.7072171162076897 -9.4187983666827364 0 -9.4187983666827364 -1.7079568980965014 0 0 0 0 5.3403541091730826 -8.9609066875262133 0 -8.9609066875262133 -6.9433919484954139 0 0 0 0 50.753663207511636 -17.237331762804388 0 -17.237331762804388 8.7284904578700662 0 0 0 0 -1.5843410216853044 -19.873091656059842 0 -19.873091656059842 0.58720114432799164 0 0 0 0 74.879716943702078 -26.928806850832189 0 -26.928806850832189 3.0050108303548768 0 0 0 0 29.38510713202686 -14.648643386346521 0 -14.648643386346521 -10.319773369192262 0 0 0 0 16.648601272505857 -15.37949172120716 0 -15.37949172120716 -1.1735037555627059 0 0 0 0 7.9454721489871645 -7.3782020743856265 0 -7.3782020743856265 4.8853455986536574 0 0 0 0 -38.952576521632182 -44.777754589696997 0 -44.777754589696997 -9.1921930135576986 0 0 0 0 -26.562993591126542 -22.059607114642859 0 -22.059607114642859 7.5741223633995105 0 0 0 0 -10.637227186355716 -17.862638855049227 0 -17.862638855049227 1.1196761265746318 0 0 0 0 -12.335418673441382 -41.662292175678886 0 -41.662292175678886 -23.412858317562495 0 0 0 0 -42.506498966684376 -30.822269997923286 0 -30.822269997923286 -23.464905995409936 0 0 0 0 0.53634463405992117 -0.13858701405180529 0 -0.13858701405180529 -0.39491970256849207 0 0 0 0 -65.308612575780899 -25.735465195728466 0 -25.735465195728466 6.2720807025471004 0 0 0 0 -27.842930100575245 2.698536435054848 0 2.698536435054848 -17.359133635676699 0 0 0 0 -68.877636828291543 -33.722050131909782 0 -33.722050131909782 -3.0787728967843577 0 0 0 0 -55.425969482078926 -57.58958610490663 0 -57.58958610490663 -74.962578729959205 0 0 0 0 -67.106380147337518 -34.773512583342381 0 -34.773512583342381 -15.281148990863585 0 0 0 0 0.051388928380331267 -0.060916891431798348 0 -0.060916891431798348 -0.013701359212474173 0 0 0 0 33.285483864047819 -6.9495983756496571 0 -6.9495983756496571 -4.5833979670424014 0 0 0 0 25.669827740908659 -5.8988963116862578 0 -5.8988963116862578 -4.7231277793471236 0 0 0 0 27.571068645675041 -10.488610379368765 0 -10.488610379368765 -3.7219920236675534 0 0 0 0 7.0035951438955344 -4.8230790322286436 0 -4.8230790322286436 -16.002762570272921 0 0 0 0 0.69465137675535971 -7.2463365675630484 0 -7.2463365675630484 -10.153372339016641 0 0 0 0 0.61664959289108157 -0.3164581651611682 0 -0.3164581651611682 -0.70974025252542994 0 0 0 0 -3.5465370722647549 -21.710753948940692 0 -21.710753948940692 25.480908144148998 0 0 0 0 92.021287123562132 0.96656427773996256 0 0.96656427773996256 -19.080150621091889 0 0 0 0 21.446115822713182 -26.28954409333528 0 -26.28954409333528 -36.271829767269082 0 0 0 0 5.50522294009048 -34.468100123973272 0 -34.468100123973272 23.508855560939992 0 0 0 0 35.116536355368439 -49.139765675470699 0 -49.139765675470699 -8.8598635650414508 0 0 0 0 51.429097812911152 6.3022882076984388 0 6.3022882076984388 -1.7471723626513267 0 0 0 0 -8.3821932424070482 5.8351343154299684 0 5.8351343154299684 28.277923690417083 0 0 0 0 42.869126851999056 -30.904516378461267 0 -30.904516378461267 -7.661261346671381 0 0 0 0 9.8267250008304927 -16.432321820007928 0 -16.432321820007928 -4.1075618346949341 0 0 0 0 13.563085132267702 -11.675083226444258 0 -11.675083226444258 -2.7815653725328957 0 0 0 0 12.590707640391855 -10.174652840141789 0 -10.174652840141789 -2.8415331906435313 0 0 0 0 22.101585060650336 -20.040960906084365 0 -20.040960906084365 -2.3745658722909866 0 0 0 0 26.693548032014974 -14.883155182345945 0 -14.883155182345945 -4.3705101140367333 0 0 0 0 -37.353071162103788 -31.960682495526271 0 -31.960682495526271 -3.6671786346214503 0 0 0 0 51.464533893012003 -19.002785110926197 0 -19.002785110926197 -10.848815030425612 0 0 0 0 -0.024628125564567539 0.088929484873781162 0 0.088929484873781162 0.029115883068843829 0 0 0 0 -13.40914484746088 -13.483085571398988 0 -13.483085571398988 -7.6140214662300423 0 0 0 0 -2.9667905592714305 -23.713196447912196 0 -23.713196447912196 -10.16922940594668 0 0 0 0 0.068208200677645436 -15.873335024327389 0 -15.873335024327389 -5.5479544885456562 0 0 0 0 1.2344748145774247 -12.959565176242904 0 -12.959565176242904 -9.0049838828490465 0 0 0 0 -0.045540015282692491 0.16401008218033208 0 0.16401008218033208 0.055126142661606536 0 0 0 0 6.0128577365748015 -18.701042806119403 0 -18.701042806119403 -9.855663465699763 0 0 0 0 3.4851342471374664 -20.298542594537139 0 -20.298542594537139 -10.862796344845265 0 0 0 0 5.6681733392397291 -20.342074151034467 0 -20.342074151034467 -12.030268680151494 0 0 0 0 4.032347007224871 -19.363865866544074 0 -19.363865866544074 -11.594895684873336 0 0 0 0 4.4552064771005462 -19.096470794025663 0 -19.096470794025663 -7.8825132676720386 0 0 0 0 2.9736621610245493 -21.277118753248942 0 -21.277118753248942 -10.77742104301069 0 0 0 0 5.6900273242381445 -20.082005516233039 0 -20.082005516233039 -11.311773523295415 0 0 0 0 5.2483074050029472 -20.296473570311719 0 -20.296473570311719 -7.1511009327950887 0 0 0 0 6.1506042215469279 -16.276484430898563 0 -16.276484430898563 -4.8873828623181907 0 0 0 0 6.8817414331324471 -18.170407212201098 0 -18.170407212201098 -8.3180127122650447 0 0 0 0 3.6626007373306493 -18.32076158541895 0 -18.32076158541895 -0.97093457302253228 0 0 0 0 6.8505943340301201 -11.434761377098766 0 -11.434761377098766 0.78187356222770177 0 0 0 0 6.8898643584398087 -10.716328795242589 0 -10.716328795242589 -3.7290119766403222 0 0 0 0 5.8150179259855577 -13.476151191949612 0 -13.476151191949612 -3.2347849544021301 0 0 0 0 7.7692411292064207 -15.007197269995231 0 -15.007197269995231 -5.8031784923223313 0 0 0 0 15.362437579859034 -16.432568896387238 0 -16.432568896387238 -6.1566647419385845 0 0 0 0 8.5629697133608715 -14.775694662414026 0 -14.775694662414026 -6.5580444823135622 0 0 0 0 -8.1921683662676514 -25.000353358711436 0 -25.000353358711436 8.6560929450206459 0 0 0 0 8.8337150277739056 -9.8056096039290424 0 -9.8056096039290424 -1.3886785468057496 0 0 0 0 18.20438338164513 -25.989017103391234 0 -25.989017103391234 -1.1577823736006394 0 0 0 0 41.190248532315081 -7.1139208406384569 0 -7.1139208406384569 -6.3723633836307272 0 0 0 0 16.519918767826312 -13.207112538657384 0 -13.207112538657384 -4.1172098667011596 0 0 0 0 -38.24340119515 -16.530405530123971 0 -16.530405530123971 7.5675286134937778 0 0 0 0 -0.024854844669302281 0.08963632269038424 0 0.08963632269038424 0.029998519620999531 0 0 0 0 -1.6649899698368245 -8.8595194083172828 0 -8.8595194083172828 -1.0624521463614656 0 0 0 0 6.9256401810848729 -9.1161874232420814 0 -9.1161874232420814 -6.7202702020731522 0 0 0 0 0.34419570099958918 -1.2754855543429517 0 -1.2754855543429517 1.6375900436551685 0 0 0 0 7.1239741345548282 -14.072001602506134 0 -14.072001602506134 -3.0720528653182555 0 0 0 0 4.6142712529344863 -23.668564120482188 0 -23.668564120482188 4.8465241378871724 0 0 0 0 -7.2385040573503829 -7.0889686572845676 0 -7.0889686572845676 -1.9658727114729118 0 0 0 0 -0.083149237043471658 -17.837873617099831 0 -17.837873617099831 4.6101152533801724 0 0 0 0 -1.9522562938495867 -4.0758586275260313 0 -4.0758586275260313 0.94487393240706297 0 0 0 0 18.145116838343718 -39.152588722990913 0 -39.152588722990913 50.34162976341031 0 0 0 0 1.583916017806132 -3.8517484953117673 0 -3.8517484953117673 -2.8076991089105832 0 0 0 0 1.1313492522358184 -6.7185580168150834 0 -6.7185580168150834 2.1672626224688831 0 0 0 0 -2.437401602557884 -5.3030947612132877 0 -5.3030947612132877 61.752808036246279 0 0 0 0 10.992965989407821 -6.5483211883356489 0 -6.5483211883356489 28.585897016564559 0 0 0 0 0.12767168137022855 -9.8219940506206527 0 -9.8219940506206527 4.8909361362581603 0 0 0 0 -19.044656455153017 7.2803099168468179 0 7.2803099168468179 37.36201342754066 0 0 0 0 -3.6108091894179037 -12.523665463231959 0 -12.523665463231959 9.0586314025744521 0 0 0 0 -64.344096047432686 -112.45754991885042 0 -112.45754991885042 187.67376156037062 0 0 0 0 120.74362885696337 169.715184474946 0 169.715184474946 126.18517835024977 0 0 0 0 20.616306714219718 -33.238525204222242 0 -33.238525204222242 9.8093753165449016 0 0 0 0 9.017715421921821 -30.736709653356229 0 -30.736709653356229 48.690910985867959 0 0 0 0 14.000162658348017 -16.001278752752114 0 -16.001278752752114 -3.9519259030348621 0 0 0 0 17.426794890856399 -24.400911638487742 0 -24.400911638487742 -9.4502994712092914 0 0 0 0 9.5135356884320572 -10.582773604604881 0 -10.582773604604881 -10.36514039899339 0 0 0 0 15.368582260045514 -17.072829348384403 0 -17.072829348384403 -20.454354496847373 0 0 0 0 10.437920742884671 -2.3119980706833303 0 -2.3119980706833303 -30.152500690612214 0 0 0 0 0.11190846868764137 -0.45695048035526042 0 -0.45695048035526042 0.53773179954855455 0 0 0 0 4.8958177316580986 -6.0183303895610152 0 -6.0183303895610152 -12.014648203767138 0 0 0 0 2.2639993017155575 -13.735584585767356 0 -13.735584585767356 -0.14490865237894468 0 0 0 0 0.68337783871307578 -6.6364557715336066 0 -6.6364557715336066 1.6120204832803058 0 0 0 0 5.2746005190551841 -5.7518644229458005 0 -5.7518644229458005 -3.4492452828999376 0 0 0 0 -6.8323425049400157 27.064120530018954 0 27.064120530018954 162.13583814445883 0 0 0 0 -3.7371084039059497 -5.3547816985592362 0 -5.3547816985592362 3.0515298091049772 0 0 0 0 6.1108638999993445 -10.681334177022743 0 -10.681334177022743 0.14805617665607773 0 0 0 0 -204.18403536515143 274.20148201275288 0 274.20148201275288 -455.4978136156933 0 0 0 0 179.25207286916884 283.18196999106203 0 283.18196999106203 -1084.7766143175504 0 0 0 0 -10.521415057783088 424.14269773535716 0 424.14269773535716 -831.548263187884 0 0 0 0 -89.360311851152801 -55.993241482803569 0 -55.993241482803569 154.97172670903092 0 0 0 0 596.17894120751953 0.39391750999220676 0 0.39391750999220676 -851.49947861392502 0 0 0 0 -84.742048106792936 -89.443136661027893 0 -89.443136661027893 -139.38139004463119 0 0 0 0 -63.774911337823141 -17.903937722825503 0 -17.903937722825503 37.949728877996677 0 0 0 0 0.29796232581884929 -1.0874104024754967 0 -1.0874104024754967 0.77851855023520689 0 0 0 0 -16.568936411120376 60.236037118734203 0 60.236037118734203 -189.63357424650167 0 0 0 0 -39.836282084899722 -3.5088526828003523 0 -3.5088526828003523 34.982279612362618 0 0 0 0 57.491949438601296 -205.51080321066274 0 -205.51080321066274 -1144.9480106095289 0 0 0 0 -414.40354564024165 396.49691435124259 0 396.49691435124259 -394.59308499916096 0 0 0 0 6.9365724129642654 -9.5316732143276575 0 -9.5316732143276575 -0.84939126328479397 0 0 0 0 1.3791339504840514 -0.40423882654074594 0 -0.40423882654074594 -1.8910015204682749 0 0 0 0 133.53601032043662 -750.85667432549599 0 -750.85667432549599 771.00991068461371 0 0 0 0 -1051.8430895112033 394.47772667760728 0 394.47772667760728 308.30340224010797 0 0 0 0 694.61052184106666 424.54017423966798 0 424.54017423966798 -1192.2466754269687 0 0 0 0 884.52987127986125 508.77156522744917 0 508.77156522744917 -1044.2489522878368 0 0 0 0 -284.23589045575864 406.86846962904474 0 406.86846962904474 -497.12939471118807 0 0 0 0 50.315684680652339 697.98023853700215 0 697.98023853700215 -860.42692493375216 0 0 0 0 -156.37266647804063 538.40496828427422 0 538.40496828427422 -1184.1854595897985 0 0 0 0 -632.20039422173431 -905.5025031082514 0 -905.5025031082514 -557.79427811768983 0 0 0 0 289.80260953222751 -572.85130528065565 0 -572.85130528065565 -1364.7912141583383 0 0 0 0 1.4668539802994651 -0.49916262497128883 0 -0.49916262497128883 -2.6428763276652543 0 0 0 0 128.69720848797078 -317.76826339463696 0 -317.76826339463696 -410.10620355732681 0 0 0 0 610.30496286752168 -116.29128624921941 0 -116.29128624921941 -603.70599706107896 0 0 0 0 -16.027313701008097 -337.53809269925841 0 -337.53809269925841 -506.59354939404875 0 0 0 0 -254.72358895269281 274.88292908060612 0 274.88292908060612 12.362803452655498 0 0 0 0 -627.69940436885395 -120.63991568656243 0 -120.63991568656243 -101.34914602944627 0 0 0 0 58.850406458368525 -352.62364945041554 0 -352.62364945041554 -27.334173821415789 0 0 0 0 -157.8950233868236 -69.498835606376815 0 -69.498835606376815 50.374339637925004 0 0 0 0 5.8458786303453962 -184.75324077786536 0 -184.75324077786536 -51.252998198731802 0 0 0 0 130.10628541507322 -56.060904146768735 0 -56.060904146768735 -140.56066387151077 0 0 0 0 20.902796574751846 -123.26921336954547 0 -123.26921336954547 -362.40636183555034 0 0 0 0 -181.86021032447752 106.57780811915291 0 106.57780811915291 -275.41903778840788 0 0 0 0 141.28736504125118 118.73666438530927 0 118.73666438530927 -158.59469734108643 0 0 0 0 34.578756001239526 -52.600565271295636 0 -52.600565271295636 -223.59751774584583 0 0 0 0 21.772706342591846 42.640024909662316 0 42.640024909662316 293.87818558960862 0 0 0 0 -15.30772979514586 -446.45341415929579 0 -446.45341415929579 185.41751432455567 0 0 0 0 638.10192670415563 694.88863152380145 0 694.88863152380145 -449.49176309605355 0 0 0 0 1.1777669109338316 -0.2165052801309455 0 -0.2165052801309455 -1.8611248877585154 0 0 0 0 359.56311392619682 576.48250557828032 0 576.48250557828032 98.740615253052965 0 0 0 0 1.1369890116843973 -0.1911998016307721 0 -0.1911998016307721 -2.006748014328382 0 0 0 0 677.15065544185927 259.20020251847382 0 259.20020251847382 -530.46483958730096 0 0 0 0 102.33035784175445 223.46049787627271 0 223.46049787627271 -128.52469491911324 0 0 0 0 -55.023232926811033 -46.899069128445262 0 -46.899069128445262 -72.925641789661313 0 0 0 0 3.6235910259865101 -0.74594633686883349 0 -0.74594633686883349 -5.5442962070819934 0 0 0 0 -13.87525277336681 -26.629931773048156 0 -26.629931773048156 -45.389242035050756 0 0 0 0 -49.538016028673155 -34.914324804729404 0 -34.914324804729404 -56.42529567128804 0 0 0 0 -29.519991421911982 -20.24164410407684 0 -20.24164410407684 -45.748749403705006 0 0 0 0 3.4749811608126038 -15.7729664445651 0 -15.7729664445651 -54.333373790766927 0 0 0 0 6.4162284740741597 -9.1384155929663393 0 -9.1384155929663393 -39.375712623019353 0 0 0 0 -6.8955348353192676 -16.822307245976845 0 -16.822307245976845 -42.860548739648948 0 0 0 0 -7.5142687780753477 -20.684456185677845 0 -20.684456185677845 -64.925391628297803 0 0 0 0 -10.616659818770131 -33.627984031827509 0 -33.627984031827509 -30.92432407400338 0 0 0 0 -0.5242004652536707 -19.600063890138699 0 -19.600063890138699 -46.062682484647667 0 0 0 0 0.63976301452203188 -24.017489953475888 0 -24.017489953475888 -29.372939468426921 0 0 0 0 -46.148539063986391 -166.31712426913509 0 -166.31712426913509 -38.705395751530887 0 0 0 0 -5.8121207305885036 -24.787737687096524 0 -24.787737687096524 -16.294840940496215 0 0 0 0 50.29818470821192 32.950170591866481 0 32.950170591866481 -129.26506694110867 0 0 0 0 3.264472142533247 -0.59828714274039108 0 -0.59828714274039108 -5.921147995611955 0 0 0 0 -7.9419376678633853 220.8359888285886 0 220.8359888285886 -201.23103880737472 0 0 0 0 184.99280377182095 120.3858056444958 0 120.3858056444958 -41.884948196260666 0 0 0 0 170.89323264699487 -134.91590523661944 0 -134.91590523661944 -7.9601447619897954 0 0 0 0 67.36270697242071 -30.530724132886462 0 -30.530724132886462 -233.62862942896027 0 0 0 0 -63.780570888913644 -10.006857601489173 0 -10.006857601489173 -30.639930454744899 0 0 0 0 0.0099728507824590196 -1.1711114862286456 0 -1.1711114862286456 1.8934870744807153 0 0 0 0 -21.004722906422103 -11.066244797344552 0 -11.066244797344552 -36.473898081632797 0 0 0 0 1.7818790163182712 -52.703129501318472 0 -52.703129501318472 -72.059812015198986 0 0 0 0 124.74867341478966 9.8427263557950937 0 9.8427263557950937 -285.85279668155272 0 0 0 0 5.3111871234525232 -1.0398075711768346 0 -1.0398075711768346 -9.8378802785646648 0 0 0 0 0.0093659307679683224 -0.30913758284843285 0 -0.30913758284843285 0.63285226293305996 0 0 0 0 12.541005698847584 -58.198199583253881 0 -58.198199583253881 58.871614695242897 0 0 0 0 8.3614161804835021 -11.450517699375268 0 -11.450517699375268 11.95552330375358 0 0 0 0 6.1455304777073252 -21.181378280399713 0 -21.181378280399713 19.215002980417921 0 0 0 0 1.4969010559625475 -13.698534807424087 0 -13.698534807424087 -0.70567493097139433 0 0 0 0 4.4962806825217854 -42.177996348778834 0 -42.177996348778834 -15.431591448443214 0 0 0 0 -0.31621871863580964 -7.790971343711135 0 -7.790971343711135 -12.01620702281798 0 0 0 0 1.9669086845625612 -0.99355700690420079 0 -0.99355700690420079 -2.2467399373357644 0 0 0 0 13.81639070832216 -4.7916513236596074 0 -4.7916513236596074 -20.795996683482372 0 0 0 0 32.086519349351875 -37.902061517452239 0 -37.902061517452239 7.8859774203629058 0 0 0 0 228.5885981973679 -33.488454440456508 0 -33.488454440456508 -54.150529526814353 0 0 0 0 68.056795395180416 -11.265856500169775 0 -11.265856500169775 -0.25958256853118655 0 0 0 0 7.9018832680309599 -12.418392237566454 0 -12.418392237566454 -0.88045510720101916 0 0 0 0 0.045352962782312822 -0.82261006132782999 0 -0.82261006132782999 0.72899413322931739 0 0 0 0 -15.39536410090659 -42.631188721887156 0 -42.631188721887156 -20.270877769016806 0 0 0 0 57.449178152324748 -102.22083951067907 0 -102.22083951067907 28.046816424557619 0 0 0 0 -66.546503264196872 -77.391769297524206 0 -77.391769297524206 41.332077151644626 0 0 0 0 4.6921955765309136 -1.6177336155284345 0 -1.6177336155284345 -8.2103713794759479 0 0 0 0 -100.56637869925908 -259.27027054011705 0 -259.27027054011705 -186.39482080466405 0 0 0 0 -114.00700910000887 -109.04738345182341 0 -109.04738345182341 -115.29029826512851 0 0 0 0 1.322820475067493 -1.0255694692845547 0 -1.0255694692845547 -3.6296687031198167 0 0 0 0 -366.27360366152789 -910.41212457097845 0 -910.41212457097845 -1211.4340213455253 0 0 0 0 587.62622428415852 -515.15788995673506 0 -515.15788995673506 -2229.0995833767365 0 0 0 0 -265.07390938247408 -239.10845659968618 0 -239.10845659968618 -446.26438274770044 0 0 0 0 -5.7326440123606517 -17.765598755700921 0 -17.765598755700921 -12.672091277612708 0 0 0 0 0.78162087136576108 -21.399347073757532 0 -21.399347073757532 3.5110309067564751 0 0 0 0 -14.382798721657309 3.4517604361199119 0 3.4517604361199119 -59.143180948278996 0 0 0 0 3.3965683029730336 -29.017954824055934 0 -29.017954824055934 -4.3144059117311553 0 0 0 0 -17.380814817879582 -29.999537226511165 0 -29.999537226511165 41.047738551598741 0 0 0 0 28.891007401405659 -24.262651159497636 0 -24.262651159497636 -206.20121519901113 0 0 0 0 -51.696572382032173 -78.298546701729265 0 -78.298546701729265 35.754133345072319 0 0 0 0 -1.8987979050131898 -29.406301807586772 0 -29.406301807586772 -3.567627474048626 0 0 0 0 203.34015305469075 -338.03575407266112 0 -338.03575407266112 -375.49151452115075 0 0 0 0 196.00156675356266 -266.1317193772029 0 -266.1317193772029 -983.74956442202529 0 0 0 0 31.889304049567727 119.55684238653021 0 119.55684238653021 -468.90303573061465 0 0 0 0 -42.711516081013542 -756.58669035325602 0 -756.58669035325602 -581.55035768074595 0 0 0 0 -609.3342771256066 -460.21508438752062 0 -460.21508438752062 28.001747840658936 0 0 0 0 197.96730854405905 -329.6808245666798 0 -329.6808245666798 -148.30077040654578 0 0 0 0 180.86311137546227 -675.34139605637256 0 -675.34139605637256 -188.61493360533495 0 0 0 0 475.71066836317186 -184.10511093694367 0 -184.10511093694367 146.52823907968559 0 0 0 0 31.844053588545648 -403.70391917417874 0 -403.70391917417874 669.49828311497549 0 0 0 0 464.65621659704993 -485.35702224597571 0 -485.35702224597571 838.31491625809576 0 0 0 0 126.64146828706726 -715.22467876572773 0 -715.22467876572773 682.2026176501895 0 0 0 0 5.4883330056400155 -321.3533451570886 0 -321.3533451570886 58.757782982458593 0 0 0 0 -65.102460347130545 -708.25222734054842 0 -708.25222734054842 296.16236519312588 0 0 0 0 58.05444393657308 -633.90501004666658 0 -633.90501004666658 520.015467492467 0 0 0 0 694.17746942375379 -36.983819795048475 0 -36.983819795048475 -98.795788728733896 0 0 0 0 25.374333286519686 -209.10866748960325 0 -209.10866748960325 -142.39465000423661 0 0 0 0 -49.150937061156583 120.90094362367518 0 120.90094362367518 -795.6226316537377 0 0 0 0 232.26052571002674 302.57763255524424 0 302.57763255524424 -90.122994789184304 0 0 0 0 175.90438869639547 -256.52488315621486 0 -256.52488315621486 -649.10254391310445 0 0 0 0 553.30275302174778 169.90108307110495 0 169.90108307110495 -81.733453251294122 0 0 0 0 534.15821632366533 99.832739384695742 0 99.832739384695742 -126.21241267699224 0 0 0 0 1.7940345259207162 1.9031135575345366 0 1.9031135575345366 -0.48051876171278529 0 0 0 0 575.70119397179133 -418.20861538034387 0 -418.20861538034387 -210.92443069242654 0 0 0 0 276.32482496710941 103.62135897147482 0 103.62135897147482 -210.26620828818704 0 0 0 0 1091.0894617096947 82.68481356695338 0 82.68481356695338 -238.45160702073508 0 0 0 0 412.13252402644684 423.12692594247574 0 423.12692594247574 665.8823717179057 0 0 0 0 -139.53854762357514 -164.00185691939441 0 -164.00185691939441 273.98218952348816 0 0 0 0 310.37863981589248 -351.41640685934544 0 -351.41640685934544 76.803492055705647 0 0 0 0 -179.89036783516622 212.17782466768767 0 212.17782466768767 -63.335121395079568 0 0 0 0 -566.84252225098794 209.76920343996449 0 209.76920343996449 0.2674936625267037 0 0 0 0 -176.58176564009682 36.000005785170742 0 36.000005785170742 -378.27484711077977 0 0 0 0 0.1598330388388145 -6.7727856368912658 0 -6.7727856368912658 1.1040249465239529 0 0 0 0 5.7438286244723713 -6.3742085267876973 0 -6.3742085267876973 0.19180385522486176 0 0 0 0 2.4858020957981353 -5.7943960288539529 0 -5.7943960288539529 3.459859265734849 0 0 0 0 -1.7734063813113607 -5.2116557665576693 0 -5.2116557665576693 3.4650325786788017 0 0 0 0 5.0553439792393373 -11.66565390961434 0 -11.66565390961434 1.4056161292857781 0 0 0 0 -163.36950244558398 642.7581573729185 0 642.7581573729185 -1435.1369877491597 0 0 0 0 -0.70520029226241787 -7.1481317586053441 0 -7.1481317586053441 0.8324126247370387 0 0 0 0 -12.040538089400798 -17.925576183944941 0 -17.925576183944941 5.1343620228581131 0 0 0 0 -10.327106079766963 -11.042459643816983 0 -11.042459643816983 -2.0875358815392246 0 0 0 0 -6.1671652659755409 -12.943658436782243 0 -12.943658436782243 -1.4186017580213957 0 0 0 0 32.975826455691276 14.239575828221859 0 14.239575828221859 -16.746908777309727 0 0 0 0 -0.59646536542459216 -24.447465311837732 0 -24.447465311837732 5.6412469537754077 0 0 0 0 17.286745607482771 -26.571232414849874 0 -26.571232414849874 0.60977693324093707 0 0 0 0 9.4911260306798795 -16.532151371968212 0 -16.532151371968212 6.4153919662203407 0 0 0 0 1456.5045754573694 1450.4545717992751 0 1450.4545717992751 -4199.7723777846113 0 0 0 0 745.09615000352278 -1571.0987712872102 0 -1571.0987712872102 -102.19642126582062 0 0 0 0 -106.06410715139737 -284.51348583828508 0 -284.51348583828508 3.6535008785140235 0 0 0 0 -267.52624430829383 1778.3374714270485 0 1778.3374714270485 -1574.833216865246 0 0 0 0 3.8760725579574959 -12.36784515448262 0 -12.36784515448262 2.6320971025105813 0 0 0 0 -2.9900569019864633 -9.7938073316545342 0 -9.7938073316545342 -4.9565298262896249 0 0 0 0 -7.0908006037552695 -9.8683650836755987 0 -9.8683650836755987 -2.1776709861884456 0 0 0 0 -6.1243607131764293 -12.912447920898558 0 -12.912447920898558 -7.170539436468971 0 0 0 0 -3.8129654956537706 -13.137228758438141 0 -13.137228758438141 -9.3842404879978858 0 0 0 0 -2.8626582437579771 -14.977489094983412 0 -14.977489094983412 -6.168951664789347 0 0 0 0 3.6603569304104164 -20.261478929781937 0 -20.261478929781937 2.5948754585885143 0 0 0 0 -3.6969462188826583 -17.195320365579391 0 -17.195320365579391 -16.462542505687452 0 0 0 0 -5.1106664733947582 -14.720168433272192 0 -14.720168433272192 -5.7026538794161752 0 0 0 0 -3.9852804237798409 -15.781756148295244 0 -15.781756148295244 -10.598510739306221 0 0 0 0 -8.1893958349292006 -20.308869798303931 0 -20.308869798303931 -9.1797393731758348 0 0 0 0 -8.4856067889240876 -24.786164909768559 0 -24.786164909768559 -14.939877355542194 0 0 0 0 1.8431871801411468 -13.062135041549345 0 -13.062135041549345 -0.28947913423440141 0 0 0 0 33.85746807567557 25.471150373487035 0 25.471150373487035 -3.2550438888429198 0 0 0 0 3.3626528506970317 -22.63412810630598 0 -22.63412810630598 -1.6471474364516325 0 0 0 0 11.691545392875014 -19.081763318550657 0 -19.081763318550657 -7.4275559554662323 0 0 0 0 3.9689380719919427 -19.588765512264217 0 -19.588765512264217 -2.9762665062953602 0 0 0 0 -3.4371469909629013 -17.90943076430267 0 -17.90943076430267 -4.5927206065971404 0 0 0 0 -3.4976697793990752 -18.011286311288131 0 -18.011286311288131 -4.45962074304407 0 0 0 0 0.066365692488943751 -22.022110470934422 0 -22.022110470934422 -8.2695193974868744 0 0 0 0 -2.5426507980564566 -18.220960487298726 0 -18.220960487298726 -11.608965745748719 0 0 0 0 3.416821659406196 -18.341258621523593 0 -18.341258621523593 -9.2170273400261067 0 0 0 0 3.6502591325374851 -21.512498804448114 0 -21.512498804448114 -10.52398989116773 0 0 0 0 -1.9936684533477091 -20.458840723607864 0 -20.458840723607864 -8.7366539919094066 0 0 0 0 -2.9355819276577222 -23.843056344683646 0 -23.843056344683646 -13.194729569775518 0 0 0 0 2.7984898018194144 -18.297134288965026 0 -18.297134288965026 -8.5532999801798724 0 0 0 0 14.160973668698716 -4.7403545098604809 0 -4.7403545098604809 2.570621020917315 0 0 0 0 32.14808218286089 1.5211709855466324 0 1.5211709855466324 -15.671644281886984 0 0 0 0 39.559909993287874 -27.007797969621606 0 -27.007797969621606 2.4467295718495734 0 0 0 0 1.6322788775337314 -12.448918725499944 0 -12.448918725499944 0.80807357182874284 0 0 0 0 64.819466852408368 -6.7278240341402125 0 -6.7278240341402125 -13.716862696193857 0 0 0 0 -6.3875775133419666 13.923514987429371 0 13.923514987429371 -10.937991049129778 0 0 0 0 -24.748748791535036 -36.680670443107374 0 -36.680670443107374 -17.960178353714582 0 0 0 0 -57.143710928394285 -40.837522072528373 0 -40.837522072528373 -29.256611815711949 0 0 0 0 -77.253273422378697 20.230641258764081 0 20.230641258764081 8.3021991373534547 0 0 0 0 -13.101979077080614 -18.914578709685884 0 -18.914578709685884 -70.343805899203289 0 0 0 0 -19.298697438778618 -5.6772624417353654 0 -5.6772624417353654 39.232868180755759 0 0 0 0 -18.15372740948078 0.87620404858898837 0 0.87620404858898837 14.605169632857724 0 0 0 0 9.4855424002926156 1.9225928296946222 0 1.9225928296946222 36.254955030381097 0 0 0 0 2.8140983534860369 -14.133269024621487 0 -14.133269024621487 -2.6483872432166464 0 0 0 0 8.1850190270852181 -60.912802692131663 0 -60.912802692131663 -2.7662900550640188 0 0 0 0 -7.3570129373547388 -58.112999994016718 0 -58.112999994016718 16.845785681762209 0 0 0 0 0.083819713294360554 -42.561345553447609 0 -42.561345553447609 48.554621673873044 0 0 0 0 -103.31700334363995 -20.851083533882047 0 -20.851083533882047 41.950546510954155 0 0 0 0 -62.23492635333605 -43.326037951825128 0 -43.326037951825128 53.79343041733955 0 0 0 0 141.23651156271808 -115.50316969541018 0 -115.50316969541018 -6.8433377526525874 0 0 0 0 -60.810146178991999 -175.65487927741196 0 -175.65487927741196 156.24854562545079 0 0 0 0 318.29103537932679 -65.230725628724031 0 -65.230725628724031 -793.56055165104044 0 0 0 0 -242.99261974597903 -33.637358242369373 0 -33.637358242369373 133.74389950782825 0 0 0 0 -72.186932354704368 -18.845327674594046 0 -18.845327674594046 32.321691639226628 0 0 0 0 -164.66314988464001 124.06032024991873 0 124.06032024991873 -139.53311102748557 0 0 0 0 -53.944782272381417 -109.92110598129511 0 -109.92110598129511 -259.90812147388351 0 0 0 0 -49.914405477422406 -52.529048851007246 0 -52.529048851007246 -89.256523946300149 0 0 0 0 -167.3233611052201 -165.97941562022606 0 -165.97941562022606 -45.831598119926639 0 0 0 0 -115.23753140255576 -44.236987819254864 0 -44.236987819254864 210.77646986042964 0 0 0 0 -0.22827365296092772 -1.4932949347390725 0 -1.4932949347390725 -0.71284240159347489 0 0 0 0 -176.37398871743062 -199.83191209076904 0 -199.83191209076904 90.489572378006415 0 0 0 0 -76.34273160997509 -142.41724112807788 0 -142.41724112807788 72.888735008047661 0 0 0 0 -186.91131819992734 11.113522188432398 0 11.113522188432398 -19.929058852329035 0 0 0 0 -41.820379527656769 -83.623728976188431 0 -83.623728976188431 -229.17899617640069 0 0 0 0 -58.710299149195635 -83.95896456293849 0 -83.95896456293849 -133.15046637726482 0 0 0 0 -64.758421445192653 -54.507162366426201 0 -54.507162366426201 -80.039963545306819 0 0 0 0 -79.16277794240159 -63.767637133976677 0 -63.767637133976677 -70.467575769944233 0 0 0 0 -79.949540610536133 -57.517399085071702 0 -57.517399085071702 -41.151796208723681 0 0 0 0 -43.756138545479189 -16.992901340268872 0 -16.992901340268872 -26.99290507362457 0 0 0 0 -128.96740973507985 -54.701178748175153 0 -54.701178748175153 60.947507808959926 0 0 0 0 -126.18355005366629 -100.19589777101555 0 -100.19589777101555 -41.169805141020333 0 0 0 0 -82.791555446157872 -71.362033099037944 0 -71.362033099037944 -22.233128791354829 0 0 0 0 -52.649360098977922 -60.422510222240817 0 -60.422510222240817 -51.67410702680354 0 0 0 0 -82.920953820801515 -70.171863297451637 0 -70.171863297451637 -12.142260395543417 0 0 0 0 -40.719756650831187 -28.00847750506 0 -28.00847750506 -5.1247035859851167 0 0 0 0 -74.0960395439688 -80.174414644425269 0 -80.174414644425269 -4.5898754049360377 0 0 0 0 -44.029449738693074 -58.162733256351203 0 -58.162733256351203 -7.3241901230358053 0 0 0 0 -95.3367962679622 -114.86440572631545 0 -114.86440572631545 -31.63064333141665 0 0 0 0 -67.183888261592074 -83.670218809784274 0 -83.670218809784274 -55.381615837715799 0 0 0 0 -71.487729200469403 -87.236112191058055 0 -87.236112191058055 -46.134612076333724 0 0 0 0 -68.752933811214461 -88.972592998907203 0 -88.972592998907203 -73.100375036083278 0 0 0 0 -78.422383608660311 -136.46569788022316 0 -136.46569788022316 -95.777627518567897 0 0 0 0 -43.522029397085134 -127.62209879238799 0 -127.62209879238799 -125.30621748862904 0 0 0 0 -75.477547015296295 -114.46230208584166 0 -114.46230208584166 -53.284019389451714 0 0 0 0 -67.372590747378126 -129.6101274315879 0 -129.6101274315879 -86.823614100256236 0 0 0 0 -132.26711732656258 -169.15920022108185 0 -169.15920022108185 -84.946361110982252 0 0 0 0 -48.59966030211217 -166.12217221851461 0 -166.12217221851461 -209.03085824495065 0 0 0 0 -36.340565030004655 -121.48728509021748 0 -121.48728509021748 -169.86464791790058 0 0 0 0 -44.453322107838176 -147.85926037719582 0 -147.85926037719582 -137.82477040117374 0 0 0 0 -0.14524932020353098 -5.3700201090052282 0 -5.3700201090052282 0.82821885257745365 0 0 0 0 -33.544983473140746 -60.586320350965252 0 -60.586320350965252 -66.821302289048617 0 0 0 0 -128.48422825065791 -130.92100588668836 0 -130.92100588668836 -80.454940406321839 0 0 0 0 1.3234776255158067 2.5532817086204886 0 2.5532817086204886 7.1933381842682138 0 0 0 0 1.4895895671797916 -0.52816638723015785 0 -0.52816638723015785 -1.1797055879142135 0 0 0 0 4.3816205960548888 -3.4542746622756599 0 -3.4542746622756599 -3.0971724091792332 0 0 0 0 -1.2726469281042228 54.90408216592914 0 54.90408216592914 61.200989226228558 0 0 0 0 2.7562553958045708 -2.3434039000750939 0 -2.3434039000750939 -0.99860162456897505 0 0 0 0 0.57446677942803159 -0.21953156280105368 0 -0.21953156280105368 -0.44337145516732335 0 0 0 0 -70.774823005638609 -129.27581774030841 0 -129.27581774030841 -141.53042442951119 0 0 0 0 -88.060256537843088 -136.48963573374203 0 -136.48963573374203 -137.15704407874728 0 0 0 0 -109.47474263910408 -163.53624767911242 0 -163.53624767911242 -171.26627314649522 0 0 0 0 -161.25108559348155 -121.11887934825063 0 -121.11887934825063 -109.94126032557688 0 0 0 0 -93.437267070286907 -108.96541052381508 0 -108.96541052381508 -122.250647885121 0 0 0 0 -35.117858750607411 -103.43586038996727 0 -103.43586038996727 -142.5429932740517 0 0 0 0 -0.50814813844267004 -1.4417524548013816 0 -1.4417524548013816 1.7738737668520841 0 0 0 0 27.497087424111669 -14.762919557790156 0 -14.762919557790156 -6.7724895265710074 0 0 0 0 1.1061326802210347 -3.2973880226687449 0 -3.2973880226687449 5.0924065356062442 0 0 0 0 -13.928603587570251 -11.125549378950382 0 -11.125549378950382 9.8989593335863901 0 0 0 0 -4.9787638114939909 1.9704071631131228 0 1.9704071631131228 6.0575340248688008 0 0 0 0 -2.0182476468617097 10.990264951658901 0 10.990264951658901 22.380031220753153 0 0 0 0 -0.40088143628530126 0.01408740262385777 0 0.01408740262385777 0.47387473375140488 0 0 0 0 -10.829235647965106 -2.4927019839524291 0 -2.4927019839524291 24.253121439713141 0 0 0 0 4.159901278565485 -17.441453135550546 0 -17.441453135550546 -8.5847988950988565 0 0 0 0 2.0590653417576896 -12.235576037515699 0 -12.235576037515699 0.78299190230964655 0 0 0 0 -3.5018824518265319 5.5469342559517827 0 5.5469342559517827 2.6357521170735936 0 0 0 0 -5.8101686190493638 -18.705789803920197 0 -18.705789803920197 14.642418768286007 0 0 0 0 -5.1256195462265168 -3.9928154513545451 0 -3.9928154513545451 18.605001497024205 0 0 0 0 34.341986553914467 18.001116670238844 0 18.001116670238844 10.653682751348242 0 0 0 0 54.702624318346352 6.9573098266337183 0 6.9573098266337183 -0.35857197985751554 0 0 0 0 33.798428115456773 -42.075762677122839 0 -42.075762677122839 63.432268941862276 0 0 0 0 -0.16961613336051862 -0.48875845617353697 0 -0.48875845617353697 0.59203059663537072 0 0 0 0 -44.291689979065268 -61.215842702004011 0 -61.215842702004011 42.141902670805848 0 0 0 0 12.422681332012871 14.769401665660553 0 14.769401665660553 41.119343699188903 0 0 0 0 13.002314774559636 -67.936547695135232 0 -67.936547695135232 -0.73049270026967861 0 0 0 0 -146.88932231524086 -116.13669533219945 0 -116.13669533219945 -13.339275991223985 0 0 0 0 -56.250373829199816 -55.728658452571835 0 -55.728658452571835 11.902502439974342 0 0 0 0 -148.34722959996725 -111.89046450093247 0 -111.89046450093247 32.410643058407004 0 0 0 0 -120.30793142177572 -221.04521531243518 0 -221.04521531243518 -242.62796980253188 0 0 0 0 0.14584978314947339 -0.33339107422840719 0 -0.33339107422840719 0.2986093053123362 0 0 0 0 11.709476092044497 -43.616936984661152 0 -43.616936984661152 -219.30894656741293 0 0 0 0 -34.13994890909089 -11.039776138182788 0 -11.039776138182788 37.22133797686547 0 0 0 0 37.729780601745006 -8.7285414106154349 0 -8.7285414106154349 -10.490119395595684 0 0 0 0 38.090590694308048 -15.04177468403941 0 -15.04177468403941 17.643466386596629 0 0 0 0 0.37634018471500053 -0.91639337749681715 0 -0.91639337749681715 1.035302188492226 0 0 0 0 21.702662884323217 -22.231969021697296 0 -22.231969021697296 25.464089633838739 0 0 0 0 -7.8345713013841305 -4.5205615003796993 0 -4.5205615003796993 -12.310518116442836 0 0 0 0 19.146871870034374 -5.2506651293806499 0 -5.2506651293806499 -80.996670701890253 0 0 0 0 -1.1500845862683491 11.746573112985061 0 11.746573112985061 14.989428990986198 0 0 0 0 -1.6220505605306244 -20.725498713116394 0 -20.725498713116394 -1.1826235037806327 0 0 0 0 -175.18748210649937 -139.59030481424998 0 -139.59030481424998 27.688748951666639 0 0 0 0 -0.20357171163745313 -0.19609137148104239 0 -0.19609137148104239 0.090376808695742383 0 0 0 0 -141.57176606160647 -63.119912613270571 0 -63.119912613270571 67.207956982958422 0 0 0 0 4.3558175917969493 -67.829392100589757 0 -67.829392100589757 -135.56407279618725 0 0 0 0 -10.454518246893713 -10.766200339814532 0 -10.766200339814532 -29.993140889360802 0 0 0 0 -7.0867998884082226 -43.838289154456106 0 -43.838289154456106 -69.97554059070535 0 0 0 0 3.8827445943679777 -22.834114572498947 0 -22.834114572498947 -87.49054675300431 0 0 0 0 -1.6436870343968621 -42.013288769332576 0 -42.013288769332576 -78.846275455784053 0 0 0 0 101.47767548745469 -112.40564059505414 0 -112.40564059505414 -183.48924173045089 0 0 0 0 74.660578195702328 -215.02278360231867 0 -215.02278360231867 -511.6044165691128 0 0 0 0 -121.14377798572241 -358.84602662651741 0 -358.84602662651741 -618.5956222100067 0 0 0 0 -356.44314099117764 -317.75117165211122 0 -317.75117165211122 -236.77304405319501 0 0 0 0 -62.661869160045171 16.900400419821381 0 16.900400419821381 15.100488583368133 0 0 0 0 -287.32866932453908 -346.03664954859414 0 -346.03664954859414 -517.64774417845183 0 0 0 0 -0.23511999160040631 -0.44049009552746199 0 -0.44049009552746199 0.089822583507846332 0 0 0 0 -52.451006305731426 -51.535091482888674 0 -51.535091482888674 14.872198859418859 0 0 0 0 -0.11953608732291965 -0.11359896570386141 0 -0.11359896570386141 0.049529523536598674 0 0 0 0 -93.40965306905855 -74.177480644633761 0 -74.177480644633761 -237.05743199720746 0 0 0 0 -215.57210390470573 -245.05816326994682 0 -245.05816326994682 -125.13356859125633 0 0 0 0 -156.22474554620567 -101.3969567262393 0 -101.3969567262393 -276.39797727845871 0 0 0 0 -213.49147355937748 -207.63844784178946 0 -207.63844784178946 -294.91437862673774 0 0 0 0 -122.50223830942377 -135.87236568967091 0 -135.87236568967091 -204.25074029905954 0 0 0 0 -125.37642148279701 -187.77834688319126 0 -187.77834688319126 -330.01297870610142 0 0 0 0 8.0866515241650632 -16.654078317267704 0 -16.654078317267704 -9.9953322150104214 0 0 0 0 -0.64020016771492649 -1.2904688820911581 0 -1.2904688820911581 0.26024331446432125 0 0 0 0 -1.3726749144529613 -1.3833171042557737 0 -1.3833171042557737 0.858065602672621 0 0 0 0 -22.98119065422361 4.8887685798108578 0 4.8887685798108578 -18.174887409682924 0 0 0 0 -156.28399107908626 -102.35005329980049 0 -102.35005329980049 -118.34423376532504 0 0 0 0 -6.1853459408739582 -7.5466606773261447 0 -7.5466606773261447 17.077543594059534 0 0 0 0 1.1198298607996549 0.42827306959225098 0 0.42827306959225098 5.1737826032331213 0 0 0 0 15.143637664717971 -42.461690708056267 0 -42.461690708056267 0.07430051795381587 0 0 0 0 -0.13157754362327978 -27.031905059455312 0 -27.031905059455312 49.090966951160226 0 0 0 0 27.354397505143424 -84.733946852589725 0 -84.733946852589725 67.084470334026264 0 0 0 0 37.375349222074874 -122.04790173561923 0 -122.04790173561923 162.4025776424096 0 0 0 0 -0.47484636338028441 -0.47474572548482463 0 -0.47474572548482463 0.30302307435868947 0 0 0 0 -3.418773028659416 -15.750141766056913 0 -15.750141766056913 36.406902450573398 0 0 0 0 39.917423067090567 -53.754848834389122 0 -53.754848834389122 -24.250066405702455 0 0 0 0 14.820311704141204 3.3704621648212196 0 3.3704621648212196 53.570517658154131 0 0 0 0 0.15522584638716364 -1.5213483414025735 0 -1.5213483414025735 0.65177389583674739 0 0 0 0 -0.20622367743999348 -12.506697660479404 0 -12.506697660479404 141.47044583794195 0 0 0 0 -68.475660767930094 19.753127859672531 0 19.753127859672531 -69.65863066635211 0 0 0 0 0.01598489628142552 -0.55265328715110584 0 -0.55265328715110584 0.26185206422332286 0 0 0 0 -37.354492267833848 -29.572119559612474 0 -29.572119559612474 325.54955443757353 0 0 0 0 -74.056993005506229 -262.27115393949498 0 -262.27115393949498 -238.46434688152431 0 0 0 0 201.75641405908391 -164.6122082269867 0 -164.6122082269867 1.0434150683577172 0 0 0 0 -209.51282597788668 -371.31921264273115 0 -371.31921264273115 -250.20069220512232 0 0 0 0 55.888437383582641 -408.33532089341315 0 -408.33532089341315 -311.39380863856059 0 0 0 0 -10.634414358180948 -488.94161510179401 0 -488.94161510179401 -407.61773968141279 0 0 0 0 402.98042641143547 -6.2389589577796869 0 -6.2389589577796869 -467.62974385661073 0 0 0 0 82.927678898024169 -139.83254611994562 0 -139.83254611994562 0.12683334806933999 0 0 0 0 39.599058693485858 -272.64827281876933 0 -272.64827281876933 167.1492168965342 0 0 0 0 -1177.2997995401383 -182.21473444007279 0 -182.21473444007279 792.67410242522601 0 0 0 0 -234.23205024100935 48.111665436319527 0 48.111665436319527 113.39759181585396 0 0 0 0 -272.29503536823904 -250.03756388172042 0 -250.03756388172042 -84.296457057003863 0 0 0 0 -617.78526662086369 -561.5998009913892 0 -561.5998009913892 -26.930544781022036 0 0 0 0 -346.06879171784385 -176.89691287456662 0 -176.89691287456662 171.57624282903271 0 0 0 0 510.46956820745254 -372.47905598819489 0 -372.47905598819489 -1001.3708533346653 0 0 0 0 -105.35138663400721 -861.46635033245548 0 -861.46635033245548 -763.07633707780042 0 0 0 0 -693.80327962525189 -491.04469550981594 0 -491.04469550981594 -39.111550560570322 0 0 0 0 -124.31709982349275 -179.81488296994939 0 -179.81488296994939 59.390355619601905 0 0 0 0 -12.336852982494747 -4.5426982751814649 0 -4.5426982751814649 -16.247971290831629 0 0 0 0 -18.928535429091426 -6.7699824117298704 0 -6.7699824117298704 -9.2645975090708816 0 0 0 0 -9.0671846803597873 -20.716119318138226 0 -20.716119318138226 -1.364843893199577 0 0 0 0 -12.204949581122492 -22.333877902943641 0 -22.333877902943641 3.1779320469649974 0 0 0 0 -9.4930285909067607 -14.461283229815308 0 -14.461283229815308 -13.325351521249104 0 0 0 0 5.7842254396746284 -31.66157825019036 0 -31.66157825019036 3.2130677022214513 0 0 0 0 66.951759992989537 -7.2068294954660814 0 -7.2068294954660814 -15.84043994336389 0 0 0 0 0.58777886992493833 0.88480572530724722 0 0.88480572530724722 0.071301193525407314 0 0 0 0 30.24758260624003 7.2859301369935565 0 7.2859301369935565 13.415452062676195 0 0 0 0 34.83870554456189 -15.605080164903484 0 -15.605080164903484 -19.327171692275442 0 0 0 0 0.67054952715949123 0.043292422995975244 0 0.043292422995975244 0.034876628115974029 0 0 0 0 2.6242543881821803 -9.1382115107171558 0 -9.1382115107171558 21.40900910529308 0 0 0 0 15.113065803663631 -8.7644389812703594 0 -8.7644389812703594 -22.503258841286879 0 0 0 0 5.4520633750362322 -46.354939505632501 0 -46.354939505632501 -11.869223272813542 0 0 0 0 -6.6916124218550976 -27.906780357996468 0 -27.906780357996468 8.1605340501228056 0 0 0 0 -2.8173888525052462 9.0323187250178307 0 9.0323187250178307 26.9096553915806 0 0 0 0 -0.17214640953827853 -0.37925647866899936 0 -0.37925647866899936 0.37016532245653266 0 0 0 0 18.185157187152072 -34.798063863330754 0 -34.798063863330754 -47.158362675399985 0 0 0 0 -20.706916254865064 -46.283269647552515 0 -46.283269647552515 -126.21850348055159 0 0 0 0 -0.38580081826751211 -0.79796880851787044 0 -0.79796880851787044 0.98139222771261991 0 0 0 0 -2.2442064099159325 0.73765512774662056 0 0.73765512774662056 20.066637242372963 0 0 0 0 -0.78769828779236661 -4.4373062693317564 0 -4.4373062693317564 0.86687162483437064 0 0 0 0 23.947659651144932 -65.153703685879009 0 -65.153703685879009 -314.71727927334723 0 0 0 0 -96.994986240009894 -116.05028567633417 0 -116.05028567633417 -337.94318855251186 0 0 0 0 -103.39445339872327 -136.5116399343533 0 -136.5116399343533 -189.74234391645587 0 0 0 0 0.22557492799357703 0.059314116300487107 0 0.059314116300487107 -0.12241301803791771 0 0 0 0 -107.87659504369367 -175.22579822418629 0 -175.22579822418629 -190.0857165428024 0 0 0 0 -89.145660505397245 -157.38662687464239 0 -157.38662687464239 -153.35877232323401 0 0 0 0 -48.623761528520845 -172.20937334053451 0 -172.20937334053451 -336.81242780452612 0 0 0 0 3.2341390215879073 -6.4446535548340762 0 -6.4446535548340762 -1.1928975550399628 0 0 0 0 0.42086607909906082 -2.3213836409961708 0 -2.3213836409961708 0.87250579639919579 0 0 0 0 -1.2412365221098298 -9.3108776340668555 0 -9.3108776340668555 -9.865407453966327 0 0 0 0 98.500048353656894 61.410274424881209 0 61.410274424881209 59.408492868649773 0 0 0 0 -0.074105893062445638 -0.03350041368976564 0 -0.03350041368976564 0.1380873565578149 0 0 0 0 -1.6022074857724711 -4.1313310758155062 0 -4.1313310758155062 1.0233155839541572 0 0 0 0 -2.0384079022915103 -4.3771881810680497 0 -4.3771881810680497 -1.1387244270736119 0 0 0 0 -32.949213941494236 -3.7453728520486038 0 -3.7453728520486038 4.6670456558349542 0 0 0 0 -4.7995823739329353 -10.716681154561229 0 -10.716681154561229 3.2843247688724659 0 0 0 0 -17.023439239237632 -14.334399585201027 0 -14.334399585201027 10.373336573131382 0 0 0 0 -12.163764426426496 -20.704880287201377 0 -20.704880287201377 0.24928476332570426 0 0 0 0 -0.068808135647348223 -0.052649320399456911 0 -0.052649320399456911 0.18222184312805823 0 0 0 0 0.14737364426400745 2.7044054682992282 0 2.7044054682992282 3.0111375387059525 0 0 0 0 -12.759918863521307 -5.9940175964147784 0 -5.9940175964147784 -1.2840041212766664 0 0 0 0 2.572395179208427 0.39432985405720844 0 0.39432985405720844 -0.8387033538922104 0 0 0 0 -24.946548572377651 -16.551598930615 0 -16.551598930615 8.1546415568154771 0 0 0 0 1.8184757161288871 -7.2308969845544198 0 -7.2308969845544198 10.70000207296107 0 0 0 0 5.4675963644476724 -18.232596133042534 0 -18.232596133042534 20.385195005532296 0 0 0 0 4.0013989216240589 -13.155075667542405 0 -13.155075667542405 5.4985983427686733 0 0 0 0 18.706946282174613 -17.975295275027747 0 -17.975295275027747 0.013191160222049803 0 0 0 0 2.7797872819662546 0.66034751427297778 0 0.66034751427297778 -1.049787829387185 0 0 0 0 -122.70052853029483 3.7730003859614953 0 3.7730003859614953 21.477390685729915 0 0 0 0 -40.106371950212633 -61.620921574038221 0 -61.620921574038221 -0.05536124555573483 0 0 0 0 17.285304536388139 -9.1231343955369084 0 -9.1231343955369084 9.4572486137330998 0 0 0 0 -13.707363204719513 -50.609439646352257 0 -50.609439646352257 3.3647461755608674 0 0 0 0 -22.058663307980169 -8.1099593164544785 0 -8.1099593164544785 -2.2466555332794087 0 0 0 0 41.305711784509185 -15.666243986372137 0 -15.666243986372137 -5.5750273263984127 0 0 0 0 39.707804077894252 -13.24971036703937 0 -13.24971036703937 30.859215375472559 0 0 0 0 138.18063697493744 -22.264627586569986 0 -22.264627586569986 -33.727850634895731 0 0 0 0 65.33727613373776 -56.711867329737288 0 -56.711867329737288 0.057021646031323744 0 0 0 0 0.54762777770171844 1.2898689320778827 0 1.2898689320778827 0.085671728546891757 0 0 0 0 -34.000900756655028 -35.033725823115674 0 -35.033725823115674 -0.0096508063725195825 0 0 0 0 -104.68818115518616 -12.010049963954771 0 -12.010049963954771 26.497521326527931 0 0 0 0 32.275228847753169 -35.181333243075642 0 -35.181333243075642 -0.05192706172238104 0 0 0 0 3.404030564626737 -0.087917174016183708 0 -0.087917174016183708 -0.39970192898181267 0 0 0 0 0.050099888787693558 -0.39564663211189632 0 -0.39564663211189632 -0.3371048835959165 0 0 0 0 65.965092198726779 -15.019178030503099 0 -15.019178030503099 -14.377759360577329 0 0 0 0 -4.4177584606222808 -45.539035408146447 0 -45.539035408146447 28.331184269707592 0 0 0 0 -16.359483075182652 -10.763840711850207 0 -10.763840711850207 -14.720609718453488 0 0 0 0 -49.153430416668016 -22.750498440021147 0 -22.750498440021147 13.308385282522067 0 0 0 0 12.857989544630982 -10.945626846209052 0 -10.945626846209052 -5.5090506483538775 0 0 0 0 15.46395071547704 -20.557217368685087 0 -20.557217368685087 -4.6282545945723541 0 0 0 0 14.196626830701945 -3.0566191269337875 0 -3.0566191269337875 -8.2247838358997143 0 0 0 0 -3.3010416624383652 -17.425003021911834 0 -17.425003021911834 4.1343810573162045 0 0 0 0 12.047005413698344 -3.2452234908877688 0 -3.2452234908877688 -7.1064627488572505 0 0 0 0 -24.195103246282088 -44.261059146025218 0 -44.261059146025218 -13.308792563104362 0 0 0 0 -63.912678762455471 9.2559115672302141 0 9.2559115672302141 42.379801083094208 0 0 0 0 -81.143663310736883 -24.803868321811024 0 -24.803868321811024 3.4946118152292911 0 0 0 0 -0.36370156708913903 -15.49887913207267 0 -15.49887913207267 -5.0476496714739341 0 0 0 0 17.805130239496066 -4.1425426036148565 0 -4.1425426036148565 -14.881596675935725 0 0 0 0 -11.018117827962914 -11.906641491950239 0 -11.906641491950239 2.9560806330681508 0 0 0 0 -39.441472201462602 -5.8026100521965418 0 -5.8026100521965418 0.094362891280979966 0 0 0 0 -26.724483570520533 7.1033423058252083 0 7.1033423058252083 -10.061346322267127 0 0 0 0 -18.237728800949121 2.3749763980360612 0 2.3749763980360612 0.87949848465365932 0 0 0 0 -36.486815832809953 -0.71989760033466155 0 -0.71989760033466155 -10.890934314549668 0 0 0 0 -0.1350684430639788 0.086831569573303291 0 0.086831569573303291 0.30539517818885997 0 0 0 0 -4.1829663296884974 -8.5827650862702285 0 -8.5827650862702285 0.79473091129329987 0 0 0 0 44.31008085256326 -24.971144532479229 0 -24.971144532479229 5.1840912849038432 0 0 0 0 497.77830903773429 573.36575092349085 0 573.36575092349085 -1.3698814804712229 0 0 0 0 -11.743275663561212 -5.9913067684774965 0 -5.9913067684774965 -2.3997738872285304 0 0 0 0 140.59805205791781 257.33355914328422 0 257.33355914328422 466.73259997135028 0 0 0 0 498.11990486107032 499.92947506154246 0 499.92947506154246 721.18720922243665 0 0 0 0 379.00212875535362 855.5857429557509 0 855.5857429557509 6.0602919751254376 0 0 0 0 63.849738297867589 489.87273027285119 0 489.87273027285119 996.17658552246576 0 0 0 0 115.5682912554912 -94.675012382154819 0 -94.675012382154819 56.305306335554633 0 0 0 0 389.61833157789079 686.95130612241337 0 686.95130612241337 619.09353626330267 0 0 0 0 123.5847719246085 319.52501205539738 0 319.52501205539738 408.22082862428215 0 0 0 0 570.00242370000342 267.91317761008395 0 267.91317761008395 -24.721873825852526 0 0 0 0 -3045.5697490914899 2043.3188479047385 0 2043.3188479047385 1984.7290432316368 0 0 0 0 41.264806662351475 892.90757413527172 0 892.90757413527172 1134.2519587331044 0 0 0 0 -530.17159703624202 1765.4912125880146 0 1765.4912125880146 -18.475881561462302 0 0 0 0 282.39477701937722 476.60876201301289 0 476.60876201301289 821.32617604031111 0 0 0 0 -1470.1601042333132 99.733448593331559 0 99.733448593331559 4115.092056515743 0 0 0 0 -9.1818292846207754 -6.4461297894224217 0 -6.4461297894224217 -1.5249244446085921 0 0 0 0 -189.76275317690761 -419.58367683338656 0 -419.58367683338656 377.85787365710712 0 0 0 0 -45.779609296936542 8.986551006717491 0 8.986551006717491 -121.87510176638898 0 0 0 0 -927.29234322547563 141.52286890981486 0 141.52286890981486 73.690813027576951 0 0 0 0 -1048.4397975648935 -173.62544031833204 0 -173.62544031833204 -3.3248321709688753 0 0 0 0 -11.198914925052769 -9.8554906433379443 0 -9.8554906433379443 -2.4241191995927736 0 0 0 0 212.14097108045826 -201.68035250295361 0 -201.68035250295361 105.99261996612768 0 0 0 0 120.85457945654343 -302.85254177184834 0 -302.85254177184834 38.554129636380821 0 0 0 0 -94.115143881790573 52.773800261697033 0 52.773800261697033 127.41510653568548 0 0 0 0 289.51919006247772 -239.0436985429842 0 -239.0436985429842 -78.996914105126052 0 0 0 0 358.57608877477469 -115.92112545315467 0 -115.92112545315467 35.138097906972689 0 0 0 0 2.3732778933190275 -117.63173745073436 0 -117.63173745073436 168.86660195552395 0 0 0 0 -2.6016683162506311 -0.27851224021406296 0 -0.27851224021406296 1.2781832603629795 0 0 0 0 -35.146081583370687 16.183369653554109 0 16.183369653554109 106.84547896523145 0 0 0 0 219.64378476262209 -157.21095721759048 0 -157.21095721759048 -10.549291554678348 0 0 0 0 256.50881868830766 58.248959813249712 0 58.248959813249712 -161.27759183075977 0 0 0 0 -2.0510495436319616 43.92439145980461 0 43.92439145980461 -64.018253772861499 0 0 0 0 35.612148537882604 -37.35135798534975 0 -37.35135798534975 -69.279947864502901 0 0 0 0 70.156914165301714 -50.267975984083023 0 -50.267975984083023 -71.115607170984731 0 0 0 0 -179.70177050752682 -189.3621480774018 0 -189.3621480774018 -204.60007379103627 0 0 0 0 1.2294732850589476 -0.2657582450723206 0 -0.2657582450723206 -0.41048217129817743 0 0 0 0 -23.188720946607646 101.44841002565954 0 101.44841002565954 -216.09615803017914 0 0 0 0 -792.62384590795045 -317.49881154710783 0 -317.49881154710783 -112.96035090893565 0 0 0 0 -836.66258622860187 -148.1516882991782 0 -148.1516882991782 -37.483376273681642 0 0 0 0 -387.01169596746331 29.605822202793206 0 29.605822202793206 -8.0963077680207789 0 0 0 0 -604.67769116885029 -213.21340483604581 0 -213.21340483604581 -85.318603910389356 0 0 0 0 -22.071460208186181 -154.30801638237972 0 -154.30801638237972 -50.176067056658212 0 0 0 0 4.3012696143969897 -0.55823825026643359 0 -0.55823825026643359 -1.6955004295825518 0 0 0 0 -152.49145727112773 164.66098201485875 0 164.66098201485875 46.167864385050052 0 0 0 0 -148.41944272721594 -51.533201697824552 0 -51.533201697824552 -41.13190780999139 0 0 0 0 -79.234112746431492 45.513350189765333 0 45.513350189765333 34.789703977905447 0 0 0 0 -241.2032959490316 12.099897174266516 0 12.099897174266516 -6.6722005682022427 0 0 0 0 34.616454105445882 34.620485061037471 0 34.620485061037471 -62.14517356030774 0 0 0 0 57.059740769982454 -5.2601650228607468 0 -5.2601650228607468 -22.224902699876111 0 0 0 0 74.831667451304384 1.0753742112065083 0 1.0753742112065083 -54.192725266344496 0 0 0 0 8.4478182418131134 -0.45788363961695122 0 -0.45788363961695122 -3.8093940065723046 0 0 0 0 72.683686428412329 -40.812519287981559 0 -40.812519287981559 -12.162652518978575 0 0 0 0 -107.53141560637778 10.790350260835112 0 10.790350260835112 -72.276316995470552 0 0 0 0 3.3052948636052832 -15.440248077505307 0 -15.440248077505307 -12.184247219307416 0 0 0 0 39.85848234014702 1.8936784432589775 0 1.8936784432589775 -23.939317730806579 0 0 0 0 40.864498349081259 18.042455464936211 0 18.042455464936211 -126.69275719301368 0 0 0 0 -78.353808839368867 14.171766002225922 0 14.171766002225922 -110.05256355670281 0 0 0 0 10.454526192290359 -4.667215360343107 0 -4.667215360343107 -124.03601516812341 0 0 0 0 69.126183650158055 -55.339756822420895 0 -55.339756822420895 -104.23239544883836 0 0 0 0 28.39530606684275 -68.652648412302369 0 -68.652648412302369 -87.709668341874931 0 0 0 0 -67.716944351504935 90.762366605169518 0 90.762366605169518 -166.79072179715149 0 0 0 0 133.31740330834873 -253.39017250697361 0 -253.39017250697361 357.79904383933172 0 0 0 0 -2.2685866934771184 -79.491702842860832 0 -79.491702842860832 129.45717126323871 0 0 0 0 0.40451405260790274 0.19807535734855009 0 0.19807535734855009 -0.046869383445034885 0 0 0 0 2.4812459392708863 -15.47564319076514 0 -15.47564319076514 -9.6683076303100073 0 0 0 0 337.31287877174327 -50.465654175670352 0 -50.465654175670352 -329.14965863474936 0 0 0 0 57.179080917543615 -108.37893657613313 0 -108.37893657613313 -92.413520690635778 0 0 0 0 121.31590226932894 -217.08325441775378 0 -217.08325441775378 58.855489436449716 0 0 0 0 -17.661061905615497 -28.671493610512698 0 -28.671493610512698 -9.1247476287462632 0 0 0 0 23.101088758485275 -115.08403864884167 0 -115.08403864884167 21.198843802048941 0 0 0 0 15.454644430894405 -84.465655815671198 0 -84.465655815671198 -44.4953400841041 0 0 0 0 18.865883605671115 -95.674644218946924 0 -95.674644218946924 -43.666876812436385 0 0 0 0 1.6347899287502514 -45.021193161170231 0 -45.021193161170231 -56.227156175482378 0 0 0 0 45.345141667959979 -89.862970713365939 0 -89.862970713365939 -64.066280178929446 0 0 0 0 18.302720224412042 -84.497540516473236 0 -84.497540516473236 -28.671018939159694 0 0 0 0 7.5897532360249897 -85.394789443613263 0 -85.394789443613263 -27.033071672543883 0 0 0 0 12.156248639163096 -107.64007638514158 0 -107.64007638514158 -54.510508948456845 0 0 0 0 -0.030861532899619348 -0.16752560677038986 0 -0.16752560677038986 0.058090533844483261 0 0 0 0 -133.66474026957439 -1.1685326726146741 0 -1.1685326726146741 229.98391520295991 0 0 0 0 -5.4620941395260161 -73.23488053829351 0 -73.23488053829351 -3.1060040321390261 0 0 0 0 56.22223429234873 -46.420939666495542 0 -46.420939666495542 -19.581225164583884 0 0 0 0 -80.329585403458623 -162.66267357516335 0 -162.66267357516335 -85.688955250167055 0 0 0 0 33.296757424664975 -37.421991108451039 0 -37.421991108451039 -195.69231399548153 0 0 0 0 33.635467235653778 -30.867046206672967 0 -30.867046206672967 -69.303204255338642 0 0 0 0 21.412594666115183 -78.387087430804968 0 -78.387087430804968 -93.825264947285177 0 0 0 0 1.3223668444414542 0.65397532248115375 0 0.65397532248115375 -0.22317693700845176 0 0 0 0 37.937632668559672 50.089320181206858 0 50.089320181206858 41.19546993674885 0 0 0 0 17.59910351751023 -19.985871568482253 0 -19.985871568482253 -65.482498737983406 0 0 0 0 -14.761963729724812 31.854004691682348 0 31.854004691682348 -33.00825295667164 0 0 0 0 0.49052648699227375 0.18414082824981115 0 0.18414082824981115 -0.12032884239120989 0 0 0 0 14.102961252821842 13.430717017774441 0 13.430717017774441 -6.6880511289928108 0 0 0 0 2.4378639448045369 1.2273918789133447 0 1.2273918789133447 -0.54480936781438238 0 0 0 0 11.498269346964662 13.675179276964627 0 13.675179276964627 3.7438830022001639 0 0 0 0 0.19148728169966489 -0.62519772915402427 0 -0.62519772915402427 -1.9920242942898767 0 0 0 0 4.6929171857635046 2.2431068621845416 0 2.2431068621845416 0.33130444867727604 0 0 0 0 15.943416027963394 10.26490932287561 0 10.26490932287561 -1.1656363788933959 0 0 0 0 13.159887982237706 12.100642902078107 0 12.100642902078107 -1.9302892349369358 0 0 0 0 -13.055369705238263 -25.573265068218461 0 -25.573265068218461 -15.19646207880578 0 0 0 0 42.892673122463748 -3.5428960761346389 0 -3.5428960761346389 -17.951064005224907 0 0 0 0 -84.648429479333572 -106.80771373173775 0 -106.80771373173775 39.540839233355655 0 0 0 0 1.3053826351115596 -15.525283410629113 0 -15.525283410629113 -7.3570395946151166 0 0 0 0 -75.810925363866772 214.10376572043242 0 214.10376572043242 138.60225939576048 0 0 0 0 108.26903636482893 -8.7962089426291641 0 -8.7962089426291641 -59.125535284692887 0 0 0 0 -802.60100016322394 -1894.387023906158 0 -1894.387023906158 -1536.9486422121699 0 0 0 0 -2.7513800320996964 -3.5153791782706634 0 -3.5153791782706634 -2.4363778931626712 0 0 0 0 -676.88965651445324 -1576.3844391660823 0 -1576.3844391660823 -2483.2277656114602 0 0 0 0 180.35407433842192 -301.25713630847167 0 -301.25713630847167 390.51303615333745 0 0 0 0 301.76716244927957 -304.88524785911432 0 -304.88524785911432 353.58286376460455 0 0 0 0 -1074.4270772374293 -1257.8427949518518 0 -1257.8427949518518 -1007.2583428008074 0 0 0 0 -2.9913273748023173 -3.7178356529332923 0 -3.7178356529332923 -2.2467403069369691 0 0 0 0 -1336.5618939775159 -1454.4045322129386 0 -1454.4045322129386 -790.67277026735246 0 0 0 0 -722.49518509212066 -1506.4796061729576 0 -1506.4796061729576 -1094.255943820579 0 0 0 0 -2142.800953676342 -1621.9679007570376 0 -1621.9679007570376 -668.30870494624833 0 0 0 0 0.030787328798929536 -0.07970501117214468 0 -0.07970501117214468 -0.021414909685567807 0 0 0 0 -2021.4510035748535 -1123.4484369745333 0 -1123.4484369745333 -820.98546845806413 0 0 0 0 -3.5448925972959842 -3165.3605705670634 0 -3165.3605705670634 -1772.3917401921935 0 0 0 0 -2923.6969965930402 -4923.7595195627691 0 -4923.7595195627691 1.2621389327541692 0 0 0 0 -7305.8288694242729 263.32926800966015 0 263.32926800966015 378.53336113196565 0 0 0 0 -6011.3065402033099 -3114.8685651535052 0 -3114.8685651535052 112.89903560042148 0 0 0 0 -1742.031875501365 -655.56205478816628 0 -655.56205478816628 442.4146501889627 0 0 0 0 -1260.8048318806032 -2724.497643808787 0 -2724.497643808787 -140.39722447461099 0 0 0 0 -0.94960134687239872 -2.4038566577651306 0 -2.4038566577651306 -2.4955757411702919 0 0 0 0 0.35533345070143696 -10.720715430841665 0 -10.720715430841665 -1.9620347805109759 0 0 0 0 9.3194117350503802 -12.37831421466035 0 -12.37831421466035 -0.0063050590397324413 0 0 0 0 -0.34181765300099265 -0.8233275714968622 0 -0.8233275714968622 -0.93378056545424926 0 0 0 0 -1.1150508851351333 -8.7244957444272586 0 -8.7244957444272586 -3.1845773611858021 0 0 0 0 -1.6965960468078265 -5.5740312568086665 0 -5.5740312568086665 -1.8687819259939715 0 0 0 0 -1.0168474322417751 -8.2340474581651506 0 -8.2340474581651506 -6.4543380943068769 0 0 0 0 -5.2734128903654209 -6.6706146241327247 0 -6.6706146241327247 -4.8769666480823979 0 0 0 0 -364.37724282125419 -9.5363168914263952 0 -9.5363168914263952 1.8265445097786142 0 0 0 0 -1509.6127135597199 -726.49703922404296 0 -726.49703922404296 -295.02108395946561 0 0 0 0 1.2691966615384445 12.109605724428548 0 12.109605724428548 -97.817255220543302 0 0 0 0 -2.8226971816815585 -6.4063826287556793 0 -6.4063826287556793 -4.3870029547861371 0 0 0 0 -35.291121497779386 -2.6016017630681745 0 -2.6016017630681745 14.040590030141175 0 0 0 0 131.55817822050449 -217.95751483955974 0 -217.95751483955974 397.98441386161721 0 0 0 0 -27.89113474948681 -27.046178942509869 0 -27.046178942509869 17.367870823392877 0 0 0 0 -1.5777452267429908 -0.60260481510340469 0 -0.60260481510340469 0.33554235505289398 0 0 0 0 -2.1681177201249895 -1.6480540322158834 0 -1.6480540322158834 3.6820425149216902 0 0 0 0 4.9814950431100442 -22.917007793859739 0 -22.917007793859739 1.2988780256418977 0 0 0 0 -126.25266170602845 -136.3099158115001 0 -136.3099158115001 -180.627919748571 0 0 0 0 -1041.5544504218851 -18.117892616384779 0 -18.117892616384779 176.23235325122369 0 0 0 0 -2.3345741772527724 -3.4782345560398156 0 -3.4782345560398156 -2.4504949560087077 0 0 0 0 -1023.3873432584223 -479.61751483682019 0 -479.61751483682019 52.350838364713127 0 0 0 0 -1477.6762980977946 -767.39081459901354 0 -767.39081459901354 0.65233164186065551 0 0 0 0 -1454.3283928388264 -828.86354508248769 0 -828.86354508248769 150.03213934213272 0 0 0 0 -1055.5667127038832 -912.86255925312798 0 -912.86255925312798 -487.95666222349973 0 0 0 0 -300.40964751275897 -1953.3026152056264 0 -1953.3026152056264 -112.05581476655789 0 0 0 0 -382.94653275315068 -537.81767221380142 0 -537.81767221380142 -328.31322960204125 0 0 0 0 -7.0969306039696676 -9.7413781669310993 0 -9.7413781669310993 0.0023607175535289571 0 0 0 0 -5.5529625487179146 -11.378287714192993 0 -11.378287714192993 -5.3479708465165459 0 0 0 0 -8.186262437608093 -8.9533194568139152 0 -8.9533194568139152 -2.0141739598329877 0 0 0 0 -7.9702112151731583 -5.7748377765354952 0 -5.7748377765354952 -4.5852365294180171 0 0 0 0 -8.3778154243627796 -7.7630286029743729 0 -7.7630286029743729 -1.8082238018323551 0 0 0 0 1031.1767118624994 -451.24168947870203 0 -451.24168947870203 -411.514888457099 0 0 0 0 624.61048340833077 -3347.1663701967973 0 -3347.1663701967973 -1506.4170522365021 0 0 0 0 -4648.6289567075728 -4402.2792848464742 0 -4402.2792848464742 -1394.6694830686902 0 0 0 0 -3599.4308782418375 -2377.9457527977065 0 -2377.9457527977065 -100.71892141413991 0 0 0 0 -3751.8918875739328 -2450.9463231531554 0 -2450.9463231531554 440.97245416584701 0 0 0 0 -6874.6985796369845 181.06722523763892 0 181.06722523763892 737.68235347598966 0 0 0 0 -8636.7575206979091 252.47664011385496 0 252.47664011385496 876.7694367330987 0 0 0 0 -9003.1399254894932 -2067.3759758222732 0 -2067.3759758222732 413.02668970352897 0 0 0 0 -9.9179597297657764 -5.6911833641104153 0 -5.6911833641104153 -3.9855285447057014 0 0 0 0 -7.6745851829473395 -8.3000457234593341 0 -8.3000457234593341 -2.1140666828432586 0 0 0 0 -11943.597931978991 5110.294337731204 0 5110.294337731204 -6598.2470336352126 0 0 0 0 -7.181879540119553 -7.0478553509456106 0 -7.0478553509456106 -0.0065704473555692746 0 0 0 0 -4190.1866078593675 -7887.7869828764715 0 -7887.7869828764715 -3133.530365823739 0 0 0 0 -8.8622318115156844 -7.0118665561495099 0 -7.0118665561495099 -2.9185884094449595 0 0 0 0 -4515.1045053133275 1863.4585980426928 0 1863.4585980426928 -749.97868342681613 0 0 0 0 4072.4351038247114 -6681.3561757926946 0 -6681.3561757926946 -4489.8997754176962 0 0 0 0 -3.9195003872648435 -2.4793941391620073 0 -2.4793941391620073 -0.64292404511704504 0 0 0 0 -3187.398097138197 117.25597708702117 0 117.25597708702117 476.48701479025476 0 0 0 0 -388.54337015682722 1516.1684278463417 0 1516.1684278463417 -814.59037257998716 0 0 0 0 -3141.1277557405992 -1273.6595778039627 0 -1273.6595778039627 324.78813540181727 0 0 0 0 -2651.5191836985759 -545.17725694128603 0 -545.17725694128603 606.06756305316958 0 0 0 0 -1845.6889954186627 -1098.7131148619519 0 -1098.7131148619519 348.35511357236101 0 0 0 0 -2316.0986341077514 -723.42489248402853 0 -723.42489248402853 293.31679549816181 0 0 0 0 -1725.0888414899819 98.355658982138266 0 98.355658982138266 465.27850382416364 0 0 0 0 -1251.0969372995605 -206.3295544273933 0 -206.3295544273933 -8.0357865807891358 0 0 0 0 -1737.9371388280124 -723.1906707490416 0 -723.1906707490416 283.74197494922919 0 0 0 0 -1346.8551198844507 -654.43993490040884 0 -654.43993490040884 -96.31941793828446 0 0 0 0 -1442.8983762882999 -580.3455002123228 0 -580.3455002123228 -57.357109968150326 0 0 0 0 -728.35260192293208 -110.12703326587507 0 -110.12703326587507 -72.965930881748136 0 0 0 0 -1039.4633338359272 -401.84173725838627 0 -401.84173725838627 -58.65841831965372 0 0 0 0 -746.15044786472572 -246.50076440818157 0 -246.50076440818157 45.46469075915229 0 0 0 0 -859.84262698510429 -87.411337652985821 0 -87.411337652985821 -173.49459384611691 0 0 0 0 -439.72237248165766 -156.44570341652434 0 -156.44570341652434 11.01319770561895 0 0 0 0 -958.24986976826403 -509.18388061355017 0 -509.18388061355017 56.502646040942636 0 0 0 0 -864.55138278845698 -329.08660979548586 0 -329.08660979548586 44.708362859181761 0 0 0 0 -1227.7266858308576 -141.91406157499296 0 -141.91406157499296 -395.56075194681034 0 0 0 0 -955.10108460689662 -462.95358715017574 0 -462.95358715017574 -308.25952036201488 0 0 0 0 -1428.0132574842137 -668.61483606019465 0 -668.61483606019465 -307.03629617032129 0 0 0 0 -1592.8786132137757 -565.8333209587945 0 -565.8333209587945 -334.07033317042806 0 0 0 0 -1668.3384908667358 -579.11435428336699 0 -579.11435428336699 345.01642837014515 0 0 0 0 -2442.7300845488498 260.61079706595046 0 260.61079706595046 -707.45674510650861 0 0 0 0 -1415.3661480070732 -762.98686839161383 0 -762.98686839161383 77.851077104220167 0 0 0 0 -2918.3505380224087 -1433.89998857721 0 -1433.89998857721 779.13873855455313 0 0 0 0 -0.61000868832985944 -0.85720984363293518 0 -0.85720984363293518 -0.4827113639401901 0 0 0 0 -2158.693765404314 -1404.198490028175 0 -1404.198490028175 -1232.4799583360946 0 0 0 0 -1991.1322050130548 -151.31658500012782 0 -151.31658500012782 25.230885984026827 0 0 0 0 -4334.6193216631073 -390.63632266948844 0 -390.63632266948844 108.73213907959871 0 0 0 0 -1498.7220767432336 -835.02837694819118 0 -835.02837694819118 -550.84399761990062 0 0 0 0 -2076.1852614834497 -1142.2767034348362 0 -1142.2767034348362 -185.58066547152703 0 0 0 0 -2470.8725938816788 -751.06712607793452 0 -751.06712607793452 162.08763620912214 0 0 0 0 -1740.2552152421461 -887.02696723234169 0 -887.02696723234169 5.0154539056820795 0 0 0 0 -1929.806474537676 -870.75339372018061 0 -870.75339372018061 148.14077477130922 0 0 0 0 -1276.0567249383603 -229.04101577917754 0 -229.04101577917754 -63.889401163891307 0 0 0 0 -1792.078785136342 -456.98805261032248 0 -456.98805261032248 100.46467012457288 0 0 0 0 -1659.7662681900256 -677.30022696447122 0 -677.30022696447122 121.60900561825838 0 0 0 0 -1.6011865579401068 -2.3321456375986447 0 -2.3321456375986447 -1.4936291532434041 0 0 0 0 40.488567697029794 -24.421285193660879 0 -24.421285193660879 -15.253718217471032 0 0 0 0 -1280.9239957972313 -241.55434095852979 0 -241.55434095852979 32.470482120181259 0 0 0 0 946.27600343139784 -762.53668630232642 0 -762.53668630232642 422.25240595990908 0 0 0 0 -1.3611214491883992 -1.1609243205664548 0 -1.1609243205664548 2.1176632933188557 0 0 0 0 1093.7012448716705 -968.77336869969804 0 -968.77336869969804 555.66227835269819 0 0 0 0 1082.7377099015284 -865.8214249395387 0 -865.8214249395387 695.95247273238783 0 0 0 0 -117.18554367234174 -23.704732083468116 0 -23.704732083468116 61.615130637132097 0 0 0 0 2731.2422619176941 -1771.5615113820168 0 -1771.5615113820168 180.36067155492492 0 0 0 0 119.55530117620947 -23.46478975674836 0 -23.46478975674836 -105.23969397430483 0 0 0 0 -1543.3207139705773 -1282.5147191059659 0 -1282.5147191059659 -1026.7917936940648 0 0 0 0 -0.48184182566679645 -0.46657349978203477 0 -0.46657349978203477 0.64344668336715216 0 0 0 0 1236.2141771998431 -2066.9275066838818 0 -2066.9275066838818 430.38504337902123 0 0 0 0 -827.90037155395839 -1913.1144117649164 0 -1913.1144117649164 707.19613013892285 0 0 0 0 1476.3415549573838 -1134.9616639299638 0 -1134.9616639299638 359.54358763505297 0 0 0 0 1384.0367698170012 -1232.5171037720866 0 -1232.5171037720866 265.15535078095854 0 0 0 0 1214.296074838494 -1278.7463439027342 0 -1278.7463439027342 602.08314121809963 0 0 0 0 2135.4460520612047 -854.90086257203075 0 -854.90086257203075 549.65740228365758 0 0 0 0 758.75709290037048 -1338.8265250143158 0 -1338.8265250143158 809.92387727811001 0 0 0 0 1202.9614481540812 -1224.3377613122184 0 -1224.3377613122184 616.55309501528973 0 0 0 0 741.71119907268439 -1312.2131818347698 0 -1312.2131818347698 806.49703272373881 0 0 0 0 875.65681000909535 -1447.8506530691957 0 -1447.8506530691957 463.93445768037054 0 0 0 0 1378.9773083985492 -1331.755178762367 0 -1331.755178762367 146.54059069008508 0 0 0 0 903.64980661115987 -1556.6108641955652 0 -1556.6108641955652 646.16583388787694 0 0 0 0 0.9329026811174117 -2295.0058830647395 0 -2295.0058830647395 109.28101644138223 0 0 0 0 398.28878598485608 -1657.3509299136349 0 -1657.3509299136349 665.35174508963428 0 0 0 0 0.13457242064760067 -1548.6838520728561 0 -1548.6838520728561 980.69250239232497 0 0 0 0 316.32882678086753 -1364.19566303592 0 -1364.19566303592 911.61280880487175 0 0 0 0 317.00133419249323 -1345.8956023514475 0 -1345.8956023514475 1090.384814634439 0 0 0 0 429.82756273387349 -958.93315330718178 0 -958.93315330718178 706.88395050713734 0 0 0 0 412.41651782647841 -1177.1390435190146 0 -1177.1390435190146 1193.3544440149853 0 0 0 0 1105.1609800341648 -1149.8136001357498 0 -1149.8136001357498 742.00359764974564 0 0 0 0 -69.07675787890912 -591.40875280139153 0 -591.40875280139153 918.05112555946107 0 0 0 0 228.50965091760736 -213.2245823104895 0 -213.2245823104895 346.88627085083863 0 0 0 0 -75.134187264629873 -785.76433911212371 0 -785.76433911212371 2436.4819421818829 0 0 0 0 0.22148967861797356 -1250.184035275028 0 -1250.184035275028 1200.6467834218347 0 0 0 0 0.03777979472943116 -3.8352800170359842 0 -3.8352800170359842 -1.8746956327668158 0 0 0 0 -87.618192231093417 13.855034435655398 0 13.855034435655398 46.038578246643738 0 0 0 0 -0.97286492065016716 -0.77498836539469762 0 -0.77498836539469762 0.52755081775253032 0 0 0 0 8.3817270789677423 8.6899537453139146 0 8.6899537453139146 35.050949598531588 0 0 0 0 0.18538993955218963 -3.9196798319884216 0 -3.9196798319884216 0.73415092546614602 0 0 0 0 -0.52355181018356234 -3.0244543488297495 0 -3.0244543488297495 0.59921327998745255 0 0 0 0 -0.013606197448098101 -4.3139794991948293 0 -4.3139794991948293 2.2723338177238475 0 0 0 0 -2.0069780924563005 -2.283505518966122 0 -2.283505518966122 4.6522376823493801 0 0 0 0 -0.018583793765383327 -0.20787448180017876 0 -0.20787448180017876 0.31773406675170079 0 0 0 0 -145.81508483993457 -408.25836636932331 0 -408.25836636932331 -1179.0835424796969 0 0 0 0 2589.3100289111499 -879.20074014614715 0 -879.20074014614715 64.96151067057508 0 0 0 0 1804.1935801279615 -1362.9048150728922 0 -1362.9048150728922 109.78665047785034 0 0 0 0 1082.8797777458385 -988.75719230799587 0 -988.75719230799587 467.3007783565281 0 0 0 0 1563.9327286621265 -807.34288559076231 0 -807.34288559076231 503.90730547891872 0 0 0 0 1083.1766073201434 -993.81377585438167 0 -993.81377585438167 500.72750216951317 0 0 0 0 593.05573279285454 -971.2422351822097 0 -971.2422351822097 523.19039961618546 0 0 0 0 1107.7273307115684 -1191.8779831874635 0 -1191.8779831874635 403.63423581508687 0 0 0 0 1266.4344399013498 -920.8169198511896 0 -920.8169198511896 463.70910716644357 0 0 0 0 618.45631386242894 -1358.357557923493 0 -1358.357557923493 361.76964610282448 0 0 0 0 -546.95237159413227 -1493.6270352061401 0 -1493.6270352061401 661.12409300425497 0 0 0 0 596.06285414991726 -1323.0473836096189 0 -1323.0473836096189 490.77117825012829 0 0 0 0 -718.98559153715905 -1052.8185239889572 0 -1052.8185239889572 884.15538898712839 0 0 0 0 -134.53135210194159 -1436.6010670018732 0 -1436.6010670018732 626.37081085171667 0 0 0 0 -307.71400659845676 -1278.6098045813815 0 -1278.6098045813815 824.49802087448188 0 0 0 0 6.5560777221107855 -746.51245011715582 0 -746.51245011715582 883.25943081526202 0 0 0 0 -417.01933174105943 -1169.4759782119581 0 -1169.4759782119581 878.21621866142561 0 0 0 0 -0.50107445352438162 -0.33855826718207638 0 -0.33855826718207638 0.24289560037601277 0 0 0 0 -15.552231640278478 -238.03107238958546 0 -238.03107238958546 -608.11317597718153 0 0 0 0 -316.92630706968703 -1354.8263377498497 0 -1354.8263377498497 317.20033990796946 0 0 0 0 -433.67981716553913 -914.90900323835376 0 -914.90900323835376 -132.6447148744046 0 0 0 0 -710.09987152346002 -984.90722150748115 0 -984.90722150748115 502.0169618568616 0 0 0 0 -519.88910903575015 -897.46201070334064 0 -897.46201070334064 536.04728116386468 0 0 0 0 -633.1974281258299 -849.0622924243944 0 -849.0622924243944 732.18338104013674 0 0 0 0 -677.9023340507556 -1083.966286638959 0 -1083.966286638959 737.62793284177314 0 0 0 0 -657.67399284601561 -1039.7732389205848 0 -1039.7732389205848 722.97130897779425 0 0 0 0 -971.66038427686726 -1067.9558302923397 0 -1067.9558302923397 882.43624303067918 0 0 0 0 -725.00062966008409 -1078.7581888924979 0 -1078.7581888924979 775.22855632920982 0 0 0 0 -1496.7205520633142 -995.20988854260941 0 -995.20988854260941 926.2145013213958 0 0 0 0 -1859.5593795306922 -603.37302602438285 0 -603.37302602438285 590.43336282773816 0 0 0 0 -1153.1697867078765 -627.82225866493536 0 -627.82225866493536 341.65922177796529 0 0 0 0 -1323.3569654218154 -410.67318376623734 0 -410.67318376623734 473.22220877275686 0 0 0 0 -1048.0780992649161 -853.86885016665474 0 -853.86885016665474 739.30554939938884 0 0 0 0 -779.96773870565812 -661.37201405055384 0 -661.37201405055384 639.3762214992239 0 0 0 0 -1001.6579001012433 -659.0480856186914 0 -659.0480856186914 658.57728896288609 0 0 0 0 -901.8007181926223 -393.52458235512313 0 -393.52458235512313 247.10552802645543 0 0 0 0 -599.08688253164291 -364.41567791556736 0 -364.41567791556736 249.42507767712232 0 0 0 0 -137.72093005658826 -209.74095382938685 0 -209.74095382938685 28.264950707467506 0 0 0 0 -95.38038859446533 -694.26300947937125 0 -694.26300947937125 445.77969542868959 0 0 0 0 -534.41348135484441 -449.65270125430106 0 -449.65270125430106 347.99572631035699 0 0 0 0 -473.90011667470026 -510.34697714166577 0 -510.34697714166577 760.81059081631247 0 0 0 0 204.64656330281287 -546.31023285999254 0 -546.31023285999254 565.57042630485375 0 0 0 0 -648.4919591883372 -723.58102024502296 0 -723.58102024502296 722.31751704245107 0 0 0 0 -556.84646624147717 -765.29608448819818 0 -765.29608448819818 650.53302983066533 0 0 0 0 -267.44282405560079 -698.17532244189715 0 -698.17532244189715 515.82951433768903 0 0 0 0 -204.9379169419044 -552.07995200140249 0 -552.07995200140249 598.48274762681103 0 0 0 0 -220.76168961983058 -504.23147739199339 0 -504.23147739199339 384.76932470583415 0 0 0 0 -417.35131496313261 -676.84497464729066 0 -676.84497464729066 560.28652003836032 0 0 0 0 -310.66779077290266 -620.62298538596951 0 -620.62298538596951 234.14984378505324 0 0 0 0 -175.23133083168068 -641.98438537707898 0 -641.98438537707898 595.49515050806804 0 0 0 0 -237.06409932079259 -353.65760521600714 0 -353.65760521600714 552.36296871698869 0 0 0 0 -288.74958052925649 -284.57023446875974 0 -284.57023446875974 47.329256541466748 0 0 0 0 -213.2062306395419 -331.13607010896885 0 -331.13607010896885 21.361120086723531 0 0 0 0 -395.11746817152016 -420.07961215066098 0 -420.07961215066098 296.28057030864147 0 0 0 0 -388.90367805361166 -449.11489905305643 0 -449.11489905305643 -90.335906984826579 0 0 0 0 -287.94996596516285 -321.47879848807497 0 -321.47879848807497 -360.40862899776403 0 0 0 0 -478.31954700489587 -411.04514264648242 0 -411.04514264648242 -59.115933505963767 0 0 0 0 -478.5667271365237 -417.80821629779166 0 -417.80821629779166 -228.79623873565652 0 0 0 0 -583.44967045247176 -504.85357462639695 0 -504.85357462639695 119.55492056265939 0 0 0 0 -437.23122190459981 -658.04256412464747 0 -658.04256412464747 37.566548131009768 0 0 0 0 -435.13046227147424 -752.53411060805229 0 -752.53411060805229 283.32767330590286 0 0 0 0 -464.86924742645351 -613.72599603589333 0 -613.72599603589333 356.94673760817386 0 0 0 0 -627.10332624627335 -554.78191038243313 0 -554.78191038243313 23.531795350674656 0 0 0 0 -783.74025259503105 -653.37295624325634 0 -653.37295624325634 22.824145275910269 0 0 0 0 -698.08326575287356 -754.43103745209737 0 -754.43103745209737 -338.91492259046936 0 0 0 0 -822.39902283497213 -535.61399564041494 0 -535.61399564041494 -122.33287204234512 0 0 0 0 -504.25835922088299 -528.49028720935894 0 -528.49028720935894 -122.22072947975721 0 0 0 0 -589.59967703441362 -540.60129096398305 0 -540.60129096398305 -85.573322453965375 0 0 0 0 -708.10289469876443 -552.55795893269533 0 -552.55795893269533 -72.98351884058502 0 0 0 0 -584.32976376072838 -529.26144471202088 0 -529.26144471202088 -345.91183911802364 0 0 0 0 -947.19235738622956 -607.28998112922272 0 -607.28998112922272 -223.31820352506475 0 0 0 0 -577.78966574076912 -562.84030446363249 0 -562.84030446363249 -265.04126502788858 0 0 0 0 -891.2577970479615 -567.61280157385772 0 -567.61280157385772 -151.85161614931712 0 0 0 0 -712.25219037324132 -580.3089416032708 0 -580.3089416032708 -186.36597819741291 0 0 0 0 -868.40886342481008 -361.12192084244703 0 -361.12192084244703 -286.53769508996629 0 0 0 0 -708.83524809175287 -480.0277715236225 0 -480.0277715236225 -255.63404238867224 0 0 0 0 -2173.8307320664489 -1255.1871471741335 0 -1255.1871471741335 -157.84734701534035 0 0 0 0 -1258.8821126342518 -364.25736991229496 0 -364.25736991229496 -137.56967703886767 0 0 0 0 1389.59975683823 -777.51455902200178 0 -777.51455902200178 -81.698583829820564 0 0 0 0 0.026536780389164849 -0.93267493549521596 0 -0.93267493549521596 0.060955524505184044 0 0 0 0 1.1183845355699304 -143.72962006656235 0 -143.72962006656235 246.94277135025186 0 0 0 0 137.97640379684162 -133.97920006740605 0 -133.97920006740605 120.4700988622717 0 0 0 0 0.082556590348132897 -2.3894763714167837 0 -2.3894763714167837 0.16977144375584174 0 0 0 0 -868.93309101628256 -446.72685275918411 0 -446.72685275918411 -77.763269652088638 0 0 0 0 -625.50846440773603 -237.49842815067495 0 -237.49842815067495 98.2164487488335 0 0 0 0 16.139001391056809 -90.024453319336317 0 -90.024453319336317 -329.71267915313365 0 0 0 0 -0.13773314088306535 -3.5300287990619803 0 -3.5300287990619803 -2.4105530761153204 0 0 0 0 0.13952219637018737 -3.327025701082361 0 -3.327025701082361 0.369772285402032 0 0 0 0 -0.29228720680112019 -3.510200502940279 0 -3.510200502940279 -2.1908011094128597 0 0 0 0 -1.2758396742501645 -9.6347376391313446 0 -9.6347376391313446 -0.61306914191663964 0 0 0 0 -2.2167856823798502 -8.2577533161675092 0 -8.2577533161675092 2.7981432691158261 0 0 0 0 3.6124201321290457 -13.963813601265429 0 -13.963813601265429 5.4470806481986074 0 0 0 0 12.6952782345179 -18.735759168273944 0 -18.735759168273944 4.6881942941163288 0 0 0 0 1.8131106432992965 -13.462692106426402 0 -13.462692106426402 6.7568484468793031 0 0 0 0 4.6187546051514801 -14.779776240946376 0 -14.779776240946376 2.5271073607364087 0 0 0 0 3.9368562613963149 -12.744221766100964 0 -12.744221766100964 2.9999345969818023 0 0 0 0 -0.51989846443757415 -11.319102173554711 0 -11.319102173554711 3.8998141851188848 0 0 0 0 -5.2983524828741793 -10.202576641178894 0 -10.202576641178894 -1.0621481320558814 0 0 0 0 0.04184884390406296 -0.10490715759257085 0 -0.10490715759257085 -0.026099435000599414 0 0 0 0 -1.280967298993346 -8.0702868343623777 0 -8.0702868343623777 -1.196010843719705 0 0 0 0 -7.1969356693894913 -29.580397251673716 0 -29.580397251673716 -2.5452022264037084 0 0 0 0 40.295694990796619 -20.69958961152588 0 -20.69958961152588 -39.921742124191951 0 0 0 0 72.483991050390614 -1.1328936629834061 0 -1.1328936629834061 -62.711477331758942 0 0 0 0 -6.0854722633375786 -17.486451152821246 0 -17.486451152821246 -11.089171197600081 0 0 0 0 10.421799860501375 -8.9314740400352033 0 -8.9314740400352033 -12.576918490264511 0 0 0 0 -5.6022495438155602 -9.1039068645550287 0 -9.1039068645550287 1.8896174055626034 0 0 0 0 561.15490919284639 -278.15437555615063 0 -278.15437555615063 -661.06598041616962 0 0 0 0 115.27370367999947 94.689210308566999 0 94.689210308566999 -118.89609744038898 0 0 0 0 -0.2181601028137572 -0.97560136917478779 0 -0.97560136917478779 0.028036127935486377 0 0 0 0 -427.82058763041277 -283.01412119035376 0 -283.01412119035376 294.40939209681528 0 0 0 0 0.11816259723360645 -1.2339405310844853 0 -1.2339405310844853 -1.0690310093282456 0 0 0 0 44.708547353802714 -150.75538822286762 0 -150.75538822286762 325.20209885793338 0 0 0 0 60.013486055766407 -109.44608486614015 0 -109.44608486614015 -153.80606710581924 0 0 0 0 139.78615053380054 76.930284763875534 0 76.930284763875534 -73.343051427131286 0 0 0 0 -0.87023153550606658 -4.4573573948635392 0 -4.4573573948635392 -2.1515896096972202 0 0 0 0 -111.04598238614562 -43.830728866792924 0 -43.830728866792924 120.75755047268467 0 0 0 0 -0.061448413198936791 -0.32115941276830284 0 -0.32115941276830284 0.1110684241606501 0 0 0 0 22.4695430193824 -31.265021921281004 0 -31.265021921281004 44.694766146858456 0 0 0 0 -1.8062552114569872 -7.5347826485274254 0 -7.5347826485274254 -3.6385184879457082 0 0 0 0 -0.83151592848298606 34.120087600356783 0 34.120087600356783 115.59652893316525 0 0 0 0 7.3940350555494661 -67.645366176322568 0 -67.645366176322568 -14.791314902497106 0 0 0 0 62.287493849435123 -46.149723523994908 0 -46.149723523994908 -209.86067855886358 0 0 0 0 -8.4123190909540462 -13.511298294327894 0 -13.511298294327894 3.1228112172966722 0 0 0 0 -197.13575004062295 -8.0999770989874378 0 -8.0999770989874378 59.854162050188279 0 0 0 0 -12.667282745271223 -81.199679270808701 0 -81.199679270808701 -39.995597415516386 0 0 0 0 14.162353904685006 -9.2091777761233971 0 -9.2091777761233971 -135.40955552028026 0 0 0 0 -24.686567396463943 -41.745449151989305 0 -41.745449151989305 -152.60192672966514 0 0 0 0 -0.038371870098439231 -0.17591262486084425 0 -0.17591262486084425 0.060920304717623885 0 0 0 0 -39.320932073445874 -3.5684401788312243 0 -3.5684401788312243 176.13148984071449 0 0 0 0 -2.890651061842556 -11.010982922569534 0 -11.010982922569534 -5.2140965457018442 0 0 0 0 -71.814236478327075 -107.18358174810419 0 -107.18358174810419 -14.641588242899161 0 0 0 0 -37.882478787447326 -48.794749186374247 0 -48.794749186374247 -151.25608939165249 0 0 0 0 -17.400619734777138 -87.029915726103354 0 -87.029915726103354 157.47588009679748 0 0 0 0 -82.515392862430417 -8.2009531056373817 0 -8.2009531056373817 -57.92326624377165 0 0 0 0 15.407439326649182 -21.526122001298063 0 -21.526122001298063 90.814484124828596 0 0 0 0 11.770125663284508 -13.640285323985486 0 -13.640285323985486 -14.143157009742261 0 0 0 0 21.864399091078667 -32.623234767001122 0 -32.623234767001122 -266.76304060581606 0 0 0 0 0.78738982361634591 0.18340682821451626 0 0.18340682821451626 -0.6597446044569395 0 0 0 0 12.118665601777774 -3.3659353728148318 0 -3.3659353728148318 -10.505086023949639 0 0 0 0 28.91089201241266 -5.7115405915828887 0 -5.7115405915828887 -1.4064323419370339 0 0 0 0 25.074460950214416 1.776815414239536 0 1.776815414239536 -1.4147722684283508 0 0 0 0 27.504256722459104 15.901101083523827 0 15.901101083523827 -19.917011533572804 0 0 0 0 39.806854201597162 0.90246674036461627 0 0.90246674036461627 -5.1781412266136613 0 0 0 0 0.87123752366460394 -5.8306079400790622 0 -5.8306079400790622 -2.5113760778945107 0 0 0 0 0.45764058941858821 -6.0462875094235642 0 -6.0462875094235642 -1.8884599471930414 0 0 0 0 0.037159094751364918 -10.107510250678914 0 -10.107510250678914 -14.197565331367773 0 0 0 0 -11.657311095157297 -9.7645319693450574 0 -9.7645319693450574 -38.957257634378038 0 0 0 0 -11.85265308578073 -31.715616698624899 0 -31.715616698624899 -61.901017695781775 0 0 0 0 -49.103378236184653 -28.669178021336847 0 -28.669178021336847 8.7879772509913892 0 0 0 0 -0.63962859519802429 -0.52600252641182932 0 -0.52600252641182932 0.55214528479545422 0 0 0 0 3.3315768422762631 -26.564737466833321 0 -26.564737466833321 -64.649025956903643 0 0 0 0 8.6397876388509758 -42.210936246410711 0 -42.210936246410711 -67.179994488367811 0 0 0 0 -19.68877898788196 -40.858802479109727 0 -40.858802479109727 3.9426912761700805 0 0 0 0 17.611916020105127 -47.4545397759357 0 -47.4545397759357 -89.476359148009578 0 0 0 0 -7.2445430465159006 -28.35052997560706 0 -28.35052997560706 -63.945226916112006 0 0 0 0 -361.67011727570207 -206.05139681290166 0 -206.05139681290166 29.011348709842423 0 0 0 0 -372.77191965786551 -50.565033550015869 0 -50.565033550015869 65.610547470801976 0 0 0 0 -238.78005424808362 -114.61938650356024 0 -114.61938650356024 -13.6442244349455 0 0 0 0 -257.67298227641732 -80.87869156996021 0 -80.87869156996021 33.514297690155217 0 0 0 0 -193.09114264586242 -66.983288993156748 0 -66.983288993156748 36.017734452965669 0 0 0 0 -118.87722923734691 -88.544152773203677 0 -88.544152773203677 -64.051753636798821 0 0 0 0 38.527723648585379 0.68744740315014496 0 0.68744740315014496 -14.133042109253438 0 0 0 0 -42.348665404482745 -80.690731389637222 0 -80.690731389637222 -24.449077579949517 0 0 0 0 -58.498882769315969 -17.828287345182616 0 -17.828287345182616 -15.606410716136452 0 0 0 0 -181.25730523932725 -10.630160982182133 0 -10.630160982182133 2.9797856870573014 0 0 0 0 -6.8457642472349107 11.337729125167243 0 11.337729125167243 -16.399097550543956 0 0 0 0 -38.421020047913771 -37.617064471778576 0 -37.617064471778576 -30.072528753255028 0 0 0 0 43.340821228339337 -3.877166129386751 0 -3.877166129386751 -31.195584485793916 0 0 0 0 8.72528451558901 17.830553552121273 0 17.830553552121273 10.20246275034151 0 0 0 0 0.38536174196260475 0.11619228028051509 0 0.11619228028051509 -0.10841764111282259 0 0 0 0 20.339246246032417 -2.9403770457138307 0 -2.9403770457138307 14.303776682070747 0 0 0 0 -6.5251063578471076 -67.749007765647548 0 -67.749007765647548 -90.335929327484337 0 0 0 0 16.749470151640708 -23.653136709697719 0 -23.653136709697719 -43.827369216291117 0 0 0 0 -1.5247194504277513 -10.648400409913453 0 -10.648400409913453 -0.38962974016521557 0 0 0 0 -0.10748818219838796 -1.3281770702273299 0 -1.3281770702273299 -0.028037355606715941 0 0 0 0 -53.190492565190652 -34.295941690783366 0 -34.295941690783366 85.312790636264253 0 0 0 0 -84.670803507484379 -94.382531717968959 0 -94.382531717968959 -26.755837343473104 0 0 0 0 129.41007443904527 -317.12173470930429 0 -317.12173470930429 65.847118536552443 0 0 0 0 163.6730499821424 -658.79311610083823 0 -658.79311610083823 630.8186215274618 0 0 0 0 118.7327584621089 -425.34203192240238 0 -425.34203192240238 863.05562731393729 0 0 0 0 0.076274118288083059 -2.7656996685218225 0 -2.7656996685218225 -0.075206877518879889 0 0 0 0 334.06691853055963 -558.69067432793963 0 -558.69067432793963 487.55323036959453 0 0 0 0 170.39732133364305 -109.09475975262467 0 -109.09475975262467 419.51455417566467 0 0 0 0 260.07418597047217 -470.4392071410839 0 -470.4392071410839 580.31329109112266 0 0 0 0 215.1342989159748 -386.83121217599546 0 -386.83121217599546 425.39972814015346 0 0 0 0 350.892767751473 -487.49749602732481 0 -487.49749602732481 466.99027163605206 0 0 0 0 408.32827879153774 -540.54517178474634 0 -540.54517178474634 398.63916617885116 0 0 0 0 337.17222719814163 -526.04655462909432 0 -526.04655462909432 396.10001197425299 0 0 0 0 429.8012485865911 -452.02450238117308 0 -452.02450238117308 343.4710663293954 0 0 0 0 479.7300736901816 -569.03147700428963 0 -569.03147700428963 365.56331318360753 0 0 0 0 520.9117232154822 -580.19971579694538 0 -580.19971579694538 341.52740435689338 0 0 0 0 384.38593329294235 -677.53875727930063 0 -677.53875727930063 407.33355175014003 0 0 0 0 323.12838213786017 -584.55790309543772 0 -584.55790309543772 486.00555638337391 0 0 0 0 144.97962789426674 -705.47151314803341 0 -705.47151314803341 492.43309788159604 0 0 0 0 263.60768845817074 -616.20947048874223 0 -616.20947048874223 481.26222888722259 0 0 0 0 -6.3970322641798809 -15.536025415629176 0 -15.536025415629176 1.6645396261062892 0 0 0 0 7.4631649684743024 -13.758905275950383 0 -13.758905275950383 4.4635486647530342 0 0 0 0 -5.7594713672915532 -86.29318768672556 0 -86.29318768672556 30.164134193677455 0 0 0 0 -10.474458239787008 -17.100232343627741 0 -17.100232343627741 -0.34519622394965843 0 0 0 0 -40.839686221908778 -13.434374652744737 0 -13.434374652744737 36.667506474312177 0 0 0 0 -19.046454214127156 -13.26946704643786 0 -13.26946704643786 16.327301824904637 0 0 0 0 -20.641479249898111 -0.21946225478313863 0 -0.21946225478313863 0.60615652907290496 0 0 0 0 -38.296482871752232 3.1217708741751267 0 3.1217708741751267 19.496455890563084 0 0 0 0 -1.1879541767411865 -4.5124149311159272 0 -4.5124149311159272 -0.054143027500686003 0 0 0 0 -1.586829537572136 -6.689961738730867 0 -6.689961738730867 -0.068127260413510582 0 0 0 0 0.65253386477706954 -3.1499968561329297 0 -3.1499968561329297 -22.615750724071404 0 0 0 0 -10.929215349331415 -3.316884770456177 0 -3.316884770456177 8.3876942989572889 0 0 0 0 -35.496414697961882 34.376709699747153 0 34.376709699747153 -41.452308803534834 0 0 0 0 -119.55599094444187 324.61613891228626 0 324.61613891228626 -201.17532104812562 0 0 0 0 -1.8167817954617078 -10.448237472197533 0 -10.448237472197533 -0.18192805762567943 0 0 0 0 395.5617251258227 -377.40393070285791 0 -377.40393070285791 308.36626580567099 0 0 0 0 -67.277434825198725 50.912119818211067 0 50.912119818211067 -18.844031600790913 0 0 0 0 330.85638348667999 -280.45654647698393 0 -280.45654647698393 163.449802003277 0 0 0 0 -56.966128473824938 -29.825260685289322 0 -29.825260685289322 38.255487203015946 0 0 0 0 -77.597463785321452 32.083501261207857 0 32.083501261207857 -6.3585450285027036 0 0 0 0 -31.17453301011119 0.80286476398396189 0 0.80286476398396189 3.3936808087164536 0 0 0 0 436.50290148157183 -320.0737668195261 0 -320.0737668195261 294.63484141870867 0 0 0 0 -168.56163254758576 -25.188244075710827 0 -25.188244075710827 66.373261235086829 0 0 0 0 -155.91217647393933 17.822462833915779 0 17.822462833915779 55.272238733276026 0 0 0 0 397.54006890884193 -355.78313550631901 0 -355.78313550631901 320.22425845987163 0 0 0 0 -144.22997309268976 -93.05939686497004 0 -93.05939686497004 20.843672536633676 0 0 0 0 -9.2660797714944927 -3.6780343637568365 0 -3.6780343637568365 12.065644879698352 0 0 0 0 429.84372715186328 -440.47181974619161 0 -440.47181974619161 341.27507654257352 0 0 0 0 313.27051522216061 -385.87592305581347 0 -385.87592305581347 346.07790719310287 0 0 0 0 422.42116130108479 -441.30094701156486 0 -441.30094701156486 371.14719106370467 0 0 0 0 436.89416048192652 -444.32447783304087 0 -444.32447783304087 309.50447558780434 0 0 0 0 569.32648407366651 -300.7306750824755 0 -300.7306750824755 176.38961134408601 0 0 0 0 639.48721721733455 -471.15797996126639 0 -471.15797996126639 277.50214102354948 0 0 0 0 -136.10344030147826 -67.905971256186604 0 -67.905971256186604 81.567995989287738 0 0 0 0 98.290560133435065 -19.375738343973353 0 -19.375738343973353 -104.95959718284212 0 0 0 0 31.417472115921555 -159.79113745185896 0 -159.79113745185896 -26.812255006065243 0 0 0 0 -438.32499415601342 -23.519615356950453 0 -23.519615356950453 205.0798577786336 0 0 0 0 -8.4863149088675467 -15.225451613478434 0 -15.225451613478434 -0.21104087523304038 0 0 0 0 2.450760959649525 -0.36500734460964601 0 -0.36500734460964601 -2.1283595055927389 0 0 0 0 721.69019037860562 -730.181438596097 0 -730.181438596097 363.03189595026197 0 0 0 0 907.4178669663961 -333.53287864681624 0 -333.53287864681624 124.1450399094465 0 0 0 0 1287.9913336016471 -491.08982344939432 0 -491.08982344939432 178.60973008848669 0 0 0 0 1080.2160126764647 -806.90448861771802 0 -806.90448861771802 379.22212563743233 0 0 0 0 1533.0787052576197 -903.88882788318188 0 -903.88882788318188 362.11690848818398 0 0 0 0 1177.4002928711998 -984.44507703537238 0 -984.44507703537238 627.02050479753234 0 0 0 0 1167.8162141981884 -836.44875767828489 0 -836.44875767828489 790.3686197072675 0 0 0 0 -5.1021097429210815 -1.7655058129323038 0 -1.7655058129323038 7.0274754530786314 0 0 0 0 159.42704545901506 -610.70610699714598 0 -610.70610699714598 456.07648239445552 0 0 0 0 228.59038732579211 -747.82484208077221 0 -747.82484208077221 562.2897390866201 0 0 0 0 546.01526599755744 -729.62726581261086 0 -729.62726581261086 420.31868621428293 0 0 0 0 569.09901215828722 -621.25395914138062 0 -621.25395914138062 322.58297785416289 0 0 0 0 556.37970126937944 -805.83341094038224 0 -805.83341094038224 544.96089100369136 0 0 0 0 556.49200532192481 -808.94395275690476 0 -808.94395275690476 625.72552904275653 0 0 0 0 -4.2101359434600454 -643.7408617269466 0 -643.7408617269466 820.03016788372042 0 0 0 0 5.7267857302504126 -488.9030370443943 0 -488.9030370443943 403.91297771289828 0 0 0 0 -220.39932459176634 -284.79919375522877 0 -284.79919375522877 1025.3254073199932 0 0 0 0 332.06161782695563 -679.27492036850163 0 -679.27492036850163 682.60527879982692 0 0 0 0 265.32644241192611 -834.63356736408969 0 -834.63356736408969 1147.6234185202047 0 0 0 0 146.71094156225445 -95.426335002211999 0 -95.426335002211999 326.058201499196 0 0 0 0 -89.09782532058307 -118.51059519187766 0 -118.51059519187766 89.578099827340338 0 0 0 0 -95.081887834065128 -81.027233430526394 0 -81.027233430526394 108.71460309310714 0 0 0 0 -1.585911921137857 -0.48707083509951943 0 -0.48707083509951943 2.2982019302535335 0 0 0 0 -1143.0516942191607 165.43083338941142 0 165.43083338941142 1039.6866636339255 0 0 0 0 3462.7624436840051 -2517.4632486136506 0 -2517.4632486136506 1133.9390238200576 0 0 0 0 1236.4973528916016 -1486.2396013363541 0 -1486.2396013363541 1341.203492388795 0 0 0 0 2183.0531702259177 -749.32470067442409 0 -749.32470067442409 719.93641400408524 0 0 0 0 -480.59872682747664 -397.59327349199157 0 -397.59327349199157 1834.4849151004746 0 0 0 0 997.21509710179816 -2083.66007766033 0 -2083.66007766033 2795.8750119111064 0 0 0 0 304.51498270026059 -943.11891183885018 0 -943.11891183885018 966.86267448943545 0 0 0 0 138.58294170352747 -1563.7085736433728 0 -1563.7085736433728 3300.9963639874477 0 0 0 0 440.64302547725674 74.886694998145686 0 74.886694998145686 -231.431977051383 0 0 0 0 -1445.273830839782 280.70251970578101 0 280.70251970578101 1078.7358785175456 0 0 0 0 -0.63519861988476833 0.27689044634912285 0 0.27689044634912285 1.2930727552930392 0 0 0 0 -26.453826192453562 -205.91331348103404 0 -205.91331348103404 -158.17958624017774 0 0 0 0 -137.2775306369731 133.93180919987572 0 133.93180919987572 47.859997947962256 0 0 0 0 477.13681322403136 -603.62677932607039 0 -603.62677932607039 1280.5867472749815 0 0 0 0 -2.5488168472513326 0.23633644026460132 0 0.23633644026460132 4.3937331990102839 0 0 0 0 171.9575710495119 129.88094241792714 0 129.88094241792714 -151.82128213069518 0 0 0 0 -5.4670524122039748 -0.73824937606737251 0 -0.73824937606737251 8.314040957624389 0 0 0 0 -1.1223995927117638 -13.7384495997686 0 -13.7384495997686 -6.6356904960365863 0 0 0 0 -69.203421630052617 -82.477571068247926 0 -82.477571068247926 98.282153509355339 0 0 0 0 258.06848523704684 -254.55498862405875 0 -254.55498862405875 -271.23737234191867 0 0 0 0 10.334473859285936 -19.758625174821645 0 -19.758625174821645 5.4734913772263099 0 0 0 0 4.3007740470056888 -13.285110073004034 0 -13.285110073004034 3.6638080609409371 0 0 0 0 0.58852598411613144 -14.134819282324315 0 -14.134819282324315 3.7318315751326736 0 0 0 0 6.3464684432183276 -13.00549550246069 0 -13.00549550246069 2.5630663074261975 0 0 0 0 -73.337340214333381 -20.603930648852838 0 -20.603930648852838 96.469762809356325 0 0 0 0 -48.180400144075975 -71.639595239439359 0 -71.639595239439359 -88.359271491212553 0 0 0 0 -15.928088994027487 -5.2384701009147836 0 -5.2384701009147836 20.241249078009353 0 0 0 0 -8.7212170942366356 -11.857249993518053 0 -11.857249993518053 5.2410252686677268 0 0 0 0 0.95849156155600213 -13.635534488246776 0 -13.635534488246776 -0.47350149387057172 0 0 0 0 -8.9761864523461554 -9.4445225701274467 0 -9.4445225701274467 1.4638579728161858 0 0 0 0 3.5588595299159351 -7.5199820114085014 0 -7.5199820114085014 1.5221593525493518 0 0 0 0 -66.1995591774903 -255.75087891274416 0 -255.75087891274416 -340.35990310952729 0 0 0 0 -67.983074823292554 -129.85900797292379 0 -129.85900797292379 -18.383805317686893 0 0 0 0 -164.88576544819807 -649.94105254210081 0 -649.94105254210081 -249.69969203353685 0 0 0 0 -738.89029254211346 -394.73883126470355 0 -394.73883126470355 -80.014021783314092 0 0 0 0 -147.53489806942525 -427.05614038743806 0 -427.05614038743806 -375.20365260332983 0 0 0 0 -14.835154313435636 -1.4219002931964955 0 -1.4219002931964955 13.568598603232477 0 0 0 0 2.9611005719343666 -13.492335951883433 0 -13.492335951883433 6.2850570546470408 0 0 0 0 3.939949975527707 -11.385470949689051 0 -11.385470949689051 -6.4226297436767226 0 0 0 0 -2231.3943918184232 -412.25116770803288 0 -412.25116770803288 -62.953711192560149 0 0 0 0 -0.54029582352573513 -0.070578648820434076 0 -0.070578648820434076 0.43901797697984613 0 0 0 0 194.67065687043942 -888.70411805446929 0 -888.70411805446929 -402.76417136981036 0 0 0 0 -3773.1774536790326 -1792.2819682423578 0 -1792.2819682423578 -920.84761064736813 0 0 0 0 -764.74074564443436 -414.57498079341894 0 -414.57498079341894 -304.33782591459021 0 0 0 0 97.625464156153612 560.86756264299038 0 560.86756264299038 -834.14842462275101 0 0 0 0 339.63300587344565 -1332.4154389281975 0 -1332.4154389281975 2524.5414060138646 0 0 0 0 98.107659521564528 595.5983314372213 0 595.5983314372213 915.19095147363259 0 0 0 0 -3221.5545999304013 1107.5388519227727 0 1107.5388519227727 305.34611429530196 0 0 0 0 1991.5103172258241 -1725.7923253277695 0 -1725.7923253277695 924.37167075017351 0 0 0 0 0.25602650886402323 0.17187781869434104 0 0.17187781869434104 0.50401800450169887 0 0 0 0 1152.0224591345686 -809.87608260709021 0 -809.87608260709021 483.53208452944818 0 0 0 0 -0.94248711181588107 -0.52432530919431741 0 -0.52432530919431741 1.8692662423221496 0 0 0 0 -58.974645780486753 -1707.1678367968852 0 -1707.1678367968852 3381.1257757972635 0 0 0 0 -2500.1674162494601 160.08689100171614 0 160.08689100171614 1409.5362228663216 0 0 0 0 1497.1760020589136 -955.82784089013876 0 -955.82784089013876 699.64448147796793 0 0 0 0 -539.69500505834003 -3240.8268302508441 0 -3240.8268302508441 1938.689870135262 0 0 0 0 2345.0410247927357 -1607.8298071235549 0 -1607.8298071235549 -2792.1205641535489 0 0 0 0 -9.2545612608664669 -21.472678470156097 0 -21.472678470156097 23.01831315515301 0 0 0 0 -9.9621374582838342 -13.511164480882654 0 -13.511164480882654 1.4015037337791578 0 0 0 0 -2991.2957453406416 -326.0445826882933 0 -326.0445826882933 1071.5139807176893 0 0 0 0 311.42530129873558 -418.475456298067 0 -418.475456298067 473.18438531272113 0 0 0 0 0.41787726032500494 -0.29855692849668714 0 -0.29855692849668714 1.6075856561863304 0 0 0 0 -17.586409765237477 -21.411042688445377 0 -21.411042688445377 13.794775211979868 0 0 0 0 15.255033139193909 -7.9891696747086103 0 -7.9891696747086103 -7.2478225700898484 0 0 0 0 -6.0975930223357864 -41.25766397411644 0 -41.25766397411644 34.272986305470113 0 0 0 0 -7.5338950005243532 -42.266177158373466 0 -42.266177158373466 37.708419800437696 0 0 0 0 -15.210153457825072 -60.196706602926497 0 -60.196706602926497 91.012236118127475 0 0 0 0 -3.3032057969539892 -45.901852865004912 0 -45.901852865004912 32.52065478622535 0 0 0 0 -3.4061949931783602 -43.118028785531351 0 -43.118028785531351 23.216200192720862 0 0 0 0 18.962792671401985 -67.165443351812428 0 -67.165443351812428 28.267919830199389 0 0 0 0 14.353514361806447 -51.254805332212527 0 -51.254805332212527 15.831409285587142 0 0 0 0 40.059991647984134 -56.992392473926884 0 -56.992392473926884 9.4453412423026748 0 0 0 0 47.214964167738799 -105.80449698562734 0 -105.80449698562734 79.045082522992743 0 0 0 0 32.556131327501134 -75.567497877403184 0 -75.567497877403184 25.783636614025454 0 0 0 0 31.393032078485703 -86.28761472608312 0 -86.28761472608312 33.511735151369066 0 0 0 0 -20.635273589199642 -35.792674500276917 0 -35.792674500276917 55.554353818166419 0 0 0 0 -12.887035969208227 -58.221682258241344 0 -58.221682258241344 119.84184820061637 0 0 0 0 81.936372066207696 -82.238014715330792 0 -82.238014715330792 69.472148584591196 0 0 0 0 -3.8422154353489475 -7.6693622529070957 0 -7.6693622529070957 0.72536157200026996 0 0 0 0 37.700761540225358 -97.983482137045939 0 -97.983482137045939 148.44675209050911 0 0 0 0 1140.1698589066218 1474.9641382691261 0 1474.9641382691261 -3551.9622778629046 0 0 0 0 2268.3516094555962 -2320.3392172265558 0 -2320.3392172265558 891.94170396959817 0 0 0 0 384.32456963733421 -2407.0442799270459 0 -2407.0442799270459 1018.5167878181092 0 0 0 0 -1587.8850685111975 296.0615642871162 0 296.0615642871162 -232.91387973056408 0 0 0 0 -483.74073900846997 971.38311764172249 0 971.38311764172249 1445.0454416256907 0 0 0 0 2359.1613796194142 -2011.1986200394895 0 -2011.1986200394895 690.24903819386964 0 0 0 0 -319.75228868912382 -1202.9040735726521 0 -1202.9040735726521 -1215.0135488231026 0 0 0 0 1185.0348787134426 900.165675108703 0 900.165675108703 -5040.4509698710826 0 0 0 0 -156.32529938183143 -203.27764161491359 0 -203.27764161491359 551.09855664269799 0 0 0 0 -0.85287564206600308 -2.4191203278858211 0 -2.4191203278858211 0.2098180970550122 0 0 0 0 38.592266751606076 211.72296721056045 0 211.72296721056045 -673.13990835400909 0 0 0 0 -807.7552277119612 765.02221186240331 0 765.02221186240331 -462.95838898567308 0 0 0 0 -286.12238437589258 -16.877207212884969 0 -16.877207212884969 382.34693492034057 0 0 0 0 330.22753057512455 240.95722900053806 0 240.95722900053806 -2160.3633054379388 0 0 0 0 -252.12936672399519 -1071.0981799484434 0 -1071.0981799484434 -1082.6028523857603 0 0 0 0 402.37744462537012 -117.24107780519535 0 -117.24107780519535 -637.08556890909676 0 0 0 0 0.24481196905811586 0.20364238754879693 0 0.20364238754879693 -0.12508974298948417 0 0 0 0 89.320612323252135 -247.99357503695137 0 -247.99357503695137 -646.66724795968912 0 0 0 0 145.45573154177691 -366.69412156244107 0 -366.69412156244107 -602.40059376962017 0 0 0 0 117.19022964575561 -92.208716662644292 0 -92.208716662644292 -1070.3448166911803 0 0 0 0 88.539772441319656 -411.36773881456975 0 -411.36773881456975 -507.09414935321547 0 0 0 0 105.10153970363899 -349.65707060974819 0 -349.65707060974819 -302.67883038523723 0 0 0 0 57.55319877427155 -171.57431602155253 0 -171.57431602155253 14.513228154057288 0 0 0 0 32.997300615708809 -88.965403380731004 0 -88.965403380731004 -42.624426263282658 0 0 0 0 49.663516035478096 -223.23302477903781 0 -223.23302477903781 75.868698451886303 0 0 0 0 60.444322012910106 -346.26503121627911 0 -346.26503121627911 -294.72693397228431 0 0 0 0 7.4090301747783087 -178.14209758763172 0 -178.14209758763172 -75.273457020353817 0 0 0 0 12.343049568153219 16.385409939844976 0 16.385409939844976 -363.88469809415255 0 0 0 0 71.515516281491728 -88.185162293728354 0 -88.185162293728354 99.438940421765437 0 0 0 0 100.94781573511136 -69.805266018051043 0 -69.805266018051043 99.851231013773941 0 0 0 0 -334.61042102304054 -558.32819482777268 0 -558.32819482777268 23.880071592924651 0 0 0 0 -93.492871395486873 -96.448338188078196 0 -96.448338188078196 71.640150603323491 0 0 0 0 -225.59991836955305 -440.22094624062447 0 -440.22094624062447 -149.06898358558828 0 0 0 0 2.860027384973364 -217.30133767609368 0 -217.30133767609368 122.25387914573366 0 0 0 0 48.714804480347084 -75.912531685615249 0 -75.912531685615249 114.28133603312017 0 0 0 0 101.14574563040514 -153.35801460885705 0 -153.35801460885705 13.248226454343239 0 0 0 0 103.50874684145674 -84.883832477640681 0 -84.883832477640681 81.542295181905502 0 0 0 0 75.000463041185867 -79.102031851030915 0 -79.102031851030915 84.415408223423583 0 0 0 0 112.02295599777426 -256.06474552425425 0 -256.06474552425425 381.79218475946982 0 0 0 0 170.24618393436685 -160.92134829015322 0 -160.92134829015322 17.821973963960772 0 0 0 0 -80.990062735654647 -122.19356400435936 0 -122.19356400435936 607.3308684457952 0 0 0 0 136.7977218987071 70.113764018693473 0 70.113764018693473 -813.04400316529791 0 0 0 0 -0.029858201526707262 0.59387184820540551 0 0.59387184820540551 -0.037884397301904293 0 0 0 0 -60.180922410188941 52.035379102140723 0 52.035379102140723 -245.01122884704819 0 0 0 0 86.839106829836965 -104.7529534289497 0 -104.7529534289497 -626.3094178850879 0 0 0 0 41.562869963330741 -125.57979715360307 0 -125.57979715360307 -109.53338021787204 0 0 0 0 -58.836919322668109 98.524922788135882 0 98.524922788135882 140.04696604038327 0 0 0 0 5.6940678981045494 -22.337018247808373 0 -22.337018247808373 -889.76894719879056 0 0 0 0 -0.038115801586297238 1.3658718610320442 0 1.3658718610320442 -0.14955453083887327 0 0 0 0 -86.039487046466093 -85.994562238382059 0 -85.994562238382059 308.93076324481081 0 0 0 0 141.64344919379801 -98.885552235660725 0 -98.885552235660725 118.72596508029892 0 0 0 0 179.11900753923692 43.873518698310363 0 43.873518698310363 244.8448398641176 0 0 0 0 45.706731703015976 0.13717234251089394 0 0.13717234251089394 346.94104532359052 0 0 0 0 103.51947417354677 96.124670291363145 0 96.124670291363145 351.05739186468236 0 0 0 0 -18.341342121537309 -104.86023776869479 0 -104.86023776869479 230.38971071047126 0 0 0 0 27.943358200252987 109.37614498663606 0 109.37614498663606 -536.64803730180938 0 0 0 0 -82.054571283195401 -7.6103456321397971 0 -7.6103456321397971 -195.99690624632785 0 0 0 0 -153.98328645282891 104.52293789560645 0 104.52293789560645 -530.30067169804533 0 0 0 0 51.200167604765738 -6.1171291797472804 0 -6.1171291797472804 -370.90216115750809 0 0 0 0 1.1510512552922592 94.523807632547687 0 94.523807632547687 -814.20388747789912 0 0 0 0 0.053209888552302687 0.25629085066676804 0 0.25629085066676804 -0.084044739663106993 0 0 0 0 36.557024300302146 84.686519271384896 0 84.686519271384896 -172.15065794630755 0 0 0 0 109.41143614191242 -60.682421377652645 0 -60.682421377652645 -176.5884894420451 0 0 0 0 -62.100525359768653 -54.400017257285072 0 -54.400017257285072 71.322756694145937 0 0 0 0 -5.4003773384320084 233.18136515045626 0 233.18136515045626 217.02322830772391 0 0 0 0 12.065515363816935 -4.9841582694847233 0 -4.9841582694847233 -1.7189187724874666 0 0 0 0 -184.12470932264114 363.54467216164267 0 363.54467216164267 122.18140526603599 0 0 0 0 -612.24330271723738 212.99860416401862 0 212.99860416401862 817.02150807692669 0 0 0 0 63.806149552387069 23.26164577315285 0 23.26164577315285 -209.98088900431321 0 0 0 0 78.533976910664933 58.847645676949469 0 58.847645676949469 -248.55332383481527 0 0 0 0 -29.16048627764394 17.850041605106526 0 17.850041605106526 -4.7624585344819934 0 0 0 0 13.925415457555225 -6.4722299356689286 0 -6.4722299356689286 -2.3525411487711696 0 0 0 0 -197.12453443687991 -193.14889878921895 0 -193.14889878921895 314.77623579389183 0 0 0 0 60.636779085223679 -56.589119700820447 0 -56.589119700820447 30.238086009951076 0 0 0 0 123.31612382689491 29.19358183080476 0 29.19358183080476 -8.2457104993518442 0 0 0 0 -310.21285027108388 72.268616656252561 0 72.268616656252561 667.54898480504198 0 0 0 0 2.8596096776745981 -223.43390020645529 0 -223.43390020645529 271.80696791441198 0 0 0 0 16.232601323991407 -8.9063946300842538 0 -8.9063946300842538 -3.1206811579686824 0 0 0 0 64.052307093137642 -6.8645062227296876 0 -6.8645062227296876 -115.41153397349547 0 0 0 0 35.557120813609799 -39.845106657145152 0 -39.845106657145152 -46.185632282271399 0 0 0 0 18.78877068634408 -12.590868205980538 0 -12.590868205980538 -4.0505154959646275 0 0 0 0 8.9655350006651133 -56.304341898608982 0 -56.304341898608982 114.85842808201267 0 0 0 0 38.988082334144565 -38.719149669352191 0 -38.719149669352191 -10.145043303236889 0 0 0 0 35.296850365848513 -28.079274795534729 0 -28.079274795534729 -27.232204569452733 0 0 0 0 43.343663950101472 -34.278061522378266 0 -34.278061522378266 -80.92732296122017 0 0 0 0 38.704558325669495 -68.920270557591721 0 -68.920270557591721 -0.67953468306222931 0 0 0 0 42.524696557025891 -56.991210475549451 0 -56.991210475549451 -32.361129863753376 0 0 0 0 40.612512617270113 -48.554464209188154 0 -48.554464209188154 9.598125366595923 0 0 0 0 44.505736292107031 -73.804781023718533 0 -73.804781023718533 14.497310063990881 0 0 0 0 27.893338118527026 -62.291520983776991 0 -62.291520983776991 7.2479408052167855 0 0 0 0 16.793887055755476 -72.228937254574475 0 -72.228937254574475 20.315678378581651 0 0 0 0 16.632495436293539 -74.230349719327933 0 -74.230349719327933 17.106875020785083 0 0 0 0 27.595507822869877 -69.293480427352961 0 -69.293480427352961 3.8584298737259815 0 0 0 0 44.639520642493153 -96.525785887828533 0 -96.525785887828533 -16.153514846049802 0 0 0 0 47.750917047378607 -110.74404838115515 0 -110.74404838115515 25.904309333322445 0 0 0 0 80.247085718263406 -63.894837913634547 0 -63.894837913634547 -67.083583347495733 0 0 0 0 38.978801916014618 -57.641062949607999 0 -57.641062949607999 -55.196073666600569 0 0 0 0 299.66581525656511 -520.5634584723266 0 -520.5634584723266 -2897.4589390473557 0 0 0 0 -0.78222360782092437 -994.88756011694568 0 -994.88756011694568 -1922.6298015007451 0 0 0 0 -180.06952668612939 -207.56103105411603 0 -207.56103105411603 -1830.9798643682316 0 0 0 0 -11.970039812236791 -844.02931202136824 0 -844.02931202136824 -1565.1450811166615 0 0 0 0 -265.59277885784104 -741.02427267267558 0 -741.02427267267558 -1051.0341656696328 0 0 0 0 -154.4377389952424 -682.93105375924642 0 -682.93105375924642 -1050.9509911696441 0 0 0 0 -145.83594890093445 -534.69067796361196 0 -534.69067796361196 -1336.8677467309608 0 0 0 0 0.57583143975352868 -1060.7357097147651 0 -1060.7357097147651 -1012.9759035341558 0 0 0 0 -323.06499846700171 -534.83227360364617 0 -534.83227360364617 112.84570030141913 0 0 0 0 16.512613136132131 -1146.2353477655633 0 -1146.2353477655633 -1573.3959932908474 0 0 0 0 0.079845423174585761 0.45108253143059684 0 0.45108253143059684 -0.23028493004422801 0 0 0 0 0.28016925665023251 -1612.4210548815811 0 -1612.4210548815811 -366.66298691273551 0 0 0 0 -336.90695530109224 -769.27994899155601 0 -769.27994899155601 -273.72829216134051 0 0 0 0 0.0038673033702174564 0.21269760170976149 0 0.21269760170976149 -0.10421593028393294 0 0 0 0 -310.56434025851195 -877.02898353374985 0 -877.02898353374985 -1292.063014687883 0 0 0 0 -623.41037474276891 -201.2087918647203 0 -201.2087918647203 380.23956155453197 0 0 0 0 -559.78839326443267 -746.75904410135263 0 -746.75904410135263 -176.03270423972572 0 0 0 0 -590.72204991243598 -568.89618884642869 0 -568.89618884642869 -353.93786081613507 0 0 0 0 -158.76090847322484 -382.84248339345322 0 -382.84248339345322 -676.11050061901915 0 0 0 0 -485.8738361656724 -728.72395948248413 0 -728.72395948248413 -841.82184221654461 0 0 0 0 -249.96261681982287 -378.89361091368482 0 -378.89361091368482 -700.27073865498096 0 0 0 0 -183.28074847877724 -289.56437133514919 0 -289.56437133514919 -1133.4986227113168 0 0 0 0 -339.67833041715494 -606.03039677921697 0 -606.03039677921697 -1275.1547909958972 0 0 0 0 32.236495728720911 -148.20417800232099 0 -148.20417800232099 -1068.0639892433283 0 0 0 0 43.454139673776808 -226.294894180337 0 -226.294894180337 -539.97483189383638 0 0 0 0 -94.795871739421273 -207.04137544803962 0 -207.04137544803962 -479.31837399579672 0 0 0 0 33.100976699002786 -164.05381741371093 0 -164.05381741371093 -508.28461570003856 0 0 0 0 -16.873311675517471 -247.96791279624813 0 -247.96791279624813 -509.56459720904968 0 0 0 0 -125.84810622379882 -325.38625879971369 0 -325.38625879971369 -950.72091101555634 0 0 0 0 0.20667289247071352 0.19892489896923493 0 0.19892489896923493 -0.12093051227566409 0 0 0 0 -306.16765873276745 -406.51644384929386 0 -406.51644384929386 -679.5002833406179 0 0 0 0 -262.12417327793082 -286.73326856657332 0 -286.73326856657332 -357.39243998663005 0 0 0 0 -128.32538354705321 -218.54869061560021 0 -218.54869061560021 -623.35944647778047 0 0 0 0 -108.1024738549313 -184.10262629595672 0 -184.10262629595672 -622.96642553044512 0 0 0 0 -139.63979456807283 -213.85971240290655 0 -213.85971240290655 -400.07988905380626 0 0 0 0 -72.898323212561081 -92.092059261180111 0 -92.092059261180111 -324.86301893376367 0 0 0 0 -34.16305698902579 -42.764015334585565 0 -42.764015334585565 -575.35934480985088 0 0 0 0 -147.72233038756531 -297.84013054869502 0 -297.84013054869502 -415.47924348337983 0 0 0 0 -43.742920467688236 -185.4151395540066 0 -185.4151395540066 -774.94845128941233 0 0 0 0 0.43661586598474145 0.36561760631332163 0 0.36561760631332163 -0.2260017210817038 0 0 0 0 52.79178830573801 -272.01385592060251 0 -272.01385592060251 -857.05619132385254 0 0 0 0 -97.110452863838418 -100.73079326444315 0 -100.73079326444315 -433.808011836285 0 0 0 0 33.303793109429535 -57.747412788237853 0 -57.747412788237853 -462.83927991593373 0 0 0 0 -127.02783475723118 -75.867502944387525 0 -75.867502944387525 -113.20166615956259 0 0 0 0 44.621181349881226 -158.05412540370889 0 -158.05412540370889 -477.80495541934943 0 0 0 0 -127.10477566483314 -167.88025619399559 0 -167.88025619399559 -182.51281154079879 0 0 0 0 159.82049994473346 -25.620692741526 0 -25.620692741526 -200.89025498420961 0 0 0 0 0.031497497403208286 1.7221737689315995 0 1.7221737689315995 -0.28992942357363405 0 0 0 0 -83.932062676096393 -173.65606717275296 0 -173.65606717275296 -32.118205836552079 0 0 0 0 95.100202441244619 2.6863099804577359 0 2.6863099804577359 -763.45843685588989 0 0 0 0 104.57749372720718 -69.315143967345648 0 -69.315143967345648 -457.6094549133868 0 0 0 0 -92.367313674942125 27.799963698111242 0 27.799963698111242 -349.8964531293168 0 0 0 0 66.281059324566741 165.10174260084386 0 165.10174260084386 -592.70765190912789 0 0 0 0 0.095435254710316997 0.44947204827419451 0 0.44947204827419451 -0.14654891746515197 0 0 0 0 -22.712553033048607 -114.1222483401616 0 -114.1222483401616 -243.39042114978656 0 0 0 0 -64.519018332124688 -175.88198064768221 0 -175.88198064768221 -487.70136841806379 0 0 0 0 -47.430371873400873 52.320158631158847 0 52.320158631158847 -234.58403380430536 0 0 0 0 19.951296269660816 95.499745943343441 0 95.499745943343441 -104.01896997824952 0 0 0 0 -70.192932246442069 -31.245041271420632 0 -31.245041271420632 119.26515211147489 0 0 0 0 1578.7608583256224 -191.87663542521113 0 -191.87663542521113 -667.38079796649254 0 0 0 0 10.134521814990965 -4.2334965252006453 0 -4.2334965252006453 -1.176703785541795 0 0 0 0 -746.8568478920788 59.446147698750792 0 59.446147698750792 1507.5387754375806 0 0 0 0 -67.965106012634351 -135.33481043756728 0 -135.33481043756728 -173.28623996819078 0 0 0 0 80.869818568520714 57.022113603783509 0 57.022113603783509 -301.97106846072711 0 0 0 0 -78.058521925006062 42.096697378674435 0 42.096697378674435 71.863253547075146 0 0 0 0 7.5116233771542014 -3.8872500144589797 0 -3.8872500144589797 -0.67708149559602226 0 0 0 0 218.403012873634 -226.90354381999714 0 -226.90354381999714 154.50989341441084 0 0 0 0 9.0221036446928338 -193.56942872629406 0 -193.56942872629406 532.3152389756433 0 0 0 0 -141.01346984559495 -276.29095909491843 0 -276.29095909491843 883.96410964928509 0 0 0 0 -5.6913284024631139 -140.97639189758411 0 -140.97639189758411 580.76244410121035 0 0 0 0 65.949995505070547 74.680701208770188 0 74.680701208770188 -348.57447536648397 0 0 0 0 -51.918828623267473 -46.203273357031321 0 -46.203273357031321 -28.926033735217061 0 0 0 0 -111.06920611081296 -33.957742517326551 0 -33.957742517326551 -213.72766861071887 0 0 0 0 0.051838976927736979 0.23019059886592075 0 0.23019059886592075 -0.075052815036164455 0 0 0 0 129.05911095859483 -63.180854572976386 0 -63.180854572976386 -499.47418775426922 0 0 0 0 84.164698539258097 57.332427507084503 0 57.332427507084503 -587.91238101198905 0 0 0 0 0.10430461832603299 1.879884254973069 0 1.879884254973069 -0.43390303875781072 0 0 0 0 35.699988255175413 -200.38024668168146 0 -200.38024668168146 -572.57364887544827 0 0 0 0 86.550565320663736 -34.786897264471918 0 -34.786897264471918 -556.73916945129167 0 0 0 0 0.073262331845562301 1.9736511433946662 0 1.9736511433946662 -0.55825025034117393 0 0 0 0 -78.401104593314813 -282.41602837519531 0 -282.41602837519531 -1226.5902202188809 0 0 0 0 92.272006407307344 69.194852023010753 0 69.194852023010753 -356.23712638098914 0 0 0 0 -59.547102747455938 -32.393135182264814 0 -32.393135182264814 -303.4596887228181 0 0 0 0 48.314701268551289 40.697997646413569 0 40.697997646413569 -274.99872060039343 0 0 0 0 4.591917473306534 -3.614578012034567 0 -3.614578012034567 -0.20704221135060166 0 0 0 0 301.76039963097719 -126.21661780036266 0 -126.21661780036266 243.90650340722641 0 0 0 0 121.9595887241012 -412.84565220185686 0 -412.84565220185686 540.91464112637914 0 0 0 0 -288.14333499758504 -104.22027264256758 0 -104.22027264256758 1407.8660299200128 0 0 0 0 -185.66236740088789 -527.80569486816967 0 -527.80569486816967 1710.6078066688785 0 0 0 0 -26.447359871119261 -424.07953305412957 0 -424.07953305412957 359.24928377668402 0 0 0 0 95.117098038550466 -94.104777719636331 0 -94.104777719636331 52.49513531208504 0 0 0 0 -33.763217567349784 158.23212824030634 0 158.23212824030634 793.45621528064657 0 0 0 0 36.400286809708632 -60.018088276197432 0 -60.018088276197432 -288.52404162623861 0 0 0 0 2.0442340128507652 -3.2986982983715882 0 -3.2986982983715882 0.2295078191374153 0 0 0 0 -28.148397324548569 24.472074865148898 0 24.472074865148898 -46.705652716945451 0 0 0 0 9.6710950331180356 10.219703824397584 0 10.219703824397584 -198.98772533397278 0 0 0 0 2.1132645488675799 -1.6095790104016654 0 -1.6095790104016654 -0.59850151539077956 0 0 0 0 850.11966352281161 -358.69824198372226 0 -358.69824198372226 689.76948082637682 0 0 0 0 679.03733923508844 138.99627991632406 0 138.99627991632406 798.14193981060816 0 0 0 0 324.67168821935775 -480.40212670192705 0 -480.40212670192705 661.62371015493409 0 0 0 0 239.79632034495808 147.03852836272063 0 147.03852836272063 829.67147704925446 0 0 0 0 18.088308888603933 -205.2256353188277 0 -205.2256353188277 275.39979800510264 0 0 0 0 398.8296324951807 -379.69263349649555 0 -379.69263349649555 309.87750706498628 0 0 0 0 139.46215827902779 -112.94737224197888 0 -112.94737224197888 286.81268663251831 0 0 0 0 163.52280345943291 -237.57710029717418 0 -237.57710029717418 254.67907701194417 0 0 0 0 -465.38454049089341 -804.42343121549129 0 -804.42343121549129 3767.1230489006048 0 0 0 0 3.3900311624102919 -5.4368890302250303 0 -5.4368890302250303 6.0344339502660675 0 0 0 0 -154.90803827223135 1462.9914357310663 0 1462.9914357310663 -1277.5767021001116 0 0 0 0 -22.56984470738098 -419.24319771360388 0 -419.24319771360388 161.75256760480988 0 0 0 0 2004.2707995796227 -1997.5427972910984 0 -1997.5427972910984 -982.55150033152131 0 0 0 0 -2.0319619876390789 -939.69808079755967 0 -939.69808079755967 2701.6594154146151 0 0 0 0 -1.7462329886620864 113.43625366263586 0 113.43625366263586 113.22202666922385 0 0 0 0 0.79677712961638036 -0.12984762648559123 0 -0.12984762648559123 -0.17347561516315446 0 0 0 0 333.70911966002313 43.494755220672232 0 43.494755220672232 -112.71204950562378 0 0 0 0 766.39834876375971 -333.43836098577958 0 -333.43836098577958 -26.976994661716162 0 0 0 0 133.46634920712677 -325.86668409231788 0 -325.86668409231788 206.75797336230607 0 0 0 0 -177.22113353122404 464.07195169763509 0 464.07195169763509 -934.01954103217577 0 0 0 0 2.0002427854294229 -1.3412539556723075 0 -1.3412539556723075 0.30704923003650642 0 0 0 0 1.4962285557558062 -16.480632260583661 0 -16.480632260583661 -22.691436791257729 0 0 0 0 -53.60078837221954 155.49998126607534 0 155.49998126607534 -215.95327410703976 0 0 0 0 92.267301110710832 72.999457328111021 0 72.999457328111021 -532.47121036039607 0 0 0 0 -0.087585995351169288 2.0447728610673312 0 2.0447728610673312 -0.63534614515069532 0 0 0 0 -191.2304460000305 -243.48865594617382 0 -243.48865594617382 -91.826127045143949 0 0 0 0 4.8270911531872116 -1486.5261848820228 0 -1486.5261848820228 -1613.973072900335 0 0 0 0 -4.077335784175375 -17.035955976509285 0 -17.035955976509285 15.388738533860305 0 0 0 0 0.0062787945935269818 -19.426294923089699 0 -19.426294923089699 -4.2951875621874933 0 0 0 0 -3.6424681366188452 -14.677666821578896 0 -14.677666821578896 -3.139155675148686 0 0 0 0 1.1208202631678432 -12.426288013826706 0 -12.426288013826706 -4.0468865053044283 0 0 0 0 -6.7193433667998761 -8.8857649302026402 0 -8.8857649302026402 8.8099143763320171 0 0 0 0 -6.1801404796933639 -8.4836922410058833 0 -8.4836922410058833 1.9889770755398786 0 0 0 0 -6.8618058245629072 -4.4028007185079332 0 -4.4028007185079332 1.0371326939821301 0 0 0 0 -6.3642138470313512 -1.0401042970297567 0 -1.0401042970297567 23.718418610715162 0 0 0 0 -0.011632771258180262 -17.191978374707581 0 -17.191978374707581 -7.1466285634232918 0 0 0 0 -3.2624458103020224 -3.7041290526774322 0 -3.7041290526774322 -4.0079913967908807 0 0 0 0 -1.4567155586274154 -3.4825769700238993 0 -3.4825769700238993 0.013643420197543499 0 0 0 0 -9.4191394939844031 -4.8077766582537151 0 -4.8077766582537151 5.9393473676518624 0 0 0 0 2.0462952871894231 -5.9844377720510238 0 -5.9844377720510238 1.9491291763770278 0 0 0 0 0.0085805063152273042 -5.9807696584357197 0 -5.9807696584357197 6.0746149879705627 0 0 0 0 -0.0074226301170044135 -5.9667886566158774 0 -5.9667886566158774 6.0694573171640513 0 0 0 0 66.972144915838726 -121.3751975690684 0 -121.3751975690684 -296.1605253232774 0 0 0 0 160.85302362332004 -194.25125226511591 0 -194.25125226511591 -464.47789707616903 0 0 0 0 162.24999576323171 -82.494317688158844 0 -82.494317688158844 -280.36412397865206 0 0 0 0 131.66782076812524 -217.29438204909093 0 -217.29438204909093 -70.643454606062733 0 0 0 0 250.55663128261222 -311.41971060988726 0 -311.41971060988726 -116.95715014447342 0 0 0 0 455.79063536564354 -362.8885632060701 0 -362.8885632060701 -640.24799558817176 0 0 0 0 410.60687482584035 73.256336534293951 0 73.256336534293951 -884.52358460443793 0 0 0 0 2.6340456827999645 -6.395673759360224 0 -6.395673759360224 5.2860541808268913 0 0 0 0 -54.822487477271352 341.90600776518841 0 341.90600776518841 -744.38071161611515 0 0 0 0 60.1097567310062 -21.561332199371464 0 -21.561332199371464 -415.13461569175706 0 0 0 0 -2.421589849574957 -2.9838269169558771 0 -2.9838269169558771 2.9698984565329738 0 0 0 0 -31.968808325473219 -136.18687282448809 0 -136.18687282448809 -174.01536361385661 0 0 0 0 -4.4288213565305341 -3.2997514085946023 0 -3.2997514085946023 1.524873975180526 0 0 0 0 -1.799630337615298 -5.6404676764537101 0 -5.6404676764537101 2.4717183437587007 0 0 0 0 -4.436456282484869 -2.8383780439780821 0 -2.8383780439780821 -4.3652917303552385 0 0 0 0 -0.52555740586227984 -5.210998173997627 0 -5.210998173997627 -0.95134983114853267 0 0 0 0 1.5392014930692284 -5.1673071914659801 0 -5.1673071914659801 4.120655412048448 0 0 0 0 -0.099766490166075528 -5.0618760025245138 0 -5.0618760025245138 -2.1331611265195534 0 0 0 0 -3.6451662346480092 -3.8697081395905126 0 -3.8697081395905126 -3.7281985344284858 0 0 0 0 0.47031399351428149 -7.3957255649850797 0 -7.3957255649850797 0.17370682923365344 0 0 0 0 1.0770406329538673 180.59816256408521 0 180.59816256408521 111.13247693845369 0 0 0 0 -30.830972455325536 -35.872818193562125 0 -35.872818193562125 48.214569398627646 0 0 0 0 -0.20706276236638033 -0.092194589986021924 0 -0.092194589986021924 -0.015909427986058766 0 0 0 0 326.32195990454056 -34.789251560976481 0 -34.789251560976481 -43.409250012249686 0 0 0 0 32.623754873813596 13.400703285493364 0 13.400703285493364 78.684774268840556 0 0 0 0 184.4844954929431 -1.388453072628181 0 -1.388453072628181 70.20272322720848 0 0 0 0 18.952205494861118 -19.18860383797437 0 -19.18860383797437 2.5372584407159593 0 0 0 0 -14.795283766507055 -37.715165545863783 0 -37.715165545863783 76.757268807079527 0 0 0 0 -17.460906549968058 -6.3463487922235799 0 -6.3463487922235799 -38.626621715273359 0 0 0 0 -0.26521736025608433 -5.1554978245226444 0 -5.1554978245226444 1.5464020200661981 0 0 0 0 -82.174981580552412 -17.008182581486835 0 -17.008182581486835 17.086141966748983 0 0 0 0 -1.9449308790378765 -4.4517620901130046 0 -4.4517620901130046 0.37594935803796492 0 0 0 0 -0.032762884135568271 -0.040453179701110287 0 -0.040453179701110287 0.1029379638349126 0 0 0 0 85.711265622812789 -207.12498093636532 0 -207.12498093636532 -815.90074091168935 0 0 0 0 87.749317308305763 -61.065957275364781 0 -61.065957275364781 -579.53324594291917 0 0 0 0 -46.070234439743217 -170.77388433088345 0 -170.77388433088345 -616.15639152479707 0 0 0 0 -53.225438227877021 -150.85835865807167 0 -150.85835865807167 -655.49168711001403 0 0 0 0 -53.533679848071188 -438.13966024149704 0 -438.13966024149704 -875.03427670770907 0 0 0 0 0.04701303349024144 0.02738571598735895 0 0.02738571598735895 -0.18344135787794169 0 0 0 0 -124.713927565208 49.563043621732504 0 49.563043621732504 -446.81689838814782 0 0 0 0 -213.94546774961054 -299.8091971108297 0 -299.8091971108297 248.01542773880465 0 0 0 0 -167.20929706987226 -135.03831052925671 0 -135.03831052925671 189.58414527578861 0 0 0 0 7.4281463420484215 -124.84459484985564 0 -124.84459484985564 -37.13117417347803 0 0 0 0 179.28482141747372 -200.69457380603126 0 -200.69457380603126 -32.393542245787103 0 0 0 0 110.09450699272566 -47.783978004343226 0 -47.783978004343226 -354.25592308401247 0 0 0 0 15.291740661719814 -256.64387849536797 0 -256.64387849536797 -507.9884934683796 0 0 0 0 47.939317777229007 -43.75595114530006 0 -43.75595114530006 -451.27375495369779 0 0 0 0 3.2316865424764885 -4.4514630717839756 0 -4.4514630717839756 -0.1977104898438391 0 0 0 0 55.886316202522721 -33.045669850587728 0 -33.045669850587728 -37.889924189847534 0 0 0 0 -0.31219911866355687 -20.097625945098116 0 -20.097625945098116 -287.12039731218101 0 0 0 0 193.77812669740524 -211.60373392155452 0 -211.60373392155452 -273.18873406263447 0 0 0 0 -70.276776817598147 12.544160812085465 0 12.544160812085465 187.87336459730795 0 0 0 0 -0.96558697794307946 -0.47232159581636424 0 -0.47232159581636424 0.48707275317489973 0 0 0 0 -238.62931032981214 -24.168494289260252 0 -24.168494289260252 34.063181571225869 0 0 0 0 -96.92874583313187 -423.22799953595347 0 -423.22799953595347 -85.075622648953868 0 0 0 0 21.596803885942791 -54.583468521974282 0 -54.583468521974282 -301.72707358079333 0 0 0 0 -35.526232699281536 484.38808747485746 0 484.38808747485746 -292.1201385918248 0 0 0 0 -197.87236605506041 -175.39807636230762 0 -175.39807636230762 -27.788554793361982 0 0 0 0 1.4390401872480609 -0.18048425968583715 0 -0.18048425968583715 -1.1184673794815136 0 0 0 0 -95.900437899224926 -92.970398066721827 0 -92.970398066721827 26.697697625655564 0 0 0 0 -45.399163489732018 4.9257661167075639 0 4.9257661167075639 15.307376136101084 0 0 0 0 4.5125144130371488 -6.349717692292451 0 -6.349717692292451 -3.9917076287142272 0 0 0 0 16.821389579446986 -0.78811388969097607 0 -0.78811388969097607 -37.075116408675967 0 0 0 0 21.243792101071449 8.4239579796194448 0 8.4239579796194448 -25.173024594594608 0 0 0 0 4.6586268039536662 -9.5947638106626982 0 -9.5947638106626982 -2.1228363256086595 0 0 0 0 -73.00641485399683 -27.071954875646043 0 -27.071954875646043 3.7798294113672455 0 0 0 0 -5.8227822042244952 -31.212938030927035 0 -31.212938030927035 -44.547555268021824 0 0 0 0 0.16138273994147312 -10.513430485963909 0 -10.513430485963909 2.8295802542488673 0 0 0 0 -6.5983082348684547 15.927021483483259 0 15.927021483483259 -36.556579812298878 0 0 0 0 -3.0156804032948994 -1.472901312746755 0 -1.472901312746755 1.5899773197937375 0 0 0 0 755.7541180565895 518.56320665642124 0 518.56320665642124 -113.50663432105648 0 0 0 0 -0.24514437729939331 -0.58653549759330836 0 -0.58653549759330836 -0.16785710726395831 0 0 0 0 -4.8331309036875609 -37.620138260237582 0 -37.620138260237582 36.543972941543871 0 0 0 0 -3.5706389681436121 14.167328938234277 0 14.167328938234277 1.4881078680882638 0 0 0 0 -7.0937773140904028 -40.781134494263824 0 -40.781134494263824 55.154722782426688 0 0 0 0 -20.42708754191699 12.674677420491207 0 12.674677420491207 -114.14549987018836 0 0 0 0 34.957361014501657 -118.1035028922488 0 -118.1035028922488 -212.45819751896488 0 0 0 0 39.883191571971111 -80.310160036216985 0 -80.310160036216985 -33.489078726270236 0 0 0 0 -135.64616851019673 21.879121635683987 0 21.879121635683987 -45.659496870364819 0 0 0 0 1.8044449852931663 -2.8857645485453443 0 -2.8857645485453443 0.0031495121663116521 0 0 0 0 -1.2142194283093311 -2.5245776312294836 0 -2.5245776312294836 0.18398805067520208 0 0 0 0 -70.339221089088824 -140.48367655511902 0 -140.48367655511902 77.997372414189158 0 0 0 0 -21.653819418279454 -206.00900912559155 0 -206.00900912559155 527.54100869868853 0 0 0 0 -28.138249142037239 -93.336208825665381 0 -93.336208825665381 -35.762154119263869 0 0 0 0 -110.24782167800004 -178.7879422344995 0 -178.7879422344995 567.97922773716346 0 0 0 0 -423.40207946219016 25.620854981185403 0 25.620854981185403 -5.043578518772847 0 0 0 0 276.0379201995529 -1.0404692807624087 0 -1.0404692807624087 -176.92457461376762 0 0 0 0 222.01247674028855 -39.402050421223976 0 -39.402050421223976 -41.961783943610499 0 0 0 0 -0.38814110261541401 -0.83286210395396409 0 -0.83286210395396409 0.059126472032847488 0 0 0 0 -4.5857676175437518 -7.0145119247026742 0 -7.0145119247026742 -25.978959585925622 0 0 0 0 328.32249656534987 -138.69361647755431 0 -138.69361647755431 -5.3587986050406471 0 0 0 0 95.665579387958132 26.379894182596217 0 26.379894182596217 -30.186136883690779 0 0 0 0 82.475925120903412 -61.921143637577188 0 -61.921143637577188 -69.775093693795498 0 0 0 0 353.01702015612682 63.6256354507168 0 63.6256354507168 -64.375205956079299 0 0 0 0 405.86453343741596 173.66872095318467 0 173.66872095318467 26.761591120917728 0 0 0 0 0.51823626228387809 -1.0347019023279787 0 -1.0347019023279787 0.043841748820588222 0 0 0 0 209.28614481716068 10.858903633856244 0 10.858903633856244 -6.9255550573434448 0 0 0 0 505.05921171163209 -8.8367244621331338 0 -8.8367244621331338 -4.3087300522311125 0 0 0 0 711.01005870475637 -152.18465501632909 0 -152.18465501632909 -68.885995024415024 0 0 0 0 455.32999980976456 131.08804460593456 0 131.08804460593456 -78.107415961358129 0 0 0 0 300.30928099948142 -90.073466391309012 0 -90.073466391309012 -9.9109244598221267 0 0 0 0 121.97411676852369 -181.48464012037209 0 -181.48464012037209 -111.30697747242812 0 0 0 0 124.25753146352815 -18.453300556447374 0 -18.453300556447374 305.25556383997173 0 0 0 0 382.18672447866993 -264.23848111967527 0 -264.23848111967527 -24.104934316950676 0 0 0 0 -10.932662141072797 -89.732517049142189 0 -89.732517049142189 -89.984861799086502 0 0 0 0 -217.81891517076838 351.66066925261111 0 351.66066925261111 241.94426234706771 0 0 0 0 -14.436706625012448 -497.71145987233831 0 -497.71145987233831 -573.52297576441924 0 0 0 0 101.99575232085772 -286.88183518186088 0 -286.88183518186088 -395.7567804631326 0 0 0 0 -30.056438480329234 -245.38643256176147 0 -245.38643256176147 -45.300354519684333 0 0 0 0 -9.6822305785608478 -82.775126687016382 0 -82.775126687016382 -289.25822497439367 0 0 0 0 -0.1918905975539964 -1.1025135701282998 0 -1.1025135701282998 -0.060793175162129565 0 0 0 0 35.989454720081994 -64.512895938409201 0 -64.512895938409201 -416.39095830506812 0 0 0 0 135.67353226257546 36.100565041474511 0 36.100565041474511 -1143.481508935598 0 0 0 0 -0.073707746991019008 -0.3540841984389318 0 -0.3540841984389318 -0.0084808639938747099 0 0 0 0 139.08584772027098 -115.24966599899199 0 -115.24966599899199 44.977800819408003 0 0 0 0 160.24149370428495 -16.576701401657829 0 -16.576701401657829 324.79237324050337 0 0 0 0 152.52624511317117 -220.12795098772767 0 -220.12795098772767 181.2251068058722 0 0 0 0 38.57743919621862 38.475686441952348 0 38.475686441952348 60.366738238975813 0 0 0 0 -0.53458157998650435 0.061483626725451046 0 0.061483626725451046 0.45687396551947668 0 0 0 0 123.95689158268215 -90.749169381196225 0 -90.749169381196225 23.079190877040674 0 0 0 0 75.943243863395764 -148.24194973471276 0 -148.24194973471276 379.28973123677497 0 0 0 0 34.911886269161187 -226.52481084203373 0 -226.52481084203373 434.2221646548569 0 0 0 0 65.87539039546391 13.322172749864876 0 13.322172749864876 -16.319219943025018 0 0 0 0 -1.2655943561749865 -4.842266786642333 0 -4.842266786642333 -5.8402736829433151 0 0 0 0 7.6762773059217579 8.1803877067395661 0 8.1803877067395661 59.194827641811571 0 0 0 0 -135.41805982202641 -191.96249605128469 0 -191.96249605128469 527.82454873724146 0 0 0 0 209.81245346627838 -178.32299994482901 0 -178.32299994482901 47.189422968467625 0 0 0 0 71.893088890617946 -234.75091365473781 0 -234.75091365473781 346.63961334686769 0 0 0 0 27.494835493096616 -41.876059585717485 0 -41.876059585717485 34.948805506604913 0 0 0 0 24.31183322542347 -68.851593333478377 0 -68.851593333478377 10.093592150109544 0 0 0 0 -1.9166702209583075 -6.0042201155127515 0 -6.0042201155127515 -6.3840517151223342 0 0 0 0 -5.1535924044001149 -81.277399974235323 0 -81.277399974235323 175.072064310938 0 0 0 0 -52.011066219507484 12.078445567134622 0 12.078445567134622 60.648408268480125 0 0 0 0 -162.22228475072188 -62.842251204540844 0 -62.842251204540844 204.99539171879042 0 0 0 0 -202.47063834698929 25.570110997166694 0 25.570110997166694 96.411698191779578 0 0 0 0 -91.615089118102333 8.4378598000894272 0 8.4378598000894272 85.023733234782867 0 0 0 0 -99.89219859727018 -29.458439896909113 0 -29.458439896909113 277.60364282628507 0 0 0 0 -66.925147068119259 32.963271980626814 0 32.963271980626814 331.28390505133211 0 0 0 0 -0.41596693057487855 0.26857731828693332 0 0.26857731828693332 0.69122770334304962 0 0 0 0 -4.2628569219377823 33.176428110069537 0 33.176428110069537 222.34673269378163 0 0 0 0 -48.728764137707913 30.998868538497504 0 30.998868538497504 -4.2209541147531127 0 0 0 0 -39.38485572420177 -27.304522822449144 0 -27.304522822449144 54.870318820718467 0 0 0 0 -4.7411092948197702 -2.802323830756281 0 -2.802323830756281 5.3341528328597843 0 0 0 0 -35.032478901754075 -10.539801876985848 0 -10.539801876985848 21.556992516401806 0 0 0 0 -6.7408934046397917 -2.6129149316329858 0 -2.6129149316329858 8.3033490937887109 0 0 0 0 17.003862611047225 -21.544225155044842 0 -21.544225155044842 0.92594296191964531 0 0 0 0 -1.6488070657214848 -24.080311193081798 0 -24.080311193081798 0.60283442240961449 0 0 0 0 -2.5326070637647877 -7.1755036727220105 0 -7.1755036727220105 -6.8106650116489673 0 0 0 0 384.93715815313772 -809.33775294652696 0 -809.33775294652696 -251.44236672334227 0 0 0 0 -1.0389201011421392 16.707728025909091 0 16.707728025909091 0.83000489140249556 0 0 0 0 -4.0235486476872389 -3.5685588607267142 0 -3.5685588607267142 5.2744842978812905 0 0 0 0 -19.227202360707452 -8.0211064272170916 0 -8.0211064272170916 8.3154444526080624 0 0 0 0 -16.67840404828894 -8.8256195874164405 0 -8.8256195874164405 8.2894686786585225 0 0 0 0 0.88898532494204119 -25.792192080807581 0 -25.792192080807581 -10.631437263729822 0 0 0 0 -24.04217529084417 -17.967676098172888 0 -17.967676098172888 4.4175713740260107 0 0 0 0 -0.4129398330260301 -3.1651947159480187 0 -3.1651947159480187 7.8271692658217944 0 0 0 0 -6.011478926287964 -14.615417946151865 0 -14.615417946151865 4.3729681962418283 0 0 0 0 -4.9600188222211727 -13.00113151478763 0 -13.00113151478763 -0.09245744593499694 0 0 0 0 -4.7674077544376843 -7.7790588765730835 0 -7.7790588765730835 -0.66343810989395013 0 0 0 0 -11.601488205167698 -4.5116638520958077 0 -4.5116638520958077 9.9151245289212966 0 0 0 0 -8.932738863164559 -6.5492628984356998 0 -6.5492628984356998 7.0520454385423363 0 0 0 0 -14.193218656640965 -8.3973713045252225 0 -8.3973713045252225 8.7178479505382711 0 0 0 0 72.990850988775492 -133.80090951856346 0 -133.80090951856346 109.53756818936199 0 0 0 0 -4.3984732394178572 -7.3783182400558207 0 -7.3783182400558207 -0.75880460061970956 0 0 0 0 6.8657400467491243 -8.5339613247761008 0 -8.5339613247761008 33.071377555822437 0 0 0 0 0.14479714987091086 -0.41510772693590425 0 -0.41510772693590425 -0.38890767693306927 0 0 0 0 33.138359205448069 100.97540052237991 0 100.97540052237991 286.75259786839888 0 0 0 0 27.561328185028287 47.007263624548557 0 47.007263624548557 124.35651642918856 0 0 0 0 35.228160624712473 -150.79967658328951 0 -150.79967658328951 79.963786175972928 0 0 0 0 -105.71956019286881 -32.249506036432649 0 -32.249506036432649 284.81380866977452 0 0 0 0 -108.87906864885008 23.612799731754421 0 23.612799731754421 206.65205878237248 0 0 0 0 -116.16925253308727 19.685879280865265 0 19.685879280865265 204.89615314685761 0 0 0 0 -23.367678442416945 25.715682735934934 0 25.715682735934934 153.02515571066033 0 0 0 0 -5.0250312778807711 -47.541461362774271 0 -47.541461362774271 75.780700121420523 0 0 0 0 -8.8662377459986601 -2.2295852783590817 0 -2.2295852783590817 55.247148325781382 0 0 0 0 -24.97353274768102 10.889120075150231 0 10.889120075150231 47.95576123405408 0 0 0 0 104.33540268236538 148.01189365108712 0 148.01189365108712 153.40863941373482 0 0 0 0 8.03983696969226 114.52543564923144 0 114.52543564923144 270.86058802186199 0 0 0 0 -137.80277684491011 51.487862481561024 0 51.487862481561024 250.6032549993688 0 0 0 0 -17.702388080797391 4.4170190013423962 0 4.4170190013423962 2.4654041183573554 0 0 0 0 0.012952775835107566 -2.5290450613499242 0 -2.5290450613499242 1.0824856328314385 0 0 0 0 146.36444700398715 238.18167662236647 0 238.18167662236647 268.75719567969281 0 0 0 0 0.056375213142018765 -4.5855898528316175 0 -4.5855898528316175 -8.0310458812127763 0 0 0 0 -3.2576675172313116 -4.4744732063045376 0 -4.4744732063045376 -7.1600591815567896 0 0 0 0 -3.9635144830972422 -8.1055458872760937 0 -8.1055458872760937 -0.0025131562470050994 0 0 0 0 -0.028322793611387717 -14.515603483976919 0 -14.515603483976919 -22.271019743217039 0 0 0 0 -2.5856711139786057 -7.0058602021172192 0 -7.0058602021172192 -3.3653796426297049 0 0 0 0 -4.4314291681002942 -5.708795096549693 0 -5.708795096549693 -2.952660672050115 0 0 0 0 -0.024030576180809504 -4.3005321080022654 0 -4.3005321080022654 2.0673212476926888 0 0 0 0 11.530712421728822 -13.331558760514781 0 -13.331558760514781 -5.9645608782811905 0 0 0 0 5.9131346465292154 -8.2517593672109797 0 -8.2517593672109797 -15.180088188491936 0 0 0 0 4.3815607770998382 -6.3374914862979193 0 -6.3374914862979193 -5.3212653714475042 0 0 0 0 7.0375625035667326 -9.0093076726861909 0 -9.0093076726861909 -26.995402871023543 0 0 0 0 1.7428666952910135 -17.005703000060748 0 -17.005703000060748 -19.371010720409686 0 0 0 0 0.45670426916841222 -0.37216682630032238 0 -0.37216682630032238 -0.42237471667901416 0 0 0 0 -5.2682226535398513 -12.280726290733583 0 -12.280726290733583 -12.963594593587914 0 0 0 0 25.421450867899694 -26.177035899432667 0 -26.177035899432667 5.9717758626793511 0 0 0 0 20.878203107975423 -41.962598723381234 0 -41.962598723381234 -10.134332504145277 0 0 0 0 4.9639908673707396 -46.49442896499022 0 -46.49442896499022 42.681886692389526 0 0 0 0 13.272564277838683 -56.503991051693447 0 -56.503991051693447 -17.240259341625119 0 0 0 0 30.05469651317253 -31.459920596109441 0 -31.459920596109441 -16.114550147249247 0 0 0 0 85.388232683078968 -38.718797549938245 0 -38.718797549938245 -10.429169634411664 0 0 0 0 7.7241381238854956 -21.042165629802184 0 -21.042165629802184 5.8403729838137224 0 0 0 0 16.8196085482341 -9.3510505449557968 0 -9.3510505449557968 -3.124046155520773 0 0 0 0 5.1728866228834534 -6.2545047098950084 0 -6.2545047098950084 -4.3821490222789858 0 0 0 0 3.3155950284563005 -7.6617713385257957 0 -7.6617713385257957 -0.88934930146569968 0 0 0 0 0.26580824662232772 -15.163955528445513 0 -15.163955528445513 -0.8007425473551848 0 0 0 0 27.729987382024774 -23.339245892592089 0 -23.339245892592089 -22.854957534531422 0 0 0 0 3.5176772401236232 -4.3203596004286045 0 -4.3203596004286045 -2.9836432402539081 0 0 0 0 28.618916894294671 -15.608898168764426 0 -15.608898168764426 -59.940125055702083 0 0 0 0 -7.6934847493685083 -56.139168710382364 0 -56.139168710382364 -42.585305087928646 0 0 0 0 -30.837010724681022 -65.416728741416591 0 -65.416728741416591 4.5390602967818268 0 0 0 0 46.063084641500609 -62.815265565150185 0 -62.815265565150185 -53.666183332479704 0 0 0 0 17.538609113995335 -14.079236108464102 0 -14.079236108464102 -20.120758502082026 0 0 0 0 53.208090509402609 -27.524676184317514 0 -27.524676184317514 -67.375651920294331 0 0 0 0 69.599317725267611 -89.859795979551564 0 -89.859795979551564 -16.797638863499742 0 0 0 0 36.341095514297194 26.325157450930874 0 26.325157450930874 -167.60556447634008 0 0 0 0 31.692362560890615 -20.792508117307079 0 -20.792508117307079 -54.548993290558428 0 0 0 0 2.1205255701365466 -2.544320751746822 0 -2.544320751746822 -1.7748488245163934 0 0 0 0 -16.352386104001198 -40.670891892965301 0 -40.670891892965301 41.130187327951717 0 0 0 0 -8.2155269086506451 -52.076656131415803 0 -52.076656131415803 -66.943948758933402 0 0 0 0 58.735320868747294 -17.466027727856499 0 -17.466027727856499 -51.404322816437343 0 0 0 0 447.01628994068597 119.46993138387916 0 119.46993138387916 252.54950895957882 0 0 0 0 61.532585829037998 111.7539572485598 0 111.7539572485598 -574.40258214547066 0 0 0 0 -134.88820818942622 -282.58967392097838 0 -282.58967392097838 -277.90790178764655 0 0 0 0 -484.6492877760611 34.799167969344126 0 34.799167969344126 243.16849016391097 0 0 0 0 -815.32577207263967 -502.23954007721841 0 -502.23954007721841 111.96704260942352 0 0 0 0 -176.43391487101326 172.9432855522864 0 172.9432855522864 -141.49488066780032 0 0 0 0 -196.32896246596647 -273.05065196198484 0 -273.05065196198484 -437.49060908675165 0 0 0 0 -433.31415081015439 -263.98727701769167 0 -263.98727701769167 14.02212298483937 0 0 0 0 0.46764636952367766 -0.23254587763453927 0 -0.23254587763453927 -0.27640013217032866 0 0 0 0 294.47876618263217 44.446912100152076 0 44.446912100152076 -15.153160983434645 0 0 0 0 236.11379919732281 -176.91143434250625 0 -176.91143434250625 11.498569730643794 0 0 0 0 -21.190921272998821 -77.677608450976095 0 -77.677608450976095 38.675994546516449 0 0 0 0 0.73999434693881483 -0.84539724042845688 0 -0.84539724042845688 -0.60774529782475106 0 0 0 0 -167.08623391672882 -24.412557219278824 0 -24.412557219278824 120.32331638286996 0 0 0 0 97.48017931439972 -415.7547874078009 0 -415.7547874078009 675.66493862910738 0 0 0 0 -170.89707571690087 -35.497428178137852 0 -35.497428178137852 89.375023423162929 0 0 0 0 -84.024332455563126 -18.610469300390832 0 -18.610469300390832 8.6874423628178192 0 0 0 0 -417.76788036889047 -178.30166323608864 0 -178.30166323608864 -35.447272992019862 0 0 0 0 -183.82656762591796 -210.41194676090527 0 -210.41194676090527 -101.22973118559821 0 0 0 0 93.223889439657796 -55.12532367696258 0 -55.12532367696258 46.610559314627608 0 0 0 0 -169.10084490848021 -137.14055588717247 0 -137.14055588717247 176.61586100497516 0 0 0 0 5.4854356603900669 -295.52769527804048 0 -295.52769527804048 -72.433659614780481 0 0 0 0 -287.7115325839768 -357.47239872666978 0 -357.47239872666978 -132.92773134203162 0 0 0 0 -133.4857085642725 -176.72440028586061 0 -176.72440028586061 -169.27684578948902 0 0 0 0 1.5129230669113642 -0.69533109231616308 0 -0.69533109231616308 -1.0240594930853852 0 0 0 0 -51.828044299967587 -177.7407413245619 0 -177.7407413245619 -238.96099915602099 0 0 0 0 54.36839957144548 1.2806822964466846 0 1.2806822964466846 -9.2261945266909606 0 0 0 0 30.719146561619709 0.34368524027195235 0 0.34368524027195235 -7.6361891251381167 0 0 0 0 88.068687807346578 25.469372572290013 0 25.469372572290013 7.0433777302732778 0 0 0 0 105.45139540445234 -83.028783673675207 0 -83.028783673675207 12.934036291915618 0 0 0 0 51.5177596996582 -21.69193781523245 0 -21.69193781523245 -18.140944057344313 0 0 0 0 14.752619940132718 -23.61828902113848 0 -23.61828902113848 -11.093361113886203 0 0 0 0 18.820594933989923 -8.9752406784955383 0 -8.9752406784955383 -6.7082482410005468 0 0 0 0 17.087303568026982 -13.579612050811193 0 -13.579612050811193 -0.86520575299800839 0 0 0 0 15.616893685342802 0.51830266701381333 0 0.51830266701381333 -7.9734781271617976 0 0 0 0 2.7992097885858698 -1.1775360108000594 0 -1.1775360108000594 -2.1376648889575218 0 0 0 0 -50.504487304293434 -173.57454211611912 0 -173.57454211611912 -239.47836298611446 0 0 0 0 14.31952689163154 -5.3932773001070018 0 -5.3932773001070018 -6.0352288143258193 0 0 0 0 8.1493428888788912 -4.6938134966330836 0 -4.6938134966330836 -6.025538225096966 0 0 0 0 10.979023516709276 1.6862318114863228 0 1.6862318114863228 -8.2675901124239317 0 0 0 0 15.001729263633024 86.876479628430388 0 86.876479628430388 125.47684150228497 0 0 0 0 1.0281534669106343 -4.6343535720816327 0 -4.6343535720816327 2.4163694832733293 0 0 0 0 -51.619628994609229 -76.517684640646621 0 -76.517684640646621 311.0853055460193 0 0 0 0 104.58641715621343 -36.662563255813438 0 -36.662563255813438 135.11729075071253 0 0 0 0 121.93522981679416 -236.316295825407 0 -236.316295825407 363.56716192253771 0 0 0 0 12.638677711220225 -170.21275854975465 0 -170.21275854975465 326.90508211905762 0 0 0 0 -23.811764215228322 -89.843592696969608 0 -89.843592696969608 219.45356058774632 0 0 0 0 54.387764319428243 -149.43070387849002 0 -149.43070387849002 186.2158654404775 0 0 0 0 98.30035972251062 -100.2358833624221 0 -100.2358833624221 50.714169999220758 0 0 0 0 288.9614476969 -245.56218813848682 0 -245.56218813848682 161.26453504319579 0 0 0 0 -0.28732395420405954 -0.38473654277972003 0 -0.38473654277972003 0.18928938433383458 0 0 0 0 -115.03960959886899 1.6402270891194348 0 1.6402270891194348 93.759091867053939 0 0 0 0 4.0650000054647535 -22.919664590188859 0 -22.919664590188859 -27.110195651286631 0 0 0 0 2.0518834049138412 -7.7362262668493296 0 -7.7362262668493296 1.419126491766137 0 0 0 0 14.927217156859115 -16.896189465300267 0 -16.896189465300267 5.3950711997458711 0 0 0 0 6.5453635254816618 -71.757419825567922 0 -71.757419825567922 152.60618405651803 0 0 0 0 1.3120970022193177 -5.9687939956312359 0 -5.9687939956312359 2.0756909816993838 0 0 0 0 29.044710828500683 -95.561567944920171 0 -95.561567944920171 177.17294544531251 0 0 0 0 31.051335770243895 -114.4252863354086 0 -114.4252863354086 140.83744999983901 0 0 0 0 17.541030842345208 -104.36955426862914 0 -104.36955426862914 162.80690755798787 0 0 0 0 29.250009223418601 -94.041336402250295 0 -94.041336402250295 144.24321615815279 0 0 0 0 3.4251226090819209 -10.04338461725154 0 -10.04338461725154 0.33203322489923792 0 0 0 0 3.0383613142842409 -2.4609100611597565 0 -2.4609100611597565 0.82229581015645969 0 0 0 0 23.766542147568543 -2.3519952444985393 0 -2.3519952444985393 1.4775847741293546 0 0 0 0 19.058148340001935 -13.397420079832955 0 -13.397420079832955 9.108242907692329 0 0 0 0 36.070141966680239 -15.672135621247435 0 -15.672135621247435 -8.1428870442905463 0 0 0 0 105.39621094075846 -91.609169883377035 0 -91.609169883377035 45.913768083948526 0 0 0 0 15.18228578927029 -6.7518317140353954 0 -6.7518317140353954 -5.7400258162399176 0 0 0 0 25.597711490554502 -12.492840217197227 0 -12.492840217197227 8.6114028927731852 0 0 0 0 16.540082945633912 -11.415868586771467 0 -11.415868586771467 7.5500979737917078 0 0 0 0 12.564480627086596 -16.42540748290412 0 -16.42540748290412 3.377475183311617 0 0 0 0 64.831635913993523 -16.853978891365841 0 -16.853978891365841 -7.7715649310193839 0 0 0 0 1.8216727959145995 -1.3778713560327844 0 -1.3778713560327844 0.44126995083952281 0 0 0 0 24.033108380259364 -17.60889698684332 0 -17.60889698684332 12.652424953284935 0 0 0 0 51.551546211841924 -6.8667655851077143 0 -6.8667655851077143 -1.9869062802099506 0 0 0 0 0.60846143321145263 -0.44020066857528128 0 -0.44020066857528128 0.13585792875026037 0 0 0 0 15.429844002948812 -18.536247278329711 0 -18.536247278329711 4.8823246979663963 0 0 0 0 -36.93893163058965 -28.254114875773666 0 -28.254114875773666 5.5294595255181775 0 0 0 0 5.0496353770176938 -6.6410956762929345 0 -6.6410956762929345 -0.1542556503918604 0 0 0 0 -9.6490442482318031 -17.111753475328442 0 -17.111753475328442 7.9918135194093338 0 0 0 0 -1.162667545042531 -9.2088751728075238 0 -9.2088751728075238 -0.80132054197888625 0 0 0 0 20.939420224724017 -8.4916510510220178 0 -8.4916510510220178 -8.216941750193655 0 0 0 0 -3.4920428710029228 -22.45803255015926 0 -22.45803255015926 9.3383022517773497 0 0 0 0 -0.038543233503359975 -9.7465323238924633 0 -9.7465323238924633 -0.67872714635409004 0 0 0 0 1.1441680134739727 -5.8675283848015169 0 -5.8675283848015169 -2.8594835928452085 0 0 0 0 2.1273000439687166 -4.4015313338841224 0 -4.4015313338841224 -0.70887126297748182 0 0 0 0 1.6540311436256161 -6.0515715537576398 0 -6.0515715537576398 -2.7979037126751791 0 0 0 0 24.618354515587271 -7.9794482913330285 0 -7.9794482913330285 -9.1907647307161824 0 0 0 0 16.938109790742601 -18.150511881662169 0 -18.150511881662169 0.865109231112001 0 0 0 0 1.0280764389876222 -10.492559867390746 0 -10.492559867390746 -0.7275525786907 0 0 0 0 1.1065074241232651 -8.1763702856915188 0 -8.1763702856915188 -3.2752033671276877 0 0 0 0 1.6740474547987105 -7.6458790106626111 0 -7.6458790106626111 -4.0278955124031199 0 0 0 0 1.3595066330817644 -7.5559191556676524 0 -7.5559191556676524 -3.7575278787844582 0 0 0 0 -2.0673464572100784 -12.225494064365193 0 -12.225494064365193 -10.144830683588225 0 0 0 0 -1.069894925763947 -8.1917866842650255 0 -8.1917866842650255 -2.7687569012846325 0 0 0 0 0.68421827988640871 -8.8140921545564197 0 -8.8140921545564197 -5.2355269669715199 0 0 0 0 -10.560051330663555 -13.043393553431088 0 -13.043393553431088 -2.100608910444862 0 0 0 0 -11.894988661628304 -8.8479323605488389 0 -8.8479323605488389 7.1435822384228231 0 0 0 0 -10.138905674356346 -12.358900567577397 0 -12.358900567577397 -1.0567620314370325 0 0 0 0 4.2749846497536055 -12.937145508138201 0 -12.937145508138201 -17.496947053476106 0 0 0 0 0.2845226934834475 -0.37414043068954017 0 -0.37414043068954017 -0.14504317870096894 0 0 0 0 -3.2792751883707751 -8.4802842818121462 0 -8.4802842818121462 -6.0247147249465343 0 0 0 0 -4.4125830690045404 -14.64547920376981 0 -14.64547920376981 -6.7724328303374932 0 0 0 0 2.3368357024155557 -13.015400801283249 0 -13.015400801283249 -6.6050064928713255 0 0 0 0 -1.2601457297059824 -11.511168025526786 0 -11.511168025526786 -6.0084021207658225 0 0 0 0 0.77199931052018655 -6.6363309909920645 0 -6.6363309909920645 -3.7566195990839333 0 0 0 0 2.7646463615819812 -8.9096943742624717 0 -8.9096943742624717 -6.7364425970663433 0 0 0 0 2.0925198946151795 -6.567384419922746 0 -6.567384419922746 -5.6572738328759442 0 0 0 0 0.28899350871688512 -4.7882953845005432 0 -4.7882953845005432 -2.7703616244889417 0 0 0 0 -1.2577792696392862 -6.73324936676363 0 -6.73324936676363 -2.966942684894093 0 0 0 0 5.5571843748760887 -9.2950355217760094 0 -9.2950355217760094 -3.4568806120070228 0 0 0 0 0.78699373618356638 -8.8612215290314573 0 -8.8612215290314573 -4.5440996478444422 0 0 0 0 4.1352033072824952 -7.0321819619244081 0 -7.0321819619244081 -5.3435090868224506 0 0 0 0 -1.3223577729149838 -15.694409718822499 0 -15.694409718822499 -6.8298268297148752 0 0 0 0 -5.4248704523342894 -9.0733864169487788 0 -9.0733864169487788 -5.4922496229155513 0 0 0 0 3.2170165870775236 -10.666210671217414 0 -10.666210671217414 -6.6642454968205129 0 0 0 0 -0.39631817226290877 -6.0057958645129474 0 -6.0057958645129474 -3.7614141982467117 0 0 0 0 3.3148843128774388 -9.8715102748417394 0 -9.8715102748417394 -5.0795780059779645 0 0 0 0 -1.0481411390501449 -7.8432159389500065 0 -7.8432159389500065 -5.2569465307370651 0 0 0 0 -27.022308342555334 -7.7126859381751274 0 -7.7126859381751274 22.171207191266149 0 0 0 0 -4.495568874579476 -24.260987330917487 0 -24.260987330917487 31.350397281712503 0 0 0 0 8.6783233705214435 -15.670343564075926 0 -15.670343564075926 6.1027835891336757 0 0 0 0 6.9161617430654587 -14.116871996178816 0 -14.116871996178816 -3.842961492795439 0 0 0 0 -12.320019949889684 -14.839222775422968 0 -14.839222775422968 4.4462334469135385 0 0 0 0 8.6548907838919309 -15.202707526715209 0 -15.202707526715209 6.2815186366435123 0 0 0 0 5.9526219099298032 -9.1750255921688222 0 -9.1750255921688222 -7.9923925272742053 0 0 0 0 -0.20397694298808289 -0.1765575414948275 0 -0.1765575414948275 0.084092517407941436 0 0 0 0 11.693235092683608 -8.3555864036179628 0 -8.3555864036179628 -4.7259142954062554 0 0 0 0 14.00538477057853 -29.774786434267298 0 -29.774786434267298 23.418541231090785 0 0 0 0 37.323887598737201 -18.403712364994135 0 -18.403712364994135 -21.520428985371836 0 0 0 0 7.4936202786919957 -7.474735910819807 0 -7.474735910819807 0.36676774521396194 0 0 0 0 15.256226562991287 -37.583324315224672 0 -37.583324315224672 -30.282421352931124 0 0 0 0 11.275110037022387 12.229603342064365 0 12.229603342064365 -33.948960945207546 0 0 0 0 0.53871963655298538 -0.14824427102804072 0 -0.14824427102804072 -0.28441777969939341 0 0 0 0 4.9856782963615842 -6.5335651020941441 0 -6.5335651020941441 -3.8456057203829914 0 0 0 0 2.4164113946608268 -8.8226316839463834 0 -8.8226316839463834 -1.0207705395514495 0 0 0 0 7.2004178466595476 -7.8848698226720444 0 -7.8848698226720444 -5.0162818981625605 0 0 0 0 2.9133700955135282 -14.585709333776322 0 -14.585709333776322 -8.6370245837169932 0 0 0 0 4.0900591971803806 -5.1587253997240623 0 -5.1587253997240623 0.38360347775233095 0 0 0 0 3.4640639363788068 -4.0508592652549851 0 -4.0508592652549851 -1.1275025143258972 0 0 0 0 6.645800060730835 -6.8394108567190415 0 -6.8394108567190415 -0.091914415927021764 0 0 0 0 4.879514528773143 -10.419410509100999 0 -10.419410509100999 3.1837372604240954 0 0 0 0 4.4234970679726473 -7.0067921296918358 0 -7.0067921296918358 2.9175186573964798 0 0 0 0 4.8313394061794401 -6.7723444336397813 0 -6.7723444336397813 3.200995140598569 0 0 0 0 5.7638356624447624 -5.3679244538325293 0 -5.3679244538325293 1.6848936185997445 0 0 0 0 6.0977932978858007 -10.829227437217924 0 -10.829227437217924 4.7512471279696911 0 0 0 0 1.0238837124225544 -6.9261391923131876 0 -6.9261391923131876 -0.44838006913293604 0 0 0 0 12.234645635397619 -7.8486555327679 0 -7.8486555327679 -7.6122135767838328 0 0 0 0 3.3189719611109467 -2.5453754895888778 0 -2.5453754895888778 -4.073738436010899 0 0 0 0 3.4888394370500464 -1.3257783775297867 0 -1.3257783775297867 -4.6008851437582052 0 0 0 0 4.7696791799535276 -1.8245629363373155 0 -1.8245629363373155 -4.5625087930893642 0 0 0 0 5.2679186590539757 -0.18816815846730606 0 -0.18816815846730606 -2.5019570030781324 0 0 0 0 -0.11449687902400907 -5.6271366867506112 0 -5.6271366867506112 -2.4197708774653925 0 0 0 0 4.3829091470761341 -2.9596770202651896 0 -2.9596770202651896 -4.0684173638001084 0 0 0 0 4.8874861593940295 -1.2931699490072788 0 -1.2931699490072788 -4.7600508119576261 0 0 0 0 -2.653735683998093 -5.7040911062504165 0 -5.7040911062504165 -4.3971755779202795 0 0 0 0 10.459450566765902 2.447100456490694 0 2.447100456490694 -6.6147719243541934 0 0 0 0 3.3345159318996593 -1.1281696066289442 0 -1.1281696066289442 -4.5591530174715444 0 0 0 0 10.171135621871562 -4.3705428347305268 0 -4.3705428347305268 -1.1913599359704534 0 0 0 0 6.6000716954004019 -1.6937504283414455 0 -1.6937504283414455 -2.3703687459637877 0 0 0 0 9.1426932026177816 -5.0373711538364141 0 -5.0373711538364141 -3.8440630656454164 0 0 0 0 1.2787374243797265 -8.9018878107483967 0 -8.9018878107483967 -9.6747665486762653 0 0 0 0 0.18416061468686351 -6.0657099783616895 0 -6.0657099783616895 -7.0807292626512668 0 0 0 0 3.3347529043458053 -4.9279413595359074 0 -4.9279413595359074 -1.0584823421777401 0 0 0 0 7.8446736460540336 -7.5341457429231689 0 -7.5341457429231689 0.28049793107698484 0 0 0 0 4.0097498802279006 -3.1736831846938003 0 -3.1736831846938003 -4.6224646729970118 0 0 0 0 22.70960130984804 -1.7269596271962655 0 -1.7269596271962655 -5.1436723689184873 0 0 0 0 11.920047893509036 -11.203565492469352 0 -11.203565492469352 4.9798724476349889 0 0 0 0 1.6173654653669991 -0.44752204071667423 0 -0.44752204071667423 -0.84952611298575231 0 0 0 0 10.137889871326479 -1.589802975548082 0 -1.589802975548082 2.2649773832890787 0 0 0 0 -24.791917258549802 -7.6244484961425769 0 -7.6244484961425769 3.9307752897439059 0 0 0 0 -6.2809235889653792 -3.0046242241260188 0 -3.0046242241260188 2.7491038586831564 0 0 0 0 -15.997679660165886 -10.80134216382794 0 -10.80134216382794 1.8366687996312976 0 0 0 0 -5.6538091209076811 -8.1868230752443196 0 -8.1868230752443196 0.97944461723091081 0 0 0 0 -6.1195207211021625 -8.3547605980493245 0 -8.3547605980493245 2.0891518144344445 0 0 0 0 -3.1461612645616697 -5.0142664385894022 0 -5.0142664385894022 1.0530627692515679 0 0 0 0 -1.2900346548049129 -6.8643062281407765 0 -6.8643062281407765 1.0669688972775475 0 0 0 0 -1.3041978736873716 -12.293165092283743 0 -12.293165092283743 -12.638215221246355 0 0 0 0 -7.2927304425744284 -11.701322029306676 0 -11.701322029306676 -5.2261617085785215 0 0 0 0 13.182982054458989 -10.4468348355731 0 -10.4468348355731 -12.427900511393091 0 0 0 0 -6.235728179486614 -9.2463836508359236 0 -9.2463836508359236 0.76257336738399317 0 0 0 0 -6.7754012189186454 -12.13553917833876 0 -12.13553917833876 -4.7114688309458312 0 0 0 0 -8.2228542001012102 -16.691666267475739 0 -16.691666267475739 -5.3051104102632962 0 0 0 0 -6.2068085337887169 -10.259405799886736 0 -10.259405799886736 3.4964021520718234 0 0 0 0 -8.9798321467606002 -7.7886491893950733 0 -7.7886491893950733 3.5686034452555759 0 0 0 0 -8.1913494155196531 -17.972697094224714 0 -17.972697094224714 11.942656718791113 0 0 0 0 -7.5089128617946699 -11.893791018796037 0 -11.893791018796037 9.28572859565611 0 0 0 0 40.103707639107597 -56.484620810351771 0 -56.484620810351771 -32.301525390379538 0 0 0 0 11.568478581046394 -12.380739854099321 0 -12.380739854099321 -3.5465574889517466 0 0 0 0 5.821883234915731 -30.152341104207153 0 -30.152341104207153 16.577310591637797 0 0 0 0 24.033400319021894 -34.711851474996365 0 -34.711851474996365 33.303945541090798 0 0 0 0 39.869618960787193 -31.108445724938065 0 -31.108445724938065 -61.626074045823771 0 0 0 0 -21.431554097798653 -26.731367585590306 0 -26.731367585590306 1.5507304481361643 0 0 0 0 11.612262275215471 11.546030784043978 0 11.546030784043978 -28.135990550319548 0 0 0 0 13.828192358647357 -8.7282021145510953 0 -8.7282021145510953 -3.8863211112038698 0 0 0 0 0.36656736449808847 -0.060559983429865127 0 -0.060559983429865127 -0.10815135000295584 0 0 0 0 1.2063009396339694 -0.25095314881517083 0 -0.25095314881517083 -0.76362582876230611 0 0 0 0 12.026317283274441 -11.796850254113858 0 -11.796850254113858 -1.5762384103827882 0 0 0 0 8.4748202477567247 7.128653287763882 0 7.128653287763882 -5.6114844325747981 0 0 0 0 -4.9831621197845379 -2.0149761822140135 0 -2.0149761822140135 -7.254151091852691 0 0 0 0 61.166267068223533 -5.3432974165307314 0 -5.3432974165307314 -6.7416323854995426 0 0 0 0 36.587915958662052 15.951521966373548 0 15.951521966373548 -20.921232481807237 0 0 0 0 50.41167232603766 -131.93536348909402 0 -131.93536348909402 58.245643061960436 0 0 0 0 49.537871153217566 -139.36173644500741 0 -139.36173644500741 -2.0967988078191411 0 0 0 0 -19.141903817711864 -76.428972850972059 0 -76.428972850972059 80.666560519697668 0 0 0 0 -8.0062303553277161 117.83077100502123 0 117.83077100502123 -236.88473305138359 0 0 0 0 327.95779820015014 -177.5049812406578 0 -177.5049812406578 -298.31991714979813 0 0 0 0 60.628507656409056 -55.603314682703058 0 -55.603314682703058 -69.178077642718563 0 0 0 0 34.9584112943121 -28.375189330909052 0 -28.375189330909052 -48.338862753305875 0 0 0 0 -4.8685774476411012 -21.085079666243772 0 -21.085079666243772 -1.2620193547998149 0 0 0 0 -0.13824779349124583 -12.277818273205412 0 -12.277818273205412 1.9335359976112159 0 0 0 0 56.64561574241452 -79.930907441343152 0 -79.930907441343152 -14.25326073008182 0 0 0 0 -0.42166880154400133 -8.3183681442842499 0 -8.3183681442842499 -1.0593452532666561 0 0 0 0 -5.1789060955197783 -11.858319556922652 0 -11.858319556922652 1.3228365966060665 0 0 0 0 -6.770956569795505 -12.793026586819366 0 -12.793026586819366 -4.0871056649061437 0 0 0 0 -6.2114978268051573 -8.6869071158465658 0 -8.6869071158465658 1.7559722170917667 0 0 0 0 1.0537075341926538 -8.1317001660390815 0 -8.1317001660390815 0.43851655550588475 0 0 0 0 -5.9285015160930925 -8.3268945242707559 0 -8.3268945242707559 1.4808150886638032 0 0 0 0 -2.6599407678168063 -11.668940996887613 0 -11.668940996887613 -2.5242793418001384 0 0 0 0 -2.4677982342618634 -11.65515086286905 0 -11.65515086286905 -2.5267620051404265 0 0 0 0 -4.9299174552506884 -14.640624804171239 0 -14.640624804171239 -3.8869363327175961 0 0 0 0 -20.118787717942723 -23.543149148839802 0 -23.543149148839802 -7.3818085315651842 0 0 0 0 2.7729785679075576 -12.027073778643171 0 -12.027073778643171 -9.1043685311524314 0 0 0 0 12.30467313308456 -14.092698451509357 0 -14.092698451509357 -9.0108229444792709 0 0 0 0 3.1700947616000121 -9.9714828309079167 0 -9.9714828309079167 -3.3337702304888808 0 0 0 0 5.2044666759493339 -12.504198157790597 0 -12.504198157790597 -3.4649642166186823 0 0 0 0 -6.4444310946469692 -17.166220714433067 0 -17.166220714433067 5.0312732144011125 0 0 0 0 -16.095754354686505 -48.005602196924883 0 -48.005602196924883 338.85711131354037 0 0 0 0 -603.33810287651795 3298.3616484259373 0 3298.3616484259373 -3647.8241596029038 0 0 0 0 -237.16487177379895 -2317.9167464653547 0 -2317.9167464653547 -616.6760766627558 0 0 0 0 1.6981538697647807 -0.55909130312246447 0 -0.55909130312246447 -1.0951614493429398 0 0 0 0 2181.5287642121839 -4169.4821499708669 0 -4169.4821499708669 200.82223864291154 0 0 0 0 5243.6584547574348 1319.9821215519059 0 1319.9821215519059 -3806.0656422571556 0 0 0 0 -40.389083163376199 1546.0582702196043 0 1546.0582702196043 2637.6513401158445 0 0 0 0 3550.5866305603349 -1920.0698547476845 0 -1920.0698547476845 -143.3800203523133 0 0 0 0 -322.9914703683462 597.66705960508625 0 597.66705960508625 258.50240912254958 0 0 0 0 3851.295205244046 1584.6208574174823 0 1584.6208574174823 440.69861971389764 0 0 0 0 -1671.1692922328366 -256.91652888120279 0 -256.91652888120279 668.30556692654682 0 0 0 0 -131.82789133414553 907.32896543859215 0 907.32896543859215 236.24634526045338 0 0 0 0 18.643469156173524 329.029800302686 0 329.029800302686 -241.30954363386627 0 0 0 0 -2.4614866059580898 -0.65777015049402898 0 -0.65777015049402898 1.5257489109219242 0 0 0 0 60.842776739096735 70.651156630798141 0 70.651156630798141 -1277.0973446879689 0 0 0 0 -106.54481778640184 -110.21747821928966 0 -110.21747821928966 -650.81905360438031 0 0 0 0 1939.7090009312087 -382.6167524980865 0 -382.6167524980865 -1570.5476543513134 0 0 0 0 2409.1199290106888 -1173.0202041947541 0 -1173.0202041947541 -1503.1107024397934 0 0 0 0 218.56808884777274 589.49835033493582 0 589.49835033493582 -1396.1988653618828 0 0 0 0 2.9461345763811551 -17.171695306948095 0 -17.171695306948095 -23.076532575363672 0 0 0 0 -10.438739963064108 15.51176265293816 0 15.51176265293816 -2.1700254249299178 0 0 0 0 8.0671438269055216 -6.5253888341758284 0 -6.5253888341758284 -8.5013044589836682 0 0 0 0 10.758646014459009 -16.463215061509381 0 -16.463215061509381 -5.4188225275530124 0 0 0 0 13.522044163517421 103.19886256353675 0 103.19886256353675 -297.31921420959225 0 0 0 0 -181.26259343846141 67.032510102730612 0 67.032510102730612 -2.1996977045891981 0 0 0 0 4.1248410085086107 3.1461870236175855 0 3.1461870236175855 2.670870405730966 0 0 0 0 7.9844353371187795 -18.726385959632179 0 -18.726385959632179 -1.8044724365873068 0 0 0 0 -162.81632214205456 -53.302005386251039 0 -53.302005386251039 5.6999895667177043 0 0 0 0 -69.723539351689396 -67.485546922544017 0 -67.485546922544017 7.6429285770384467 0 0 0 0 -8.0970393776252898 -19.577648078753885 0 -19.577648078753885 9.1777051346263789 0 0 0 0 -1.1342547342501348 -7.1790868387015507 0 -7.1790868387015507 -3.7361392252678343 0 0 0 0 28.563454143019044 -55.266750841988596 0 -55.266750841988596 18.771822270564826 0 0 0 0 -27.981595874382037 73.436939340301478 0 73.436939340301478 -6.9928303355809476 0 0 0 0 -7.7476316840805382 -2.0665319301415401 0 -2.0665319301415401 4.9872643954652585 0 0 0 0 -4.1217947458890194 26.805022670092285 0 26.805022670092285 55.926192722260112 0 0 0 0 -5.1070931727286668 -15.456780673865827 0 -15.456780673865827 2.9711326062087275 0 0 0 0 -1.1050017496478972 -14.870005111541627 0 -14.870005111541627 65.762071944217269 0 0 0 0 5.4309822167763286 7.8704368694416758 0 7.8704368694416758 18.217935440301972 0 0 0 0 -5.1281712318459345 -8.5023336931906375 0 -8.5023336931906375 2.0446174136402235 0 0 0 0 -0.3122958422427331 -4.7572163251832933 0 -4.7572163251832933 13.58825283325632 0 0 0 0 -6.8467336011257709 -6.7158855833637432 0 -6.7158855833637432 1.184919056018886 0 0 0 0 1069.3019822917995 -29.993745305267112 0 -29.993745305267112 -554.95206646289444 0 0 0 0 -150.25690604060583 -52.766067700722147 0 -52.766067700722147 -119.56512445758381 0 0 0 0 -1.9640349305293796 -0.61660617663247308 0 -0.61660617663247308 -0.43834405085786798 0 0 0 0 -122.23216820822199 62.985206675618201 0 62.985206675618201 33.104274632942179 0 0 0 0 -184.67919850102044 -104.93737619122476 0 -104.93737619122476 -24.83601842842927 0 0 0 0 15.731074165276368 -83.257135724823456 0 -83.257135724823456 -29.931523114274228 0 0 0 0 -151.17821065140015 -25.221910689070683 0 -25.221910689070683 89.922658484591921 0 0 0 0 -63.564290804202756 -180.04242931763724 0 -180.04242931763724 5.0739089840474634 0 0 0 0 51.842815793199406 58.747922753467037 0 58.747922753467037 -64.293433653776063 0 0 0 0 -5.0262737661785515 -12.71732058207027 0 -12.71732058207027 4.2988089391188646 0 0 0 0 -19.865322074772848 24.80388515149366 0 24.80388515149366 45.407154489779714 0 0 0 0 -75.005575219838647 -54.053686909129283 0 -54.053686909129283 97.555661911984316 0 0 0 0 -5.6279308814618263 -1.42745358003567 0 -1.42745358003567 -1.5223501905096455 0 0 0 0 1046.8727553272474 -589.86776899407232 0 -589.86776899407232 242.68301752023217 0 0 0 0 1238.8168669204024 -611.15982309057154 0 -611.15982309057154 144.3085406067803 0 0 0 0 1166.3855832547706 -352.42344039057025 0 -352.42344039057025 44.974650691233364 0 0 0 0 1009.5246073954331 -635.49680459007959 0 -635.49680459007959 -276.39142914321019 0 0 0 0 965.33094675713801 -512.43998959016062 0 -512.43998959016062 82.553405557351653 0 0 0 0 827.86846609369968 -487.26631500291387 0 -487.26631500291387 84.811377291209283 0 0 0 0 1140.121921401711 -520.61473319318384 0 -520.61473319318384 132.90889073852304 0 0 0 0 998.64573816362281 -397.51151401997208 0 -397.51151401997208 97.410458822287183 0 0 0 0 645.39253780369472 -281.0696097583259 0 -281.0696097583259 133.42618672214849 0 0 0 0 879.33540043474932 -361.29422221581808 0 -361.29422221581808 115.37157792936705 0 0 0 0 434.74763399465883 -93.598980146460235 0 -93.598980146460235 110.06183430174497 0 0 0 0 672.44853352400241 -185.44341828954748 0 -185.44341828954748 87.587484049830891 0 0 0 0 653.27978688244184 -266.25634488979449 0 -266.25634488979449 133.88617298437384 0 0 0 0 545.8646545841475 -336.4679844931261 0 -336.4679844931261 175.03107604270554 0 0 0 0 349.11601526632148 -167.94839900465922 0 -167.94839900465922 136.50173576689531 0 0 0 0 762.1947995647788 -292.94724832162501 0 -292.94724832162501 78.515850037838391 0 0 0 0 496.94267267184932 -582.2949020635383 0 -582.2949020635383 283.10856113403497 0 0 0 0 487.0069337934608 -256.7591708688243 0 -256.7591708688243 136.94882850464637 0 0 0 0 256.80867814023804 -232.6241240275358 0 -232.6241240275358 229.54467701353315 0 0 0 0 46.189279268990504 -104.97230336891698 0 -104.97230336891698 87.593576049142939 0 0 0 0 126.3297508515243 -51.955633759818738 0 -51.955633759818738 114.31879568247496 0 0 0 0 191.26115277557983 -83.066948703341041 0 -83.066948703341041 38.09402067728297 0 0 0 0 434.65653033847047 -987.63720843855481 0 -987.63720843855481 505.31554429285825 0 0 0 0 147.20578566488985 -447.9642634700358 0 -447.9642634700358 656.91553197908615 0 0 0 0 1649.3455239773029 -2158.2575238053359 0 -2158.2575238053359 1460.9422480230696 0 0 0 0 1538.9110359182378 -707.98291391240309 0 -707.98291391240309 -880.00573694781997 0 0 0 0 1622.965727781746 -1099.7486683690076 0 -1099.7486683690076 37.916438212760113 0 0 0 0 1701.2221669331193 -1229.8199812330458 0 -1229.8199812330458 -34.837639987028524 0 0 0 0 553.9176070636895 -575.92655570709758 0 -575.92655570709758 276.09665486890299 0 0 0 0 -162.16263100483047 -77.303301148076571 0 -77.303301148076571 85.363453296953026 0 0 0 0 -141.71154479266261 -75.701762127273469 0 -75.701762127273469 120.46029916561747 0 0 0 0 -187.05270648292208 -122.47737938761566 0 -122.47737938761566 86.387500834810226 0 0 0 0 -116.08173288856779 -99.752545152513449 0 -99.752545152513449 118.2213876825208 0 0 0 0 -6.95212845934293 -16.26462650382382 0 -16.26462650382382 123.6868043985196 0 0 0 0 14.247238665499026 -75.079541773602614 0 -75.079541773602614 54.682996619070764 0 0 0 0 -46.277628141964669 -30.715670653557027 0 -30.715670653557027 102.09879837679591 0 0 0 0 165.01245750304952 -71.290952225619549 0 -71.290952225619549 107.76335617810219 0 0 0 0 44.72849102508917 -22.57691310701739 0 -22.57691310701739 137.33865666319707 0 0 0 0 139.0255750061624 -11.71089690437293 0 -11.71089690437293 155.43771764609482 0 0 0 0 22.2396578391199 -76.222019547012678 0 -76.222019547012678 154.48007951458203 0 0 0 0 323.36152430508082 -163.96016569277435 0 -163.96016569277435 138.75601272831409 0 0 0 0 236.18481761497969 -2.6501391129186231 0 -2.6501391129186231 100.90844948632002 0 0 0 0 377.06829668007413 -92.299632314262453 0 -92.299632314262453 96.267806298717915 0 0 0 0 170.25310319199343 -103.30235916406309 0 -103.30235916406309 155.41024898720934 0 0 0 0 179.72576943612148 7.7252245431004667 0 7.7252245431004667 71.05680232956729 0 0 0 0 142.65684258728288 -35.100157945045794 0 -35.100157945045794 26.675629543813557 0 0 0 0 81.872721185573027 47.322381295041851 0 47.322381295041851 4.0096120611069637 0 0 0 0 101.02150682668798 43.460070502272629 0 43.460070502272629 -5.1971422090100532 0 0 0 0 71.624825516380952 2.2669275957505306 0 2.2669275957505306 -51.129481030335228 0 0 0 0 69.288257670239545 -38.699941334512914 0 -38.699941334512914 49.173116782612851 0 0 0 0 166.32226716162268 -7.424069543144924 0 -7.424069543144924 48.156985860478017 0 0 0 0 42.721758207735547 5.0299797945772298 0 5.0299797945772298 34.553891162366199 0 0 0 0 -11.348550191760296 -52.084702895301234 0 -52.084702895301234 -25.514757511660719 0 0 0 0 24.039116626991017 -32.799190815871043 0 -32.799190815871043 -169.05319290039915 0 0 0 0 51.193817533632682 24.440728627461795 0 24.440728627461795 -48.995781373847421 0 0 0 0 -78.297567397021339 -124.51158604974262 0 -124.51158604974262 -232.92187623489372 0 0 0 0 -52.748741591683938 -50.988358374587733 0 -50.988358374587733 -45.199382335658811 0 0 0 0 -60.858743492139183 -22.952607541141333 0 -22.952607541141333 -168.96678685746156 0 0 0 0 -130.68387090332544 -112.66366583501076 0 -112.66366583501076 29.23256251741077 0 0 0 0 -20.397128771026473 -32.661757971840871 0 -32.661757971840871 -34.826624652145256 0 0 0 0 -2.481834927253658 54.565528644809092 0 54.565528644809092 -141.88805318173399 0 0 0 0 -42.637199706558022 108.30026370266205 0 108.30026370266205 -100.67549706913633 0 0 0 0 -25.7693234278413 66.44047219300046 0 66.44047219300046 0.37293422653601738 0 0 0 0 51.493617552230717 70.414147097028035 0 70.414147097028035 -92.874258006508171 0 0 0 0 -12.558314391695603 67.269254234356595 0 67.269254234356595 -89.206843462903635 0 0 0 0 23.819790409848792 53.290700954812564 0 53.290700954812564 -135.48943870359108 0 0 0 0 16.294816050765803 12.850140918031684 0 12.850140918031684 -260.05437644004996 0 0 0 0 70.87712940144138 57.411986670100532 0 57.411986670100532 -101.93752680418766 0 0 0 0 71.368842801952269 43.762011813825666 0 43.762011813825666 -155.81670908954766 0 0 0 0 79.563340974600578 86.879148253482782 0 86.879148253482782 -92.0319728569375 0 0 0 0 79.963744954293361 65.371377810748527 0 65.371377810748527 -105.34605023494805 0 0 0 0 44.195980995806167 97.366496818194719 0 97.366496818194719 -133.46745572728287 0 0 0 0 41.727984359509719 94.642530363864353 0 94.642530363864353 -64.935462083798484 0 0 0 0 87.961450241768034 53.041639225135441 0 53.041639225135441 -33.016861492556927 0 0 0 0 68.181749614042928 93.968832419945102 0 93.968832419945102 -35.057445212874882 0 0 0 0 78.846620465716114 68.023707771681075 0 68.023707771681075 -76.489566143482079 0 0 0 0 34.545649348030565 53.994854921729711 0 53.994854921729711 -12.379795607201231 0 0 0 0 76.430957221324206 74.398925462675834 0 74.398925462675834 -56.581662925367709 0 0 0 0 38.423388755574706 36.207082603574236 0 36.207082603574236 -42.637059161221259 0 0 0 0 65.765634269817383 39.264504953807773 0 39.264504953807773 -106.9220815765002 0 0 0 0 94.316505419905297 68.05664969656209 0 68.05664969656209 -117.9212272296927 0 0 0 0 91.278088840321288 71.181809676958437 0 71.181809676958437 -92.893144889896575 0 0 0 0 116.41938492331974 41.543702923384444 0 41.543702923384444 -92.05837318927297 0 0 0 0 92.765172279803664 71.263889513056711 0 71.263889513056711 -118.26577294683011 0 0 0 0 78.770264591817977 65.317322718494324 0 65.317322718494324 -99.805324574132101 0 0 0 0 103.65775726201537 55.648326168222411 0 55.648326168222411 -151.96932321273198 0 0 0 0 48.447141628857935 21.980829891946996 0 21.980829891946996 -76.331500063588464 0 0 0 0 82.32056264091807 -48.638315240597876 0 -48.638315240597876 -276.55911315686899 0 0 0 0 10.255031984925154 -24.53153605251282 0 -24.53153605251282 -126.63717135722254 0 0 0 0 -490.5168819420669 -135.13190632679289 0 -135.13190632679289 -588.13582235231297 0 0 0 0 -637.8917364493218 -219.63635117603917 0 -219.63635117603917 72.051530647484469 0 0 0 0 -774.12868115725996 -138.03451966944704 0 -138.03451966944704 386.37334696267499 0 0 0 0 -590.70584822718956 -91.388274715805892 0 -91.388274715805892 360.29593801520241 0 0 0 0 -739.56760536764114 -53.255865476778126 0 -53.255865476778126 378.44931757642189 0 0 0 0 -47.081266675784718 -249.28919815395784 0 -249.28919815395784 11.530553618358681 0 0 0 0 -67.236666805489222 -267.3399904688049 0 -267.3399904688049 137.33111989863755 0 0 0 0 -0.92059328326116185 -1.048954927068193 0 -1.048954927068193 0.66982545550212791 0 0 0 0 -9.7551365072467888 -221.24999478116297 0 -221.24999478116297 -148.8594454377162 0 0 0 0 -25.276443902441315 69.653491646182374 0 69.653491646182374 209.48363690721817 0 0 0 0 40.935473778219603 -481.68339085743355 0 -481.68339085743355 -156.54946920878137 0 0 0 0 61.680780885391869 80.382038941806968 0 80.382038941806968 -6.3801413655564829 0 0 0 0 16.260052147935337 -5.1966082624395877 0 -5.1966082624395877 -3.0724107819841726 0 0 0 0 -175.49582919021123 164.33781129200361 0 164.33781129200361 -336.43689061306941 0 0 0 0 106.73579613436596 51.0517370587404 0 51.0517370587404 -14.440680026447808 0 0 0 0 42.071835671900772 81.82280723310032 0 81.82280723310032 0.088873634162155213 0 0 0 0 91.630287108113407 -5.0554816585645312 0 -5.0554816585645312 98.79513129452971 0 0 0 0 -10.256983531580772 42.439481916699151 0 42.439481916699151 223.05281918149922 0 0 0 0 -47.432972021903424 -17.023449663043721 0 -17.023449663043721 -21.006114474599599 0 0 0 0 -57.094229023832668 5.0174024242442101 0 5.0174024242442101 -40.480543918674812 0 0 0 0 -78.245521737231684 -2.2932761731281062 0 -2.2932761731281062 1.0709698163846042 0 0 0 0 31.720167952851625 -163.43188064632704 0 -163.43188064632704 -13.388669658961589 0 0 0 0 -26.067412699761917 -17.192348844517255 0 -17.192348844517255 -74.657315003234544 0 0 0 0 -2.2952744306530803 146.03845909266965 0 146.03845909266965 214.03541202150518 0 0 0 0 -35.804157703872988 -38.572292382978048 0 -38.572292382978048 -3.7708358370582573 0 0 0 0 -3.3703507207253423 -3.7547646548157978 0 -3.7547646548157978 2.6448159684696755 0 0 0 0 17.766128041551902 -6.710470041219863 0 -6.710470041219863 -3.4657218826883627 0 0 0 0 86.354560441322974 147.04579685433782 0 147.04579685433782 124.97939792361285 0 0 0 0 29.053294837387512 63.53199421386671 0 63.53199421386671 67.792530410639301 0 0 0 0 2.5004184216377325 83.734488998292363 0 83.734488998292363 92.173968108058034 0 0 0 0 -0.38570630875619827 120.60248032651725 0 120.60248032651725 151.5434844376723 0 0 0 0 -5.2014927860873286 109.6348830861607 0 109.6348830861607 101.52871002144821 0 0 0 0 23.58630152058322 67.057273042224551 0 67.057273042224551 -3.6771204966935329 0 0 0 0 25.521166784823436 32.104476035158768 0 32.104476035158768 97.751921223985846 0 0 0 0 -27.729406789614586 95.348860969708767 0 95.348860969708767 87.723245260429394 0 0 0 0 -612.36453112063919 -2241.0303774286695 0 -2241.0303774286695 -226.37423294267501 0 0 0 0 -285.1987721475889 963.80224481982805 0 963.80224481982805 -263.15091629402741 0 0 0 0 1326.2921200195487 -3.7729528834679513 0 -3.7729528834679513 -498.80791573918395 0 0 0 0 3893.1493567180005 626.54636304092128 0 626.54636304092128 -531.58800971826349 0 0 0 0 2209.5512763099396 4.2235662687016884 0 4.2235662687016884 -668.51262833832516 0 0 0 0 2754.3409941209247 1110.3096210370277 0 1110.3096210370277 -178.11635532591026 0 0 0 0 2820.8838100941794 895.1860531958082 0 895.1860531958082 19.386091900603788 0 0 0 0 -1.5872058574461025 -0.81113878348861412 0 -0.81113878348861412 0.9785774169889212 0 0 0 0 3599.1670530627889 -354.81866841328156 0 -354.81866841328156 114.94993191801404 0 0 0 0 2256.227416483307 1498.8172888747285 0 1498.8172888747285 -477.76075744461559 0 0 0 0 2472.543620801378 1287.4047207301592 0 1287.4047207301592 -1984.7041369531798 0 0 0 0 4.4392000047052775 -0.7823896267433732 0 -0.7823896267433732 -0.8229109092538236 0 0 0 0 2208.7886397488037 1621.7891285455626 0 1621.7891285455626 -2096.1301072098504 0 0 0 0 49.253918730260921 -762.66872643486749 0 -762.66872643486749 2074.0954280308833 0 0 0 0 3560.0695881513384 287.22107965854957 0 287.22107965854957 -1301.1624875156795 0 0 0 0 -93.756087738247516 176.92008889843692 0 176.92008889843692 106.8149926662918 0 0 0 0 146.25033355510095 -123.46393529275701 0 -123.46393529275701 3.787144177556911 0 0 0 0 -103.27160939881287 -55.152286556174658 0 -55.152286556174658 -14.662899791556811 0 0 0 0 191.73735473684792 -189.3079036432955 0 -189.3079036432955 -428.29904951459321 0 0 0 0 147.01404020699556 29.613664623471777 0 29.613664623471777 -76.052326871315017 0 0 0 0 62.912582406657748 76.062794182485959 0 76.062794182485959 -210.72499924551448 0 0 0 0 -798.40287102565344 -1244.8197687797438 0 -1244.8197687797438 -1081.5370670349948 0 0 0 0 14.281879565621278 -3.8682236423330596 0 -3.8682236423330596 -2.5859303593056309 0 0 0 0 -1626.646500779234 -584.49097277737383 0 -584.49097277737383 -26.208892186361481 0 0 0 0 10.929392684467938 -2.475078922801492 0 -2.475078922801492 -1.9139776351165567 0 0 0 0 708.05010584655247 -2297.7954517024045 0 -2297.7954517024045 -3076.480458709455 0 0 0 0 -191.49978833375644 -2.0667382500105305 0 -2.0667382500105305 -1765.1690106657989 0 0 0 0 597.54024900218792 -1333.0687062903016 0 -1333.0687062903016 -154.39558816127828 0 0 0 0 -722.83338089499011 -123.48287057112611 0 -123.48287057112611 946.56956853020529 0 0 0 0 -415.5070337961406 -795.01766615616543 0 -795.01766615616543 -16.632300246681552 0 0 0 0 1112.8311734794042 -11.716093779607036 0 -11.716093779607036 510.08716713813919 0 0 0 0 -1091.8191139061601 -292.75697985478473 0 -292.75697985478473 600.60773996901844 0 0 0 0 -966.02182284077571 -634.1705342943751 0 -634.1705342943751 109.14276140619768 0 0 0 0 -460.2532172706342 -352.2576132674003 0 -352.2576132674003 538.05354724929202 0 0 0 0 -451.92031872305995 -256.89455380427336 0 -256.89455380427336 558.95205589570105 0 0 0 0 -1125.4788122517566 -137.02364217938157 0 -137.02364217938157 861.0459206812593 0 0 0 0 -1129.4986344641475 -66.435904509453394 0 -66.435904509453394 486.83336554355628 0 0 0 0 -477.80208961606695 -384.88853882586409 0 -384.88853882586409 930.49817821076431 0 0 0 0 -453.13308619466261 -390.83204989161459 0 -390.83204989161459 750.26026198681211 0 0 0 0 710.94585252356774 154.48290747005376 0 154.48290747005376 778.12374723446192 0 0 0 0 922.23543191248609 -519.11644934184005 0 -519.11644934184005 801.54275554261403 0 0 0 0 1409.0109559027333 -184.53162942284689 0 -184.53162942284689 583.5950065087527 0 0 0 0 2326.8101172749448 -192.29057442510384 0 -192.29057442510384 424.18652665673289 0 0 0 0 2957.7469564129296 -1177.1356739450803 0 -1177.1356739450803 641.7621946187428 0 0 0 0 3352.072375658754 -50.110989158318262 0 -50.110989158318262 447.38912504252221 0 0 0 0 1132.329249082919 -123.79322986536863 0 -123.79322986536863 1153.953480417098 0 0 0 0 4061.9442599635477 1306.3458633484479 0 1306.3458633484479 716.32021941804851 0 0 0 0 1479.9143351163912 -1002.3680420524797 0 -1002.3680420524797 2097.2998803253577 0 0 0 0 -628.93848369063926 587.09762071801379 0 587.09762071801379 400.98166903466335 0 0 0 0 1.1196187224882204 0.49586343643318997 0 0.49586343643318997 0.70234342902283942 0 0 0 0 -14.702495716628619 -328.21689125710691 0 -328.21689125710691 166.21314223865193 0 0 0 0 5956.7142395950796 -1238.8307139454737 0 -1238.8307139454737 -36.608736401583883 0 0 0 0 2827.0629360460443 1544.6105301787902 0 1544.6105301787902 798.53792726679239 0 0 0 0 2051.1999487325666 1699.4741141509439 0 1699.4741141509439 769.90954510479787 0 0 0 0 4.0237957032388927 2.0807084148188046 0 2.0807084148188046 1.2884642946123179 0 0 0 0 2953.9583825249138 -917.29932623647619 0 -917.29932623647619 449.05833226097457 0 0 0 0 3208.5966309370269 -1179.8999168331211 0 -1179.8999168331211 532.92964766561636 0 0 0 0 3384.2542180699202 -368.15001753521574 0 -368.15001753521574 28.878502579289488 0 0 0 0 2586.2680852366884 -1092.8703778079507 0 -1092.8703778079507 1170.9862781325937 0 0 0 0 3214.0398854011437 -605.12217898246308 0 -605.12217898246308 890.2528642808611 0 0 0 0 2186.1440238006035 -872.45579163015645 0 -872.45579163015645 1004.8369915227231 0 0 0 0 2955.6965626564124 -2146.5871711682557 0 -2146.5871711682557 1401.052364911593 0 0 0 0 3518.6278047730011 -2435.7901645634847 0 -2435.7901645634847 1520.5000940319733 0 0 0 0 0.23028167680556955 -0.43465144834050662 0 -0.43465144834050662 -0.12273778212857456 0 0 0 0 3463.802861753793 -1372.7792763714388 0 -1372.7792763714388 687.12984450551448 0 0 0 0 4291.7495632705977 -1724.6971562522522 0 -1724.6971562522522 827.34492169268196 0 0 0 0 2618.3884740846484 -1795.3136502548032 0 -1795.3136502548032 1282.1241736913216 0 0 0 0 2635.7065801229473 -1280.4876167418697 0 -1280.4876167418697 857.21304607694037 0 0 0 0 2670.551929849491 -1304.1909700208053 0 -1304.1909700208053 873.2589462386677 0 0 0 0 1616.7933630226908 -675.29712865668989 0 -675.29712865668989 969.36454363388475 0 0 0 0 2433.3846351864631 -619.51556590660402 0 -619.51556590660402 765.48326854660991 0 0 0 0 1906.8864394390121 -591.08298767949645 0 -591.08298767949645 775.13597350177588 0 0 0 0 1119.7951401728496 -356.74803259738837 0 -356.74803259738837 970.08131400118873 0 0 0 0 1623.4427650694852 -810.03719963351614 0 -810.03719963351614 1082.768876016693 0 0 0 0 1937.8638754859803 -1151.255631790501 0 -1151.255631790501 1255.8155785597628 0 0 0 0 930.9298733061878 -252.00274015842297 0 -252.00274015842297 764.07124877245224 0 0 0 0 723.63907099671269 235.15103626786004 0 235.15103626786004 364.95084013583255 0 0 0 0 745.69532599215745 172.96208517678315 0 172.96208517678315 610.32197208830621 0 0 0 0 1360.8285462779459 -494.62700413663697 0 -494.62700413663697 842.00769948792004 0 0 0 0 1495.7526620763329 -148.84932016406128 0 -148.84932016406128 616.88934355429956 0 0 0 0 1126.2183604897909 18.546950687978097 0 18.546950687978097 491.48899183681351 0 0 0 0 765.93195316157653 -350.47727935430885 0 -350.47727935430885 787.91778654154041 0 0 0 0 1817.6868272734864 -819.59453235304682 0 -819.59453235304682 890.24155756794062 0 0 0 0 1912.0214403252212 -366.79700199735453 0 -366.79700199735453 701.14069593898603 0 0 0 0 2727.0488449238983 -993.39906198742392 0 -993.39906198742392 664.69726850738516 0 0 0 0 2501.0363820560888 -662.23853125536152 0 -662.23853125536152 487.29674480116228 0 0 0 0 1515.343830685888 -597.77821506533655 0 -597.77821506533655 525.46767656627344 0 0 0 0 1476.2012312109091 -138.68141812235262 0 -138.68141812235262 562.04567745269742 0 0 0 0 -23.588456254234188 107.53098088958359 0 107.53098088958359 758.59681745877242 0 0 0 0 -475.09628860261728 351.20681335711561 0 351.20681335711561 268.79700270107787 0 0 0 0 -414.5192848059487 -400.24084908643999 0 -400.24084908643999 160.78665568275028 0 0 0 0 812.44158743856678 -156.61322894872865 0 -156.61322894872865 201.58481035436853 0 0 0 0 -962.57821034624794 -110.82822683067934 0 -110.82822683067934 605.6482128325697 0 0 0 0 -1297.7913101885752 -482.03498937362019 0 -482.03498937362019 255.5712254261307 0 0 0 0 -1091.5068865606008 625.79702705334057 0 625.79702705334057 -922.76050517972908 0 0 0 0 -2455.4479186533936 -174.79618110995943 0 -174.79618110995943 137.73998396343086 0 0 0 0 -860.17150544073593 34.455032791804115 0 34.455032791804115 252.20621690992266 0 0 0 0 -436.13721859439829 480.87815264899109 0 480.87815264899109 -280.32113681774354 0 0 0 0 -1317.1094100796618 417.53392573358724 0 417.53392573358724 272.91454221837921 0 0 0 0 -1257.9961593928238 129.78992429372556 0 129.78992429372556 5.3544476680690423 0 0 0 0 164.41700356809451 224.95615363209799 0 224.95615363209799 617.36737536313012 0 0 0 0 543.63484326848265 -152.60367287590634 0 -152.60367287590634 585.46137256431393 0 0 0 0 64.37395569014916 -7.3884307823464042 0 -7.3884307823464042 80.057329880917678 0 0 0 0 -453.74949067804846 410.50647039584874 0 410.50647039584874 468.70375164096185 0 0 0 0 120.38793004500621 275.68335351996939 0 275.68335351996939 586.75295982716489 0 0 0 0 142.59822668140805 247.77089811273618 0 247.77089811273618 148.44066511635901 0 0 0 0 -152.51597552357998 678.03507844250998 0 678.03507844250998 240.50555792955493 0 0 0 0 -485.43044599414134 398.30242375148373 0 398.30242375148373 107.6239854443993 0 0 0 0 104.53815032941202 676.16512420686195 0 676.16512420686195 152.19977890892187 0 0 0 0 223.31024901150522 317.81939731921011 0 317.81939731921011 161.99469349495484 0 0 0 0 -644.29483842062473 601.69625306078524 0 601.69625306078524 173.42354979686934 0 0 0 0 -1108.9585965425067 221.24411719343334 0 221.24411719343334 -16.200337427086197 0 0 0 0 -954.72863903723919 558.70414079035982 0 558.70414079035982 5.9735177398251835 0 0 0 0 -0.18027248815568719 -0.75597960478241522 0 -0.75597960478241522 0.47195891977510485 0 0 0 0 -666.59129592179124 553.25717437816274 0 553.25717437816274 -148.01963683843496 0 0 0 0 -628.57835151294239 464.93513861728206 0 464.93513861728206 -26.229987247585086 0 0 0 0 -764.0890583110413 347.47463143758068 0 347.47463143758068 -93.466337192920037 0 0 0 0 -78.375209358822758 467.83006794194807 0 467.83006794194807 -81.413286066410365 0 0 0 0 -280.56687577685079 695.9398764600046 0 695.9398764600046 52.490723865248583 0 0 0 0 -196.98705323475951 496.70158905332937 0 496.70158905332937 -268.77601579981274 0 0 0 0 -399.98130974697415 597.61413285200251 0 597.61413285200251 -75.457094832105213 0 0 0 0 -23.181790904571244 678.71628646970203 0 678.71628646970203 -98.194939371634973 0 0 0 0 279.49630709050689 665.98654687510862 0 665.98654687510862 -120.27861404346913 0 0 0 0 190.63041199582585 494.02613335249043 0 494.02613335249043 -419.56680449779378 0 0 0 0 390.96842844295315 390.02244223869639 0 390.02244223869639 -15.247391952616454 0 0 0 0 741.93376215420722 482.82515957725991 0 482.82515957725991 -39.341308873124945 0 0 0 0 367.14374717836654 379.38141980189903 0 379.38141980189903 -67.58461391160381 0 0 0 0 733.75547937076772 664.47215050880914 0 664.47215050880914 -853.88477004659308 0 0 0 0 635.16309310056022 -112.72519994447066 0 -112.72519994447066 419.37101702083601 0 0 0 0 343.56157414395784 749.71633269790982 0 749.71633269790982 204.40195678040618 0 0 0 0 478.94067230152723 72.346489332441706 0 72.346489332441706 866.83199776105175 0 0 0 0 1097.9467193569435 16.42372472336865 0 16.42372472336865 649.35518240739475 0 0 0 0 889.86029281533411 -491.74553314102013 0 -491.74553314102013 1887.6940085659735 0 0 0 0 2037.1254051110591 -1369.0477886618173 0 -1369.0477886618173 1494.8990632616915 0 0 0 0 1969.7278296048171 -902.55941742460709 0 -902.55941742460709 1249.3831090706663 0 0 0 0 1696.031769975074 -748.23375331168063 0 -748.23375331168063 1094.9625158156268 0 0 0 0 880.054133691272 -279.25707718178455 0 -279.25707718178455 1284.7187413956271 0 0 0 0 1217.8355786570464 -299.5595102540974 0 -299.5595102540974 810.55732016285765 0 0 0 0 784.69023589052813 281.54354477628294 0 281.54354477628294 675.69888007736881 0 0 0 0 319.46200885283179 504.21285426396935 0 504.21285426396935 482.20408358218629 0 0 0 0 703.58062273876567 72.30072018460487 0 72.30072018460487 428.97818656565505 0 0 0 0 386.12572959918907 526.91306347001228 0 526.91306347001228 402.50712460148497 0 0 0 0 707.63571660652087 124.14966769407329 0 124.14966769407329 429.1235999262426 0 0 0 0 -2.0231429869309068 -2.6165096227196045 0 -2.6165096227196045 3.5984365172189428 0 0 0 0 -1.7049843656313897 -2.4361152513229172 0 -2.4361152513229172 2.0365566763939569 0 0 0 0 -2.1630514032021892 -0.73501090655463486 0 -0.73501090655463486 1.4094739885331364 0 0 0 0 -4.5085802425598605 -6.7391219966503844 0 -6.7391219966503844 4.2626610780409653 0 0 0 0 -21.449778772486752 -39.055304229070316 0 -39.055304229070316 -4.2020795392963919 0 0 0 0 -36.787109676995442 13.590604786455515 0 13.590604786455515 17.275887112653436 0 0 0 0 -71.44273232920159 -22.750144521894981 0 -22.750144521894981 14.25000185801764 0 0 0 0 -25.068759266599201 2.6931816277469807 0 2.6931816277469807 25.308437740211957 0 0 0 0 -26.308303627513396 8.0645640079455916 0 8.0645640079455916 15.389247034225264 0 0 0 0 -1.957364789879648 -2.3464045108485152 0 -2.3464045108485152 2.7743145623389864 0 0 0 0 -4.6426617056143993 -5.3021358045874143 0 -5.3021358045874143 5.7917995888251923 0 0 0 0 -13.952024393855936 4.9403785206159228 0 4.9403785206159228 -2.4569984722911613 0 0 0 0 -11.918961663613572 7.5363144311122596 0 7.5363144311122596 -5.9840792686609348 0 0 0 0 45.787313175234885 46.013056194449746 0 46.013056194449746 26.338710979835014 0 0 0 0 -5.3940601678596067 48.266527173778741 0 48.266527173778741 41.739787933998741 0 0 0 0 -59.545592548578952 -3.2176394369962509 0 -3.2176394369962509 57.3659159882518 0 0 0 0 13.284911286736133 8.1582810200106906 0 8.1582810200106906 -9.2419973476207815 0 0 0 0 -0.49364628086507611 -0.10785652020045777 0 -0.10785652020045777 0.25410793332802584 0 0 0 0 -739.62293260113256 58.315827026504849 0 58.315827026504849 471.83053883036337 0 0 0 0 -1630.472461366187 522.86689816031685 0 522.86689816031685 230.39129001765104 0 0 0 0 -0.63267316530399498 0.27396091157947566 0 0.27396091157947566 0.16540952385014407 0 0 0 0 -12.753068270163567 6.5114340728177922 0 6.5114340728177922 -1.0504738882518723 0 0 0 0 -1.2161619248301356 0.084095312101404751 0 0.084095312101404751 0.54536638673989302 0 0 0 0 -84.433397890676133 169.94470664577966 0 169.94470664577966 -367.68957544386649 0 0 0 0 -5.8264886352436625 1.8912634745204704 0 1.8912634745204704 4.724154412626616 0 0 0 0 -15.906445813161554 7.20626412735146 0 7.20626412735146 -3.185307966741675 0 0 0 0 -1215.7569703927256 258.49327027968684 0 258.49327027968684 155.34601246821694 0 0 0 0 6.1420928916722914 -18.517916628723469 0 -18.517916628723469 10.534011944138911 0 0 0 0 4.4534387522271572 -14.600821780775732 0 -14.600821780775732 16.939991556952009 0 0 0 0 -0.33204260962795562 -2.0075069747030598 0 -2.0075069747030598 1.125158932931754 0 0 0 0 -11.506892667555803 -5.328707123931963 0 -5.328707123931963 43.432603585315519 0 0 0 0 -7.8453800058218803 5.7406676159498602 0 5.7406676159498602 5.0814996738627087 0 0 0 0 87.152238859529461 -81.414403180009685 0 -81.414403180009685 -30.222222078213235 0 0 0 0 22.164666286098509 -25.673574298634776 0 -25.673574298634776 4.7768048214784358 0 0 0 0 5.3007374602166237 -9.8665406605869066 0 -9.8665406605869066 37.779274983797222 0 0 0 0 -0.055805278459976293 -0.34752845119364117 0 -0.34752845119364117 0.61693201540746401 0 0 0 0 -0.18407549747735175 -11.220024853748328 0 -11.220024853748328 20.499977692801622 0 0 0 0 21.980838012896811 -13.699702256901787 0 -13.699702256901787 -2.2145764835004229 0 0 0 0 -1.2550464334781282 -33.510370337142376 0 -33.510370337142376 49.87452026840765 0 0 0 0 -2.4984661873433645 -5.7283070868226567 0 -5.7283070868226567 6.3833755926380729 0 0 0 0 -0.46591637897853388 -0.30190306787741505 0 -0.30190306787741505 0.60374355033329152 0 0 0 0 -0.97209290930186398 -2.4973212851618882 0 -2.4973212851618882 3.4874659975030227 0 0 0 0 -1.791690238067531 -2.7878927534547984 0 -2.7878927534547984 3.4338667108822847 0 0 0 0 -15.726910151389347 10.016092058591312 0 10.016092058591312 -5.5832510358250147 0 0 0 0 -4.2788549831751492 -3.8826072003027701 0 -3.8826072003027701 6.9397932798404174 0 0 0 0 -1.7835662757715909 -2.9948356462045922 0 -2.9948356462045922 3.5237499597278656 0 0 0 0 -2.0668928900558967 -3.076127815322252 0 -3.076127815322252 3.5226557419227902 0 0 0 0 -1.9075293335845345 -3.4479474065592512 0 -3.4479474065592512 3.0912974332495651 0 0 0 0 -1.5649873019428924 -3.0902531374958926 0 -3.0902531374958926 3.2457500612363219 0 0 0 0 -1.9826597120688243 -2.8896822918912273 0 -2.8896822918912273 1.5731582285881345 0 0 0 0 -0.69860285158048008 -4.6374808791293329 0 -4.6374808791293329 7.3799889491796904 0 0 0 0 -2.1860230498423334 -3.2435951938532526 0 -3.2435951938532526 3.1842063096628408 0 0 0 0 -2.3863417332759127 -3.6359204243053682 0 -3.6359204243053682 3.6310010270535713 0 0 0 0 -3.0823143469460774 -4.872542010518373 0 -4.872542010518373 3.835636892094044 0 0 0 0 -2.157282522006426 -2.7353809763662866 0 -2.7353809763662866 -0.55161511573533062 0 0 0 0 -2.2926255521306302 -2.5746969864703715 0 -2.5746969864703715 5.1635926497910987 0 0 0 0 -1.1377572395867901 -2.8014162432518788 0 -2.8014162432518788 4.0322944685758557 0 0 0 0 -0.14830783920115209 -2.5486362566098251 0 -2.5486362566098251 3.8901021979108918 0 0 0 0 -2.0393624832486239 -2.9343100048572524 0 -2.9343100048572524 4.0694932354672346 0 0 0 0 -1.6533931577505427 -2.8014529915963067 0 -2.8014529915963067 3.362972831382649 0 0 0 0 -0.78512139992017183 -3.4160904159471102 0 -3.4160904159471102 3.8659208446042612 0 0 0 0 -1.6691461939844885 -2.7742988473692094 0 -2.7742988473692094 4.0986372368788579 0 0 0 0 -61.554933761114626 -11.676971271623643 0 -11.676971271623643 16.588776789998519 0 0 0 0 10.722505885816645 44.307623544053058 0 44.307623544053058 -50.600204576985561 0 0 0 0 -10.193848454233375 78.920370321055088 0 78.920370321055088 -77.66068808041382 0 0 0 0 -2.0436898404823296 0.52413848628774251 0 0.52413848628774251 2.1243066892647136 0 0 0 0 -74.467180059102247 56.786053166320926 0 56.786053166320926 -16.223260126702371 0 0 0 0 -38.781520899559837 33.614377245859941 0 33.614377245859941 41.314505981375987 0 0 0 0 -5.8649203875768965 1.0284066834873111 0 1.0284066834873111 -2.9054858773311221 0 0 0 0 -2.2336541178665357 -17.516953250604274 0 -17.516953250604274 8.0635260082635796 0 0 0 0 5.4890912932605715 -9.7533060843561543 0 -9.7533060843561543 -17.714795367472107 0 0 0 0 0.014633682564424433 -0.072402152110411677 0 -0.072402152110411677 0.0088409399565514413 0 0 0 0 -3.302995208322157 0.26819527728272341 0 0.26819527728272341 -1.5031965247651047 0 0 0 0 -2.6043565310537815 -1.3711983090179274 0 -1.3711983090179274 2.4844522799539845 0 0 0 0 27.202353333283099 -7.2861299657124619 0 -7.2861299657124619 14.700385811920569 0 0 0 0 -34.547070273380086 38.838774413288775 0 38.838774413288775 -44.948636372027522 0 0 0 0 2.0518067873490509 49.878073894331465 0 49.878073894331465 -43.434542046401475 0 0 0 0 -46.452209349961777 34.317994185596035 0 34.317994185596035 10.838706325557723 0 0 0 0 30.127454538000165 36.564309250588849 0 36.564309250588849 10.726514286914608 0 0 0 0 -34.094098351339198 31.466986193310731 0 31.466986193310731 79.332426977991418 0 0 0 0 1.6692930911667645 63.522800725528214 0 63.522800725528214 -57.21833349946246 0 0 0 0 -37.938164004182909 -3.821369742785464 0 -3.821369742785464 101.20147715265193 0 0 0 0 4.522881457087351 -25.484898938579136 0 -25.484898938579136 30.740177453764773 0 0 0 0 -6.2698622341402688 1.4779625522864421 0 1.4779625522864421 0.42558785670641397 0 0 0 0 -126.96508376303245 24.273504690965638 0 24.273504690965638 75.223251191244344 0 0 0 0 -2.8372219824392095 2.2619115249297765 0 2.2619115249297765 0.32871131154540656 0 0 0 0 -34.774438277745503 -30.364366019108274 0 -30.364366019108274 99.25671658317151 0 0 0 0 4.8357221047226631 -27.665647317859111 0 -27.665647317859111 6.1892417971757823 0 0 0 0 -30.774603773657873 64.069768473578733 0 64.069768473578733 96.688728022338182 0 0 0 0 -36.600043362768702 -36.360645747738999 0 -36.360645747738999 176.64492570036236 0 0 0 0 -14.574201299243214 -13.645876270813005 0 -13.645876270813005 46.34198867669329 0 0 0 0 2.7986132418591296 17.980660242734302 0 17.980660242734302 -247.33182518165995 0 0 0 0 -15.353244746362179 31.009188519759846 0 31.009188519759846 -75.449186399302562 0 0 0 0 -53.579527330453857 68.113373109445092 0 68.113373109445092 -13.414284296661208 0 0 0 0 11.97801164444536 61.908437588892411 0 61.908437588892411 -125.8272492812539 0 0 0 0 -93.284383840116789 48.777813347267511 0 48.777813347267511 -126.04189398627932 0 0 0 0 -1043.0515593347009 -203.70813010315396 0 -203.70813010315396 1077.7043852350216 0 0 0 0 2.3546451932866477 -0.30424001737147321 0 -0.30424001737147321 -3.160262323584901 0 0 0 0 236.16865209310345 -245.34085797182343 0 -245.34085797182343 40.565845589611854 0 0 0 0 497.28212415480812 328.33793186068942 0 328.33793186068942 231.72641337898312 0 0 0 0 1001.2297617809818 -50.135955291989376 0 -50.135955291989376 -625.41202391400475 0 0 0 0 689.19899058340889 137.08742158143923 0 137.08742158143923 -299.37133816206915 0 0 0 0 26.369338111195248 -101.18108403073711 0 -101.18108403073711 -260.88967953589599 0 0 0 0 54.661261118340917 75.490922274466357 0 75.490922274466357 -48.384406461154867 0 0 0 0 2.2535262134697405 21.4556574090293 0 21.4556574090293 -126.29978236038733 0 0 0 0 4.5178307451381174 0.25084906031601051 0 0.25084906031601051 -4.9995838880768222 0 0 0 0 18.531969579125871 59.763837985934515 0 59.763837985934515 -187.30011824755275 0 0 0 0 -6.0123510366174742 112.26434509212595 0 112.26434509212595 -203.49888179332629 0 0 0 0 -54.053426802507602 65.518410072931147 0 65.518410072931147 -57.289725892692331 0 0 0 0 -11.307883016426786 5.8075446087286764 0 5.8075446087286764 -63.475188385724323 0 0 0 0 -8.3395231884314853 4.6497090962802758 0 4.6497090962802758 -91.906587647550623 0 0 0 0 -29.270894420347759 -34.916576458483178 0 -34.916576458483178 -97.016522736303159 0 0 0 0 -12.530276347824838 -12.640500857774896 0 -12.640500857774896 -59.481919577614462 0 0 0 0 -12.675507226711488 -17.853493331767822 0 -17.853493331767822 -79.547413640724699 0 0 0 0 -3.5146897084268858 9.6948614737921162 0 9.6948614737921162 -64.643998854725396 0 0 0 0 -1.0362810781734879 -3.7337239768039581 0 -3.7337239768039581 -49.026870574576606 0 0 0 0 -2.3451483785902383 -9.5371502488815167 0 -9.5371502488815167 -69.703577807464171 0 0 0 0 6.6031566128222039 -3.5259774305814062 0 -3.5259774305814062 -42.69696762777312 0 0 0 0 6.3683496929006651 -1.1210202290749294 0 -1.1210202290749294 -56.626298609990044 0 0 0 0 3.4798414256074466 2.1178810199126019 0 2.1178810199126019 -47.071528759359353 0 0 0 0 -3.5076010404591216 6.4726715358374349 0 6.4726715358374349 -47.706129778765899 0 0 0 0 2.118403639702592 15.730082775477058 0 15.730082775477058 -69.402126930122904 0 0 0 0 0.4787916130208032 21.699958995296583 0 21.699958995296583 -54.325396265747258 0 0 0 0 -44.740540264967422 43.747290379602418 0 43.747290379602418 -107.03165333696961 0 0 0 0 6.6292943667252748 0.96672873148725191 0 0.96672873148725191 -6.9007470983014318 0 0 0 0 4.7439737371613271 2.5470480066072252 0 2.5470480066072252 -0.37565077742529507 0 0 0 0 35.865239125443622 -50.158888492626829 0 -50.158888492626829 42.703576668092865 0 0 0 0 -35.668401687020378 -44.542982862669305 0 -44.542982862669305 220.51187162980932 0 0 0 0 365.31881026490009 171.87290650704381 0 171.87290650704381 -832.77568364524586 0 0 0 0 366.65086063427339 -113.03941642076799 0 -113.03941642076799 -2011.7694154405617 0 0 0 0 -12.309174768743105 426.51011605066742 0 426.51011605066742 -418.30834150228338 0 0 0 0 310.50564154025597 102.81456160893504 0 102.81456160893504 -919.0463171863812 0 0 0 0 3.8961850312261959 465.75941949250046 0 465.75941949250046 -392.8647824380605 0 0 0 0 -86.008050806936808 365.39091322321474 0 365.39091322321474 -503.15641612351465 0 0 0 0 -212.86086870965664 489.14501315157395 0 489.14501315157395 -269.94512816523275 0 0 0 0 -393.69491186231971 331.21576241117145 0 331.21576241117145 -181.81478266697377 0 0 0 0 -56.349821059913666 168.70178830479563 0 168.70178830479563 -256.22021077771205 0 0 0 0 64.017020435770974 20.182102324128209 0 20.182102324128209 50.404025538387941 0 0 0 0 63.308559483499153 -46.741079865088437 0 -46.741079865088437 63.028707534598652 0 0 0 0 -5.8294887021329487 -22.420735607025563 0 -22.420735607025563 77.481883256172296 0 0 0 0 -40.047323664723081 64.596820363956795 0 64.596820363956795 38.879580631746649 0 0 0 0 -57.486946305180027 -55.71747373224207 0 -55.71747373224207 245.15402463032115 0 0 0 0 -17.732006276572065 50.048169379664614 0 50.048169379664614 118.60358242279472 0 0 0 0 0.8707928037783228 2.6280127504797077 0 2.6280127504797077 0.062186776222195039 0 0 0 0 -15.587821319619252 -17.42729613346819 0 -17.42729613346819 -40.782891444665438 0 0 0 0 -32.025430159148527 98.728440361966932 0 98.728440361966932 -117.62993086694769 0 0 0 0 -16.396244812566238 0.21274585096102783 0 0.21274585096102783 -128.45086690604512 0 0 0 0 -41.147236385004362 74.627771082225081 0 74.627771082225081 -36.46642101807447 0 0 0 0 -36.653182202077005 98.471126283569902 0 98.471126283569902 -114.17389485401145 0 0 0 0 4.1817097297025612 34.796474134658638 0 34.796474134658638 -146.37880464522459 0 0 0 0 -2151.9439081391392 558.38769296083956 0 558.38769296083956 894.090658724268 0 0 0 0 8.1538801863280241 131.40577215740268 0 131.40577215740268 -314.11738054175294 0 0 0 0 -110.74600048191496 115.67346892367277 0 115.67346892367277 -162.21817131763692 0 0 0 0 0.67043261921543085 -0.30882301959652603 0 -0.30882301959652603 -1.1511323636575426 0 0 0 0 34.44928997214447 168.70164251139795 0 168.70164251139795 -415.68418887711596 0 0 0 0 -67.428242040325131 -5.6651015055185781 0 -5.6651015055185781 -239.29831891947833 0 0 0 0 -64.33376415842622 139.98857408987897 0 139.98857408987897 90.375541821282241 0 0 0 0 -74.260727754503023 219.64393771691175 0 219.64393771691175 -151.35804084166011 0 0 0 0 8.6375941842670727 -10.447744374081594 0 -10.447744374081594 22.450194790064415 0 0 0 0 -34.406475626488827 64.236229638827353 0 64.236229638827353 3.6570874148455914 0 0 0 0 -1.9089531660065404 14.026916095190245 0 14.026916095190245 73.664972544098418 0 0 0 0 -51.470743107127419 70.092137612578881 0 70.092137612578881 -4.5369663111996488 0 0 0 0 -75.807924076103518 94.155063547743339 0 94.155063547743339 3.1411286801421738 0 0 0 0 -21.589791921415781 -130.02329144871692 0 -130.02329144871692 44.187577492790297 0 0 0 0 -110.91016596314694 34.879916976100503 0 34.879916976100503 88.9005929484847 0 0 0 0 54.796219413611652 -19.575073053544656 0 -19.575073053544656 176.14354733117943 0 0 0 0 5.910841057014629 7.3713221441536732 0 7.3713221441536732 0.93324268175896385 0 0 0 0 -25.370156469969061 -5.1438593451275665 0 -5.1438593451275665 4.8540069996524835 0 0 0 0 93.0772041000846 -136.54516265220809 0 -136.54516265220809 90.952252643446627 0 0 0 0 -6.9878625059214983 -71.433725818536573 0 -71.433725818536573 126.79430391543428 0 0 0 0 28.866362181228396 -47.488919590494334 0 -47.488919590494334 134.40904133638105 0 0 0 0 1.6348524554910897 0.158197596092295 0 0.158197596092295 -4.1111773801454348 0 0 0 0 -339.50019027580129 -288.08756581087073 0 -288.08756581087073 -246.36003822899511 0 0 0 0 8.8213574454086192 1.9918706127724093 0 1.9918706127724093 -0.99770125495020512 0 0 0 0 -667.27531846729835 -1210.5733153604378 0 -1210.5733153604378 -199.27662865936873 0 0 0 0 6005.0698922532611 2234.575893297384 0 2234.575893297384 842.4712805087911 0 0 0 0 4221.797833472534 -4200.5887628588243 0 -4200.5887628588243 7681.443615367345 0 0 0 0 5777.2547489381104 -3854.3434334456106 0 -3854.3434334456106 -1034.1204002663144 0 0 0 0 1435.0314738888628 -337.21469412631996 0 -337.21469412631996 2747.9960038255958 0 0 0 0 -2521.118488612623 4318.7991481690733 0 4318.7991481690733 518.8345887727919 0 0 0 0 1957.0911557090003 -1364.7429651092243 0 -1364.7429651092243 -3298.6469034456823 0 0 0 0 111.04990363044908 -725.81058850468253 0 -725.81058850468253 1549.8557583891961 0 0 0 0 446.54334275700967 -813.91914529632049 0 -813.91914529632049 160.91835877316771 0 0 0 0 2.332237421890909 -3.153690227321146 0 -3.153690227321146 -0.29075056251995246 0 0 0 0 -199.60369415762761 -1432.4583943086182 0 -1432.4583943086182 4867.8401558955375 0 0 0 0 1054.0976263290067 641.34842855051102 0 641.34842855051102 397.38132446901727 0 0 0 0 3204.115270323894 -3137.8480691513505 0 -3137.8480691513505 1079.3463093577884 0 0 0 0 270.49196874291374 94.377654635078216 0 94.377654635078216 -105.80496172453422 0 0 0 0 3.6309760279234675 -1.4500648267487826 0 -1.4500648267487826 0.36218507435672187 0 0 0 0 2655.9157349996312 -350.11973893084723 0 -350.11973893084723 -3022.3001505132925 0 0 0 0 385.16339070807589 -1840.8790898601255 0 -1840.8790898601255 1278.4403845756678 0 0 0 0 -445.46765284091271 -1497.4723326528692 0 -1497.4723326528692 1324.9471824618558 0 0 0 0 413.34234831311733 393.81272330783759 0 393.81272330783759 287.76004027395538 0 0 0 0 1.7668708328029281 -1.2360899603994557 0 -1.2360899603994557 -0.14759006154985954 0 0 0 0 52.243609719389497 -67.458983414324393 0 -67.458983414324393 48.702026136135828 0 0 0 0 4.427170504746675 5.0421882393278024 0 5.0421882393278024 -0.39591611761431089 0 0 0 0 83.06432475418751 203.6902679060895 0 203.6902679060895 163.46203956659156 0 0 0 0 1574.3807358959966 -143.15177533712267 0 -143.15177533712267 57.358688882093247 0 0 0 0 452.3542926154405 183.99895245493099 0 183.99895245493099 41.994703363860026 0 0 0 0 73.405931260116631 -398.73812537282356 0 -398.73812537282356 1804.7118374127094 0 0 0 0 825.24879783771394 -1123.3499229717399 0 -1123.3499229717399 1012.3379785209545 0 0 0 0 84.561606635208591 -823.36707815452246 0 -823.36707815452246 1217.8944757074496 0 0 0 0 124.86729312266107 -757.26511807564384 0 -757.26511807564384 735.70495006049896 0 0 0 0 157.57685532017786 -539.78011862081621 0 -539.78011862081621 573.60865131134415 0 0 0 0 -63.968500696741103 -727.65081827844188 0 -727.65081827844188 907.01993285987555 0 0 0 0 -66.886212421450182 -603.82257883224156 0 -603.82257883224156 947.34170696350338 0 0 0 0 74.036798159126192 -520.94169239042822 0 -520.94169239042822 515.43266803807637 0 0 0 0 234.8764710049727 -409.83351827742445 0 -409.83351827742445 581.73223958568997 0 0 0 0 -0.01978076892027758 -0.50896625625494352 0 -0.50896625625494352 -0.61449145761327006 0 0 0 0 -80.944375101636979 -127.45271845067327 0 -127.45271845067327 -120.78949150968583 0 0 0 0 -147.48772205501155 -21.655504727816151 0 -21.655504727816151 109.9124368949997 0 0 0 0 -84.667234854319759 -162.96183521764397 0 -162.96183521764397 780.00621607973881 0 0 0 0 217.01205450572888 190.16441580175888 0 190.16441580175888 233.11236404444207 0 0 0 0 -16.192479750607163 15.98752383061219 0 15.98752383061219 111.43638371373527 0 0 0 0 56.045177823398262 144.24375578429317 0 144.24375578429317 -90.831283777471981 0 0 0 0 -18.536869879838378 94.28363783959071 0 94.28363783959071 -58.060859921184601 0 0 0 0 1835.2538873331432 -1091.6814787592521 0 -1091.6814787592521 524.11631344712805 0 0 0 0 920.52965489513736 394.50609142796748 0 394.50609142796748 892.51094259056845 0 0 0 0 297.18136685093759 -134.06404191596448 0 -134.06404191596448 450.61891411332181 0 0 0 0 83.209020452050027 -147.03833932676935 0 -147.03833932676935 -199.45056497864425 0 0 0 0 801.06032355041316 -359.27289138302876 0 -359.27289138302876 -321.8173588309146 0 0 0 0 325.38760419606115 203.80749365007796 0 203.80749365007796 109.5282102485362 0 0 0 0 84.536076573043829 -253.56386054327595 0 -253.56386054327595 607.65432749209867 0 0 0 0 -476.26139006968879 -386.17028853138618 0 -386.17028853138618 -221.0823692900376 0 0 0 0 0.30854380385569691 -1.1866405929824886 0 -1.1866405929824886 -0.77483722116587472 0 0 0 0 -212.46635594886175 -672.67156570225779 0 -672.67156570225779 511.61990997539806 0 0 0 0 7.1665999352249541 -8.5944060486747134 0 -8.5944060486747134 -1.3627223703333495 0 0 0 0 6.3313957525388105 -20.311440709214367 0 -20.311440709214367 -34.350094096706016 0 0 0 0 238.13698390379432 -157.79322088900517 0 -157.79322088900517 -386.01229140926444 0 0 0 0 -6.6751990369300778 -18.108278834088111 0 -18.108278834088111 1.3344834217190407 0 0 0 0 -9.8428672776281019 -8.1086672714554879 0 -8.1086672714554879 8.7829334932175698 0 0 0 0 -16.774799454469758 -5.0803335292002885 0 -5.0803335292002885 -1.2152400281702285 0 0 0 0 -1.0150396216922672 -9.7491325647424674 0 -9.7491325647424674 -3.4005946238903562 0 0 0 0 0.26563694208236832 -0.060759922061545346 0 -0.060759922061545346 -0.13323666720739702 0 0 0 0 -0.53736477243364789 -21.679261008888716 0 -21.679261008888716 -16.445807206695463 0 0 0 0 11.913764511369878 -5.4812049901368241 0 -5.4812049901368241 -7.2354253237623176 0 0 0 0 7.7913975631236099 -16.967779662732937 0 -16.967779662732937 -26.942783575301291 0 0 0 0 31.307230156598962 -41.190635092954835 0 -41.190635092954835 0.22256155771901831 0 0 0 0 17.155956219842729 -11.478234386833678 0 -11.478234386833678 -13.392679742324734 0 0 0 0 -83.042583446091157 75.07013758335961 0 75.07013758335961 -52.802127415619907 0 0 0 0 96.526757378887851 -39.532708616112359 0 -39.532708616112359 -21.208046336309053 0 0 0 0 -0.56685189623084398 -1.3172035258370425 0 -1.3172035258370425 0.39829822624080746 0 0 0 0 21.122629544181109 35.493674800309236 0 35.493674800309236 -232.35486532235518 0 0 0 0 1.8157099503366911 -19.716043941589444 0 -19.716043941589444 -0.35570266438438036 0 0 0 0 2.8423970282747177 -7.1804843526624609 0 -7.1804843526624609 1.1885923207664746 0 0 0 0 1.9733005303060054 -6.7205589458753821 0 -6.7205589458753821 0.48448030971485423 0 0 0 0 2.1699600900101359 -4.8643903326774307 0 -4.8643903326774307 -5.9169543640746269 0 0 0 0 -3.2545157706335885 -13.512771690016962 0 -13.512771690016962 -4.6223766183948101 0 0 0 0 24.80794696364319 -56.628936240253097 0 -56.628936240253097 25.72126694844701 0 0 0 0 47.808142594542005 -48.40020447446841 0 -48.40020447446841 -13.982581362739438 0 0 0 0 11.31368698636652 -8.5281229993706802 0 -8.5281229993706802 -3.4147540563135408 0 0 0 0 1.805088031184404 -16.143282791863221 0 -16.143282791863221 -2.6559068478864525 0 0 0 0 3.9358032603169484 -15.095839430625015 0 -15.095839430625015 -1.2400338661326984 0 0 0 0 51.814793095225468 -31.556614513319801 0 -31.556614513319801 -30.03335563789733 0 0 0 0 2.3431677621993003 -11.681435473266902 0 -11.681435473266902 -0.87044415898708394 0 0 0 0 -3.0596601930519682 -8.1410386573861615 0 -8.1410386573861615 -0.87796884671115549 0 0 0 0 14.356404161109822 -9.8906808381580049 0 -9.8906808381580049 -5.0271531475373195 0 0 0 0 1.8762458338685484 -15.58125363585831 0 -15.58125363585831 -3.5994746023291047 0 0 0 0 21.447280867787121 -18.053847358463759 0 -18.053847358463759 -5.1862627553898406 0 0 0 0 7.7795700666029006 -23.259778813735466 0 -23.259778813735466 43.232769348527654 0 0 0 0 -4.8701829958517919 -19.8903682801174 0 -19.8903682801174 -16.035811447622109 0 0 0 0 1.7622136634266781 -16.335296098795922 0 -16.335296098795922 -7.3977589805994182 0 0 0 0 5.435399434974757 -14.818669656682307 0 -14.818669656682307 -8.047127062457772 0 0 0 0 3.3713210343667015 -7.0180981428275118 0 -7.0180981428275118 -1.2325299670046661 0 0 0 0 -4.1038013279586902 -3.5704280192046971 0 -3.5704280192046971 -1.0521123569238853 0 0 0 0 -5.2216831276891753 -9.5509270106958866 0 -9.5509270106958866 0.51373829184740316 0 0 0 0 29.001928859241161 -15.961121996326256 0 -15.961121996326256 -5.4035248359432444 0 0 0 0 -0.078764775171735302 0.16601229083765556 0 0.16601229083765556 0.10077026402307254 0 0 0 0 -0.92634583890868694 -10.997939157159024 0 -10.997939157159024 -0.017260085884365561 0 0 0 0 -7.3795395850866043 -7.7108044067608716 0 -7.7108044067608716 0.31593245946714887 0 0 0 0 7.5244350267312257 -8.605471504451998 0 -8.605471504451998 -0.95235348643836915 0 0 0 0 -9.9674473708090687 -15.185212075701951 0 -15.185212075701951 -0.28450917142207233 0 0 0 0 -4.5602057590549521 -34.716605126650393 0 -34.716605126650393 2.4135552904917859 0 0 0 0 -0.91343857350148028 -7.4932265484385425 0 -7.4932265484385425 1.92114141357888 0 0 0 0 3.1581446306255487 -8.2416952068205234 0 -8.2416952068205234 3.099025580858159 0 0 0 0 1.9631284651040914 -27.217119558095874 0 -27.217119558095874 -13.597077792102937 0 0 0 0 -9.7284202254886623 -25.203680099861231 0 -25.203680099861231 -13.920316783624003 0 0 0 0 23.922879955425742 -25.96268619413604 0 -25.96268619413604 -21.15355712021119 0 0 0 0 -3.1561460861703381 -35.05282133052242 0 -35.05282133052242 -0.20553824187118153 0 0 0 0 -9.5632557529916085 -6.2318629198452982 0 -6.2318629198452982 53.611156627419405 0 0 0 0 -95.794700331578497 -94.697066569526214 0 -94.697066569526214 96.199955623167625 0 0 0 0 -11.747866168749169 -76.850514199322788 0 -76.850514199322788 9.4531983865017537 0 0 0 0 22.855564580793725 -25.961550300693489 0 -25.961550300693489 0.091642113111447543 0 0 0 0 6.0827577961722046 -16.142031111604577 0 -16.142031111604577 -7.8663879465759603 0 0 0 0 -10.497145823494066 -20.603608276636805 0 -20.603608276636805 -51.272523728440319 0 0 0 0 49.010051919991383 -33.362105165688263 0 -33.362105165688263 -56.545158054650528 0 0 0 0 12.901082632589342 -15.319255764677361 0 -15.319255764677361 -12.463591937635575 0 0 0 0 -11.118873885032372 -29.38868506369181 0 -29.38868506369181 -32.014848802995402 0 0 0 0 8.8189334562237356 -10.957471880060666 0 -10.957471880060666 -10.788332142534745 0 0 0 0 -41.012445865111658 1.3858491025457624 0 1.3858491025457624 -63.442840190190509 0 0 0 0 78.43218514239561 2.6106545269794879 0 2.6106545269794879 -93.088897110312246 0 0 0 0 2704.3040916023656 -1900.0860042471613 0 -1900.0860042471613 1439.7581001842336 0 0 0 0 -5.1234105412921354 -3.0973949959766109 0 -3.0973949959766109 6.1865918386767973 0 0 0 0 -142.11362709420064 19.696628649326158 0 19.696628649326158 78.847682707826607 0 0 0 0 -165.93363847828005 -30.171238602240919 0 -30.171238602240919 241.65721308026696 0 0 0 0 2731.7614271467974 -1807.8662670485137 0 -1807.8662670485137 1092.7325152042031 0 0 0 0 -11.593735618567734 -30.996472706567147 0 -30.996472706567147 -31.91798957894207 0 0 0 0 -144.15260635192681 -124.50541731476551 0 -124.50541731476551 538.83438762556762 0 0 0 0 2460.8302747379057 -1771.4217088844525 0 -1771.4217088844525 2032.5437111917417 0 0 0 0 2017.2081061095523 -1346.6566699685645 0 -1346.6566699685645 1708.5411479430622 0 0 0 0 2563.6064621343103 -1685.4592409643228 0 -1685.4592409643228 1177.8481612787582 0 0 0 0 -0.76323697751650776 -1.096188732787267 0 -1.096188732787267 -0.96425269363479771 0 0 0 0 -10.809283025140758 -37.405981648189481 0 -37.405981648189481 -36.13131177626201 0 0 0 0 -75.597031772413175 36.720591394798248 0 36.720591394798248 154.00095268411678 0 0 0 0 -2.9182055817364017 -61.842323977441993 0 -61.842323977441993 35.533162706240546 0 0 0 0 -110.06380646856269 -139.64216603679233 0 -139.64216603679233 -45.348865688138176 0 0 0 0 -70.549211802514037 -109.37632460347959 0 -109.37632460347959 -77.628979495188105 0 0 0 0 -194.36169976209931 -107.38838629300881 0 -107.38838629300881 200.86193405497033 0 0 0 0 220.29291683522752 -175.91608802208793 0 -175.91608802208793 -349.62689056713134 0 0 0 0 -225.3822841223664 155.86593369666662 0 155.86593369666662 -235.6868379140833 0 0 0 0 -433.01145246727538 -206.18395376472472 0 -206.18395376472472 -53.179032047803048 0 0 0 0 5106.7460992466731 -1162.8099586198441 0 -1162.8099586198441 734.35978741408326 0 0 0 0 1894.3290002440335 -1085.2841148102307 0 -1085.2841148102307 2172.5843295801023 0 0 0 0 2300.2709300655406 -1429.2038617025537 0 -1429.2038617025537 1670.3378355481836 0 0 0 0 2303.871039883481 -1351.1171651669902 0 -1351.1171651669902 2585.7643656140717 0 0 0 0 2703.8040013367281 -436.62628693832085 0 -436.62628693832085 2489.4454134098814 0 0 0 0 1622.2825575566967 -1131.9065867961326 0 -1131.9065867961326 1852.8249824766099 0 0 0 0 2572.5219462700261 -870.31575031101966 0 -870.31575031101966 1562.3434109771624 0 0 0 0 499.77935253856413 145.71018161669781 0 145.71018161669781 972.02564615341544 0 0 0 0 2261.4813636215476 -2726.7066250394273 0 -2726.7066250394273 1524.1785156858095 0 0 0 0 765.71536559631932 -5097.2643379578367 0 -5097.2643379578367 -91.079936956914025 0 0 0 0 -2520.7112629015392 -1346.9902968498718 0 -1346.9902968498718 1131.5720459825243 0 0 0 0 -917.52844879393524 1202.5258465287043 0 1202.5258465287043 -676.13475765225303 0 0 0 0 -1319.2447689576147 -103.62895732553443 0 -103.62895732553443 182.51248690590728 0 0 0 0 -1.6683448489516595 -1.1384584655788625 0 -1.1384584655788625 1.7938829436155181 0 0 0 0 5216.0848287989284 -5102.7082557332906 0 -5102.7082557332906 467.34460777393542 0 0 0 0 325.14088332009851 -5224.4741068906587 0 -5224.4741068906587 3604.4916261414237 0 0 0 0 -587.17873768722347 -2109.5002558955821 0 -2109.5002558955821 -148.44576757517643 0 0 0 0 384.49826387815119 -178.60590867196152 0 -178.60590867196152 -289.35501732703415 0 0 0 0 3409.3719315265407 -146.44010257616173 0 -146.44010257616173 -685.22076645068591 0 0 0 0 46.185468262076029 162.71318456194422 0 162.71318456194422 174.55474695161683 0 0 0 0 150.81153830784024 -311.8576009793469 0 -311.8576009793469 -362.60707356160856 0 0 0 0 359.36600910953712 21.019612172611232 0 21.019612172611232 -195.04909655655501 0 0 0 0 -14.456380841351347 -40.758105055210763 0 -40.758105055210763 -48.70075234289834 0 0 0 0 -51.361911454761866 -10.603973855388176 0 -10.603973855388176 -14.002333356474992 0 0 0 0 20.263536712423956 23.999263801160851 0 23.999263801160851 2.0054197505523916 0 0 0 0 -7.6086271864696755 -22.82011490464356 0 -22.82011490464356 -23.963033122403431 0 0 0 0 1.2836287479440216 -19.458074148678861 0 -19.458074148678861 -23.010573889070656 0 0 0 0 17.550435553606803 -56.603372549674532 0 -56.603372549674532 -73.749838707328308 0 0 0 0 120.18479939228564 -18.070121767785167 0 -18.070121767785167 -70.83726607913195 0 0 0 0 -84.486072727973806 -133.52295084914658 0 -133.52295084914658 -52.163175022165888 0 0 0 0 -31.377136908915418 -111.3067459344893 0 -111.3067459344893 -51.029376586462604 0 0 0 0 66.661476336121268 -131.48759402992437 0 -131.48759402992437 -242.00557490659412 0 0 0 0 
</DataArray>
<DataArray type="Float64" Name="cross_section_updated" format="ascii">
1 1 1 1 1 1 0.20121662380997152 1 1 1 0.2026454257966549 1 1 1 0.20345322269290264 1 1 1 1 1 1 0.20087596494891932 0.2094646816228499 1 1 1 1 0.19997342999878553 0.19999133635335914 1 0.19957615991418781 0.21188107947059948 1 0.20216687804802758 1 1 1 0.21871124510497333 1 1 0.19882910848367549 1 1 1 1 1 1 1 0.20142956946661278 1 1 1 1 1 1 1 1 0.20401427102440611 1 1 0.18506028406488911 1 0.204997651397373 1 0.20018440526339956 1 0.21870868847297023 1 1 1 1 1 1 1 1 1 1 1 1 1 1 1 1 0.19895669747388905 1 1 1 1 1 1 1 1 0.20014024001664321 1 1 0.20040059188297571 0.20143465026733143 1 1 1 1 1 1 1 1 1 1 1 1 0.20199373119061276 1 1 1 1 1 0.19576276635923065 1 1 0.19779097813802779 1 1 1 1 1 1 1 1 1 1 1 1 1 1 1 1 1 1 1 0.19965238973446103 1 1 1 1 1 0.19991632546631793 1 1 1 1 1 1 1 1 1 1 1 1 1 1 1 1 1 1 1 1 1 1 1 1 0.19998902239180774 1 0.22184813243805132 1 1 1 0.21233165837780121 1 1 1 0.21951249014415003 1 1 1 0.19985502035136182 0.2391357251132131 1 1 0.19857969376263029 1 1 1 1 0.19709896395901777 1 1 1 1 1 0.20002303362499912 1 1 1 1 0.2000101184835095 1 0.19776632435590458 1 1 0.1988533465977993 1 1 1 0.1998322534298925 1 1 0.21652044560927408 1 1 1 1 1 1 1 1 1 1 0.19372210161216383 1 1 0.20000287289617874 1 1 1 1 1 1 1 0.20073069664600848 1 1 1 1 1 1 1 1 1 1 1 1 1 1 1 1 1 1 1 1 1 0.16739621496384294 1 0.16256318305305556 1 1 1 1 1 0.20001401939472455 1 1 1 1 1 1 1 1 0.15266628528620985 1 1 1 0.20502734851188498 1 1 0.20089579680812661 1 1 1 1 0.20035850789028212 1 1 0.18263863083153739 1 1 1 1 1 0.20018715803760725 1 0.23122825402097155 1 1 1 1 1 1 1 1 1 1 1 1 1 1 1 1 1 1 0.20006993786937372 1 1 1 1 1 0.18117945442543643 0.18530290716361913 1 1 1 1 1 1 1 1 1 1 0.17909230644510979 1 1 1 1 1 1 1 1 1 0.204031141140193 1 1 0.23723440835587245 0.19999970379388116 1 1 1 0.19999879215665048 1 1 0.24923152296242207 1 1 1 1 1 1 1 1 1 1 1 1 1 1 1 0.16413307120621218 1 1 1 1 1 1 1 1 0.18121569739991636 1 1 0.20001848466507866 1 1 1 1 0.24192611734122382 1 1 1 1 1 1 1 1 1 1 1 1 1 1 0.16767264338752555 0.21954474775587451 1 1 0.21203193761539513 0.17205677010135367 1 0.19996619214949266 1 0.19730226066866127 1 0.21679389448858993 1 1 0.22327727786232252 1 1 1 1 1 1 1 1 1 0.20055484793321379 0.21762767528943108 1 1 0.20017366439817005 1 1 1 1 1 0.18432313677841128 1 1 0.18191048678853841 1 1 1 1 0.17949900282820686 1 1 1 0.20195789768760941 1 1 1 0.19583965661463448 1 0.1858373538859284 1 1 0.20802002143399595 1 1 1 1 1 1 1 1 1 1 1 0.19982923881486167 1 1 1 1 1 1 0.19995143248698111 1 1 1 0.19994877466008412 1 1 1 1 1 1 1 0.22195963462490806 1 1 1 1 1 0.19403198249753256 1 0.20278703967439746 1 1 1 1 1 0.19224164628018772 0.21969549922870341 1 1 1 0.19999775253134205 0.22378835609733091 1 0.2066990810004421 1 1 1 1 1 1 1 0.19992387079389234 1 1 1 1 1 1 1 1 1 1 1 1 1 1 0.19986400018467176 1 1 0.19961331725417156 1 0.1997878709785641 1 1 1 1 1 1 1 1 1 1 1 1 1 1 0.19994966359308308 1 1 1 1 1 1 1 1 1 1 1 1 1 1 1 1 0.19993521571818307 1 1 1 1 1 1 1 1 1 1 1 0.20029350408658758 0.20088687550895301 1 1 1 1 1 1 1 1 1 1 1 1 1 1 1 1 0.19483056543986577 1 1 1 1 1 1 1 0.19300832126476095 1 1 1 1 1 1 1 1 0.20340093796551612 1 1 1 0.20006701048494946 1 1 1 1 1 1 1 1 1 1 1 1 1 1 1 1 1 1 1 1 1 1 1 1 1 1 1 1 0.19993098261169603 1 0.19978606417387762 1 1 1 1 1 1 1 1 1 1 1 1 1 0.19959688826053151 1 1 1 0.19999980498550576 1 1 1 1 1 1 1 1 1 1 1 1 1 0.19994950588520341 0.19990035142372362 1 1 1 1 1 1 1 0.19991559129537059 1 1 1 1 1 1 1 1 1 1 1 0.19971544755869008 1 1 1 1 1 1 1 0.19984580692835158 1 1 1 1 1 1 1 1 1 1 1 1 1 1 1 1 1 0.19970701267390922 1 1 1 1 1 1 1 1 1 1 0.19964949623640271 1 1 1 1 1 0.19936247380355487 1 1 1 0.19957301039443209 1 1 1 1 0.20922527289914702 1 1 1 1 1 1 1 0.19922824930544925 1 0.19968987175335759 1 1 0.20033805054363715 1 0.20189361314582266 1 1 1 1 1 1 1 1 1 1 1 1 1 1 1 1 1 1 1 1 1 1 1 1 1 1 1 1 1 1 1 1 1 1 1 0.20000233898638292 1 0.17218023789387243 0.19999738948444917 1 1 1 1 1 1 1 1 1 1 1 0.22432275151559414 1 1 1 1 1 1 1 0.22772037243387502 1 0.19947149769999345 1 0.23010641163661635 1 1 1 1 1 1 0.20177665290327237 1 0.19986003282727999 0.20544596921385114 1 1 1 1 1 1 1 1 1 1 1 1 1 1 1 1 1 0.19976625882689589 1 1 1 1 1 1 1 1 1 1 1 1 1 1 0.19991297482353798 1 1 1 1 1 1 1 1 1 1 1 1 1 0.20066055844193459 1 1 1 1 1 1 1 1 1 0.19832416762155738 1 1 1 1 1 0.20207426984653251 0.20003909726874627 1 1 1 1 0.20276673796513192 0.19864402086291494 1 1 1 1 1 1 1 1 1 1 1 0.17265571344775013 1 1 1 1 0.17305048191004432 1 1 1 1 1 1 0.21113418213090243 1 1 0.18049884203069813 1 0.20677608302849809 1 1 1 0.19080991249465121 1 1 1 1 1 1 1 0.20000278492819037 1 1 1 1 0.20950419598889375 0.19092791566684433 1 1 0.19989041018690112 1 1 1 0.20745879289462529 0.21321781150042107 0.18565634770193321 0.20000354628608344 1 1 0.1950699353405389 1 1 1 1 1 1 1 1 0.21474797458036596 0.21070734476943731 1 1 1 1 1 1 0.2066635138598707 1 0.2127774870883202 1 1 1 0.19973562805428563 1 1 1 1 1 1 1 1 1 1 1 1 1 1 1 1 1 1 1 1 1 1 1 1 1 1 1 1 0.19944264072819484 1 1 1 1 1 1 1 1 1 1 1 1 1 1 1 1 1 1 1 1 1 0.17882297202621256 1 1 1 1 1 1 1 1 1 0.19823571768512474 1 1 1 1 1 1 0.19999547382717711 1 1 1 1 1 0.18110596277590099 1 1 1 1 1 0.19990493395835268 1 1 1 1 1 1 1 1 1 1 0.19988598120809714 1 1 1 1 0.19612238455350672 0.2056505985014534 1 1 0.19818314871475895 1 1 1 1 0.19970048432561727 1 1 0.19779387779727317 1 1 1 1 1 0.1778461350864117 0.20030604485618936 1 1 1 1 1 1 0.2008416457618909 1 1 1 1 1 1 1 0.20910067952708136 0.1980818244253586 1 1 1 0.21957891713404418 1 1 1 0.20626191228602539 1 1 0.22386382888221512 1 0.22143380574001084 1 1 1 0.19341195625803279 1 1 0.20691550518335899 0.19981205869346907 1 1 1 1 1 1 0.22448557869472568 1 0.16986450206793635 1 0.20017867340474971 1 1 1 0.20011512592165503 0.18171296778988688 1 0.19639871563292008 1 1 1 1 1 1 1 1 1 1 1 1 1 1 1 1 0.19945259493894557 1 1 1 1 1 1 1 0.19567991985605693 1 1 1 1 1 0.20016179031988546 1 1 1 0.19980700248910799 1 1 1 1 0.19204069555522774 1 0.20000255681890264 1 0.19107606454934989 1 1 1 1 0.21077466163108133 1 1 0.19439210265475809 1 1 1 1 1 1 1 1 1 1 1 0.19837899461104766 1 1 1 1 0.1973342642670658 1 1 1 1 0.1903306011313492 1 1 1 1 1 1 0.20038878245714531 1 1 1 0.19090846283543356 1 0.1999966930895867 0.20083420229959864 1 1 1 1 1 1 1 1 1 1 1 1 1 1 1 1 1 1 1 1 1 1 1 1 1 1 1 1 0.20015450856179967 1 1 0.20004815172885421 0.19248206777158061 1 0.18742210109480933 1 1 1 1 0.19567290544274349 1 1 0.19856009656617729 1 1 1 1 1 1 1 1 1 1 1 1 1 1 1 1 1 1 1 1 1 1 1 1 1 1 1 1 0.20141265500131389 1 1 1 1 1 1 1 1 0.19805848918664426 1 1 1 1 1 1 1 0.19431713320092123 1 0.20007502255298548 1 1 1 0.20015460066259932 1 1 1 1 1 1 1 0.20014079618605179 1 0.2001493446098716 1 1 1 1 1 0.20015482054420958 1 1 1 1 1 1 1 1 1 1 1 1 1 1 1 1 1 1 1 1 1 1 1 1 1 1 1 1 1 1 1 1 1 1 1 1 1 1 1 0.18699816841464989 0.19368964510633135 1 1 0.19654959122494262 1 1 1 0.20812631467143144 1 1 1 0.20555610008864547 0.19092750801935521 1 1 0.18887956768052955 1 1 1 1 1 1 1 1 1 1 1 1 1 1 1 1 1 1 1 1 1 0.1994315215973263 1 0.1998649913829468 1 1 1 1 1 1 1 1 1 1 1 1 1 1 1 1 1 1 1 1 1 1 1 1 1 1 1 1 1 1 1 1 1 1 1 1 1 1 1 1 1 1 1 1 1 0.20013021317713514 1 0.21519983892515943 1 0.20384339098864568 1 1 0.21032950769800923 1 1 1 1 1 1 1 1 1 1 1 1 1 1 1 1 1 1 1 1 1 1 1 1 1 1 1 0.1994651926035175 1 1 1 1 1 1 1 1 1 1 1 1 1 1 1 1 1 1 1 1 1 1 1 1 1 1 1 1 1 1 1 1 1 1 1 1 1 1 1 1 1 1 1 1 1 1 1 1 1 0.20021589806233936 1 1 1 1 0.20064962183129656 1 1 1 1 1 1 1 1 0.19845154304658763 1 1 1 1 1 0.22579756201867121 0.1821848738350284 0.19921152103078396 1 1 1 1 0.231774280888144 0.19932650727706969 1 1 0.18990925309746745 1 1 1 1 1 1 1 1 1 1 1 1 1 1 0.17832233218425947 0.20003953403843244 1 0.199793756415687 1 1 1 1 1 1 1 1 1 1 1 1 1 1 1 1 1 1 0.19975317321327307 1 1 1 1 1 1 0.19925959237380869 1 1 1 1 1 1 1 1 1 1 1 1 1 1 1 1 1 1 0.20024913127209992 1 1 1 1 1 1 1 1 1 0.20075512432170423 1 1 0.19996729539997396 1 1 1 1 1 1 1 1 1 1 1 1 1 1 1 1 0.20542581944273666 1 0.19260968700796974 1 1 1 1 0.19548349416390212 1 0.19428898575085468 1 1 0.20374970436606749 0.22259466856522228 1 1 0.23418023216537645 1 1 1 0.20003095356236225 1 1 1 1 1 1 0.20000252649426098 1 1 1 0.21102217907688856 1 1 1 1 0.19226190267451077 1 1 1 1 1 1 1 0.20063080045578774 1 1 1 1 1 0.20197608763667632 1 1 0.19993906996388217 1 1 1 1 1 1 1 0.19989243378428204 1 1 1 0.19759376890053443 0.19799980828668087 1 1 1 0.19106849955556057 1 1 1 1 1 0.19999930849533465 0.19621084185458271 0.19149013421666178 1 1 1 1 1 1 1 1 1 0.19643075978414457 0.19759125394936994 1 0.20388763022082734 1 1 1 1 1 0.19938194723701855 1 1 0.19887716209374123 1 0.19756547162657964 1 1 1 0.20586987227916601 1 1 0.19554118791726743 1 1 1 1 1 1 1 0.19832690080431922 1 1 0.19337239222719557 0.19960193454049374 1 1 0.20766954248303662 1 0.20704147623029673 1 1 0.20075677235418293 1 1 0.19480461430663759 1 0.19935246738498583 1 1 1 0.20037747531368716 1 1 0.20215056883174012 1 0.21462764697978898 1 1 0.19668597015472197 1 0.2001087845514474 1 1 1 1 0.20534398047568794 0.21960302784478042 1 1 1 1 1 1 1 1 1 0.19996687126138155 1 1 1 1 1 1 1 1 1 1 1 1 1 1 1 1 1 1 0.1999990357954072 0.22991313897086985 1 1 1 0.17960455226131819 1 1 1 1 0.17868432358644804 1 1 0.20838862168041128 1 1 1 0.20444460624472094 1 1 0.20331819252054692 1 1 1 1 0.19999844478219006 1 1 1 1 1 0.21369906968011726 1 1 1 0.20117748051241388 0.20000035907214297 1 1 0.20015565137371075 1 1 1 1 1 0.19828192952708928 0.21244854461329066 1 1 1 1 0.19763181906444185 1 1 1 1 0.1957823044236443 1 1 1 1 1 1 1 1 1 1 1 1 1 1 1 1 1 1 1 1 1 1 1 1 1 1 1 1 0.1932124489319226 1 1 1 1 1 1 1 1 1 1 1 0.22682349803994015 1 1 1 1 0.20149759942610682 1 1 1 0.22690989306263787 1 1 0.20000403324655217 1 1 1 1 1 0.1990170724782323 1 1 1 1 1 1 1 1 1 1 1 1 1 1 1 1 1 1 1 1 0.20464447366558541 1 1 1 1 1 0.20790843101799789 1 1 1 1 1 1 1 0.20002054430340963 1 1 1 1 1 1 1 1 1 1 1 1 1 0.20391290982073459 1 1 1 1 1 0.20002932699381321 0.20707333376847492 1 1 1 1 0.20120844771241422 1 0.1999969834022671 1 1 1 0.19967217289522632 0.17347112578597881 1 1 0.17583941240556575 1 1 1 0.1802212539867894 1 1 1 1 0.19053552814338579 1 1 0.20022468346270314 0.20009995501731773 1 1 1 1 1 1 0.20707457800070211 1 1 0.20124214845463262 1 1 1 1 0.20130546920594564 1 1 1 1 1 1 1 1 1 1 1 1 1 1 1 1 1 1 1 0.19163050187530439 1 0.20067947357003468 1 1 1 0.19949922487689881 1 0.20376898313125089 1 0.19334809950699902 1 1 0.19275369170785969 1 1 0.19019482927939571 0.19919932104446259 0.20307623191900595 1 1 1 0.1906596752491318 1 1 1 1 1 1 0.201538166989495 1 1 1 1 1 1 1 0.2004078364497634 1 0.19970949318508141 1 1 1 1 1 1 1 0.20035749322636043 1 1 1 1 1 1 1 1 1 1 1 0.20112342382096809 1 1 0.20051292162476567 1 1 1 1 1 1 1 1 1 1 1 1 1 1 1 1 0.19931442208100536 1 1 1 1 1 1 1 1 1 1 1 1 1 1 1 1 1 1 1 1 1 0.20156703303274034 1 1 1 0.20080110243813265 1 1 1 1 1 1 1 1 1 1 0.20067284117359735 1 1 1 1 1 1 1 1 1 1 0.20192279201600771 1 1 1 1 1 1 0.19732854215416884 1 1 1 0.19250142337009768 1 1 1 1 1 1 1 1 1 1 1 1 1 1 1 1 1 1 1 1 1 0.2001383417295243 1 1 1 1 1 0.17189509199039088 1 1 0.19884967472778045 1 1 1 1 1 1 0.19737523535205695 1 1 1 1 0.19841212363077737 1 1 1 1 1 1 1 1 1 1 1 1 1 1 1 1 1 1 0.19784098258800317 1 1 1 1 1 0.1789170674976778 1 1 1 0.16862974500743766 1 0.17847454215803735 1 1 1 1 1 1 1 0.16854857523035374 1 1 1 0.17619085120930422 0.16305586200601488 1 1 1 1 1 0.2015846897941341 1 1 1 0.20464175952853467 1 1 1 1 1 1 1 1 1 1 1 1 1 1 1 0.19338565414839712 1 1 1 1 1 1 0.19815427078885223 1 1 1 1 1 1 1 1 1 1 1 0.20020508917440061 1 1 1 1 1 1 1 1 1 0.21513405487116599 1 1 1 1 0.1705702410736149 0.22505618460675444 1 1 1 1 1 1 1 1 0.12447839002646033 0.22740505711324507 1 0.12837865296294024 1 1 1 1 1 0.20032515769291098 1 1 1 1 1 1 0.17620428263481921 1 0.20006610916104434 1 1 1 1 1 1 1 1 1 1 0.19955048773821998 1 1 1 1 1 1 0.19432862994076883 1 1 1 1 1 1 1 1 0.18884428171384207 1 1 1 1 1 0.20909464100506078 1 1 0.20539498963032693 1 1 1 1 1 1 0.19801757726973226 1 1 1 1 1 1 1 1 0.19438617573142242 1 1 1 1 0.19089754976592338 1 1 1 1 1 1 1 1 1 1 0.19256107479909687 1 1 1 1 1 1 1 1 1 0.1870713578989576 1 1 1 1 0.18297848093847929 1 1 1 1 1 1 1 1 0.20174131844283583 1 0.18758193849285998 1 1 1 0.20032553395022984 1 1 1 1 1 1 1 1 0.19448105176042152 1 1 1 0.19125453277616 1 1 1 0.20039998570964637 1 1 0.20064576125945832 1 1 1 1 1 1 1 1 1 1 1 1 1 1 1 1 1 1 1 1 1 1 1 1 1 1 1 1 1 1 1 1 1 1 1 1 1 1 1 1 1 1 1 1 1 1 1 1 1 1 1 1 1 0.22812520139839956 1 1 1 0.19946057858542113 1 1 1 1 1 1 0.20047458519293096 1 0.19833451867575649 1 1 1 1 0.18500989896518297 0.19965556991233802 1 1 1 1 1 1 1 1 1 1 1 1 1 1 1 1 1 1 1 1 1 1 0.15883509122142858 1 1 0.16530727690945574 1 1 1 0.20002763007608804 1 1 1 1 1 1 1 1 1 1 1 1 1 1 0.19979599312417429 1 0.19830122464683397 1 0.18508557646317883 1 1 1 1 1 1 1 1 1 1 1 1 1 1 1 1 1 0.19899947886557845 1 1 1 1 1 1 1 1 1 1 1 1 1 1 1 1 1 1 1 1 1 1 1 1 1 1 1 1 1 1 1 1 1 0.19994862825068158 1 1 1 1 1 1 0.19134842274801472 1 1 0.19089657880532712 1 0.20011955103155027 1 1 0.19796053688741605 1 1 1 0.19640051186376692 1 1 1 1 1 1 1 1 1 1 1 1 1 1 1 1 1 1 1 1 1 1 1 1 1 0.20035575533895303 1 1 1 1 0.20061414248137341 1 1 0.20025941854895563 1 1 1 1 1 1 1 1 1 1 1 1 1 1 1 1 1 1 1 1 1 1 1 1 1 1 1 1 1 1 0.19950409452249043 1 1 1 0.19938645773785113 1 1 1 1 0.19913056578046509 1 1 1 1 1 0.19968724734234561 1 1 1 1 0.21732109358117593 1 1 1 1 1 1 1 1 1 1 1 1 1 1 0.19995333072215657 0.19986245457441129 1 0.22542570395755332 1 0.22121306557653861 1 1 1 1 1 1 1 1 1 1 1 1 1 1 1 1 1 1 1 1 1 1 1 1 1 0.20212320867765907 0.21364445494535494 1 1 0.18827580919080592 1 1 0.2062005994417746 1 1 1 1 1 1 1 1 1 1 1 0.20363483083134137 1 1 0.20112209227126535 1 1 1 1 1 1 1 1 1 1 1 1 1 1 0.18929426477025771 0.20000723909787643 1 0.19457688963387548 0.19994755373286643 1 1 1 1 0.19999377697536061 1 1 1 0.19033365959810886 0.20213441841040414 1 1 1 1 1 1 1 0.19998355579125798 1 1 1 1 1 1 1 1 1 1 1 1 1 1 1 1 0.19502898301799779 1 1 1 1 0.19260299020618246 1 1 1 1 1 1 1 0.20137770517144832 1 1 1 1 1 1 1 0.20070315579023218 1 1 0.200199427823327 1 1 1 1 1 1 1 1 1 1 1 1 1 1 1 0.20038424365995666 1 1 1 1 1 1 1 1 0.20001578315733687 1 1 1 1 1 1 1 0.20004969440985909 1 1 1 1 1 0.20005416664899894 1 1 1 1 0.19967117953029176 1 1 1 1 1 1 1 1 1 1 1 1 0.19815316058862598 1 1 1 1 1 1 1 1 1 1 1 1 1 1 0.20196170177057343 1 1 1 1 1 1 1 1 1 1 1 1 1 0.19933169076618054 0.199923544185276 1 1 0.20533945803436671 1 1 1 1 0.20419498670424116 1 1 1 0.20543333473523226 1 1 0.19859404200601108 1 1 1 1 0.20764983132322801 1 1 1 1 1 1 1 1 1 1 1 1 1 1 1 1 1 1 1 1 1 1 1 1 1 1 1 1 1 1 1 1 1 1 0.20028493695207211 1 1 1 0.19964529952283244 1 0.19997411999254064 1 1 1 1 1 1 1 1 1 1 1 1 1 1 0.20074914747126824 1 1 1 1 1 1 1 1 0.19601413504372259 1 1 1 0.20036490381131156 1 1 1 1 1 1 1 0.19050305522751143 1 0.19518045151040628 1 1 1 1 1 1 1 1 1 1 1 1 1 1 0.20148568971549699 1 1 0.20051542803690789 1 1 1 1 1 1 1 0.18194557070017195 1 1 1 1 1 1 1 1 1 1 1 1 1 1 1 1 1 1 1 1 1 1 1 1 1 1 1 0.19910706985850754 1 1 0.19835811660424416 1 1 1 0.1954929452932565 1 1 0.19713084985658519 1 1 1 1 1 1 1 1 1 1 1 1 1 1 1 1 1 1 1 0.20172987594003886 1 1 1 1 1 1 1 1 1 1 1 1 1 0.20075961426144973 1 1 1 1 1 1 1 1 1 1 1 1 1 1 1 1 1 1 1 0.20172083933047771 1 1 1 1 1 1 1 1 1 1 1 1 1 1 1 1 0.20008440100197805 1 1 0.19981604322031282 1 1 1 0.20058115754615691 1 1 0.19973187308917509 1 1 1 1 1 1 1 1 1 1 1 1 1 1 0.20509904195199655 1 1 0.20843088832549536 1 1 1 1 1 1 1 1 1 1 1 1 1 1 1 1 1 1 1 1 1 1 1 1 1 1 1 1 1 1 1 1 1 1 1 1 0.23375473407444133 1 1 1 1 0.22648904848008661 1 1 1 1 1 1 1 1 1 1 1 1 1 1 1 0.20333552262203552 1 0.235559672579567 0.20403818746324293 1 1 0.22773445934761805 1 0.20286155675871648 1 1 1 1 1 1 1 1 0.14170590601604344 1 1 0.1996372645576143 1 1 1 1 0.19103530352715756 0.21585243701510534 1 0.21543309973195904 1 1 1 1 1 1 1 1 1 1 1 1 1 1 1 1 1 1 1 1 1 0.20002025539647669 1 1 1 1 1 1 1 1 1 1 1 1 1 1 1 1 1 1 1 1 1 1 1 1 1 0.19686128667958788 1 1 1 1 1 0.19800038237780995 1 1 1 1 1 1 1 1 1 0.17233552855918161 1 1 1 1 1 1 1 1 1 1 1 1 1 1 1 1 1 0.15168998964384162 0.19894018396688096 1 1 0.1620239218602636 1 1 1 0.19889375814827889 1 1 1 1 1 1 1 1 1 1 0.19241110594033567 1 1 0.19981546588841897 1 0.20143410984528937 1 1 1 1 0.20036729406413137 1 1 1 0.19723953743591294 1 1 1 1 1 1 0.19973881776769828 1 1 1 1 1 1 0.19974092434965154 1 1 1 1 1 1 1 1 1 1 1 1 1 1 0.19869380145400259 1 1 0.19696426657796759 1 1 1 0.20053951335069545 0.20020888076042828 1 1 1 1 1 1 1 1 1 1 0.18530988849920468 1 1 1 0.18832609334625522 1 1 1 1 0.19982954325489949 1 1 1 1 1 1 1 1 0.22111563423787142 1 1 1 1 1 0.21623634305184355 0.17896461059204408 1 1 1 0.23207594739441922 1 0.198156214979612 0.19933344144163623 1 1 1 1 1 0.18228041871028078 1 1 1 1 1 1 0.20046021388836918 1 1 1 1 1 1 1 0.19649061799618583 1 1 0.19660209202350948 1 1 0.20012958129810202 1 1 1 1 1 1 1 1 1 1 1 1 1 1 0.19701861045833996 1 1 1 0.20000114932456692 1 1 0.19516280642220835 1 1 1 1 0.20000874935328833 1 1 1 1 1 1 1 1 0.19638587184665016 1 1 1 1 0.21435460287467586 1 1 1 1 1 1 1 1 0.22294791802507657 1 1 1 1 1 1 1 1 1 0.20102815750417774 1 1 1 0.20343440169867294 1 1 0.20183587490135965 1 1 0.20075409096445063 1 1 1 1 1 1 1 1 1 0.20147783310084605 1 1 1 1 1 1 1 1 1 1 1 1 1 1 1 1 0.19995995626885077 1 1 1 1 1 1 1 1 1 1 1 1 1 1 1 1 1 1 1 1 1 1 1 1 1 1 0.14811728472912422 1 0.15291020139710873 1 1 1 1 1 1 1 1 1 1 0.14219154946770229 1 1 0.19955299033827709 1 1 1 1 1 1 1 1 1 1 1 1 1 1 1 1 1 1 1 1 1 0.20056696597833329 1 1 1 1 1 1 1 1 1 0.22634984995352642 1 0.19972438550686464 1 1 1 1 1 1 1 0.19922132962464187 1 0.19951152578777726 1 1 1 1 1 1 1 1 1 1 1 0.20652098979244998 1 1 1 1 0.19999651691088707 1 0.19843643923402726 1 1 1 1 1 1 0.20711394562366175 1 1 0.23028149221315802 1 1 0.23365482645960467 1 1 1 0.19585343224420182 0.14798690631760825 0.15079731166175944 1 1 1 1 1 1 1 1 1 1 1 1 1 0.20073727002495911 1 1 1 1 1 1 1 0.2048529280056357 1 0.20164118709769038 1 0.19144114619880212 1 1 0.19309131016882616 0.19999909189045084 1 1 1 1 1 1 0.19668789825504557 1 1 1 1 0.19985886520651999 1 0.20013764712751769 1 0.19957915436830789 1 0.20121274564220248 1 1 1 1 0.20963108126389196 1 1 1 1 1 0.20342984864260083 1 1 1 1 1 1 1 1 1 1 1 1 1 1 0.20010593851209629 1 1 1 1 1 0.20015091836666882 1 1 1 0.20052717207097218 1 1 1 1 1 1 1 1 1 1 1 1 1 1 1 1 1 0.19555119128196249 1 1 1 1 0.19725080365926156 1 1 1 1 1 1 0.19997872339566897 1 1 1 1 1 1 1 1 1 1 0.20103057975912833 1 1 0.19951357636745812 1 0.20001666074317598 1 1 1 1 1 1 1 1 1 1 1 0.19841919004320019 1 1 1 1 1 1 0.20009703434005732 1 0.19650263563275164 0.20329300095341191 1 0.20163552680878066 1 1 1 1 1 1 1 0.19877608776846059 1 1 1 1 1 1 1 1 1 1 1 1 1 1 1 1 0.19980622591943528 1 1 1 1 1 1 1 1 1 1 0.2000826720927813 1 1 1 1 1 1 1 1 1 1 0.19993184687269877 1 1 1 1 0.19984934733719306 1 1 1 1 1 0.19462852431542341 1 1 1 1 0.19827677034994159 1 1 1 1 1 1 1 1 1 1 1 1 1 1 1 1 1 1 0.19063499545459511 1 1 1 1 1 1 1 1 0.19602405599316503 1 0.19749812513328785 0.20000025555678563 1 1 1 1 1 0.20064941944055067 1 1 1 1 1 1 1 1 1 1 1 1 1 1 0.19770149990707322 1 1 0.20328974600259345 1 0.1999045835375646 0.19641808085178109 1 1 1 1 1 1 0.2005498623946064 1 1 1 1 0.19928982387977873 1 0.19967765059627635 1 1 0.19632025821427876 1 1 1 1 1 1 0.19994325629367157 0.20173039119580238 1 1 1 1 1 1 1 1 1 1 1 1 1 1 1 0.20149771644902353 1 1 1 1 1 1 1 0.19999138315793508 1 0.19542976387906852 1 1 1 0.19997253404007467 1 0.19524315535576808 1 1 1 1 1 1 1 1 0.20000271079605908 1 1 1 1 1 0.19702921021325409 1 0.20937246814541574 1 1 1 1 0.20620939786719167 1 1 1 1 1 0.20226540099369758 1 1 1 1 1 1 1 1 1 1 1 1 1 1 1 1 1 1 1 1 1 1 1 1 0.1569898621930024 1 1 1 0.20039405752875114 1 0.16071233874856827 1 1 1 0.20113636098624429 1 1 1 1 1 1 1 1 1 1 1 1 1 1 1 1 1 0.19899198905364121 0.20010461510183286 0.1954900900892832 0.20317900335231745 1 1 1 1 1 1 0.20001836169595794 1 1 1 0.20013090951812129 1 1 1 1 1 1 1 1 1 1 0.18515063045684466 0.20250013316297527 0.20000651262388391 1 1 0.18470014916020921 0.19998728421810652 1 1 1 1 1 1 1 1 1 0.20866962621581059 1 1 1 1 1 1 1 1 0.20928361751557054 0.19962822130314692 1 1 1 0.20001384923650067 1 1 1 1 1 1 1 1 1 1 1 0.20407797464926325 1 0.20017205176611622 1 1 1 1 1 0.19998849470599994 0.18713618941022458 1 1 0.19364517099029152 0.20740575110392304 1 1 1 1 1 1 1 1 1 1 1 1 1 1 1 1 1 1 1 1 1 1 1 1 1 1 1 1 1 1 1 1 1 1 1 1 1 1 1 1 1 1 0.20395518349631758 0.2001656098855932 1 1 1 1 1 1 1 1 1 1 1 1 1 1 1 1 1 1 1 1 0.20069233005451639 1 1 1 1 1 1 1 1 1 1 1 1 1 1 1 1 0.19991811349476557 1 0.20006343086964415 1 1 1 1 1 1 1 1 0.20227961558033319 1 1 1 1 1 1 1 1 1 1 1 0.19999797442864156 1 1 0.19737040884673188 1 1 0.20273978101657614 1 1 1 1 0.19620055381940804 1 1 1 1 0.19998670544313413 1 1 0.19818332721280996 1 0.20052060606251709 1 1 1 1 1 0.20151185794255264 1 1 1 1 1 1 1 0.20046091851821088 1 1 1 1 1 1 1 1 1 1 1 1 1 1 1 1 1 1 1 1 1 1 1 1 0.19393477173086965 1 1 1 0.19997310056859566 1 1 0.19129431775433828 1 1 1 0.19431830693637092 1 1 1 1 0.19241395383193785 1 0.18862276759245414 1 1 1 1 1 1 1 1 0.19991305119304176 1 1 1 1 1 1 1 1 1 1 0.21326798046523615 1 1 0.20000647301432492 1 1 0.21360666455640148 1 1 0.20252750857230165 0.19769451085742085 1 1 1 1 1 1 1 0.18674527037640659 0.195436744413895 1 1 1 0.20156749990702311 1 1 0.20019772833547797 0.20638355685289073 1 1 1 0.20072688432702263 0.19899775851462242 1 0.20455573025288132 1 1 0.20000033760702418 1 1 1 1 0.20526091603714922 1 0.1990308058996009 0.20248784011721477 1 1 1 0.20048767210747218 1 0.19988820350734954 0.20108814914657772 1 0.19871731392235165 0.20238697609417217 0.19637385622467657 0.20476858695766287 1 0.19831415029348504 1 0.20364999161618946 1 0.19841042522851507 1 1 1 0.19923715164339922 1 1 0.20306690610451839 1 0.19869489543371299 0.20001865512833894 1 1 1 1 0.20080184774419674 1 0.19214175289238433 0.2003916247477511 1 1 1 0.1986288623508595 0.19984310983024831 1 1 0.20547938775013486 0.19868769789153501 1 1 1 1 0.19999421371314668 1 1 1 1 0.1999847097525583 1 1 1 1 0.19996501963381985 1 0.20168968200956094 1 0.19886584180200129 1 0.19944105630637327 1 0.20260579824595898 1 0.20000009690529175 1 1 1 1 1 0.20017489193099941 1 1 0.19492087336234312 0.20000970598069812 0.20000207296078737 1 1 0.19760443461382729 0.19869009089541978 1 0.19623214940699826 1 1 0.20018392713663508 1 1 1 1 1 1 0.1998811067383813 1 1 0.19779642267858166 1 0.1999611328443992 1 1 1 1 0.19925746771407127 1 0.20063630000389879 1 0.20001319147361307 1 1 1 0.19979108658517414 1 1 0.20069437825582709 1 0.19914488021711779 1 0.20132310639718637 1 1 1 1 1 0.19950380743443377 1 1 1 1 1 1 1 1 1 1 0.19631131516761949 1 1 1 1 0.19984222375218272 1 1 0.19921449174539299 1 1 1 1 1 0.19989556111013007 1 1 0.20141675771638909 1 1 1 0.21769845687153108 1 0.2001134239681209 1 1 1 0.21732202691378535 1 1 1 1 0.19603264491120576 1 1 1 1 0.19162882782996635 0.20019467333476876 1 1 1 1 1 1 0.19866142240345269 1 1 0.19640357865263924 1 1 1 1 1 1 1 1 1 1 1 1 1 1 1 1 1 1 1 1 1 1 1 1 1 1 1 1 1 1 1 1 1 1 1 1 1 1 1 1 1 1 1 1 1 1 1 1 1 1 1 1 1 1 1 1 1 1 0.21907627609509764 1 1 1 1 1 1 1 1 1 1 1 1 0.20545188385745516 1 1 0.21154766359662694 1 1 1 0.20078537400038554 1 1 1 1 1 1 1 1 1 1 1 1 1 1 1 0.21193040786055203 1 1 1 1 1 1 1 1 1 1 1 1 1 1 1 1 0.2003183431257369 1 1 1 1 1 1 1 1 1 1 1 1 1 0.21916918826028695 1 1 0.20001285032411148 1 1 0.1997888243457776 1 0.21597793475901234 1 1 1 1 1 1 1 0.16415588853021754 1 1 1 1 1 1 1 1 1 1 1 1 0.20004128148437142 1 1 1 0.19991587697916191 1 1 1 1 1 1 1 1 1 0.20016725239796673 1 1 1 1 1 1 0.16695804044220403 1 1 1 1 1 1 0.16650326820442232 1 1 1 0.20257148070222025 1 1 1 1 1 1 1 0.20773204827289471 1 1 1 1 1 1 1 1 1 1 0.16728123371033443 1 1 1 1 1 1 1 1 1 1 1 1 1 1 1 1 0.19752844580695195 1 0.19993625503348361 1 1 1 1 1 1 1 1 1 1 0.21281742149633409 1 0.20723611374463982 1 1 1 1 1 1 1 1 1 1 1 0.16928231117787435 1 1 1 1 1 1 1 1 1 1 1 0.16964668856041837 1 1 1 1 1 1 1 0.19848409857039512 1 1 1 1 1 1 1 0.19948855898350648 1 1 1 1 1 1 1 1 1 1 1 0.20327417483217744 1 1 1 1 1 1 1 1 0.16904381747952538 1 0.20973116015358556 1 1 1 1 1 1 1 1 1 1 0.1992704281786839 1 1 1 0.19821707704400554 1 1 1 1 1 1 1 1 1 0.20898446930381859 1 1 1 1 1 1 1 1 1 1 1 1 1 1 1 1 0.19927921719302782 1 1 1 1 1 1 1 1 1 1 1 1 1 1 1 1 1 1 0.19835673506375823 1 1 0.19564762648022591 1 1 0.19797285353089766 1 1 1 1 1 0.19795376549322966 1 1 1 1 1 1 1 1 1 1 1 1 1 1 1 1 1 1 1 1 1 1 1 1 1 1 1 1 1 1 1 1 1 1 1 1 1 1 1 1 1 1 1 1 1 1 1 1 1 1 1 1 1 1 1 1 1 1 1 0.19896573690298969 1 1 0.19779221646087028 1 1 1 1 1 1 1 1 1 1 1 1 1 1 1 1 1 1 1 1 1 1 1 1 0.20007845955640038 0.20031399754324741 1 1 1 1 1 1 1 1 1 1 1 1 1 1 1 1 0.19975381121682931 0.20105471796930288 1 1 1 1 1 1 1 0.21388068005801361 1 0.18704762486564899 1 1 0.19394136088379463 0.19999298315730224 1 1 1 1 1 1 1 1 1 1 1 0.19999995750620994 1 0.17418757692433764 1 1 1 0.17501145353218314 1 1 1 0.21218098322773885 1 0.201654770844991 1 1 1 1 1 0.21267185246807652 0.21098447898699996 1 1 1 1 1 1 1 1 1 1 1 1 1 1 1 1 1 1 1 1 1 1 1 1 1 1 1 1 1 1 1 1 1 1 1 1 1 1 1 1 1 1 1 1 1 1 1 1 1 1 1 1 1 1 1 1 1 1 1 1 1 1 1 1 1 1 1 1 1 1 1 1 1 1 1 1 1 1 1 1 1 1 1 1 1 1 1 1 1 1 1 1 1 1 1 1 1 1 1 1 1 1 1 1 0.20047522568294854 0.19852179479339199 1 0.21963453165246996 1 0.19798782888324623 1 1 0.20045039689794755 1 1 1 1 0.19971124242761179 1 1 1 1 1 1 1 0.22199583791858718 0.19929117187622328 0.20021684321402394 1 1 1 1 1 0.22412742303661465 0.20057840516503536 1 1 1 1 1 1 1 1 1 1 1 1 1 1 1 1 1 1 1 1 1 1 1 1 1 1 1 1 1 1 1 1 1 1 0.19799319861179876 1 1 0.19928752087456084 1 1 1 1 1 1 1 1 1 1 1 0.19996580398871888 1 1 1 1 1 1 1 0.20007638801179084 1 1 1 1 1 1 1 1 1 1 1 1 1 1 1 1 0.21719775224494683 1 1 0.18473710572258334 1 1 1 1 1 1 1 1 1 1 1 1 1 1 1 1 1 1 1 1 1 1 1 0.20056155867752326 1 1 0.19989717939444826 1 1 0.20014695176235497 1 1 1 1 1 1 1 0.20025753578542693 1 1 1 1 1 1 0.199889716672843 1 1 0.19972600486398953 1 1 1 1 0.19998806645312789 1 0.19990686153363899 1 1 0.22320495887762642 1 1 1 1 0.19985451978734797 1 0.22367684232518439 1 1 0.22398522263128717 1 1 1 1 1 1 1 1 1 1 1 1 0.19689430033617367 1 1 1 0.2237722179541731 1 1 0.22320739661567388 1 1 1 1 0.20001245213042035 1 1 1 1 1 1 1 1 1 1 0.19997869719778211 1 1 1 1 1 1 1 1 1 1 0.20034571431000203 1 1 1 1 1 1 1 1 1 1 1 1 0.20080257374723545 1 1 0.2002601744989328 1 1 1 1 1 1 1 1 1 1 0.2077204963446018 1 1 1 1 1 0.1933736720715499 1 0.19833464142111148 0.19378937121430326 1 1 0.20073155048058774 1 1 1 1 1 1 1 1 1 0.20001668880617665 0.19374618581302405 1 1 1 1 1 1 0.19996340937048818 1 1 1 1 1 1 1 1 1 1 1 1 1 1 1 1 1 1 1 1 1 1 1 1 1 0.20031461660043476 1 1 1 1 1 1 1 1 1 1 1 1 1 1 1 1 1 1 1 1 1 1 1 1 1 1 1 1 1 1 1 1 1 1 1 1 1 1 1 1 0.2080176973975747 1 1 1 1 1 1 1 1 1 1 0.20070556240856247 1 1 1 0.2071456461068644 1 0.2017430168927794 1 1 1 0.20004977570504262 1 1 1 0.200000281273611 1 0.20071482066418406 1 0.20287679405010828 1 0.20856057757440161 0.19951611283724324 1 1 0.20360416269101644 1 1 1 0.20053267797012658 1 1 1 1 1 0.20018607376586098 1 1 1 1 0.20346915475764005 1 1 1 0.19722134161068505 1 1 1 1 0.19558507168173522 1 0.20001891998155941 1 1 1 1 1 1 1 1 1 1 1 1 1 1 0.20002488411565147 1 1 1 1 0.21206990447222557 1 1 0.20042275498789047 1 1 0.19592401482830271 0.20000824907065037 1 1 0.19938656781432909 1 0.20162596342358435 1 1 1 0.18789220308422183 0.19877155018116177 0.21347347869874536 0.19592089871215959 1 1 0.20111071994153812 1 1 1 1 0.19311242849110358 1 0.20177724134290287 1 1 0.19677967828474155 0.20848400547981552 0.20001505921835858 1 0.20575302960457717 1 1 0.19841052839142148 0.21548967086951878 0.2111838040858405 1 1 1 1 1 1 1 1 1 0.19764636246001366 0.19961812646368893 1 1 1 1 0.19881000424262962 0.19860185021443541 1 1 1 0.22911359449385124 1 0.22997970193450762 1 1 1 1 1 1 1 1 1 1 1 0.22824446284954608 1 1 1 1 1 1 1 1 1 1 1 1 1 1 1 1 1 1 1 1 1 1 1 0.19986035840642447 1 1 1 1 1 1 1 1 1 1 1 1 1 1 1 1 0.2307268337423575 1 1 0.19963509596658302 1 1 1 1 1 1 1 1 1 0.21843030092838384 1 1 1 0.1962440007106237 0.20374669472887427 1 1 0.20000217904741951 1 1 1 1 1 0.19516604112952901 1 0.19995419828507136 1 1 1 0.18996662513846976 1 1 1 1 1 1 1 0.22432716484762064 1 1 0.20008162064221593 1 1 1 1 0.2302520925429215 1 1 1 0.20004358254709201 0.19999469511492093 1 1 0.18477263154223503 1 1 1 0.22837622249683687 1 1 1 1 1 1 1 0.20922581978578461 1 1 0.23082130565289122 1 0.20128742072945899 0.1951365830793873 0.23472729411699322 1 0.19715239814656776 1 0.19007222454904346 0.2298059640694384 1 1 1 1 1 1 0.22996193098302317 1 1 0.229185211045635 1 1 1 1 1 1 1 1 1 1 1 1 1 1 1 1 1 1 1 1 1 1 1 1 1 1 1 1 1 1 1 1 1 1 1 0.19991591923851984 0.19385927773115566 1 1 1 1 1 1 1 1 0.196963994870509 0.20363130939923482 0.20285427951269894 0.19170605744983862 1 1 0.17375770456681544 1 1 1 1 1 1 1 1 0.17903728998263591 1 1 0.20004928349517836 1 1 1 0.20040609726758593 1 1 1 1 0.20067539811958179 1 1 1 1 1 1 1 1 1 1 1 1 1 1 0.16142685337712512 1 1 1 1 1 0.2163905272497921 1 1 1 1 1 1 1 1 0.18498460157051619 1 1 1 0.18636779520195476 0.20109192241132046 1 1 0.20092364372176025 0.18065635585003714 1 1 1 1 1 0.20003677535075629 1 1 1 1 1 1 0.1999193503526529 1 0.19708275412728921 1 1 1 1 1 1 1 1 0.18480288394336222 0.1853471748470113 1 0.20002443799848552 0.20106309481586243 0.19496659248604395 1 0.19631028395977335 1 1 1 1 1 1 0.19707923703444466 1 1 1 1 1 1 1 0.19784652145273462 1 1 1 1 1 1 1 1 1 1 1 1 1 1 1 1 1 1 1 1 1 1 1 1 1 1 1 1 1 1 1 1 1 1 1 1 1 1 1 1 1 1 1 1 1 1 1 1 1 1 1 1 1 1 1 1 1 0.1999912240942531 1 1 1 1 1 1 1 0.19997175152651622 1 1 0.2130918166440918 1 1 1 0.21403449363493796 1 0.19999835135185795 1 1 0.20001178036686623 1 1 1 1 1 1 1 0.21653409138386542 1 1 1 0.19941732309125482 1 1 1 1 1 1 1 0.2017824743887148 1 0.20004671788002912 1 1 1 1 1 1 1 1 1 1 1 1 1 1 1 1 1 1 1 1 1 1 1 1 1 0.20000269053858633 0.1767277605875899 1 0.21158347187092502 1 1 1 1 1 1 1 0.19674294227612996 1 0.20003016956525935 1 0.18207237815021624 0.22139513017433798 0.20126577972772153 1 1 0.21565148752959579 1 1 0.20093740428217374 1 1 1 0.20031652791273452 1 1 1 1 1 1 1 0.18783084774766184 0.20160771156238963 1 1 0.18977773553877528 1 1 1 0.20045517399143012 1 1 1 1 0.18763378805495837 1 0.20854677812421257 1 1 1 1 1 1 0.19999194320640967 1 0.20000239267946407 1 1 1 1 1 0.20000095844724103 1 1 0.20000097704874287 1 1 1 1 1 1 1 1 1 1 1 1 1 1 1 1 0.20000315610345673 1 1 0.19471352828905891 0.20000265206920989 1 0.20001755972360569 1 1 1 1 1 1 1 1 0.20000737313299027 1 1 1 1 1 1 1 1 1 1 1 1 1 1 1 1 0.20818651993180964 1 1 1 0.19999997978894782 1 1 0.20742823880595337 1 1 1 1 1 1 0.20632440706133937 1 1 1 1 1 1 1 1 1 1 1 1 1 1 1 1 1 1 1 0.19137689967134497 0.20000093079454351 1 1 1 1 1 1 1 0.2017558878836121 1 1 1 0.19999175102782221 1 1 0.18823917915474303 1 0.20108349580798546 1 1 0.20013519083188319 1 0.19784745276856153 0.20116801854480493 1 0.1990635596564222 1 0.20146850089158078 1 0.19705295597609479 1 1 1 1 1 1 1 1 1 1 1 1 1 1 1 0.19966793079465353 0.199893225960497 1 1 1 1 1 1 1 0.19260917488771412 1 1 1 1 1 1 1 1 1 1 1 1 1 1 1 0.19710432174436737 1 0.1998021886624205 1 1 1 1 1 1 0.19512143090541709 1 1 1 0.18830599838345349 1 1 1 0.19960000921399629 1 1 1 1 1 1 1 1 1 1 1 1 1 1 1 1 1 1 1 1 1 0.20046689203755336 1 1 1 1 0.19863763186422509 1 1 1 1 1 0.20370941878283649 1 1 1 0.2023594767529443 1 1 1 1 1 1 1 1 1 1 1 1 0.19983967742746225 1 1 1 1 0.20092509174178488 1 1 1 1 1 1 1 1 0.19909562094013081 1 1 1 1 1 1 1 0.19884806662116469 1 1 1 1 0.19967896288359296 1 1 1 1 1 1 1 1 0.20009097598749193 1 1 1 1 1 1 1 1 1 0.19823774232119676 1 1 1 1 1 1 1 1 1 1 1 1 1 1 1 1 1 1 1 1 1 1 1 1 1 1 1 1 0.19953729997561775 1 1 1 1 1 1 1 0.19805336446347108 1 1 1 1 1 1 1 1 1 1 1 1 1 1 1 1 1 1 1 1 1 1 1 1 1 1 1 1 1 0.1997978205515758 1 1 1 1 1 1 1 1 1 1 1 1 1 1 1 1 1 1 1 1 1 1 1 1 1 1 1 1 1 1 1 1 0.20017152495397969 1 1 0.20008990431176374 1 1 1 1 0.22641042961339691 1 1 0.19370973593476157 1 1 1 1 0.19732312922652767 1 1 1 0.22292261007354452 1 1 1 0.20015851464520276 1 1 1 1 1 1 1 1 1 1 0.20045330581489956 1 1 0.17773646101921423 1 1 1 1 1 1 0.21536439967002236 1 1 1 1 1 0.17999056373324351 1 1 1 1 0.18236427083372406 1 1 1 1 1 1 1 1 1 1 0.1849831683300891 1 1 1 1 1 1 1 1 1 0.20039119203133984 1 1 1 1 1 1 1 1 1 1 1 1 1 0.21304422171984042 1 1 1 1 1 1 1 0.2005473063393714 1 1 1 1 1 0.19925655135988576 1 1 1 1 1 1 1 1 1 1 1 1 1 1 0.20013226590854541 1 1 1 1 1 1 1 1 0.20080623246216583 1 1 1 1 1 1 1 1 1 1 1 1 1 1 1 1 1 1 1 1 1 1 1 1 1 1 1 1 1 1 1 1 1 0.20357605105842314 1 1 1 1 0.20014463504251973 0.20899674305133198 1 1 0.20013088725190439 1 1 0.19802238633350119 1 1 0.20655651005258413 1 1 1 1 1 1 1 1 1 1 1 1 1 1 1 1 1 1 1 0.20886898041915042 1 1 1 1 0.21090867757641957 1 1 1 1 1 1 1 1 1 1 1 1 1 1 1 1 1 1 1 1 1 1 1 1 1 1 1 1 1 1 1 1 1 1 1 1 1 1 1 1 1 1 1 1 1 1 1 1 1 1 1 1 1 1 1 1 1 1 1 1 1 1 1 1 1 1 1 1 1 1 1 0.20438505439948312 1 1 1 1 0.19621972236390278 1 0.1964817028170954 1 1 0.20433324266702302 1 1 1 1 0.20055909465478364 1 1 0.19989081344672971 1 1 1 1 1 1 1 1 1 1 1 1 1 1 1 1 1 1 1 1 1 1 1 1 1 1 1 1 1 1 1 1 1 1 1 1 1 1 1 1 1 1 1 1 1 1 1 1 1 1 1 1 1 1 1 1 1 1 1 1 0.20000736209952152 1 1 1 1 1 1 1 1 1 0.19948212745983457 1 1 1 1 1 1 1 0.19848505638388875 1 1 1 1 1 1 1 1 1 1 1 1 1 1 1 1 1 1 1 0.22124859889072179 0.16455993196312962 1 1 0.20003052416069286 1 0.20019488195653729 1 1 1 1 1 1 1 1 1 1 1 1 1 1 1 1 1 1 1 1 1 1 1 1 1 1 1 1 1 1 1 1 1 1 1 1 1 1 1 1 1 1 1 1 1 1 1 1 1 1 1 1 1 1 1 0.21926234067676922 0.20089438928740774 1 1 1 1 1 1 1 1 1 1 1 1 1 1 1 1 1 1 1 1 0.20041603135516381 1 1 1 1 1 1 1 1 1 1 0.20012549605086413 1 1 1 0.23071305783677726 1 1 1 1 1 1 0.20019838130148829 1 1 1 1 1 1 1 1 1 1 1 1 1 0.22893593027185843 1 1 1 1 1 1 0.21616675650997041 0.20004214786489413 1 0.22317096294735475 1 1 0.20008157822921863 1 1 1 0.22306836053944368 1 1 1 0.22292454764172714 1 1 1 1 1 0.19999699569543342 1 0.21500601739316338 1 1 1 1 0.19262671926746333 1 1 1 1 0.20998892465919608 1 0.20650091681154262 1 1 0.20007768709390961 0.20001258329228178 1 1 1 1 1 0.1998332208155959 1 1 1 1 1 0.19963724180580977 0.20418626786168281 0.20143148109113049 1 0.20357054500602201 1 0.20001989566281869 1 1 1 1 1 0.20052253886034729 1 1 1 1 1 1 1 1 0.19993910856555613 0.20105378168219068 1 1 0.20462041395806355 1 1 1 1 0.20068538013071002 1 1 0.19677156158985318 1 1 0.19963526332588216 1 1 1 1 1 1 1 1 1 0.19979519966372522 1 1 1 1 1 1 1 1 0.20021511010736462 1 1 1 1 1 1 1 1 1 0.19956522865170617 0.20523998349535089 1 1 1 1 1 1 1 1 1 1 1 1 1 1 1 1 1 1 1 1 1 1 1 1 1 1 1 1 1 1 1 1 1 1 1 0.20165191093945423 1 1 1 1 0.19993603786822933 1 1 1 1 1 1 1 1 1 1 1 1 1 1 1 1 0.19379279172626429 0.20952591454777289 1 1 1 1 1 1 1 1 1 0.20762025333804027 1 1 1 1 0.2032511035072182 1 1 0.202136915782299 1 1 1 1 1 1 1 1 1 1 1 1 1 0.20147954116486366 1 1 1 1 1 1 1 1 1 1 1 1 1 1 1 1 1 1 1 1 1 1 1 1 1 0.19974865267662806 1 1 1 1 1 0.20007970876973538 1 1 1 0.19841578704642349 1 1 1 0.20249628425973004 0.20299855312017451 1 1 1 1 1 1 1 1 1 1 1 1 1 1 0.19985460676864181 1 1 1 0.20526495190631069 1 1 1 1 0.20145547042475798 0.1998549209962926 1 1 1 1 1 1 1 1 1 1 1 1 1 1 1 1 1 1 1 1 1 1 1 0.20785891701969808 1 1 1 1 1 1 1 1 1 0.19715548701237709 1 1 1 1 0.20254583746111332 1 0.19968899095010148 1 1 1 1 0.20001783353069602 1 1 1 1 1 1 1 1 1 1 1 1 1 1 1 0.19959431186432547 1 1 0.19881761129293446 1 1 1 1 1 1 1 1 1 1 0.19212726087128718 0.1751018725427273 1 1 1 1 0.21350616386987434 1 1 1 0.21941418686337322 1 1 1 1 0.19989489484947626 0.19996229007942637 1 0.17453059706696239 1 0.16709329923174951 1 0.18906075187883845 1 1 0.20227117605838074 1 1 0.19026752593238314 1 1 0.20358335222998783 1 1 1 0.17652322595713629 1 1 0.20000003151971352 1 0.15409431968409337 1 0.20446832198902226 1 1 0.15773375256556313 1 1 1 1 1 1 1 1 1 1 1 1 1 0.2001378920114972 1 1 1 1 1 1 1 1 1 1 1 1 1 1 1 1 0.19304648555632498 0.18859810809135075 1 1 1 1 1 0.2005447110320433 1 1 1 1 0.2004561834710149 1 1 0.18401076471074751 1 1 1 1 0.2002904908310893 1 1 1 1 1 1 1 1 1 1 1 1 1 1 1 1 1 1 1 1 1 1 1 1 1 1 1 1 1 1 1 1 1 1 1 1 1 1 0.2003532931337223 1 1 1 1 1 1 1 1 1 1 1 1 1 0.22940393635355236 1 0.2007615661844048 1 1 1 1 0.20620489205109505 1 1 1 1 1 1 1 1 1 1 1 1 1 1 1 1 1 1 0.20339274844927341 1 0.2010327483240624 1 1 0.23116866877000297 1 1 1 0.2317235468315168 1 1 1 1 1 1 1 1 1 1 1 1 1 1 1 1 1 1 1 1 1 1 1 1 1 1 1 0.20031520091770275 1 1 0.20081805326760049 1 1 1 1 1 1 1 1 1 1 1 1 1 1 1 1 1 1 1 1 1 1 1 1 1 1 1 1 1 1 1 1 1 1 1 0.20046476013387826 1 0.20131263868047405 1 1 1 1 1 1 1 1 1 1 1 1 1 1 1 1 1 0.20018976607163777 0.19985290197936281 1 1 1 1 1 0.19947810425303653 1 1 1 1 0.19904868767846801 1 1 1 1 0.19963952137463079 1 1 1 1 1 1 1 1 1 1 1 1 1 1 1 1 1 1 0.19966313590772508 1 1 1 1 1 1 0.19833150204746527 1 1 0.19528653473991442 1 1 1 1 1 1 1 1 1 1 1 1 0.19951689911923057 1 1 0.19932925269526086 1 1 1 1 1 1 1 1 0.19982716779860055 1 1 1 1 1 1 0.19980726936081722 1 1 0.19937785278624867 1 1 1 1 1 1 1 1 1 1 1 1 1 1 1 1 1 1 1 1 1 1 1 1 1 1 1 1 1 1 1 1 1 1 1 1 0.20059917054572146 1 1 1 0.20131745802681866 1 1 0.20058832186820527 1 1 1 1 1 1 0.20021219988192979 1 1 1 1 1 0.20007367592772324 1 1 1 1 1 1 0.19952449262074257 1 1 1 1 0.20478982544067648 1 0.20366129867711155 1 1 0.20198518148103742 1 1 1 0.20071828748109716 1 1 1 1 1 1 1 1 1 1 1 1 1 0.19968909610475025 1 1 1 1 1 1 1 1 1 1 1 1 1 1 1 1 1 1 1 1 1 1 1 1 0.20000123087356209 1 0.20000665110269336 1 0.19702011627490085 1 0.19368060050215949 1 1 1 1 0.19989966877034568 1 1 1 1 0.19859552587881688 1 1 1 1 1 1 1 1 1 1 1 1 1 1 0.19582738196671326 1 1 1 0.19288361637065404 1 1 1 0.20043440694171502 1 1 0.2013721985684509 1 1 1 0.19991619505045502 1 1 1 1 0.20360178456345349 1 1 1 1 0.20244089268035276 1 1 1 1 1 1 1 1 1 1 0.21673452047335964 1 1 1 1 1 0.215408102953661 1 0.20000005009346508 1 1 1 1 1 0.20945235580756605 0.21276779011994301 1 1 0.19722439795756525 1 0.19999972693894003 1 1 0.20011724797986347 1 1 1 1 1 1 1 1 1 1 1 1 1 0.19030851147471889 1 1 1 1 1 0.21802621394773883 1 1 1 1 1 1 1 1 1 1 0.18329293930581428 1 0.17176178292533226 1 1 0.20512850278802286 1 1 0.19990205105689518 1 0.20496313016501447 1 0.18596620658611221 1 1 1 1 1 0.18770281103959202 0.18051054889774301 1 1 1 1 1 1 1 1 1 1 1 0.19999680924471883 1 1 1 1 1 0.19999294850533894 1 1 1 0.19963155177387595 1 0.20006241374796233 1 1 1 1 1 1 1 1 1 1 1 1 1 1 1 0.2000093104769558 1 1 1 1 0.20001997312610961 1 1 1 1 1 1 1 1 1 1 1 1 1 1 1 1 1 1 1 1 1 1 1 0.20001066264915382 1 1 0.20049983654888107 1 1 1 1 1 1 1 0.2013832550362806 1 1 0.22512817640855501 1 0.23328356213865628 1 1 1 1 1 1 1 1 1 0.20015615926299235 1 1 0.20049785531383243 1 1 1 0.20372051043361949 1 1 1 1 1 1 1 0.19981085070679225 1 1 1 1 0.20610473888448114 0.19916242667363648 1 1 1 1 1 1 1 1 1 0.1979822083529911 1 1 1 1 1 1 1 1 1 1 1 1 1 1 1 1 0.200670299397815 1 0.20002024129058443 1 1 1 0.20233950292296626 1 1 1 1 1 1 1 1 1 1 1 1 1 0.2000219852978499 1 1 1 1 1 0.19984879930764116 1 1 1 0.19999578064235984 0.19997391355678504 1 1 1 0.22465868699288832 1 1 0.20019199048644831 1 1 1 1 0.2139071804894016 0.19998422810685018 1 1 1 0.19393070095115431 1 1 0.19880235032721866 1 1 1 1 0.18561635987638758 1 0.18432530627512789 1 1 1 0.17388812231018788 1 1 1 1 1 1 1 1 1 1 1 1 1 1 1 1 1 1 1 1 1 0.20295158832695259 1 1 1 1 1 1 1 1 1 0.1994329086648938 1 1 1 0.20103764382628847 1 0.1984601937695725 1 1 1 1 1 1 1 1 1 1 1 0.19832702726387905 1 1 1 1 1 0.19195200259874901 1 1 1 1 1 0.22684522932008683 1 1 1 1 1 1 1 1 1 1 1 1 1 1 1 1 0.22676588759659203 1 1 1 1 1 1 1 1 1 0.22695326978489028 1 1 1 1 1 1 1 1 1 1 1 1 1 1 1 0.19972266480872652 1 1 1 1 1 1 1 1 1 1 1 1 1 1 1 1 1 1 1 1 1 1 1 1 1 1 1 1 1 0.20852250370515543 1 1 1 1 0.19651440873868506 1 0.20776283907329249 0.19996646499664641 1 1 1 1 1 1 0.20022526852271016 1 0.19849528876281342 1 1 1 0.20000997223234787 1 1 0.22666535101209578 1 1 1 1 1 1 0.20008079674421564 1 1 1 1 1 1 1 0.19980068231550679 1 1 1 1 0.19951306116384132 1 1 1 1 1 1 0.19979287463457526 1 1 1 1 1 1 1 1 1 1 1 1 0.1998805369659491 1 0.19987667958412028 1 1 1 1 1 1 1 0.19974355143734965 0.20028071558461719 1 1 1 1 1 1 1 1 0.20009352673951555 1 1 1 0.20255791584517852 1 1 0.20086667672043235 1 1 1 1 1 1 1 1 1 1 1 1 1 1 1 1 1 1 1 1 1 1 1 1 1 0.2000334710885649 1 1 0.20006559686611519 1 1 1 1 1 0.19997653568748638 1 1 0.19991963887486772 1 0.20645296196848734 1 1 1 0.19994175689510887 1 1 1 1 0.20418564899235228 1 1 0.20016618320917273 0.20005525393663603 1 1 1 1 1 0.20000543899487785 1 1 0.1998863401399682 1 1 1 1 1 0.19996452714071417 1 1 1 1 1 1 1 1 1 0.20001168792007135 1 1 1 1 0.20004279296788219 1 1 1 1 1 1 0.20578598628826406 1 0.20355559052794184 1 1 1 0.21451528121113014 1 0.16534599778484838 1 1 0.18389713950459324 1 0.20022577221528509 1 1 1 0.20010453295073316 1 1 1 1 1 1 1 1 1 1 1 1 1 0.17559539855879333 1 1 1 1 0.16782742711711937 1 1 1 1 1 1 0.20038106583486048 1 1 1 1 1 1 1 0.19975848894987011 1 1 1 1 1 1 0.19950505857367654 1 1 1 1 1 1 1 0.19958449844574586 1 1 0.20373839204679095 1 1 1 1 1 1 1 1 1 0.2003253528058411 0.20771526529703288 1 1 1 1 1 1 1 1 1 1 1 1 0.20005371657173895 1 1 1 1 1 1 1 0.20102672251216797 1 1 1 0.19973760630012827 1 0.20180772577704462 1 1 0.2003918625484522 1 1 1 1 1 0.21125518951884159 1 1 1 0.20012805018194452 1 1 1 1 0.20012842506354583 1 1 1 0.19986923119280695 1 1 1 1 1 1 1 0.19232641454254168 1 1 0.197252512505976 1 1 1 0.20006161959257684 1 1 1 0.20380545084427262 1 1 1 1 0.2040369066203174 1 1 1 0.1907443538535889 1 1 1 1 1 1 1 1 1 0.19439660765870451 1 1 1 1 1 1 1 1 1 0.19133572158699991 1 1 1 1 0.19552198714756475 1 1 0.18989836420946316 1 1 1 1 1 1 1 1 1 1 1 1 1 1 1 1 1 1 1 1 1 1 1 1 1 1 0.19792658960086543 1 1 1 1 1 1 1 1 1 1 1 0.19405160938512819 1 1 1 0.20203142537740246 1 1 1 1 1 1 0.20046055634135151 1 1 1 1 1 1 1 1 1 1 1 1 1 1 1 1 1 1 1 1 1 1 1 1 1 1 0.19820453493454365 1 0.20181353933648039 1 1 0.19894696965571726 0.20065347831874575 1 1 1 1 1 1 1 1 1 1 1 1 1 1 1 1 1 0.19916306885497609 1 1 1 1 1 1 1 1 1 1 1 1 1 1 1 1 1 1 1 1 1 1 1 1 1 1 1 1 1 1 1 1 1 1 1 1 1 1 1 1 1 1 1 1 1 1 1 1 1 1 1 1 1 1 1 1 1 1 1 1 1 0.20020415275358655 1 1 0.20055024382725065 1 1 1 1 0.20103281150130753 1 1 1 1 1 1 1 1 1 1 0.19999950899041505 1 0.16362765565146642 1 1 1 0.17586484035540462 1 1 1 0.20016315788314154 1 0.20043868251113223 1 1 1 0.19879477005997728 1 0.20009852100392034 1 0.19729286291831294 1 1 1 0.18547717530439423 1 1 1 1 0.20004480443218145 1 0.19554241305470069 1 1 1 1 1 0.20059971552539729 1 0.19997723274428697 0.22460209911763795 1 1 1 1 1 1 0.1913622601723623 1 1 1 0.19999265736524774 1 1 1 1 1 1 1 1 1 1 1 1 1 1 1 1 1 1 1 0.20001311379804304 1 1 1 0.18652147821996209 0.19994534863065605 1 1 1 1 1 0.20061490517927902 1 1 1 1 1 1 1 1 1 1 1 1 1 1 0.18983443852298501 1 1 0.17179148132684888 1 0.16425204761872647 1 1 1 0.19795135025919122 1 0.21530362477640042 1 1 0.18707667989640286 1 1 1 1 1 1 1 1 1 1 1 0.21577009642321529 1 1 1 1 1 1 1 1 1 1 0.17530072070380978 0.19996535377103311 1 1 1 1 1 1 1 0.20968269166877407 1 1 1 1 1 1 1 1 1 1 1 1 1 1 0.20328809514443721 1 1 1 1 1 1 1 1 1 1 0.20240138303775038 1 1 1 0.20703403249104271 1 0.21141999748864931 0.16530130500168594 1 1 1 1 1 1 1 1 0.24100460458014469 1 1 1 1 1 1 1 1 1 0.22725070678205428 1 0.17565967379460068 1 0.19967877531608644 1 1 1 1 1 1 1 1 0.20112941424574685 1 0.2037920178234639 1 1 1 1 1 1 0.17658498683148943 1 1 0.20285469428453587 1 0.18087602615559334 1 1 1 1 1 1 1 1 1 1 1 1 1 1 0.19031741219972889 1 1 1 1 1 1 1 1 1 1 0.1976606230331665 1 1 1 1 1 1 0.20031318687554034 1 1 1 1 1 1 1 1 1 1 1 1 1 1 1 1 1 1 1 1 1 1 1 1 1 0.20005499414022099 1 1 1 1 1 0.20018716126931169 1 1 1 1 1 1 1 1 1 1 1 0.19997378689953665 1 1 1 1 0.22370345117527857 1 1 1 1 1 0.22729700334102257 1 1 1 1 1 0.23170573305359732 1 1 0.23650781809724114 1 1 1 1 1 1 1 1 1 1 1 1 1 1 1 1 1 1 1 1 1 1 1 1 1 1 0.19987539536271778 1 1 0.1998754312384505 1 1 1 1 1 1 1 1 1 1 1 1 1 1 1 0.2002433773662779 1 1 1 1 1 1 1 1 1 0.20055656424181822 1 1 1 1 1 1 1 0.20039425036145786 1 1 1 1 1 0.19995822408690161 1 1 1 1 1 1 0.21990620693637655 1 1 1 1 0.21469199609454989 1 1 1 1 1 1 1 0.19998443718736492 1 1 0.20056932343297185 1 1 0.20052492007239034 1 1 1 1 0.20887826779621627 1 1 1 1 1 1 1 1 0.2038118345958892 1 1 0.19740807590224263 1 1 1 1 1 1 1 1 1 0.19856632802133672 1 1 1 1 1 0.20158188356032766 1 1 1 1 0.1991463060189699 1 1 1 0.20021735734528523 1 1 1 1 1 1 1 1 1 1 1 0.20000698856804694 0.20000717115694275 1 1 1 1 1 1 1 1 1 1 1 0.19514447051649877 1 1 1 1 1 0.20129007942007951 1 0.20856901486649879 0.19534050637711323 1 0.20001491827423831 0.18585108879569326 1 1 0.20003726171918335 1 1 1 1 1 1 0.21053195608238359 1 0.19988067391251291 0.19997105028264128 1 1 1 1 1 0.19988249055703147 1 1 1 1 1 1 1 1 0.20934366484249201 1 1 1 1 0.19934137554527098 1 1 1 1 1 0.19994466306161299 1 1 0.20015582776290183 1 1 1 1 1 1 1 0.19804705785249579 1 0.20061041711609007 1 1 1 1 1 1 1 0.20550240341651327 0.19971672293951456 1 1 1 1 1 1 1 0.19993023147141561 1 1 1 1 1 1 0.20172608686140489 1 1 1 1 1 1 1 1 1 1 1 1 1 1 0.19792160526637587 1 1 0.19931733666742205 1 1 1 1 0.20012474809917877 1 1 1 1 0.18218868305327635 1 1 1 1 1 1 0.17897331516536177 1 1 1 1 1 1 1 0.20001592616886188 1 1 1 0.21080415054830193 1 1 1 1 0.17593096173146655 1 1 0.21231752683657068 1 1 1 1 1 1 1 0.17978760746907768 1 1 1 1 0.18097850139059135 1 0.20015759077676662 1 1 1 1 1 1 1 1 1 1 1 1 1 1 0.20471131763433098 1 1 1 1 1 1 1 0.20842204747156942 1 1 0.19767063375441243 1 1 0.1999899212370212 1 1 1 1 1 1 1 1 1 0.19439946970243521 1 1 1 0.19607174945104783 1 1 1 1 1 1 1 1 1 0.19774975283027929 1 1 1 1 1 1 1 1 1 1 1 0.20039231148602973 1 1 1 0.19929533934420993 1 1 1 1 1 1 1 1 1 1 1 0.20098964253597085 1 1 1 1 1 1 1 1 1 1 0.20130359360405015 1 1 1 1 1 0.19525877118753199 1 1 1 1 1 1 1 1 0.20014855157507014 1 1 0.19160880942205374 1 1 0.19347083822930866 1 1 1 1 0.18974521750560588 0.19988973141924904 1 1 1 1 0.21153501144099116 1 1 1 1 0.19991120558942052 1 1 0.19996393349908687 1 1 1 1 0.21094181869712775 1 1 0.21219841564548156 1 1 1 1 1 0.21342933024631505 1 1 1 1 1 1 1 1 0.21251670711778409 1 0.19999383443427732 1 1 1 1 1 1 1 1 1 0.19720404859577287 0.21440135202134197 1 1 1 1 1 1 0.2097174641294732 1 1 0.18851844862758291 1 1 0.18939736620098468 1 0.19999337715441878 1 1 1 0.19511717195581402 1 1 0.1999528669367715 1 1 1 1 1 1 1 1 0.19576801407532035 0.19683084152324168 1 1 0.20901395455865254 0.20085713268809935 1 1 1 1 0.20351501882172823 1 1 1 0.20863607769956949 1 0.19499778369475104 1 0.19514594577435268 0.21025378557098046 0.20579487495021359 1 0.19493514590101552 1 1 1 0.19985797140139075 1 1 1 1 1 1 1 1 1 0.21063218488653512 1 1 0.21252987588953159 1 1 1 1 1 1 0.18390995242035416 1 1 1 1 1 1 0.19999635991394593 0.19992892741830182 0.18820105518745384 1 1 1 1 1 1 1 1 1 1 1 0.15187829852373003 1 1 1 1 0.21441779666026534 1 1 1 1 1 1 1 1 0.23342668579937051 1 1 0.16474343509588557 1 1 1 0.19937343127255802 1 1 1 1 1 1 1 1 1 0.19977021111010784 1 1 1 1 1 1 1 1 0.2396890991593966 1 1 1 0.24440985337792195 1 1 0.15843808934391443 1 1 1 0.19942648087779333 1 0.16686488389466478 1 1 0.21266066800737959 1 0.20642136204181838 1 1 0.19787503563422562 1 1 1 1 1 1 0.17248238820956502 1 1 0.19391196095716925 1 1 1 1 1 1 1 1 1 1 1 1 1 1 1 1 1 1 1 1 1 1 1 1 1 1 1 1 1 1 1 1 1 1 1 1 1 1 1 1 1 1 1 1 1 1 1 1 1 1 1 1 1 1 1 1 1 1 1 1 1 1 1 1 1 1 1 1 1 1 1 1 1 1 1 1 1 1 1 1 1 1 1 1 1 1 1 1 1 1 1 1 1 1 1 1 0.20018426663478395 1 1 1 1 0.23394517797947439 1 1 1 1 1 1 1 1 1 1 1 1 0.20061060880360282 0.23857032600204298 1 1 1 1 1 1 1 1 1 1 1 1 1 1 1 0.20075524680063356 1 1 1 0.2083383157355147 1 1 1 1 1 1 1 1 1 1 0.22882954991159626 1 0.22137078991973291 1 1 1 1 1 1 1 1 1 1 1 1 1 1 1 1 1 1 1 1 1 1 1 1 0.20230747495170714 1 1 1 1 0.20671209514062358 1 1 1 1 1 1 1 1 0.20042401384313135 1 1 1 1 1 1 1 1 1 1 1 1 1 1 1 1 1 1 1 1 1 1 1 1 1 1 1 1 1 1 1 1 1 1 1 1 1 1 1 1 1 1 1 1 1 1 1 1 1 0.1999957988021675 1 1 1 1 1 1 1 1 1 1 1 1 1 1 1 1 1 1 1 1 1 1 1 1 1 1 1 1 1 1 1 1 0.18712330863487386 1 1 1 1 1 1 0.19153083673304275 1 1 1 1 1 1 0.20026301399325097 1 1 0.19915933266187241 1 0.20088823533644623 1 0.19734933678621211 1 1 1 1 0.19977872661150148 1 1 1 1 1 0.19992968445020348 1 1 1 0.21691382744853521 0.20001038890941203 1 1 1 0.19594092700959162 1 1 1 1 0.20224168485680644 0.21741059555068104 1 1 1 1 1 1 1 1 1 1 1 1 1 1 0.19990555437561885 1 1 0.18783869971692116 1 1 0.19998113745089099 0.19367200021484379 1 1 1 1 1 1 1 1 1 1 0.18881152484931676 1 0.19599653687114754 1 1 1 1 1 1 1 1 1 1 1 0.2034644084276076 1 1 1 1 1 1 1 0.20774120312118685 1 1 1 1 1 1 1 1 1 1 1 1 1 1 1 1 1 1 0.21208984210708917 0.21088265237297713 1 1 1 1 1 1 1 1 1 1 1 1 1 1 1 1 1 0.2034314537430981 1 1 1 1 1 1 1 1 1 0.2007004018480186 1 1 1 1 1 1 1 1 1 1 1 1 0.21551960217735852 1 1 1 1 0.19428024411691697 1 0.21840736990679724 1 1 1 1 1 1 1 1 1 0.20698467213733679 1 1 1 1 0.20612124420788291 1 1 1 1 0.20261024827114879 1 0.20910299285735751 1 1 1 1 1 1 1 1 1 1 1 1 0.19981986809223157 1 1 1 1 1 1 1 1 1 1 1 1 1 1 1 0.1996586476003831 1 0.22053896604625614 1 1 0.20192990011835316 1 1 1 0.1999949452112238 1 0.19268388553161908 1 1 0.16640047500419813 1 1 0.20001025380513685 1 0.21934403442132203 1 1 1 1 1 1 1 0.18154905869129553 0.18532606489200476 1 1 1 1 0.20244851798371055 0.24136601951277062 1 1 0.16135206602887711 0.1672329323381081 1 0.20082940221682938 1 1 0.20002938392300254 0.19723105685176776 1 1 0.17880733473251978 1 1 0.189784725560359 1 1 1 1 1 1 1 1 0.23154482999693718 1 1 0.2245027449188787 1 0.21670715137644619 1 1 1 0.20366639103958151 1 1 1 1 1 1 1 1 0.20047400412088204 1 1 1 1 1 1 1 1 1 1 1 1 1 1 1 1 1 1 1 1 1 1 0.20063243743465947 1 1 1 1 1 1 1 1 1 1 1 1 1 1 1 1 1 1 
</DataArray>
</CellData>
</Piece>
</UnstructuredGrid>
</VTKFile>
